LAMMPS (29 Sep 2021)
OMP_NUM_THREADS environment is not set. Defaulting to 1 thread. (src/comm.cpp:98)
  using 1 OpenMP thread(s) per MPI task
# Input file for Stack Fault Energy surface of Nickel
# Richard Glaze, 2014
# --------------------- INITIALIZAITION ---------------------
clear
OMP_NUM_THREADS environment is not set. Defaulting to 1 thread. (src/comm.cpp:98)
  using 1 OpenMP thread(s) per MPI task
units		metal
dimension	3
boundary	p p s
atom_style	atomic

read_data 	../data111_use1.dat
Reading data file ...
  orthogonal box = (0.0000000 0.0000000 -0.0037381121) to (44.054073 25.434631 35.308130)
  1 by 1 by 1 MPI processor grid
  reading atoms ...
  3600 atoms
  read_data CPU = 0.008 seconds
#variable x_displace equal -1*(${latparam1}/sqrt(6))
variable zcut equal 17.4363
variable xdim equal 43.5152
variable ydim equal 25.1235

# --------------------- ATOM DEFINITION ---------------------

region		1 block -.001 INF -.001 INF -.001 ${zcut} units box
region		1 block -.001 INF -.001 INF -.001 17.4363 units box
region 	2 block -.001 INF -.001 INF ${zcut} INF units box
region 	2 block -.001 INF -.001 INF 17.4363 INF units box

region		whole block INF INF INF INF INF INF units box


# --------------------- FORCE FIELDS ---------------------
pair_style meam/c
pair_coeff	* * ../library.meam Co Ni Cr Fe Mn ../CoNiCrFeMn.meam Mn Cr Co Fe Ni

# --------------------- SETTINGS ---------------------

compute peratom all pe/atom
compute eatoms all reduce sum c_peratom
compute csym all centro/atom fcc

min_style cg
minimize 1e-10 1e-10 10000 100000
WARNING: Using 'neigh_modify every 1 delay 0 check yes' setting during minimization (src/min.cpp:188)
Neighbor list info ...
  update every 1 steps, delay 0 steps, check yes
  max neighbors/atom: 2000, page size: 100000
  master list distance cutoff = 6.5
  ghost atom cutoff = 6.5
  binsize = 3.25, bins = 14 8 11
  3 neighbor lists, perpetual/occasional/extra = 2 1 0
  (1) pair meam/c, perpetual
      attributes: full, newton on
      pair build: full/bin/atomonly
      stencil: full/bin/3d
      bin: standard
  (2) pair meam/c, perpetual, half/full from (1)
      attributes: half, newton on
      pair build: halffull/newton
      stencil: none
      bin: none
  (3) compute centro/atom, occasional, copy from (1)
      attributes: full, newton on
      pair build: copy
      stencil: none
      bin: none
Per MPI rank memory allocation (min/avg/max) = 15.41 | 15.41 | 15.41 Mbytes
Step Temp E_pair E_mol TotEng Press Volume 
       0            0   -15253.014            0   -15253.014   -63866.832    39566.452 
      54            0   -15289.157            0   -15289.157   -25869.391    39566.452 
Loop time of 10.2016 on 1 procs for 54 steps with 3600 atoms

100.0% CPU use with 1 MPI tasks x 1 OpenMP threads

Minimization stats:
  Stopping criterion = energy tolerance
  Energy initial, next-to-last, final = 
     -15253.0144588191  -15289.1570676872  -15289.1570680632
  Force two-norm initial, final = 18.961017 0.062591174
  Force max component initial, final = 0.88129914 0.035296011
  Final line search alpha, max atom move = 1.0000000 0.035296011
  Iterations, force evaluations = 54 148

MPI task timing breakdown:
Section |  min time  |  avg time  |  max time  |%varavg| %total
---------------------------------------------------------------
Pair    | 10.191     | 10.191     | 10.191     |   0.0 | 99.90
Neigh   | 0          | 0          | 0          |   0.0 |  0.00
Comm    | 0.0027583  | 0.0027583  | 0.0027583  |   0.0 |  0.03
Output  | 0          | 0          | 0          |   0.0 |  0.00
Modify  | 0          | 0          | 0          |   0.0 |  0.00
Other   |            | 0.007779   |            |       |  0.08

Nlocal:        3600.00 ave        3600 max        3600 min
Histogram: 1 0 0 0 0 0 0 0 0 0
Nghost:        3558.00 ave        3558 max        3558 min
Histogram: 1 0 0 0 0 0 0 0 0 0
Neighs:        145200.0 ave      145200 max      145200 min
Histogram: 1 0 0 0 0 0 0 0 0 0
FullNghs:      290400.0 ave      290400 max      290400 min
Histogram: 1 0 0 0 0 0 0 0 0 0

Total # of neighbors = 290400
Ave neighs/atom = 80.666667
Neighbor list builds = 0
Dangerous builds = 0

thermo 1
thermo_style custom step pe c_eatoms
#dump 1 all custom 1 dump.relax id type xs ys zs c_peratom c_csym
run 0
WARNING: No fixes defined, atoms won't move (src/verlet.cpp:55)
Per MPI rank memory allocation (min/avg/max) = 14.29 | 14.29 | 14.29 Mbytes
Step PotEng c_eatoms 
      54   -15289.157   -15289.157 
Loop time of 8.3e-07 on 1 procs for 0 steps with 3600 atoms

241.0% CPU use with 1 MPI tasks x 1 OpenMP threads

MPI task timing breakdown:
Section |  min time  |  avg time  |  max time  |%varavg| %total
---------------------------------------------------------------
Pair    | 0          | 0          | 0          |   0.0 |  0.00
Neigh   | 0          | 0          | 0          |   0.0 |  0.00
Comm    | 0          | 0          | 0          |   0.0 |  0.00
Output  | 0          | 0          | 0          |   0.0 |  0.00
Modify  | 0          | 0          | 0          |   0.0 |  0.00
Other   |            | 8.3e-07    |            |       |100.00

Nlocal:        3600.00 ave        3600 max        3600 min
Histogram: 1 0 0 0 0 0 0 0 0 0
Nghost:        3558.00 ave        3558 max        3558 min
Histogram: 1 0 0 0 0 0 0 0 0 0
Neighs:        145278.0 ave      145278 max      145278 min
Histogram: 1 0 0 0 0 0 0 0 0 0
FullNghs:      290556.0 ave      290556 max      290556 min
Histogram: 1 0 0 0 0 0 0 0 0 0

Total # of neighbors = 290556
Ave neighs/atom = 80.710000
Neighbor list builds = 0
Dangerous builds = 0

#this command creates a model of the script before the displacement and minimization occur


variable E equal "c_eatoms"
variable Eo equal $E
variable Eo equal -15289.1570680632

#undump 1

#variable E equal "c_eatoms" computes the initial energy of the model before any sliding is done
#E is necessary to store the initial energy in Eo

group bot region 1
1800 atoms in group bot
group top region 2
1800 atoms in group top


reset_timestep 0
timestep 1

fix 1 top move linear -0.01 0.0 0.0 units box

#dump 2 all custom 1 dump2.relax id type xs ys zs c_peratom c_csym

#displace_atoms top move ${x_displace} 0.0 0.0 units box
#displace_atoms is the command neccessary to move atoms into the next stacking arrangement (ie: A -> B)

#fix 2 all setforce 0 0 NULL


thermo 1
thermo_style custom step pe ke c_eatoms

run 500
Per MPI rank memory allocation (min/avg/max) = 14.79 | 14.79 | 14.79 Mbytes
Step PotEng KinEng c_eatoms 
       0   -15289.157            0   -15289.157 
       1   -15289.145 0.00053498834   -15289.145 
       2   -15289.111 0.00053498834   -15289.111 
       3   -15289.054 0.00053498834   -15289.054 
       4   -15288.975 0.00053498834   -15288.975 
       5   -15288.875 0.00053498834   -15288.875 
       6   -15288.753 0.00053498834   -15288.753 
       7   -15288.611 0.00053498834   -15288.611 
       8   -15288.448 0.00053498834   -15288.448 
       9   -15288.266 0.00053498834   -15288.266 
      10   -15288.065 0.00053498834   -15288.065 
      11   -15287.844 0.00053498834   -15287.844 
      12   -15287.605 0.00053498834   -15287.605 
      13   -15287.348 0.00053498834   -15287.348 
      14   -15287.073 0.00053498834   -15287.073 
      15   -15286.781 0.00053498834   -15286.781 
      16   -15286.471 0.00053498834   -15286.471 
      17   -15286.144 0.00053498834   -15286.144 
      18   -15285.801 0.00053498834   -15285.801 
      19   -15285.441 0.00053498834   -15285.441 
      20   -15285.064 0.00053498834   -15285.064 
      21   -15284.671 0.00053498834   -15284.671 
      22   -15284.262 0.00053498834   -15284.262 
      23   -15283.837 0.00053498834   -15283.837 
      24   -15283.395 0.00053498834   -15283.395 
      25   -15282.938 0.00053498834   -15282.938 
      26   -15282.465 0.00053498834   -15282.465 
      27   -15281.977 0.00053498834   -15281.977 
      28   -15281.474 0.00053498834   -15281.474 
      29   -15280.957 0.00053498834   -15280.957 
      30   -15280.426 0.00053498834   -15280.426 
      31   -15279.883 0.00053498834   -15279.883 
      32   -15279.329 0.00053498834   -15279.329 
      33   -15278.764 0.00053498834   -15278.764 
      34   -15278.191 0.00053498834   -15278.191 
      35   -15277.609 0.00053498834   -15277.609 
      36   -15277.021 0.00053498834   -15277.021 
      37   -15276.428 0.00053498834   -15276.428 
      38   -15275.831 0.00053498834   -15275.831 
      39   -15275.231 0.00053498834   -15275.231 
      40    -15274.63 0.00053498834    -15274.63 
      41   -15274.029 0.00053498834   -15274.029 
      42   -15273.431 0.00053498834   -15273.431 
      43   -15272.836 0.00053498834   -15272.836 
      44   -15272.249 0.00053498834   -15272.249 
      45    -15271.67 0.00053498834    -15271.67 
      46   -15271.102 0.00053498834   -15271.102 
      47   -15270.548 0.00053498834   -15270.548 
      48    -15270.01 0.00053498834    -15270.01 
      49    -15269.49 0.00053498834    -15269.49 
      50   -15268.987 0.00053498834   -15268.987 
      51   -15268.502 0.00053498834   -15268.502 
      52   -15268.033 0.00053498834   -15268.033 
      53   -15267.581 0.00053498834   -15267.581 
      54   -15267.147 0.00053498834   -15267.147 
      55   -15266.731 0.00053498834   -15266.731 
      56   -15266.333 0.00053498834   -15266.333 
      57   -15265.957 0.00053498834   -15265.957 
      58   -15265.602 0.00053498834   -15265.602 
      59   -15265.268 0.00053498834   -15265.268 
      60   -15264.955 0.00053498834   -15264.955 
      61   -15264.663 0.00053498834   -15264.663 
      62   -15264.392 0.00053498834   -15264.392 
      63   -15264.142 0.00053498834   -15264.142 
      64   -15263.913 0.00053498834   -15263.913 
      65   -15263.705 0.00053498834   -15263.705 
      66   -15263.521 0.00053498834   -15263.521 
      67   -15263.359 0.00053498834   -15263.359 
      68    -15263.22 0.00053498834    -15263.22 
      69   -15263.105 0.00053498834   -15263.105 
      70   -15263.015 0.00053498834   -15263.015 
      71   -15262.948 0.00053498834   -15262.948 
      72   -15262.907 0.00053498834   -15262.907 
      73    -15262.89 0.00053498834    -15262.89 
      74   -15262.898 0.00053498834   -15262.898 
      75   -15262.931 0.00053498834   -15262.931 
      76   -15262.988 0.00053498834   -15262.988 
      77    -15263.07 0.00053498834    -15263.07 
      78   -15263.177 0.00053498834   -15263.177 
      79   -15263.308 0.00053498834   -15263.308 
      80   -15263.462 0.00053498834   -15263.462 
      81    -15263.64 0.00053498834    -15263.64 
      82   -15263.841 0.00053498834   -15263.841 
      83   -15264.064 0.00053498834   -15264.064 
      84   -15264.309 0.00053498834   -15264.309 
      85   -15264.575 0.00053498834   -15264.575 
      86   -15264.862 0.00053498834   -15264.862 
      87   -15265.169 0.00053498834   -15265.169 
      88   -15265.496 0.00053498834   -15265.496 
      89   -15265.842 0.00053498834   -15265.842 
      90   -15266.207 0.00053498834   -15266.207 
      91   -15266.593 0.00053498834   -15266.593 
      92   -15266.999 0.00053498834   -15266.999 
      93   -15267.424 0.00053498834   -15267.424 
      94   -15267.867 0.00053498834   -15267.867 
      95   -15268.331 0.00053498834   -15268.331 
      96   -15268.816 0.00053498834   -15268.816 
      97   -15269.319 0.00053498834   -15269.319 
      98   -15269.839 0.00053498834   -15269.839 
      99   -15270.376 0.00053498834   -15270.376 
     100   -15270.926 0.00053498834   -15270.926 
     101    -15271.49 0.00053498834    -15271.49 
     102   -15272.066 0.00053498834   -15272.066 
     103   -15272.654 0.00053498834   -15272.654 
     104   -15273.253 0.00053498834   -15273.253 
     105   -15273.859 0.00053498834   -15273.859 
     106   -15274.471 0.00053498834   -15274.471 
     107   -15275.085 0.00053498834   -15275.085 
     108   -15275.699 0.00053498834   -15275.699 
     109   -15276.311 0.00053498834   -15276.311 
     110   -15276.917 0.00053498834   -15276.917 
     111   -15277.517 0.00053498834   -15277.517 
     112   -15278.108 0.00053498834   -15278.108 
     113   -15278.688 0.00053498834   -15278.688 
     114   -15279.257 0.00053498834   -15279.257 
     115   -15279.814 0.00053498834   -15279.814 
     116   -15280.357 0.00053498834   -15280.357 
     117   -15280.886 0.00053498834   -15280.886 
     118   -15281.401 0.00053498834   -15281.401 
     119   -15281.902 0.00053498834   -15281.902 
     120   -15282.388 0.00053498834   -15282.388 
     121   -15282.859 0.00053498834   -15282.859 
     122   -15283.314 0.00053498834   -15283.314 
     123   -15283.754 0.00053498834   -15283.754 
     124   -15284.179 0.00053498834   -15284.179 
     125   -15284.588 0.00053498834   -15284.588 
     126   -15284.981 0.00053498834   -15284.981 
     127   -15285.359 0.00053498834   -15285.359 
     128    -15285.72 0.00053498834    -15285.72 
     129   -15286.065 0.00053498834   -15286.065 
     130   -15286.393 0.00053498834   -15286.393 
     131   -15286.705 0.00053498834   -15286.705 
     132       -15287 0.00053498834       -15287 
     133   -15287.278 0.00053498834   -15287.278 
     134   -15287.538 0.00053498834   -15287.538 
     135    -15287.78 0.00053498834    -15287.78 
     136   -15288.004 0.00053498834   -15288.004 
     137   -15288.209 0.00053498834   -15288.209 
     138   -15288.395 0.00053498834   -15288.395 
     139   -15288.562 0.00053498834   -15288.562 
     140   -15288.708 0.00053498834   -15288.708 
     141   -15288.834 0.00053498834   -15288.834 
     142    -15288.94 0.00053498834    -15288.94 
     143   -15289.024 0.00053498834   -15289.024 
     144   -15289.086 0.00053498834   -15289.086 
     145   -15289.126 0.00053498834   -15289.126 
     146   -15289.144 0.00053498834   -15289.144 
     147   -15289.138 0.00053498834   -15289.138 
     148   -15289.109 0.00053498834   -15289.109 
     149   -15289.056 0.00053498834   -15289.056 
     150   -15288.979 0.00053498834   -15288.979 
     151   -15288.877 0.00053498834   -15288.877 
     152    -15288.75 0.00053498834    -15288.75 
     153   -15288.597 0.00053498834   -15288.597 
     154   -15288.419 0.00053498834   -15288.419 
     155   -15288.214 0.00053498834   -15288.214 
     156   -15287.983 0.00053498834   -15287.983 
     157   -15287.725 0.00053498834   -15287.725 
     158    -15287.44 0.00053498834    -15287.44 
     159   -15287.127 0.00053498834   -15287.127 
     160   -15286.786 0.00053498834   -15286.786 
     161   -15286.417 0.00053498834   -15286.417 
     162   -15286.019 0.00053498834   -15286.019 
     163   -15285.592 0.00053498834   -15285.592 
     164   -15285.135 0.00053498834   -15285.135 
     165   -15284.648 0.00053498834   -15284.648 
     166   -15284.131 0.00053498834   -15284.131 
     167   -15283.582 0.00053498834   -15283.582 
     168   -15283.002 0.00053498834   -15283.002 
     169    -15282.39 0.00053498834    -15282.39 
     170   -15281.745 0.00053498834   -15281.745 
     171   -15281.066 0.00053498834   -15281.066 
     172   -15280.354 0.00053498834   -15280.354 
     173   -15279.608 0.00053498834   -15279.608 
     174   -15278.827 0.00053498834   -15278.827 
     175   -15278.009 0.00053498834   -15278.009 
     176   -15277.156 0.00053498834   -15277.156 
     177   -15276.265 0.00053498834   -15276.265 
     178   -15275.336 0.00053498834   -15275.336 
     179   -15274.369 0.00053498834   -15274.369 
     180   -15273.363 0.00053498834   -15273.363 
     181   -15272.316 0.00053498834   -15272.316 
     182   -15271.228 0.00053498834   -15271.228 
     183   -15270.099 0.00053498834   -15270.099 
     184   -15268.928 0.00053498834   -15268.928 
     185   -15267.714 0.00053498834   -15267.714 
     186   -15266.457 0.00053498834   -15266.457 
     187   -15265.156 0.00053498834   -15265.156 
     188    -15263.81 0.00053498834    -15263.81 
     189   -15262.421 0.00053498834   -15262.421 
     190   -15260.987 0.00053498834   -15260.987 
     191   -15259.509 0.00053498834   -15259.509 
     192   -15257.987 0.00053498834   -15257.987 
     193   -15256.423 0.00053498834   -15256.423 
     194   -15254.818 0.00053498834   -15254.818 
     195   -15253.172 0.00053498834   -15253.172 
     196   -15251.488 0.00053498834   -15251.488 
     197   -15249.767 0.00053498834   -15249.767 
     198   -15248.014 0.00053498834   -15248.014 
     199    -15246.23 0.00053498834    -15246.23 
     200   -15244.418 0.00053498834   -15244.418 
     201   -15242.583 0.00053498834   -15242.583 
     202   -15240.729 0.00053498834   -15240.729 
     203   -15238.859 0.00053498834   -15238.859 
     204   -15236.978 0.00053498834   -15236.978 
     205   -15235.089 0.00053498834   -15235.089 
     206   -15233.187 0.00053498834   -15233.187 
     207   -15231.272 0.00053498834   -15231.272 
     208   -15229.344 0.00053498834   -15229.344 
     209   -15227.402 0.00053498834   -15227.402 
     210   -15225.442 0.00053498834   -15225.442 
     211   -15223.466 0.00053498834   -15223.466 
     212   -15221.474 0.00053498834   -15221.474 
     213   -15219.471 0.00053498834   -15219.471 
     214   -15217.456 0.00053498834   -15217.456 
     215   -15215.431 0.00053498834   -15215.431 
     216   -15213.401 0.00053498834   -15213.401 
     217   -15211.361 0.00053498834   -15211.361 
     218   -15209.309 0.00053498834   -15209.309 
     219   -15207.241 0.00053498834   -15207.241 
     220   -15205.155 0.00053498834   -15205.155 
     221   -15203.053 0.00053498834   -15203.053 
     222   -15200.935 0.00053498834   -15200.935 
     223   -15198.803 0.00053498834   -15198.803 
     224   -15196.657 0.00053498834   -15196.657 
     225     -15194.5 0.00053498834     -15194.5 
     226   -15192.332 0.00053498834   -15192.332 
     227   -15190.155 0.00053498834   -15190.155 
     228    -15187.97 0.00053498834    -15187.97 
     229   -15185.778 0.00053498834   -15185.778 
     230   -15183.581 0.00053498834   -15183.581 
     231    -15181.38 0.00053498834    -15181.38 
     232   -15179.177 0.00053498834   -15179.177 
     233   -15176.973 0.00053498834   -15176.973 
     234   -15174.769 0.00053498834   -15174.769 
     235   -15172.568 0.00053498834   -15172.568 
     236    -15170.37 0.00053498834    -15170.37 
     237   -15168.177 0.00053498834   -15168.177 
     238    -15165.99 0.00053498834    -15165.99 
     239   -15163.812 0.00053498834   -15163.812 
     240   -15161.643 0.00053498834   -15161.643 
     241   -15159.485 0.00053498834   -15159.485 
     242   -15157.339 0.00053498834   -15157.339 
     243   -15155.207 0.00053498834   -15155.207 
     244   -15153.091 0.00053498834   -15153.091 
     245   -15150.991 0.00053498834   -15150.991 
     246   -15148.909 0.00053498834   -15148.909 
     247   -15146.847 0.00053498834   -15146.847 
     248   -15144.805 0.00053498834   -15144.805 
     249   -15142.786 0.00053498834   -15142.786 
     250    -15140.79 0.00053498834    -15140.79 
     251   -15138.818 0.00053498834   -15138.818 
     252   -15136.873 0.00053498834   -15136.873 
     253   -15134.955 0.00053498834   -15134.955 
     254   -15133.065 0.00053498834   -15133.065 
     255   -15131.205 0.00053498834   -15131.205 
     256   -15129.376 0.00053498834   -15129.376 
     257   -15127.579 0.00053498834   -15127.579 
     258   -15125.815 0.00053498834   -15125.815 
     259   -15124.084 0.00053498834   -15124.084 
     260   -15122.388 0.00053498834   -15122.388 
     261   -15120.729 0.00053498834   -15120.729 
     262   -15119.106 0.00053498834   -15119.106 
     263   -15117.521 0.00053498834   -15117.521 
     264   -15115.975 0.00053498834   -15115.975 
     265   -15114.469 0.00053498834   -15114.469 
     266   -15113.004 0.00053498834   -15113.004 
     267    -15111.58 0.00053498834    -15111.58 
     268     -15110.2 0.00053498834     -15110.2 
     269   -15108.863 0.00053498834   -15108.863 
     270   -15107.571 0.00053498834   -15107.571 
     271   -15106.325 0.00053498834   -15106.325 
     272   -15105.125 0.00053498834   -15105.125 
     273   -15103.972 0.00053498834   -15103.972 
     274   -15102.867 0.00053498834   -15102.867 
     275   -15101.812 0.00053498834   -15101.812 
     276   -15100.806 0.00053498834   -15100.806 
     277    -15099.85 0.00053498834    -15099.85 
     278   -15098.946 0.00053498834   -15098.946 
     279   -15098.094 0.00053498834   -15098.094 
     280   -15097.294 0.00053498834   -15097.294 
     281   -15096.548 0.00053498834   -15096.548 
     282   -15095.856 0.00053498834   -15095.856 
     283   -15095.218 0.00053498834   -15095.218 
     284   -15094.634 0.00053498834   -15094.634 
     285   -15094.106 0.00053498834   -15094.106 
     286   -15093.634 0.00053498834   -15093.634 
     287   -15093.218 0.00053498834   -15093.218 
     288   -15092.858 0.00053498834   -15092.858 
     289   -15092.555 0.00053498834   -15092.555 
     290   -15092.309 0.00053498834   -15092.309 
     291   -15092.119 0.00053498834   -15092.119 
     292   -15091.987 0.00053498834   -15091.987 
     293   -15091.912 0.00053498834   -15091.912 
     294   -15091.895 0.00053498834   -15091.895 
     295   -15091.935 0.00053498834   -15091.935 
     296   -15092.032 0.00053498834   -15092.032 
     297   -15092.186 0.00053498834   -15092.186 
     298   -15092.398 0.00053498834   -15092.398 
     299   -15092.666 0.00053498834   -15092.666 
     300   -15092.992 0.00053498834   -15092.992 
     301   -15093.374 0.00053498834   -15093.374 
     302   -15093.812 0.00053498834   -15093.812 
     303   -15094.306 0.00053498834   -15094.306 
     304   -15094.855 0.00053498834   -15094.855 
     305    -15095.46 0.00053498834    -15095.46 
     306   -15096.119 0.00053498834   -15096.119 
     307   -15096.833 0.00053498834   -15096.833 
     308     -15097.6 0.00053498834     -15097.6 
     309   -15098.421 0.00053498834   -15098.421 
     310   -15099.294 0.00053498834   -15099.294 
     311   -15100.218 0.00053498834   -15100.218 
     312   -15101.194 0.00053498834   -15101.194 
     313    -15102.22 0.00053498834    -15102.22 
     314   -15103.295 0.00053498834   -15103.295 
     315   -15104.419 0.00053498834   -15104.419 
     316   -15105.591 0.00053498834   -15105.591 
     317    -15106.81 0.00053498834    -15106.81 
     318   -15108.075 0.00053498834   -15108.075 
     319   -15109.385 0.00053498834   -15109.385 
     320    -15110.74 0.00053498834    -15110.74 
     321   -15112.139 0.00053498834   -15112.139 
     322    -15113.58 0.00053498834    -15113.58 
     323   -15115.065 0.00053498834   -15115.065 
     324   -15116.591 0.00053498834   -15116.591 
     325   -15118.159 0.00053498834   -15118.159 
     326   -15119.767 0.00053498834   -15119.767 
     327   -15121.416 0.00053498834   -15121.416 
     328   -15123.103 0.00053498834   -15123.103 
     329   -15124.828 0.00053498834   -15124.828 
     330   -15126.591 0.00053498834   -15126.591 
     331   -15128.389 0.00053498834   -15128.389 
     332   -15130.223 0.00053498834   -15130.223 
     333    -15132.09 0.00053498834    -15132.09 
     334    -15133.99 0.00053498834    -15133.99 
     335   -15135.922 0.00053498834   -15135.922 
     336   -15137.884 0.00053498834   -15137.884 
     337   -15139.875 0.00053498834   -15139.875 
     338   -15141.893 0.00053498834   -15141.893 
     339   -15143.937 0.00053498834   -15143.937 
     340   -15146.007 0.00053498834   -15146.007 
     341   -15148.099 0.00053498834   -15148.099 
     342   -15150.213 0.00053498834   -15150.213 
     343   -15152.347 0.00053498834   -15152.347 
     344     -15154.5 0.00053498834     -15154.5 
     345    -15156.67 0.00053498834    -15156.67 
     346   -15158.856 0.00053498834   -15158.856 
     347   -15161.055 0.00053498834   -15161.055 
     348   -15163.267 0.00053498834   -15163.267 
     349    -15165.49 0.00053498834    -15165.49 
     350   -15167.721 0.00053498834   -15167.721 
     351    -15169.96 0.00053498834    -15169.96 
     352   -15172.205 0.00053498834   -15172.205 
     353   -15174.454 0.00053498834   -15174.454 
     354   -15176.705 0.00053498834   -15176.705 
     355   -15178.958 0.00053498834   -15178.958 
     356    -15181.21 0.00053498834    -15181.21 
     357    -15183.46 0.00053498834    -15183.46 
     358   -15185.706 0.00053498834   -15185.706 
     359   -15187.947 0.00053498834   -15187.947 
     360   -15190.182 0.00053498834   -15190.182 
     361   -15192.409 0.00053498834   -15192.409 
     362   -15194.626 0.00053498834   -15194.626 
     363   -15196.833 0.00053498834   -15196.833 
     364   -15199.028 0.00053498834   -15199.028 
     365   -15201.209 0.00053498834   -15201.209 
     366   -15203.377 0.00053498834   -15203.377 
     367   -15205.532 0.00053498834   -15205.532 
     368   -15207.673 0.00053498834   -15207.673 
     369   -15209.799 0.00053498834   -15209.799 
     370   -15211.908 0.00053498834   -15211.908 
     371   -15214.002 0.00053498834   -15214.002 
     372   -15216.079 0.00053498834   -15216.079 
     373   -15218.139 0.00053498834   -15218.139 
     374    -15220.18 0.00053498834    -15220.18 
     375   -15222.202 0.00053498834   -15222.202 
     376   -15224.206 0.00053498834   -15224.206 
     377   -15226.192 0.00053498834   -15226.192 
     378   -15228.161 0.00053498834   -15228.161 
     379   -15230.111 0.00053498834   -15230.111 
     380   -15232.041 0.00053498834   -15232.041 
     381   -15233.948 0.00053498834   -15233.948 
     382   -15235.831 0.00053498834   -15235.831 
     383   -15237.688 0.00053498834   -15237.688 
     384    -15239.52 0.00053498834    -15239.52 
     385   -15241.329 0.00053498834   -15241.329 
     386   -15243.117 0.00053498834   -15243.117 
     387   -15244.882 0.00053498834   -15244.882 
     388   -15246.624 0.00053498834   -15246.624 
     389    -15248.34 0.00053498834    -15248.34 
     390   -15250.028 0.00053498834   -15250.028 
     391   -15251.688 0.00053498834   -15251.688 
     392   -15253.315 0.00053498834   -15253.315 
     393   -15254.908 0.00053498834   -15254.908 
     394   -15256.466 0.00053498834   -15256.466 
     395   -15257.986 0.00053498834   -15257.986 
     396   -15259.467 0.00053498834   -15259.467 
     397   -15260.909 0.00053498834   -15260.909 
     398   -15262.311 0.00053498834   -15262.311 
     399   -15263.673 0.00053498834   -15263.673 
     400   -15264.994 0.00053498834   -15264.994 
     401   -15266.275 0.00053498834   -15266.275 
     402   -15267.515 0.00053498834   -15267.515 
     403   -15268.715 0.00053498834   -15268.715 
     404   -15269.875 0.00053498834   -15269.875 
     405   -15270.996 0.00053498834   -15270.996 
     406   -15272.078 0.00053498834   -15272.078 
     407   -15273.121 0.00053498834   -15273.121 
     408   -15274.126 0.00053498834   -15274.126 
     409   -15275.094 0.00053498834   -15275.094 
     410   -15276.024 0.00053498834   -15276.024 
     411   -15276.919 0.00053498834   -15276.919 
     412   -15277.777 0.00053498834   -15277.777 
     413     -15278.6 0.00053498834     -15278.6 
     414   -15279.388 0.00053498834   -15279.388 
     415   -15280.142 0.00053498834   -15280.142 
     416   -15280.862 0.00053498834   -15280.862 
     417   -15281.548 0.00053498834   -15281.548 
     418   -15282.202 0.00053498834   -15282.202 
     419   -15282.822 0.00053498834   -15282.822 
     420   -15283.411 0.00053498834   -15283.411 
     421   -15283.968 0.00053498834   -15283.968 
     422   -15284.494 0.00053498834   -15284.494 
     423    -15284.99 0.00053498834    -15284.99 
     424   -15285.454 0.00053498834   -15285.454 
     425   -15285.889 0.00053498834   -15285.889 
     426   -15286.295 0.00053498834   -15286.295 
     427   -15286.671 0.00053498834   -15286.671 
     428   -15287.018 0.00053498834   -15287.018 
     429   -15287.337 0.00053498834   -15287.337 
     430   -15287.628 0.00053498834   -15287.628 
     431   -15287.892 0.00053498834   -15287.892 
     432   -15288.127 0.00053498834   -15288.127 
     433   -15288.336 0.00053498834   -15288.336 
     434   -15288.519 0.00053498834   -15288.519 
     435   -15288.675 0.00053498834   -15288.675 
     436   -15288.805 0.00053498834   -15288.805 
     437    -15288.91 0.00053498834    -15288.91 
     438    -15288.99 0.00053498834    -15288.99 
     439   -15289.046 0.00053498834   -15289.046 
     440   -15289.077 0.00053498834   -15289.077 
     441   -15289.085 0.00053498834   -15289.085 
     442   -15289.069 0.00053498834   -15289.069 
     443   -15289.031 0.00053498834   -15289.031 
     444   -15288.971 0.00053498834   -15288.971 
     445   -15288.888 0.00053498834   -15288.888 
     446   -15288.784 0.00053498834   -15288.784 
     447   -15288.659 0.00053498834   -15288.659 
     448   -15288.514 0.00053498834   -15288.514 
     449   -15288.349 0.00053498834   -15288.349 
     450   -15288.164 0.00053498834   -15288.164 
     451   -15287.959 0.00053498834   -15287.959 
     452   -15287.735 0.00053498834   -15287.735 
     453   -15287.492 0.00053498834   -15287.492 
     454    -15287.23 0.00053498834    -15287.23 
     455    -15286.95 0.00053498834    -15286.95 
     456   -15286.653 0.00053498834   -15286.653 
     457   -15286.337 0.00053498834   -15286.337 
     458   -15286.004 0.00053498834   -15286.004 
     459   -15285.653 0.00053498834   -15285.653 
     460   -15285.285 0.00053498834   -15285.285 
     461     -15284.9 0.00053498834     -15284.9 
     462   -15284.498 0.00053498834   -15284.498 
     463   -15284.078 0.00053498834   -15284.078 
     464   -15283.641 0.00053498834   -15283.641 
     465   -15283.187 0.00053498834   -15283.187 
     466   -15282.716 0.00053498834   -15282.716 
     467   -15282.228 0.00053498834   -15282.228 
     468   -15281.724 0.00053498834   -15281.724 
     469   -15281.205 0.00053498834   -15281.205 
     470   -15280.671 0.00053498834   -15280.671 
     471   -15280.124 0.00053498834   -15280.124 
     472   -15279.564 0.00053498834   -15279.564 
     473   -15278.994 0.00053498834   -15278.994 
     474   -15278.415 0.00053498834   -15278.415 
     475   -15277.829 0.00053498834   -15277.829 
     476   -15277.239 0.00053498834   -15277.239 
     477   -15276.645 0.00053498834   -15276.645 
     478   -15276.052 0.00053498834   -15276.052 
     479   -15275.459 0.00053498834   -15275.459 
     480   -15274.869 0.00053498834   -15274.869 
     481   -15274.284 0.00053498834   -15274.284 
     482   -15273.704 0.00053498834   -15273.704 
     483    -15273.13 0.00053498834    -15273.13 
     484   -15272.563 0.00053498834   -15272.563 
     485   -15272.004 0.00053498834   -15272.004 
     486   -15271.453 0.00053498834   -15271.453 
     487   -15270.911 0.00053498834   -15270.911 
     488   -15270.379 0.00053498834   -15270.379 
     489   -15269.859 0.00053498834   -15269.859 
     490   -15269.351 0.00053498834   -15269.351 
     491   -15268.859 0.00053498834   -15268.859 
     492   -15268.381 0.00053498834   -15268.381 
     493   -15267.919 0.00053498834   -15267.919 
     494   -15267.472 0.00053498834   -15267.472 
     495   -15267.042 0.00053498834   -15267.042 
     496   -15266.628 0.00053498834   -15266.628 
     497   -15266.234 0.00053498834   -15266.234 
     498    -15265.86 0.00053498834    -15265.86 
     499   -15265.507 0.00053498834   -15265.507 
     500   -15265.174 0.00053498834   -15265.174 
Loop time of 34.3755 on 1 procs for 500 steps with 3600 atoms

Performance: 1256.710 ns/day, 0.019 hours/ns, 14.545 timesteps/s
100.0% CPU use with 1 MPI tasks x 1 OpenMP threads

MPI task timing breakdown:
Section |  min time  |  avg time  |  max time  |%varavg| %total
---------------------------------------------------------------
Pair    | 34.27      | 34.27      | 34.27      |   0.0 | 99.69
Neigh   | 0.047631   | 0.047631   | 0.047631   |   0.0 |  0.14
Comm    | 0.0095944  | 0.0095944  | 0.0095944  |   0.0 |  0.03
Output  | 0.027738   | 0.027738   | 0.027738   |   0.0 |  0.08
Modify  | 0.013286   | 0.013286   | 0.013286   |   0.0 |  0.04
Other   |            | 0.006948   |            |       |  0.02

Nlocal:        3600.00 ave        3600 max        3600 min
Histogram: 1 0 0 0 0 0 0 0 0 0
Nghost:        3606.00 ave        3606 max        3606 min
Histogram: 1 0 0 0 0 0 0 0 0 0
Neighs:        146888.0 ave      146888 max      146888 min
Histogram: 1 0 0 0 0 0 0 0 0 0
FullNghs:      293776.0 ave      293776 max      293776 min
Histogram: 1 0 0 0 0 0 0 0 0 0

Total # of neighbors = 293776
Ave neighs/atom = 81.604444
Neighbor list builds = 4
Dangerous builds = 0

Total wall time: 0:00:44
