LAMMPS (29 Sep 2021)
OMP_NUM_THREADS environment is not set. Defaulting to 1 thread. (src/comm.cpp:98)
  using 1 OpenMP thread(s) per MPI task
# Input file for Stack Fault Energy surface of Nickel
# Richard Glaze, 2014
# --------------------- INITIALIZAITION ---------------------
clear
OMP_NUM_THREADS environment is not set. Defaulting to 1 thread. (src/comm.cpp:98)
  using 1 OpenMP thread(s) per MPI task
units		metal
dimension	3
boundary	p p s
atom_style	atomic

read_data 	../data111_use1.dat
Reading data file ...
  orthogonal box = (0.0000000 0.0000000 -0.0037381121) to (44.054073 25.434631 35.308130)
  1 by 1 by 1 MPI processor grid
  reading atoms ...
  3600 atoms
  read_data CPU = 0.009 seconds
#variable x_displace equal -1*(${latparam1}/sqrt(6))
variable zcut equal 17.4363
variable xdim equal 43.5152
variable ydim equal 25.1235

# --------------------- ATOM DEFINITION ---------------------

region		1 block -.001 INF -.001 INF -.001 ${zcut} units box
region		1 block -.001 INF -.001 INF -.001 17.4363 units box
region 	2 block -.001 INF -.001 INF ${zcut} INF units box
region 	2 block -.001 INF -.001 INF 17.4363 INF units box

region		whole block INF INF INF INF INF INF units box


# --------------------- FORCE FIELDS ---------------------
pair_style meam/c
pair_coeff	* * ../library.meam Co Ni Cr Fe Mn ../CoNiCrFeMn.meam Mn Cr Co Fe Ni

# --------------------- SETTINGS ---------------------

compute peratom all pe/atom
compute eatoms all reduce sum c_peratom
compute csym all centro/atom fcc

min_style cg
minimize 1e-10 1e-10 10000 100000
WARNING: Using 'neigh_modify every 1 delay 0 check yes' setting during minimization (src/min.cpp:188)
Neighbor list info ...
  update every 1 steps, delay 0 steps, check yes
  max neighbors/atom: 2000, page size: 100000
  master list distance cutoff = 6.5
  ghost atom cutoff = 6.5
  binsize = 3.25, bins = 14 8 11
  3 neighbor lists, perpetual/occasional/extra = 2 1 0
  (1) pair meam/c, perpetual
      attributes: full, newton on
      pair build: full/bin/atomonly
      stencil: full/bin/3d
      bin: standard
  (2) pair meam/c, perpetual, half/full from (1)
      attributes: half, newton on
      pair build: halffull/newton
      stencil: none
      bin: none
  (3) compute centro/atom, occasional, copy from (1)
      attributes: full, newton on
      pair build: copy
      stencil: none
      bin: none
Per MPI rank memory allocation (min/avg/max) = 15.41 | 15.41 | 15.41 Mbytes
Step Temp E_pair E_mol TotEng Press Volume 
       0            0   -15260.157            0   -15260.157   -64040.652    39566.452 
      59            0   -15297.762            0   -15297.762   -25772.281    39566.452 
Loop time of 14.8174 on 1 procs for 59 steps with 3600 atoms

100.0% CPU use with 1 MPI tasks x 1 OpenMP threads

Minimization stats:
  Stopping criterion = energy tolerance
  Energy initial, next-to-last, final = 
     -15260.1566820089  -15297.7622890407  -15297.7622903919
  Force two-norm initial, final = 19.559842 0.090023988
  Force max component initial, final = 1.0921424 0.046752018
  Final line search alpha, max atom move = 1.0000000 0.046752018
  Iterations, force evaluations = 59 212

MPI task timing breakdown:
Section |  min time  |  avg time  |  max time  |%varavg| %total
---------------------------------------------------------------
Pair    | 14.804     | 14.804     | 14.804     |   0.0 | 99.91
Neigh   | 0          | 0          | 0          |   0.0 |  0.00
Comm    | 0.003424   | 0.003424   | 0.003424   |   0.0 |  0.02
Output  | 0          | 0          | 0          |   0.0 |  0.00
Modify  | 0          | 0          | 0          |   0.0 |  0.00
Other   |            | 0.01032    |            |       |  0.07

Nlocal:        3600.00 ave        3600 max        3600 min
Histogram: 1 0 0 0 0 0 0 0 0 0
Nghost:        3558.00 ave        3558 max        3558 min
Histogram: 1 0 0 0 0 0 0 0 0 0
Neighs:        145200.0 ave      145200 max      145200 min
Histogram: 1 0 0 0 0 0 0 0 0 0
FullNghs:      290400.0 ave      290400 max      290400 min
Histogram: 1 0 0 0 0 0 0 0 0 0

Total # of neighbors = 290400
Ave neighs/atom = 80.666667
Neighbor list builds = 0
Dangerous builds = 0

thermo 1
thermo_style custom step pe c_eatoms
#dump 1 all custom 1 dump.relax id type xs ys zs c_peratom c_csym
run 0
WARNING: No fixes defined, atoms won't move (src/verlet.cpp:55)
Per MPI rank memory allocation (min/avg/max) = 14.29 | 14.29 | 14.29 Mbytes
Step PotEng c_eatoms 
      59   -15297.762   -15297.762 
Loop time of 7.7e-07 on 1 procs for 0 steps with 3600 atoms

259.7% CPU use with 1 MPI tasks x 1 OpenMP threads

MPI task timing breakdown:
Section |  min time  |  avg time  |  max time  |%varavg| %total
---------------------------------------------------------------
Pair    | 0          | 0          | 0          |   0.0 |  0.00
Neigh   | 0          | 0          | 0          |   0.0 |  0.00
Comm    | 0          | 0          | 0          |   0.0 |  0.00
Output  | 0          | 0          | 0          |   0.0 |  0.00
Modify  | 0          | 0          | 0          |   0.0 |  0.00
Other   |            | 7.7e-07    |            |       |100.00

Nlocal:        3600.00 ave        3600 max        3600 min
Histogram: 1 0 0 0 0 0 0 0 0 0
Nghost:        3558.00 ave        3558 max        3558 min
Histogram: 1 0 0 0 0 0 0 0 0 0
Neighs:        145296.0 ave      145296 max      145296 min
Histogram: 1 0 0 0 0 0 0 0 0 0
FullNghs:      290592.0 ave      290592 max      290592 min
Histogram: 1 0 0 0 0 0 0 0 0 0

Total # of neighbors = 290592
Ave neighs/atom = 80.720000
Neighbor list builds = 0
Dangerous builds = 0

#this command creates a model of the script before the displacement and minimization occur


variable E equal "c_eatoms"
variable Eo equal $E
variable Eo equal -15297.7622903918

#undump 1

#variable E equal "c_eatoms" computes the initial energy of the model before any sliding is done
#E is necessary to store the initial energy in Eo

group bot region 1
1800 atoms in group bot
group top region 2
1800 atoms in group top


reset_timestep 0
timestep 1

fix 1 top move linear -0.01 0.0 0.0 units box

#dump 2 all custom 1 dump2.relax id type xs ys zs c_peratom c_csym

#displace_atoms top move ${x_displace} 0.0 0.0 units box
#displace_atoms is the command neccessary to move atoms into the next stacking arrangement (ie: A -> B)

#fix 2 all setforce 0 0 NULL


thermo 1
thermo_style custom step pe ke c_eatoms

run 500
Per MPI rank memory allocation (min/avg/max) = 14.79 | 14.79 | 14.79 Mbytes
Step PotEng KinEng c_eatoms 
       0   -15297.762            0   -15297.762 
       1    -15297.75 0.00053576341    -15297.75 
       2   -15297.713 0.00053576341   -15297.713 
       3   -15297.654 0.00053576341   -15297.654 
       4   -15297.573 0.00053576341   -15297.573 
       5   -15297.469 0.00053576341   -15297.469 
       6   -15297.344 0.00053576341   -15297.344 
       7   -15297.197 0.00053576341   -15297.197 
       8    -15297.03 0.00053576341    -15297.03 
       9   -15296.843 0.00053576341   -15296.843 
      10   -15296.636 0.00053576341   -15296.636 
      11    -15296.41 0.00053576341    -15296.41 
      12   -15296.165 0.00053576341   -15296.165 
      13   -15295.902 0.00053576341   -15295.902 
      14    -15295.62 0.00053576341    -15295.62 
      15   -15295.321 0.00053576341   -15295.321 
      16   -15295.004 0.00053576341   -15295.004 
      17    -15294.67 0.00053576341    -15294.67 
      18   -15294.319 0.00053576341   -15294.319 
      19   -15293.951 0.00053576341   -15293.951 
      20   -15293.567 0.00053576341   -15293.567 
      21   -15293.166 0.00053576341   -15293.166 
      22   -15292.749 0.00053576341   -15292.749 
      23   -15292.315 0.00053576341   -15292.315 
      24   -15291.866 0.00053576341   -15291.866 
      25   -15291.401 0.00053576341   -15291.401 
      26   -15290.921 0.00053576341   -15290.921 
      27   -15290.425 0.00053576341   -15290.425 
      28   -15289.913 0.00053576341   -15289.913 
      29   -15289.388 0.00053576341   -15289.388 
      30   -15288.848 0.00053576341   -15288.848 
      31   -15288.294 0.00053576341   -15288.294 
      32   -15287.728 0.00053576341   -15287.728 
      33   -15287.151 0.00053576341   -15287.151 
      34   -15286.564 0.00053576341   -15286.564 
      35   -15285.968 0.00053576341   -15285.968 
      36   -15285.364 0.00053576341   -15285.364 
      37   -15284.755 0.00053576341   -15284.755 
      38   -15284.143 0.00053576341   -15284.143 
      39   -15283.528 0.00053576341   -15283.528 
      40   -15282.912 0.00053576341   -15282.912 
      41   -15282.297 0.00053576341   -15282.297 
      42   -15281.684 0.00053576341   -15281.684 
      43   -15281.075 0.00053576341   -15281.075 
      44    -15280.47 0.00053576341    -15280.47 
      45   -15279.871 0.00053576341   -15279.871 
      46    -15279.28 0.00053576341    -15279.28 
      47   -15278.698 0.00053576341   -15278.698 
      48   -15278.125 0.00053576341   -15278.125 
      49   -15277.565 0.00053576341   -15277.565 
      50   -15277.019 0.00053576341   -15277.019 
      51   -15276.488 0.00053576341   -15276.488 
      52   -15275.972 0.00053576341   -15275.972 
      53   -15275.472 0.00053576341   -15275.472 
      54    -15274.99 0.00053576341    -15274.99 
      55   -15274.529 0.00053576341   -15274.529 
      56    -15274.09 0.00053576341    -15274.09 
      57   -15273.675 0.00053576341   -15273.675 
      58   -15273.279 0.00053576341   -15273.279 
      59   -15272.905 0.00053576341   -15272.905 
      60   -15272.553 0.00053576341   -15272.553 
      61   -15272.222 0.00053576341   -15272.222 
      62   -15271.914 0.00053576341   -15271.914 
      63   -15271.629 0.00053576341   -15271.629 
      64   -15271.367 0.00053576341   -15271.367 
      65   -15271.128 0.00053576341   -15271.128 
      66   -15270.911 0.00053576341   -15270.911 
      67   -15270.718 0.00053576341   -15270.718 
      68    -15270.55 0.00053576341    -15270.55 
      69   -15270.405 0.00053576341   -15270.405 
      70   -15270.286 0.00053576341   -15270.286 
      71   -15270.192 0.00053576341   -15270.192 
      72   -15270.123 0.00053576341   -15270.123 
      73    -15270.08 0.00053576341    -15270.08 
      74   -15270.063 0.00053576341   -15270.063 
      75   -15270.071 0.00053576341   -15270.071 
      76   -15270.106 0.00053576341   -15270.106 
      77   -15270.166 0.00053576341   -15270.166 
      78   -15270.251 0.00053576341   -15270.251 
      79   -15270.362 0.00053576341   -15270.362 
      80   -15270.498 0.00053576341   -15270.498 
      81   -15270.658 0.00053576341   -15270.658 
      82   -15270.842 0.00053576341   -15270.842 
      83    -15271.05 0.00053576341    -15271.05 
      84    -15271.28 0.00053576341    -15271.28 
      85   -15271.533 0.00053576341   -15271.533 
      86   -15271.809 0.00053576341   -15271.809 
      87   -15272.107 0.00053576341   -15272.107 
      88   -15272.426 0.00053576341   -15272.426 
      89   -15272.767 0.00053576341   -15272.767 
      90   -15273.127 0.00053576341   -15273.127 
      91   -15273.506 0.00053576341   -15273.506 
      92   -15273.905 0.00053576341   -15273.905 
      93   -15274.325 0.00053576341   -15274.325 
      94   -15274.765 0.00053576341   -15274.765 
      95   -15275.226 0.00053576341   -15275.226 
      96   -15275.705 0.00053576341   -15275.705 
      97   -15276.203 0.00053576341   -15276.203 
      98   -15276.719 0.00053576341   -15276.719 
      99    -15277.25 0.00053576341    -15277.25 
     100   -15277.797 0.00053576341   -15277.797 
     101   -15278.357 0.00053576341   -15278.357 
     102   -15278.932 0.00053576341   -15278.932 
     103    -15279.52 0.00053576341    -15279.52 
     104   -15280.118 0.00053576341   -15280.118 
     105   -15280.724 0.00053576341   -15280.724 
     106   -15281.336 0.00053576341   -15281.336 
     107    -15281.95 0.00053576341    -15281.95 
     108   -15282.566 0.00053576341   -15282.566 
     109    -15283.18 0.00053576341    -15283.18 
     110   -15283.789 0.00053576341   -15283.789 
     111   -15284.394 0.00053576341   -15284.394 
     112    -15284.99 0.00053576341    -15284.99 
     113   -15285.578 0.00053576341   -15285.578 
     114   -15286.155 0.00053576341   -15286.155 
     115   -15286.722 0.00053576341   -15286.722 
     116   -15287.276 0.00053576341   -15287.276 
     117   -15287.817 0.00053576341   -15287.817 
     118   -15288.344 0.00053576341   -15288.344 
     119   -15288.858 0.00053576341   -15288.858 
     120   -15289.357 0.00053576341   -15289.357 
     121   -15289.841 0.00053576341   -15289.841 
     122   -15290.311 0.00053576341   -15290.311 
     123   -15290.765 0.00053576341   -15290.765 
     124   -15291.204 0.00053576341   -15291.204 
     125   -15291.627 0.00053576341   -15291.627 
     126   -15292.035 0.00053576341   -15292.035 
     127   -15292.426 0.00053576341   -15292.426 
     128   -15292.802 0.00053576341   -15292.802 
     129   -15293.161 0.00053576341   -15293.161 
     130   -15293.503 0.00053576341   -15293.503 
     131   -15293.828 0.00053576341   -15293.828 
     132   -15294.136 0.00053576341   -15294.136 
     133   -15294.427 0.00053576341   -15294.427 
     134   -15294.699 0.00053576341   -15294.699 
     135   -15294.954 0.00053576341   -15294.954 
     136   -15295.189 0.00053576341   -15295.189 
     137   -15295.406 0.00053576341   -15295.406 
     138   -15295.603 0.00053576341   -15295.603 
     139    -15295.78 0.00053576341    -15295.78 
     140   -15295.938 0.00053576341   -15295.938 
     141   -15296.074 0.00053576341   -15296.074 
     142    -15296.19 0.00053576341    -15296.19 
     143   -15296.283 0.00053576341   -15296.283 
     144   -15296.355 0.00053576341   -15296.355 
     145   -15296.403 0.00053576341   -15296.403 
     146   -15296.429 0.00053576341   -15296.429 
     147   -15296.431 0.00053576341   -15296.431 
     148    -15296.41 0.00053576341    -15296.41 
     149   -15296.364 0.00053576341   -15296.364 
     150   -15296.294 0.00053576341   -15296.294 
     151     -15296.2 0.00053576341     -15296.2 
     152   -15296.079 0.00053576341   -15296.079 
     153   -15295.933 0.00053576341   -15295.933 
     154   -15295.761 0.00053576341   -15295.761 
     155   -15295.562 0.00053576341   -15295.562 
     156   -15295.336 0.00053576341   -15295.336 
     157   -15295.082 0.00053576341   -15295.082 
     158   -15294.801 0.00053576341   -15294.801 
     159   -15294.491 0.00053576341   -15294.491 
     160   -15294.153 0.00053576341   -15294.153 
     161   -15293.786 0.00053576341   -15293.786 
     162   -15293.389 0.00053576341   -15293.389 
     163   -15292.962 0.00053576341   -15292.962 
     164   -15292.506 0.00053576341   -15292.506 
     165   -15292.019 0.00053576341   -15292.019 
     166   -15291.502 0.00053576341   -15291.502 
     167   -15290.953 0.00053576341   -15290.953 
     168   -15290.372 0.00053576341   -15290.372 
     169   -15289.759 0.00053576341   -15289.759 
     170   -15289.114 0.00053576341   -15289.114 
     171   -15288.435 0.00053576341   -15288.435 
     172   -15287.722 0.00053576341   -15287.722 
     173   -15286.975 0.00053576341   -15286.975 
     174   -15286.193 0.00053576341   -15286.193 
     175   -15285.375 0.00053576341   -15285.375 
     176   -15284.521 0.00053576341   -15284.521 
     177   -15283.631 0.00053576341   -15283.631 
     178   -15282.702 0.00053576341   -15282.702 
     179   -15281.736 0.00053576341   -15281.736 
     180   -15280.731 0.00053576341   -15280.731 
     181   -15279.687 0.00053576341   -15279.687 
     182   -15278.602 0.00053576341   -15278.602 
     183   -15277.477 0.00053576341   -15277.477 
     184    -15276.31 0.00053576341    -15276.31 
     185   -15275.102 0.00053576341   -15275.102 
     186   -15273.852 0.00053576341   -15273.852 
     187    -15272.56 0.00053576341    -15272.56 
     188   -15271.225 0.00053576341   -15271.225 
     189   -15269.848 0.00053576341   -15269.848 
     190    -15268.43 0.00053576341    -15268.43 
     191   -15266.969 0.00053576341   -15266.969 
     192   -15265.468 0.00053576341   -15265.468 
     193   -15263.928 0.00053576341   -15263.928 
     194   -15262.349 0.00053576341   -15262.349 
     195   -15260.733 0.00053576341   -15260.733 
     196   -15259.082 0.00053576341   -15259.082 
     197   -15257.398 0.00053576341   -15257.398 
     198    -15255.68 0.00053576341    -15255.68 
     199   -15253.929 0.00053576341   -15253.929 
     200   -15252.147 0.00053576341   -15252.147 
     201   -15250.336 0.00053576341   -15250.336 
     202   -15248.496 0.00053576341   -15248.496 
     203   -15246.633 0.00053576341   -15246.633 
     204   -15244.747 0.00053576341   -15244.747 
     205    -15242.84 0.00053576341    -15242.84 
     206   -15240.915 0.00053576341   -15240.915 
     207   -15238.971 0.00053576341   -15238.971 
     208   -15237.014 0.00053576341   -15237.014 
     209   -15235.044 0.00053576341   -15235.044 
     210   -15233.065 0.00053576341   -15233.065 
     211   -15231.083 0.00053576341   -15231.083 
     212   -15229.098 0.00053576341   -15229.098 
     213   -15227.105 0.00053576341   -15227.105 
     214     -15225.1 0.00053576341     -15225.1 
     215   -15223.084 0.00053576341   -15223.084 
     216   -15221.056 0.00053576341   -15221.056 
     217   -15219.014 0.00053576341   -15219.014 
     218   -15216.957 0.00053576341   -15216.957 
     219   -15214.883 0.00053576341   -15214.883 
     220   -15212.796 0.00053576341   -15212.796 
     221   -15210.694 0.00053576341   -15210.694 
     222   -15208.578 0.00053576341   -15208.578 
     223   -15206.448 0.00053576341   -15206.448 
     224   -15204.305 0.00053576341   -15204.305 
     225   -15202.151 0.00053576341   -15202.151 
     226   -15199.987 0.00053576341   -15199.987 
     227   -15197.814 0.00053576341   -15197.814 
     228   -15195.634 0.00053576341   -15195.634 
     229   -15193.447 0.00053576341   -15193.447 
     230   -15191.256 0.00053576341   -15191.256 
     231   -15189.061 0.00053576341   -15189.061 
     232   -15186.864 0.00053576341   -15186.864 
     233   -15184.667 0.00053576341   -15184.667 
     234   -15182.471 0.00053576341   -15182.471 
     235   -15180.277 0.00053576341   -15180.277 
     236   -15178.087 0.00053576341   -15178.087 
     237   -15175.902 0.00053576341   -15175.902 
     238   -15173.724 0.00053576341   -15173.724 
     239   -15171.554 0.00053576341   -15171.554 
     240   -15169.395 0.00053576341   -15169.395 
     241   -15167.247 0.00053576341   -15167.247 
     242   -15165.111 0.00053576341   -15165.111 
     243    -15162.99 0.00053576341    -15162.99 
     244   -15160.885 0.00053576341   -15160.885 
     245   -15158.796 0.00053576341   -15158.796 
     246   -15156.727 0.00053576341   -15156.727 
     247   -15154.677 0.00053576341   -15154.677 
     248   -15152.649 0.00053576341   -15152.649 
     249   -15150.644 0.00053576341   -15150.644 
     250   -15148.663 0.00053576341   -15148.663 
     251   -15146.707 0.00053576341   -15146.707 
     252   -15144.778 0.00053576341   -15144.778 
     253   -15142.877 0.00053576341   -15142.877 
     254   -15141.005 0.00053576341   -15141.005 
     255   -15139.164 0.00053576341   -15139.164 
     256   -15137.354 0.00053576341   -15137.354 
     257   -15135.577 0.00053576341   -15135.577 
     258   -15133.833 0.00053576341   -15133.833 
     259   -15132.124 0.00053576341   -15132.124 
     260    -15130.45 0.00053576341    -15130.45 
     261   -15128.814 0.00053576341   -15128.814 
     262   -15127.215 0.00053576341   -15127.215 
     263   -15125.655 0.00053576341   -15125.655 
     264   -15124.136 0.00053576341   -15124.136 
     265   -15122.657 0.00053576341   -15122.657 
     266    -15121.22 0.00053576341    -15121.22 
     267   -15119.826 0.00053576341   -15119.826 
     268   -15118.476 0.00053576341   -15118.476 
     269   -15117.171 0.00053576341   -15117.171 
     270   -15115.911 0.00053576341   -15115.911 
     271   -15114.697 0.00053576341   -15114.697 
     272   -15113.531 0.00053576341   -15113.531 
     273   -15112.413 0.00053576341   -15112.413 
     274   -15111.343 0.00053576341   -15111.343 
     275   -15110.323 0.00053576341   -15110.323 
     276   -15109.353 0.00053576341   -15109.353 
     277   -15108.434 0.00053576341   -15108.434 
     278   -15107.567 0.00053576341   -15107.567 
     279   -15106.751 0.00053576341   -15106.751 
     280   -15105.988 0.00053576341   -15105.988 
     281   -15105.279 0.00053576341   -15105.279 
     282   -15104.623 0.00053576341   -15104.623 
     283   -15104.021 0.00053576341   -15104.021 
     284   -15103.473 0.00053576341   -15103.473 
     285    -15102.98 0.00053576341    -15102.98 
     286   -15102.543 0.00053576341   -15102.543 
     287   -15102.161 0.00053576341   -15102.161 
     288   -15101.835 0.00053576341   -15101.835 
     289   -15101.564 0.00053576341   -15101.564 
     290    -15101.35 0.00053576341    -15101.35 
     291   -15101.192 0.00053576341   -15101.192 
     292   -15101.091 0.00053576341   -15101.091 
     293   -15101.046 0.00053576341   -15101.046 
     294   -15101.058 0.00053576341   -15101.058 
     295   -15101.126 0.00053576341   -15101.126 
     296    -15101.25 0.00053576341    -15101.25 
     297   -15101.431 0.00053576341   -15101.431 
     298   -15101.668 0.00053576341   -15101.668 
     299   -15101.961 0.00053576341   -15101.961 
     300    -15102.31 0.00053576341    -15102.31 
     301   -15102.713 0.00053576341   -15102.713 
     302   -15103.172 0.00053576341   -15103.172 
     303   -15103.686 0.00053576341   -15103.686 
     304   -15104.254 0.00053576341   -15104.254 
     305   -15104.876 0.00053576341   -15104.876 
     306   -15105.552 0.00053576341   -15105.552 
     307   -15106.281 0.00053576341   -15106.281 
     308   -15107.063 0.00053576341   -15107.063 
     309   -15107.897 0.00053576341   -15107.897 
     310   -15108.783 0.00053576341   -15108.783 
     311   -15109.719 0.00053576341   -15109.719 
     312   -15110.706 0.00053576341   -15110.706 
     313   -15111.742 0.00053576341   -15111.742 
     314   -15112.827 0.00053576341   -15112.827 
     315   -15113.961 0.00053576341   -15113.961 
     316   -15115.142 0.00053576341   -15115.142 
     317   -15116.369 0.00053576341   -15116.369 
     318   -15117.642 0.00053576341   -15117.642 
     319   -15118.961 0.00053576341   -15118.961 
     320   -15120.323 0.00053576341   -15120.323 
     321   -15121.727 0.00053576341   -15121.727 
     322   -15123.175 0.00053576341   -15123.175 
     323   -15124.663 0.00053576341   -15124.663 
     324   -15126.191 0.00053576341   -15126.191 
     325   -15127.759 0.00053576341   -15127.759 
     326   -15129.365 0.00053576341   -15129.365 
     327   -15131.008 0.00053576341   -15131.008 
     328   -15132.687 0.00053576341   -15132.687 
     329   -15134.402 0.00053576341   -15134.402 
     330   -15136.151 0.00053576341   -15136.151 
     331   -15137.933 0.00053576341   -15137.933 
     332   -15139.747 0.00053576341   -15139.747 
     333   -15141.592 0.00053576341   -15141.592 
     334   -15143.467 0.00053576341   -15143.467 
     335   -15145.371 0.00053576341   -15145.371 
     336   -15147.302 0.00053576341   -15147.302 
     337    -15149.26 0.00053576341    -15149.26 
     338   -15151.242 0.00053576341   -15151.242 
     339   -15153.249 0.00053576341   -15153.249 
     340   -15155.279 0.00053576341   -15155.279 
     341    -15157.33 0.00053576341    -15157.33 
     342     -15159.4 0.00053576341     -15159.4 
     343    -15161.49 0.00053576341    -15161.49 
     344   -15163.597 0.00053576341   -15163.597 
     345    -15165.72 0.00053576341    -15165.72 
     346   -15167.857 0.00053576341   -15167.857 
     347   -15170.007 0.00053576341   -15170.007 
     348   -15172.169 0.00053576341   -15172.169 
     349   -15174.341 0.00053576341   -15174.341 
     350   -15176.521 0.00053576341   -15176.521 
     351   -15178.708 0.00053576341   -15178.708 
     352   -15180.901 0.00053576341   -15180.901 
     353   -15183.098 0.00053576341   -15183.098 
     354   -15185.298 0.00053576341   -15185.298 
     355   -15187.499 0.00053576341   -15187.499 
     356   -15189.699 0.00053576341   -15189.699 
     357   -15191.898 0.00053576341   -15191.898 
     358   -15194.094 0.00053576341   -15194.094 
     359   -15196.285 0.00053576341   -15196.285 
     360    -15198.47 0.00053576341    -15198.47 
     361   -15200.648 0.00053576341   -15200.648 
     362   -15202.817 0.00053576341   -15202.817 
     363   -15204.976 0.00053576341   -15204.976 
     364   -15207.124 0.00053576341   -15207.124 
     365    -15209.26 0.00053576341    -15209.26 
     366   -15211.382 0.00053576341   -15211.382 
     367   -15213.489 0.00053576341   -15213.489 
     368    -15215.58 0.00053576341    -15215.58 
     369   -15217.654 0.00053576341   -15217.654 
     370    -15219.71 0.00053576341    -15219.71 
     371    -15221.75 0.00053576341    -15221.75 
     372   -15223.771 0.00053576341   -15223.771 
     373   -15225.776 0.00053576341   -15225.776 
     374   -15227.765 0.00053576341   -15227.765 
     375    -15229.74 0.00053576341    -15229.74 
     376   -15231.698 0.00053576341   -15231.698 
     377   -15233.637 0.00053576341   -15233.637 
     378   -15235.557 0.00053576341   -15235.557 
     379   -15237.457 0.00053576341   -15237.457 
     380   -15239.336 0.00053576341   -15239.336 
     381     -15241.2 0.00053576341     -15241.2 
     382    -15243.05 0.00053576341    -15243.05 
     383   -15244.887 0.00053576341   -15244.887 
     384   -15246.711 0.00053576341   -15246.711 
     385   -15248.522 0.00053576341   -15248.522 
     386   -15250.317 0.00053576341   -15250.317 
     387   -15252.094 0.00053576341   -15252.094 
     388   -15253.848 0.00053576341   -15253.848 
     389   -15255.576 0.00053576341   -15255.576 
     390   -15257.276 0.00053576341   -15257.276 
     391   -15258.944 0.00053576341   -15258.944 
     392   -15260.577 0.00053576341   -15260.577 
     393   -15262.174 0.00053576341   -15262.174 
     394   -15263.732 0.00053576341   -15263.732 
     395   -15265.252 0.00053576341   -15265.252 
     396    -15266.73 0.00053576341    -15266.73 
     397   -15268.168 0.00053576341   -15268.168 
     398   -15269.563 0.00053576341   -15269.563 
     399   -15270.917 0.00053576341   -15270.917 
     400   -15272.229 0.00053576341   -15272.229 
     401     -15273.5 0.00053576341     -15273.5 
     402   -15274.729 0.00053576341   -15274.729 
     403   -15275.917 0.00053576341   -15275.917 
     404   -15277.065 0.00053576341   -15277.065 
     405   -15278.173 0.00053576341   -15278.173 
     406   -15279.241 0.00053576341   -15279.241 
     407   -15280.271 0.00053576341   -15280.271 
     408   -15281.263 0.00053576341   -15281.263 
     409   -15282.218 0.00053576341   -15282.218 
     410   -15283.136 0.00053576341   -15283.136 
     411   -15284.017 0.00053576341   -15284.017 
     412   -15284.863 0.00053576341   -15284.863 
     413   -15285.673 0.00053576341   -15285.673 
     414   -15286.449 0.00053576341   -15286.449 
     415    -15287.19 0.00053576341    -15287.19 
     416   -15287.898 0.00053576341   -15287.898 
     417   -15288.573 0.00053576341   -15288.573 
     418   -15289.216 0.00053576341   -15289.216 
     419   -15289.826 0.00053576341   -15289.826 
     420   -15290.404 0.00053576341   -15290.404 
     421   -15290.951 0.00053576341   -15290.951 
     422   -15291.467 0.00053576341   -15291.467 
     423   -15291.952 0.00053576341   -15291.952 
     424   -15292.408 0.00053576341   -15292.408 
     425   -15292.833 0.00053576341   -15292.833 
     426   -15293.229 0.00053576341   -15293.229 
     427   -15293.596 0.00053576341   -15293.596 
     428   -15293.935 0.00053576341   -15293.935 
     429   -15294.245 0.00053576341   -15294.245 
     430   -15294.527 0.00053576341   -15294.527 
     431   -15294.782 0.00053576341   -15294.782 
     432    -15295.01 0.00053576341    -15295.01 
     433   -15295.211 0.00053576341   -15295.211 
     434   -15295.385 0.00053576341   -15295.385 
     435   -15295.534 0.00053576341   -15295.534 
     436   -15295.657 0.00053576341   -15295.657 
     437   -15295.754 0.00053576341   -15295.754 
     438   -15295.825 0.00053576341   -15295.825 
     439   -15295.873 0.00053576341   -15295.873 
     440   -15295.896 0.00053576341   -15295.896 
     441   -15295.895 0.00053576341   -15295.895 
     442   -15295.872 0.00053576341   -15295.872 
     443   -15295.826 0.00053576341   -15295.826 
     444   -15295.757 0.00053576341   -15295.757 
     445   -15295.667 0.00053576341   -15295.667 
     446   -15295.555 0.00053576341   -15295.555 
     447   -15295.422 0.00053576341   -15295.422 
     448   -15295.269 0.00053576341   -15295.269 
     449   -15295.095 0.00053576341   -15295.095 
     450   -15294.902 0.00053576341   -15294.902 
     451    -15294.69 0.00053576341    -15294.69 
     452   -15294.459 0.00053576341   -15294.459 
     453    -15294.21 0.00053576341    -15294.21 
     454   -15293.943 0.00053576341   -15293.943 
     455   -15293.658 0.00053576341   -15293.658 
     456   -15293.356 0.00053576341   -15293.356 
     457   -15293.038 0.00053576341   -15293.038 
     458   -15292.702 0.00053576341   -15292.702 
     459    -15292.35 0.00053576341    -15292.35 
     460   -15291.982 0.00053576341   -15291.982 
     461   -15291.598 0.00053576341   -15291.598 
     462   -15291.198 0.00053576341   -15291.198 
     463   -15290.782 0.00053576341   -15290.782 
     464    -15290.35 0.00053576341    -15290.35 
     465   -15289.903 0.00053576341   -15289.903 
     466   -15289.441 0.00053576341   -15289.441 
     467   -15288.963 0.00053576341   -15288.963 
     468   -15288.471 0.00053576341   -15288.471 
     469   -15287.964 0.00053576341   -15287.964 
     470   -15287.443 0.00053576341   -15287.443 
     471   -15286.908 0.00053576341   -15286.908 
     472    -15286.36 0.00053576341    -15286.36 
     473     -15285.8 0.00053576341     -15285.8 
     474   -15285.228 0.00053576341   -15285.228 
     475   -15284.645 0.00053576341   -15284.645 
     476   -15284.053 0.00053576341   -15284.053 
     477   -15283.453 0.00053576341   -15283.453 
     478   -15282.846 0.00053576341   -15282.846 
     479   -15282.234 0.00053576341   -15282.234 
     480    -15281.62 0.00053576341    -15281.62 
     481   -15281.004 0.00053576341   -15281.004 
     482   -15280.388 0.00053576341   -15280.388 
     483   -15279.776 0.00053576341   -15279.776 
     484   -15279.169 0.00053576341   -15279.169 
     485   -15278.571 0.00053576341   -15278.571 
     486   -15277.983 0.00053576341   -15277.983 
     487   -15277.408 0.00053576341   -15277.408 
     488    -15276.85 0.00053576341    -15276.85 
     489    -15276.31 0.00053576341    -15276.31 
     490   -15275.789 0.00053576341   -15275.789 
     491   -15275.289 0.00053576341   -15275.289 
     492   -15274.809 0.00053576341   -15274.809 
     493    -15274.35 0.00053576341    -15274.35 
     494    -15273.91 0.00053576341    -15273.91 
     495    -15273.49 0.00053576341    -15273.49 
     496   -15273.088 0.00053576341   -15273.088 
     497   -15272.703 0.00053576341   -15272.703 
     498   -15272.336 0.00053576341   -15272.336 
     499   -15271.986 0.00053576341   -15271.986 
     500   -15271.654 0.00053576341   -15271.654 
Loop time of 34.844 on 1 procs for 500 steps with 3600 atoms

Performance: 1239.810 ns/day, 0.019 hours/ns, 14.350 timesteps/s
100.0% CPU use with 1 MPI tasks x 1 OpenMP threads

MPI task timing breakdown:
Section |  min time  |  avg time  |  max time  |%varavg| %total
---------------------------------------------------------------
Pair    | 34.737     | 34.737     | 34.737     |   0.0 | 99.69
Neigh   | 0.048134   | 0.048134   | 0.048134   |   0.0 |  0.14
Comm    | 0.0089424  | 0.0089424  | 0.0089424  |   0.0 |  0.03
Output  | 0.030228   | 0.030228   | 0.030228   |   0.0 |  0.09
Modify  | 0.013471   | 0.013471   | 0.013471   |   0.0 |  0.04
Other   |            | 0.006766   |            |       |  0.02

Nlocal:        3600.00 ave        3600 max        3600 min
Histogram: 1 0 0 0 0 0 0 0 0 0
Nghost:        3606.00 ave        3606 max        3606 min
Histogram: 1 0 0 0 0 0 0 0 0 0
Neighs:        146947.0 ave      146947 max      146947 min
Histogram: 1 0 0 0 0 0 0 0 0 0
FullNghs:      293894.0 ave      293894 max      293894 min
Histogram: 1 0 0 0 0 0 0 0 0 0

Total # of neighbors = 293894
Ave neighs/atom = 81.637222
Neighbor list builds = 4
Dangerous builds = 0

Total wall time: 0:00:49
