LAMMPS (29 Sep 2021)
OMP_NUM_THREADS environment is not set. Defaulting to 1 thread. (src/comm.cpp:98)
  using 1 OpenMP thread(s) per MPI task
# Input file for Stack Fault Energy surface of Nickel
# Richard Glaze, 2014
# --------------------- INITIALIZAITION ---------------------
clear
OMP_NUM_THREADS environment is not set. Defaulting to 1 thread. (src/comm.cpp:98)
  using 1 OpenMP thread(s) per MPI task
units		metal
dimension	3
boundary	p p s
atom_style	atomic

read_data 	../data111_use3.dat
Reading data file ...
  orthogonal box = (0.0000000 0.0000000 -0.0037381121) to (44.054073 25.434631 35.308130)
  1 by 1 by 1 MPI processor grid
  reading atoms ...
  3600 atoms
  read_data CPU = 0.007 seconds
#variable x_displace equal -1*(${latparam1}/sqrt(6))
variable zcut equal 17.4363
variable xdim equal 43.5152
variable ydim equal 25.1235

# --------------------- ATOM DEFINITION ---------------------

region		1 block -.001 INF -.001 INF -.001 ${zcut} units box
region		1 block -.001 INF -.001 INF -.001 17.4363 units box
region 	2 block -.001 INF -.001 INF ${zcut} INF units box
region 	2 block -.001 INF -.001 INF 17.4363 INF units box

region		whole block INF INF INF INF INF INF units box


# --------------------- FORCE FIELDS ---------------------
pair_style meam/c
pair_coeff	* * ../library.meam Co Ni Cr Fe Mn ../CoNiCrFeMn.meam Mn Cr Co Fe Ni

# --------------------- SETTINGS ---------------------

compute peratom all pe/atom
compute eatoms all reduce sum c_peratom
compute csym all centro/atom fcc

min_style cg
minimize 1e-10 1e-10 10000 100000
WARNING: Using 'neigh_modify every 1 delay 0 check yes' setting during minimization (src/min.cpp:188)
Neighbor list info ...
  update every 1 steps, delay 0 steps, check yes
  max neighbors/atom: 2000, page size: 100000
  master list distance cutoff = 6.5
  ghost atom cutoff = 6.5
  binsize = 3.25, bins = 14 8 11
  3 neighbor lists, perpetual/occasional/extra = 2 1 0
  (1) pair meam/c, perpetual
      attributes: full, newton on
      pair build: full/bin/atomonly
      stencil: full/bin/3d
      bin: standard
  (2) pair meam/c, perpetual, half/full from (1)
      attributes: half, newton on
      pair build: halffull/newton
      stencil: none
      bin: none
  (3) compute centro/atom, occasional, copy from (1)
      attributes: full, newton on
      pair build: copy
      stencil: none
      bin: none
Per MPI rank memory allocation (min/avg/max) = 15.41 | 15.41 | 15.41 Mbytes
Step Temp E_pair E_mol TotEng Press Volume 
       0            0   -15258.634            0   -15258.634   -63902.942    39566.452 
      69            0   -15295.305            0   -15295.305   -25415.133    39566.452 
Loop time of 11.6196 on 1 procs for 69 steps with 3600 atoms

98.7% CPU use with 1 MPI tasks x 1 OpenMP threads

Minimization stats:
  Stopping criterion = energy tolerance
  Energy initial, next-to-last, final = 
     -15258.6336517947  -15295.3051462313  -15295.3051462692
  Force two-norm initial, final = 19.227519 0.060488618
  Force max component initial, final = 0.99774185 0.036464186
  Final line search alpha, max atom move = 1.0000000 0.036464186
  Iterations, force evaluations = 69 167

MPI task timing breakdown:
Section |  min time  |  avg time  |  max time  |%varavg| %total
---------------------------------------------------------------
Pair    | 11.608     | 11.608     | 11.608     |   0.0 | 99.90
Neigh   | 0          | 0          | 0          |   0.0 |  0.00
Comm    | 0.0028673  | 0.0028673  | 0.0028673  |   0.0 |  0.02
Output  | 0          | 0          | 0          |   0.0 |  0.00
Modify  | 0          | 0          | 0          |   0.0 |  0.00
Other   |            | 0.008875   |            |       |  0.08

Nlocal:        3600.00 ave        3600 max        3600 min
Histogram: 1 0 0 0 0 0 0 0 0 0
Nghost:        3558.00 ave        3558 max        3558 min
Histogram: 1 0 0 0 0 0 0 0 0 0
Neighs:        145200.0 ave      145200 max      145200 min
Histogram: 1 0 0 0 0 0 0 0 0 0
FullNghs:      290400.0 ave      290400 max      290400 min
Histogram: 1 0 0 0 0 0 0 0 0 0

Total # of neighbors = 290400
Ave neighs/atom = 80.666667
Neighbor list builds = 0
Dangerous builds = 0

thermo 1
thermo_style custom step pe c_eatoms
#dump 1 all custom 1 dump.relax id type xs ys zs c_peratom c_csym
run 0
WARNING: No fixes defined, atoms won't move (src/verlet.cpp:55)
Per MPI rank memory allocation (min/avg/max) = 14.29 | 14.29 | 14.29 Mbytes
Step PotEng c_eatoms 
      69   -15295.305   -15295.305 
Loop time of 4.8e-07 on 1 procs for 0 steps with 3600 atoms

416.7% CPU use with 1 MPI tasks x 1 OpenMP threads

MPI task timing breakdown:
Section |  min time  |  avg time  |  max time  |%varavg| %total
---------------------------------------------------------------
Pair    | 0          | 0          | 0          |   0.0 |  0.00
Neigh   | 0          | 0          | 0          |   0.0 |  0.00
Comm    | 0          | 0          | 0          |   0.0 |  0.00
Output  | 0          | 0          | 0          |   0.0 |  0.00
Modify  | 0          | 0          | 0          |   0.0 |  0.00
Other   |            | 4.8e-07    |            |       |100.00

Nlocal:        3600.00 ave        3600 max        3600 min
Histogram: 1 0 0 0 0 0 0 0 0 0
Nghost:        3558.00 ave        3558 max        3558 min
Histogram: 1 0 0 0 0 0 0 0 0 0
Neighs:        145259.0 ave      145259 max      145259 min
Histogram: 1 0 0 0 0 0 0 0 0 0
FullNghs:      290518.0 ave      290518 max      290518 min
Histogram: 1 0 0 0 0 0 0 0 0 0

Total # of neighbors = 290518
Ave neighs/atom = 80.699444
Neighbor list builds = 0
Dangerous builds = 0

#this command creates a model of the script before the displacement and minimization occur


variable E equal "c_eatoms"
variable Eo equal $E
variable Eo equal -15295.3051462691

#undump 1

#variable E equal "c_eatoms" computes the initial energy of the model before any sliding is done
#E is necessary to store the initial energy in Eo

group bot region 1
1800 atoms in group bot
group top region 2
1800 atoms in group top


reset_timestep 0
timestep 1

fix 1 top move linear -0.01 0.0 0.0 units box

#dump 2 all custom 1 dump2.relax id type xs ys zs c_peratom c_csym

#displace_atoms top move ${x_displace} 0.0 0.0 units box
#displace_atoms is the command neccessary to move atoms into the next stacking arrangement (ie: A -> B)

#fix 2 all setforce 0 0 NULL


thermo 1
thermo_style custom step pe ke c_eatoms

run 500
Per MPI rank memory allocation (min/avg/max) = 14.79 | 14.79 | 14.79 Mbytes
Step PotEng KinEng c_eatoms 
       0   -15295.305            0   -15295.305 
       1   -15295.294 0.00053580533   -15295.294 
       2    -15295.26 0.00053580533    -15295.26 
       3   -15295.204 0.00053580533   -15295.204 
       4   -15295.127 0.00053580533   -15295.127 
       5   -15295.028 0.00053580533   -15295.028 
       6   -15294.909 0.00053580533   -15294.909 
       7   -15294.769 0.00053580533   -15294.769 
       8    -15294.61 0.00053580533    -15294.61 
       9   -15294.432 0.00053580533   -15294.432 
      10   -15294.234 0.00053580533   -15294.234 
      11   -15294.018 0.00053580533   -15294.018 
      12   -15293.784 0.00053580533   -15293.784 
      13   -15293.533 0.00053580533   -15293.533 
      14   -15293.264 0.00053580533   -15293.264 
      15   -15292.978 0.00053580533   -15292.978 
      16   -15292.675 0.00053580533   -15292.675 
      17   -15292.356 0.00053580533   -15292.356 
      18   -15292.019 0.00053580533   -15292.019 
      19   -15291.665 0.00053580533   -15291.665 
      20   -15291.294 0.00053580533   -15291.294 
      21   -15290.906 0.00053580533   -15290.906 
      22   -15290.499 0.00053580533   -15290.499 
      23   -15290.075 0.00053580533   -15290.075 
      24   -15289.631 0.00053580533   -15289.631 
      25   -15289.168 0.00053580533   -15289.168 
      26   -15288.685 0.00053580533   -15288.685 
      27   -15288.181 0.00053580533   -15288.181 
      28   -15287.656 0.00053580533   -15287.656 
      29    -15287.11 0.00053580533    -15287.11 
      30   -15286.541 0.00053580533   -15286.541 
      31    -15285.95 0.00053580533    -15285.95 
      32   -15285.337 0.00053580533   -15285.337 
      33   -15284.702 0.00053580533   -15284.702 
      34   -15284.047 0.00053580533   -15284.047 
      35   -15283.373 0.00053580533   -15283.373 
      36   -15282.682 0.00053580533   -15282.682 
      37   -15281.978 0.00053580533   -15281.978 
      38   -15281.263 0.00053580533   -15281.263 
      39   -15280.542 0.00053580533   -15280.542 
      40   -15279.818 0.00053580533   -15279.818 
      41   -15279.095 0.00053580533   -15279.095 
      42    -15278.38 0.00053580533    -15278.38 
      43   -15277.675 0.00053580533   -15277.675 
      44   -15276.986 0.00053580533   -15276.986 
      45   -15276.317 0.00053580533   -15276.317 
      46   -15275.671 0.00053580533   -15275.671 
      47   -15275.051 0.00053580533   -15275.051 
      48    -15274.46 0.00053580533    -15274.46 
      49   -15273.901 0.00053580533   -15273.901 
      50   -15273.373 0.00053580533   -15273.373 
      51   -15272.879 0.00053580533   -15272.879 
      52   -15272.417 0.00053580533   -15272.417 
      53   -15271.986 0.00053580533   -15271.986 
      54   -15271.582 0.00053580533   -15271.582 
      55   -15271.202 0.00053580533   -15271.202 
      56   -15270.842 0.00053580533   -15270.842 
      57   -15270.503 0.00053580533   -15270.503 
      58   -15270.183 0.00053580533   -15270.183 
      59   -15269.884 0.00053580533   -15269.884 
      60   -15269.603 0.00053580533   -15269.603 
      61   -15269.342 0.00053580533   -15269.342 
      62     -15269.1 0.00053580533     -15269.1 
      63   -15268.879 0.00053580533   -15268.879 
      64   -15268.678 0.00053580533   -15268.678 
      65   -15268.499 0.00053580533   -15268.499 
      66   -15268.343 0.00053580533   -15268.343 
      67   -15268.208 0.00053580533   -15268.208 
      68   -15268.094 0.00053580533   -15268.094 
      69   -15268.001 0.00053580533   -15268.001 
      70    -15267.93 0.00053580533    -15267.93 
      71   -15267.882 0.00053580533   -15267.882 
      72   -15267.855 0.00053580533   -15267.855 
      73   -15267.851 0.00053580533   -15267.851 
      74   -15267.869 0.00053580533   -15267.869 
      75    -15267.91 0.00053580533    -15267.91 
      76   -15267.973 0.00053580533   -15267.973 
      77   -15268.057 0.00053580533   -15268.057 
      78   -15268.164 0.00053580533   -15268.164 
      79   -15268.293 0.00053580533   -15268.293 
      80   -15268.443 0.00053580533   -15268.443 
      81   -15268.614 0.00053580533   -15268.614 
      82   -15268.806 0.00053580533   -15268.806 
      83   -15269.018 0.00053580533   -15269.018 
      84    -15269.25 0.00053580533    -15269.25 
      85   -15269.501 0.00053580533   -15269.501 
      86    -15269.77 0.00053580533    -15269.77 
      87   -15270.057 0.00053580533   -15270.057 
      88   -15270.362 0.00053580533   -15270.362 
      89   -15270.682 0.00053580533   -15270.682 
      90    -15271.02 0.00053580533    -15271.02 
      91   -15271.377 0.00053580533   -15271.377 
      92   -15271.754 0.00053580533   -15271.754 
      93   -15272.153 0.00053580533   -15272.153 
      94   -15272.574 0.00053580533   -15272.574 
      95   -15273.017 0.00053580533   -15273.017 
      96   -15273.481 0.00053580533   -15273.481 
      97   -15273.965 0.00053580533   -15273.965 
      98   -15274.468 0.00053580533   -15274.468 
      99    -15274.99 0.00053580533    -15274.99 
     100    -15275.53 0.00053580533    -15275.53 
     101   -15276.088 0.00053580533   -15276.088 
     102   -15276.663 0.00053580533   -15276.663 
     103   -15277.254 0.00053580533   -15277.254 
     104   -15277.861 0.00053580533   -15277.861 
     105   -15278.481 0.00053580533   -15278.481 
     106   -15279.113 0.00053580533   -15279.113 
     107   -15279.754 0.00053580533   -15279.754 
     108   -15280.403 0.00053580533   -15280.403 
     109   -15281.055 0.00053580533   -15281.055 
     110   -15281.709 0.00053580533   -15281.709 
     111   -15282.359 0.00053580533   -15282.359 
     112   -15283.005 0.00053580533   -15283.005 
     113   -15283.641 0.00053580533   -15283.641 
     114   -15284.267 0.00053580533   -15284.267 
     115   -15284.879 0.00053580533   -15284.879 
     116   -15285.476 0.00053580533   -15285.476 
     117   -15286.056 0.00053580533   -15286.056 
     118   -15286.618 0.00053580533   -15286.618 
     119   -15287.162 0.00053580533   -15287.162 
     120   -15287.687 0.00053580533   -15287.687 
     121   -15288.193 0.00053580533   -15288.193 
     122    -15288.68 0.00053580533    -15288.68 
     123   -15289.148 0.00053580533   -15289.148 
     124   -15289.598 0.00053580533   -15289.598 
     125   -15290.028 0.00053580533   -15290.028 
     126   -15290.441 0.00053580533   -15290.441 
     127   -15290.835 0.00053580533   -15290.835 
     128   -15291.212 0.00053580533   -15291.212 
     129    -15291.57 0.00053580533    -15291.57 
     130   -15291.911 0.00053580533   -15291.911 
     131   -15292.235 0.00053580533   -15292.235 
     132   -15292.541 0.00053580533   -15292.541 
     133   -15292.829 0.00053580533   -15292.829 
     134     -15293.1 0.00053580533     -15293.1 
     135   -15293.353 0.00053580533   -15293.353 
     136   -15293.587 0.00053580533   -15293.587 
     137   -15293.803 0.00053580533   -15293.803 
     138       -15294 0.00053580533       -15294 
     139   -15294.177 0.00053580533   -15294.177 
     140   -15294.335 0.00053580533   -15294.335 
     141   -15294.473 0.00053580533   -15294.473 
     142    -15294.59 0.00053580533    -15294.59 
     143   -15294.686 0.00053580533   -15294.686 
     144    -15294.76 0.00053580533    -15294.76 
     145   -15294.813 0.00053580533   -15294.813 
     146   -15294.844 0.00053580533   -15294.844 
     147   -15294.851 0.00053580533   -15294.851 
     148   -15294.836 0.00053580533   -15294.836 
     149   -15294.797 0.00053580533   -15294.797 
     150   -15294.734 0.00053580533   -15294.734 
     151   -15294.646 0.00053580533   -15294.646 
     152   -15294.533 0.00053580533   -15294.533 
     153   -15294.396 0.00053580533   -15294.396 
     154   -15294.232 0.00053580533   -15294.232 
     155   -15294.043 0.00053580533   -15294.043 
     156   -15293.827 0.00053580533   -15293.827 
     157   -15293.585 0.00053580533   -15293.585 
     158   -15293.316 0.00053580533   -15293.316 
     159   -15293.019 0.00053580533   -15293.019 
     160   -15292.695 0.00053580533   -15292.695 
     161   -15292.343 0.00053580533   -15292.343 
     162   -15291.962 0.00053580533   -15291.962 
     163   -15291.553 0.00053580533   -15291.553 
     164   -15291.115 0.00053580533   -15291.115 
     165   -15290.647 0.00053580533   -15290.647 
     166   -15290.149 0.00053580533   -15290.149 
     167    -15289.62 0.00053580533    -15289.62 
     168   -15289.061 0.00053580533   -15289.061 
     169    -15288.47 0.00053580533    -15288.47 
     170   -15287.848 0.00053580533   -15287.848 
     171   -15287.192 0.00053580533   -15287.192 
     172   -15286.504 0.00053580533   -15286.504 
     173   -15285.781 0.00053580533   -15285.781 
     174   -15285.024 0.00053580533   -15285.024 
     175   -15284.231 0.00053580533   -15284.231 
     176   -15283.402 0.00053580533   -15283.402 
     177   -15282.536 0.00053580533   -15282.536 
     178   -15281.632 0.00053580533   -15281.632 
     179   -15280.689 0.00053580533   -15280.689 
     180   -15279.706 0.00053580533   -15279.706 
     181   -15278.682 0.00053580533   -15278.682 
     182   -15277.617 0.00053580533   -15277.617 
     183   -15276.508 0.00053580533   -15276.508 
     184   -15275.356 0.00053580533   -15275.356 
     185   -15274.158 0.00053580533   -15274.158 
     186   -15272.915 0.00053580533   -15272.915 
     187   -15271.625 0.00053580533   -15271.625 
     188   -15270.288 0.00053580533   -15270.288 
     189   -15268.903 0.00053580533   -15268.903 
     190   -15267.469 0.00053580533   -15267.469 
     191   -15265.987 0.00053580533   -15265.987 
     192   -15264.456 0.00053580533   -15264.456 
     193   -15262.877 0.00053580533   -15262.877 
     194   -15261.251 0.00053580533   -15261.251 
     195   -15259.579 0.00053580533   -15259.579 
     196   -15257.862 0.00053580533   -15257.862 
     197   -15256.103 0.00053580533   -15256.103 
     198   -15254.303 0.00053580533   -15254.303 
     199   -15252.465 0.00053580533   -15252.465 
     200   -15250.592 0.00053580533   -15250.592 
     201   -15248.687 0.00053580533   -15248.687 
     202   -15246.754 0.00053580533   -15246.754 
     203   -15244.796 0.00053580533   -15244.796 
     204   -15242.817 0.00053580533   -15242.817 
     205    -15240.82 0.00053580533    -15240.82 
     206   -15238.812 0.00053580533   -15238.812 
     207   -15236.792 0.00053580533   -15236.792 
     208   -15234.766 0.00053580533   -15234.766 
     209   -15232.738 0.00053580533   -15232.738 
     210    -15230.71 0.00053580533    -15230.71 
     211   -15228.682 0.00053580533   -15228.682 
     212   -15226.658 0.00053580533   -15226.658 
     213   -15224.635 0.00053580533   -15224.635 
     214   -15222.609 0.00053580533   -15222.609 
     215   -15220.583 0.00053580533   -15220.583 
     216   -15218.555 0.00053580533   -15218.555 
     217    -15216.52 0.00053580533    -15216.52 
     218   -15214.476 0.00053580533   -15214.476 
     219   -15212.424 0.00053580533   -15212.424 
     220   -15210.363 0.00053580533   -15210.363 
     221   -15208.292 0.00053580533   -15208.292 
     222   -15206.208 0.00053580533   -15206.208 
     223   -15204.111 0.00053580533   -15204.111 
     224   -15202.004 0.00053580533   -15202.004 
     225   -15199.887 0.00053580533   -15199.887 
     226   -15197.763 0.00053580533   -15197.763 
     227   -15195.631 0.00053580533   -15195.631 
     228   -15193.491 0.00053580533   -15193.491 
     229   -15191.345 0.00053580533   -15191.345 
     230   -15189.193 0.00053580533   -15189.193 
     231   -15187.038 0.00053580533   -15187.038 
     232    -15184.88 0.00053580533    -15184.88 
     233    -15182.72 0.00053580533    -15182.72 
     234   -15180.562 0.00053580533   -15180.562 
     235   -15178.405 0.00053580533   -15178.405 
     236   -15176.251 0.00053580533   -15176.251 
     237   -15174.103 0.00053580533   -15174.103 
     238   -15171.961 0.00053580533   -15171.961 
     239   -15169.827 0.00053580533   -15169.827 
     240   -15167.702 0.00053580533   -15167.702 
     241   -15165.588 0.00053580533   -15165.588 
     242   -15163.487 0.00053580533   -15163.487 
     243     -15161.4 0.00053580533     -15161.4 
     244   -15159.329 0.00053580533   -15159.329 
     245   -15157.274 0.00053580533   -15157.274 
     246   -15155.237 0.00053580533   -15155.237 
     247    -15153.22 0.00053580533    -15153.22 
     248   -15151.225 0.00053580533   -15151.225 
     249   -15149.251 0.00053580533   -15149.251 
     250   -15147.302 0.00053580533   -15147.302 
     251   -15145.377 0.00053580533   -15145.377 
     252   -15143.479 0.00053580533   -15143.479 
     253   -15141.607 0.00053580533   -15141.607 
     254   -15139.764 0.00053580533   -15139.764 
     255   -15137.951 0.00053580533   -15137.951 
     256   -15136.168 0.00053580533   -15136.168 
     257   -15134.416 0.00053580533   -15134.416 
     258   -15132.697 0.00053580533   -15132.697 
     259   -15131.012 0.00053580533   -15131.012 
     260   -15129.361 0.00053580533   -15129.361 
     261   -15127.745 0.00053580533   -15127.745 
     262   -15126.165 0.00053580533   -15126.165 
     263   -15124.623 0.00053580533   -15124.623 
     264   -15123.118 0.00053580533   -15123.118 
     265   -15121.652 0.00053580533   -15121.652 
     266   -15120.225 0.00053580533   -15120.225 
     267   -15118.839 0.00053580533   -15118.839 
     268   -15117.495 0.00053580533   -15117.495 
     269   -15116.193 0.00053580533   -15116.193 
     270   -15114.934 0.00053580533   -15114.934 
     271   -15113.718 0.00053580533   -15113.718 
     272   -15112.548 0.00053580533   -15112.548 
     273   -15111.423 0.00053580533   -15111.423 
     274   -15110.345 0.00053580533   -15110.345 
     275   -15109.314 0.00053580533   -15109.314 
     276   -15108.331 0.00053580533   -15108.331 
     277   -15107.397 0.00053580533   -15107.397 
     278   -15106.512 0.00053580533   -15106.512 
     279   -15105.677 0.00053580533   -15105.677 
     280   -15104.892 0.00053580533   -15104.892 
     281   -15104.159 0.00053580533   -15104.159 
     282   -15103.477 0.00053580533   -15103.477 
     283   -15102.847 0.00053580533   -15102.847 
     284   -15102.271 0.00053580533   -15102.271 
     285   -15101.747 0.00053580533   -15101.747 
     286   -15101.277 0.00053580533   -15101.277 
     287   -15100.861 0.00053580533   -15100.861 
     288   -15100.499 0.00053580533   -15100.499 
     289   -15100.192 0.00053580533   -15100.192 
     290   -15099.939 0.00053580533   -15099.939 
     291   -15099.741 0.00053580533   -15099.741 
     292   -15099.598 0.00053580533   -15099.598 
     293   -15099.511 0.00053580533   -15099.511 
     294   -15099.479 0.00053580533   -15099.479 
     295   -15099.502 0.00053580533   -15099.502 
     296    -15099.58 0.00053580533    -15099.58 
     297   -15099.714 0.00053580533   -15099.714 
     298   -15099.903 0.00053580533   -15099.903 
     299   -15100.147 0.00053580533   -15100.147 
     300   -15100.446 0.00053580533   -15100.446 
     301     -15100.8 0.00053580533     -15100.8 
     302   -15101.208 0.00053580533   -15101.208 
     303   -15101.671 0.00053580533   -15101.671 
     304   -15102.188 0.00053580533   -15102.188 
     305   -15102.759 0.00053580533   -15102.759 
     306   -15103.383 0.00053580533   -15103.383 
     307    -15104.06 0.00053580533    -15104.06 
     308   -15104.789 0.00053580533   -15104.789 
     309   -15105.571 0.00053580533   -15105.571 
     310   -15106.404 0.00053580533   -15106.404 
     311   -15107.288 0.00053580533   -15107.288 
     312   -15108.222 0.00053580533   -15108.222 
     313   -15109.206 0.00053580533   -15109.206 
     314   -15110.239 0.00053580533   -15110.239 
     315    -15111.32 0.00053580533    -15111.32 
     316   -15112.448 0.00053580533   -15112.448 
     317   -15113.624 0.00053580533   -15113.624 
     318   -15114.845 0.00053580533   -15114.845 
     319   -15116.111 0.00053580533   -15116.111 
     320   -15117.421 0.00053580533   -15117.421 
     321   -15118.775 0.00053580533   -15118.775 
     322   -15120.171 0.00053580533   -15120.171 
     323    -15121.61 0.00053580533    -15121.61 
     324   -15123.089 0.00053580533   -15123.089 
     325   -15124.608 0.00053580533   -15124.608 
     326   -15126.167 0.00053580533   -15126.167 
     327   -15127.764 0.00053580533   -15127.764 
     328   -15129.399 0.00053580533   -15129.399 
     329    -15131.07 0.00053580533    -15131.07 
     330   -15132.778 0.00053580533   -15132.778 
     331    -15134.52 0.00053580533    -15134.52 
     332   -15136.297 0.00053580533   -15136.297 
     333   -15138.106 0.00053580533   -15138.106 
     334   -15139.947 0.00053580533   -15139.947 
     335   -15141.819 0.00053580533   -15141.819 
     336    -15143.72 0.00053580533    -15143.72 
     337   -15145.649 0.00053580533   -15145.649 
     338   -15147.606 0.00053580533   -15147.606 
     339   -15149.588 0.00053580533   -15149.588 
     340   -15151.595 0.00053580533   -15151.595 
     341   -15153.625 0.00053580533   -15153.625 
     342   -15155.677 0.00053580533   -15155.677 
     343    -15157.75 0.00053580533    -15157.75 
     344   -15159.841 0.00053580533   -15159.841 
     345   -15161.951 0.00053580533   -15161.951 
     346   -15164.076 0.00053580533   -15164.076 
     347   -15166.216 0.00053580533   -15166.216 
     348   -15168.368 0.00053580533   -15168.368 
     349   -15170.533 0.00053580533   -15170.533 
     350   -15172.707 0.00053580533   -15172.707 
     351    -15174.89 0.00053580533    -15174.89 
     352    -15177.08 0.00053580533    -15177.08 
     353   -15179.275 0.00053580533   -15179.275 
     354   -15181.474 0.00053580533   -15181.474 
     355   -15183.675 0.00053580533   -15183.675 
     356   -15185.877 0.00053580533   -15185.877 
     357   -15188.077 0.00053580533   -15188.077 
     358   -15190.275 0.00053580533   -15190.275 
     359    -15192.47 0.00053580533    -15192.47 
     360   -15194.658 0.00053580533   -15194.658 
     361    -15196.84 0.00053580533    -15196.84 
     362   -15199.014 0.00053580533   -15199.014 
     363   -15201.177 0.00053580533   -15201.177 
     364    -15203.33 0.00053580533    -15203.33 
     365    -15205.47 0.00053580533    -15205.47 
     366   -15207.596 0.00053580533   -15207.596 
     367   -15209.708 0.00053580533   -15209.708 
     368   -15211.803 0.00053580533   -15211.803 
     369   -15213.881 0.00053580533   -15213.881 
     370   -15215.941 0.00053580533   -15215.941 
     371   -15217.981 0.00053580533   -15217.981 
     372   -15220.003 0.00053580533   -15220.003 
     373   -15222.006 0.00053580533   -15222.006 
     374   -15223.995 0.00053580533   -15223.995 
     375   -15225.969 0.00053580533   -15225.969 
     376    -15227.93 0.00053580533    -15227.93 
     377   -15229.876 0.00053580533   -15229.876 
     378   -15231.808 0.00053580533   -15231.808 
     379   -15233.726 0.00053580533   -15233.726 
     380    -15235.63 0.00053580533    -15235.63 
     381   -15237.521 0.00053580533   -15237.521 
     382   -15239.401 0.00053580533   -15239.401 
     383   -15241.274 0.00053580533   -15241.274 
     384   -15243.137 0.00053580533   -15243.137 
     385   -15244.989 0.00053580533   -15244.989 
     386   -15246.828 0.00053580533   -15246.828 
     387   -15248.653 0.00053580533   -15248.653 
     388   -15250.464 0.00053580533   -15250.464 
     389   -15252.259 0.00053580533   -15252.259 
     390   -15254.032 0.00053580533   -15254.032 
     391   -15255.779 0.00053580533   -15255.779 
     392   -15257.497 0.00053580533   -15257.497 
     393   -15259.182 0.00053580533   -15259.182 
     394    -15260.83 0.00053580533    -15260.83 
     395   -15262.438 0.00053580533   -15262.438 
     396   -15264.005 0.00053580533   -15264.005 
     397   -15265.529 0.00053580533   -15265.529 
     398   -15267.008 0.00053580533   -15267.008 
     399   -15268.441 0.00053580533   -15268.441 
     400   -15269.828 0.00053580533   -15269.828 
     401   -15271.169 0.00053580533   -15271.169 
     402   -15272.464 0.00053580533   -15272.464 
     403   -15273.713 0.00053580533   -15273.713 
     404   -15274.917 0.00053580533   -15274.917 
     405   -15276.077 0.00053580533   -15276.077 
     406   -15277.192 0.00053580533   -15277.192 
     407   -15278.265 0.00053580533   -15278.265 
     408   -15279.295 0.00053580533   -15279.295 
     409   -15280.285 0.00053580533   -15280.285 
     410   -15281.233 0.00053580533   -15281.233 
     411   -15282.143 0.00053580533   -15282.143 
     412   -15283.013 0.00053580533   -15283.013 
     413   -15283.846 0.00053580533   -15283.846 
     414   -15284.642 0.00053580533   -15284.642 
     415   -15285.401 0.00053580533   -15285.401 
     416   -15286.125 0.00053580533   -15286.125 
     417   -15286.815 0.00053580533   -15286.815 
     418    -15287.47 0.00053580533    -15287.47 
     419   -15288.092 0.00053580533   -15288.092 
     420   -15288.681 0.00053580533   -15288.681 
     421   -15289.238 0.00053580533   -15289.238 
     422   -15289.763 0.00053580533   -15289.763 
     423   -15290.257 0.00053580533   -15290.257 
     424   -15290.721 0.00053580533   -15290.721 
     425   -15291.154 0.00053580533   -15291.154 
     426   -15291.558 0.00053580533   -15291.558 
     427   -15291.933 0.00053580533   -15291.933 
     428   -15292.279 0.00053580533   -15292.279 
     429   -15292.597 0.00053580533   -15292.597 
     430   -15292.886 0.00053580533   -15292.886 
     431   -15293.148 0.00053580533   -15293.148 
     432   -15293.382 0.00053580533   -15293.382 
     433    -15293.59 0.00053580533    -15293.59 
     434   -15293.772 0.00053580533   -15293.772 
     435   -15293.928 0.00053580533   -15293.928 
     436   -15294.058 0.00053580533   -15294.058 
     437   -15294.163 0.00053580533   -15294.163 
     438   -15294.244 0.00053580533   -15294.244 
     439     -15294.3 0.00053580533     -15294.3 
     440   -15294.333 0.00053580533   -15294.333 
     441   -15294.342 0.00053580533   -15294.342 
     442   -15294.328 0.00053580533   -15294.328 
     443   -15294.291 0.00053580533   -15294.291 
     444   -15294.233 0.00053580533   -15294.233 
     445   -15294.153 0.00053580533   -15294.153 
     446   -15294.052 0.00053580533   -15294.052 
     447    -15293.93 0.00053580533    -15293.93 
     448   -15293.789 0.00053580533   -15293.789 
     449   -15293.628 0.00053580533   -15293.628 
     450   -15293.447 0.00053580533   -15293.447 
     451   -15293.246 0.00053580533   -15293.246 
     452   -15293.026 0.00053580533   -15293.026 
     453   -15292.789 0.00053580533   -15292.789 
     454   -15292.533 0.00053580533   -15292.533 
     455   -15292.261 0.00053580533   -15292.261 
     456   -15291.971 0.00053580533   -15291.971 
     457   -15291.664 0.00053580533   -15291.664 
     458    -15291.34 0.00053580533    -15291.34 
     459       -15291 0.00053580533       -15291 
     460   -15290.643 0.00053580533   -15290.643 
     461   -15290.269 0.00053580533   -15290.269 
     462   -15289.878 0.00053580533   -15289.878 
     463   -15289.471 0.00053580533   -15289.471 
     464   -15289.047 0.00053580533   -15289.047 
     465   -15288.606 0.00053580533   -15288.606 
     466   -15288.149 0.00053580533   -15288.149 
     467   -15287.674 0.00053580533   -15287.674 
     468   -15287.182 0.00053580533   -15287.182 
     469   -15286.673 0.00053580533   -15286.673 
     470   -15286.148 0.00053580533   -15286.148 
     471   -15285.605 0.00053580533   -15285.605 
     472   -15285.046 0.00053580533   -15285.046 
     473   -15284.471 0.00053580533   -15284.471 
     474   -15283.882 0.00053580533   -15283.882 
     475   -15283.279 0.00053580533   -15283.279 
     476   -15282.663 0.00053580533   -15282.663 
     477   -15282.037 0.00053580533   -15282.037 
     478   -15281.403 0.00053580533   -15281.403 
     479   -15280.763 0.00053580533   -15280.763 
     480    -15280.12 0.00053580533    -15280.12 
     481   -15279.478 0.00053580533   -15279.478 
     482   -15278.838 0.00053580533   -15278.838 
     483   -15278.205 0.00053580533   -15278.205 
     484    -15277.58 0.00053580533    -15277.58 
     485   -15276.968 0.00053580533   -15276.968 
     486   -15276.369 0.00053580533   -15276.369 
     487   -15275.788 0.00053580533   -15275.788 
     488   -15275.226 0.00053580533   -15275.226 
     489   -15274.684 0.00053580533   -15274.684 
     490   -15274.165 0.00053580533   -15274.165 
     491   -15273.669 0.00053580533   -15273.669 
     492   -15273.198 0.00053580533   -15273.198 
     493   -15272.749 0.00053580533   -15272.749 
     494   -15272.323 0.00053580533   -15272.323 
     495   -15271.917 0.00053580533   -15271.917 
     496    -15271.53 0.00053580533    -15271.53 
     497   -15271.161 0.00053580533   -15271.161 
     498   -15270.808 0.00053580533   -15270.808 
     499   -15270.471 0.00053580533   -15270.471 
     500    -15270.15 0.00053580533    -15270.15 
Loop time of 34.4303 on 1 procs for 500 steps with 3600 atoms

Performance: 1254.708 ns/day, 0.019 hours/ns, 14.522 timesteps/s
99.3% CPU use with 1 MPI tasks x 1 OpenMP threads

MPI task timing breakdown:
Section |  min time  |  avg time  |  max time  |%varavg| %total
---------------------------------------------------------------
Pair    | 34.315     | 34.315     | 34.315     |   0.0 | 99.67
Neigh   | 0.060697   | 0.060697   | 0.060697   |   0.0 |  0.18
Comm    | 0.0088862  | 0.0088862  | 0.0088862  |   0.0 |  0.03
Output  | 0.025834   | 0.025834   | 0.025834   |   0.0 |  0.08
Modify  | 0.013338   | 0.013338   | 0.013338   |   0.0 |  0.04
Other   |            | 0.006284   |            |       |  0.02

Nlocal:        3600.00 ave        3600 max        3600 min
Histogram: 1 0 0 0 0 0 0 0 0 0
Nghost:        3606.00 ave        3606 max        3606 min
Histogram: 1 0 0 0 0 0 0 0 0 0
Neighs:        146869.0 ave      146869 max      146869 min
Histogram: 1 0 0 0 0 0 0 0 0 0
FullNghs:      293738.0 ave      293738 max      293738 min
Histogram: 1 0 0 0 0 0 0 0 0 0

Total # of neighbors = 293738
Ave neighs/atom = 81.593889
Neighbor list builds = 4
Dangerous builds = 0

Total wall time: 0:00:46
