LAMMPS data file via write_data version 30 Jul 2021 timestep = 0
4000 atoms
5 atom types
0 35.97 xlo xhi
0 35.97 ylo yhi
0 35.97 zlo zhi
0.0 0.0 0.0 xy xz yz
 
Masses
 
1 1.0
2 2.0
3 3.0
4 4.0
5 5.0
 
Atoms  # atomic
 
1528 1 19.7835 12.5895 3.597 0 0 0
1405 1 21.582 0.0 3.597 0 0 0
218 1 32.373 1.7985 16.1865 0 0 0
4 1 34.1715 1.7985 3.597 0 0 0
2792 1 8.9925 16.1865 25.179 0 0 0
1338 1 25.179 30.5745 16.1865 0 0 0
2786 1 10.791 16.1865 23.3805 0 0 0
2542 1 14.388 30.5745 19.7835 0 0 0
885 1 28.776 25.179 3.597 0 0 0
2184 1 16.1865 34.1715 17.985 0 0 0
726 1 28.776 12.5895 5.3955 0 0 0
773 1 28.776 14.388 10.791 0 0 0
797 1 28.776 14.388 32.373 0 0 0
2022 1 17.985 19.7835 19.7835 0 0 0
360 1 30.5745 12.5895 32.373 0 0 0
2486 1 14.388 26.9775 5.3955 0 0 0
2532 1 12.5895 30.5745 7.194 0 0 0
1732 1 19.7835 30.5745 7.194 0 0 0
3483 1 1.7985 7.194 1.7985 0 0 0
987 1 26.9775 32.373 23.3805 0 0 0
466 1 32.373 23.3805 23.3805 0 0 0
1261 1 25.179 21.582 17.985 0 0 0
1963 1 16.1865 14.388 1.7985 0 0 0
2487 1 12.5895 25.179 5.3955 0 0 0
132 1 34.1715 23.3805 17.985 0 0 0
3430 1 3.597 1.7985 26.9775 0 0 0
1700 1 19.7835 26.9775 14.388 0 0 0
3896 1 0.0 16.1865 26.9775 0 0 0
1422 1 21.582 1.7985 19.7835 0 0 0
2920 1 8.9925 26.9775 32.373 0 0 0
3561 1 3.597 14.388 0.0 0 0 0
2121 1 17.985 28.776 0.0 0 0 0
1307 1 23.3805 25.179 23.3805 0 0 0
3807 1 0.0 0.0 10.791 0 0 0
1821 1 17.985 0.0 17.985 0 0 0
1208 1 23.3805 19.7835 3.597 0 0 0
2758 1 10.791 12.5895 34.1715 0 0 0
141 1 34.1715 25.179 1.7985 0 0 0
861 1 28.776 21.582 17.985 0 0 0
1818 1 17.985 1.7985 16.1865 0 0 0
1327 1 23.3805 28.776 5.3955 0 0 0
649 1 28.776 3.597 7.194 0 0 0
192 1 34.1715 34.1715 17.985 0 0 0
2545 1 14.388 28.776 21.582 0 0 0
93 1 34.1715 14.388 23.3805 0 0 0
1282 1 25.179 26.9775 1.7985 0 0 0
3283 1 5.3955 25.179 1.7985 0 0 0
493 1 32.373 25.179 10.791 0 0 0
346 1 32.373 12.5895 23.3805 0 0 0
2700 1 8.9925 8.9925 14.388 0 0 0
2107 1 16.1865 25.179 23.3805 0 0 0
3005 1 7.194 0.0 3.597 0 0 0
1120 1 23.3805 8.9925 32.373 0 0 0
3349 1 7.194 28.776 25.179 0 0 0
1761 1 21.582 32.373 0.0 0 0 0
3787 1 1.7985 32.373 23.3805 0 0 0
2845 1 10.791 21.582 3.597 0 0 0
1216 1 23.3805 19.7835 10.791 0 0 0
311 1 30.5745 7.194 26.9775 0 0 0
1255 1 23.3805 21.582 12.5895 0 0 0
2633 1 10.791 0.0 28.776 0 0 0
3464 1 1.7985 5.3955 17.985 0 0 0
3989 1 0.0 32.373 14.388 0 0 0
3761 1 3.597 32.373 0.0 0 0 0
124 1 34.1715 23.3805 3.597 0 0 0
3265 1 7.194 21.582 21.582 0 0 0
547 1 30.5745 28.776 23.3805 0 0 0
2888 1 8.9925 26.9775 3.597 0 0 0
3055 1 5.3955 3.597 12.5895 0 0 0
2250 1 14.388 5.3955 8.9925 0 0 0
3581 1 3.597 14.388 17.985 0 0 0
3949 1 0.0 25.179 14.388 0 0 0
1619 1 19.7835 17.985 16.1865 0 0 0
108 1 34.1715 19.7835 10.791 0 0 0
1646 1 21.582 23.3805 5.3955 0 0 0
258 1 32.373 5.3955 16.1865 0 0 0
1185 1 25.179 14.388 21.582 0 0 0
1219 1 23.3805 17.985 16.1865 0 0 0
2803 1 8.9925 17.985 1.7985 0 0 0
2498 1 14.388 26.9775 16.1865 0 0 0
505 1 32.373 25.179 21.582 0 0 0
227 1 30.5745 0.0 23.3805 0 0 0
894 1 28.776 26.9775 12.5895 0 0 0
79 1 34.1715 10.791 34.1715 0 0 0
868 1 26.9775 23.3805 21.582 0 0 0
3791 1 1.7985 32.373 26.9775 0 0 0
1124 1 23.3805 12.5895 0.0 0 0 0
1695 1 19.7835 25.179 12.5895 0 0 0
3082 1 7.194 8.9925 1.7985 0 0 0
2089 1 17.985 25.179 7.194 0 0 0
2059 1 16.1865 21.582 16.1865 0 0 0
2555 1 12.5895 28.776 30.5745 0 0 0
3454 1 3.597 5.3955 12.5895 0 0 0
3092 1 5.3955 8.9925 7.194 0 0 0
607 1 26.9775 0.0 5.3955 0 0 0
261 1 32.373 3.597 17.985 0 0 0
3288 1 5.3955 26.9775 3.597 0 0 0
143 1 34.1715 25.179 5.3955 0 0 0
349 1 32.373 10.791 25.179 0 0 0
3786 1 3.597 34.1715 23.3805 0 0 0
289 1 32.373 7.194 7.194 0 0 0
1900 1 16.1865 8.9925 14.388 0 0 0
1887 1 16.1865 7.194 5.3955 0 0 0
2724 1 8.9925 12.5895 0.0 0 0 0
1601 1 21.582 17.985 0.0 0 0 0
125 1 34.1715 21.582 8.9925 0 0 0
965 1 28.776 32.373 3.597 0 0 0
3585 1 3.597 14.388 21.582 0 0 0
1913 1 17.985 7.194 28.776 0 0 0
469 1 32.373 21.582 25.179 0 0 0
2219 1 12.5895 0.0 16.1865 0 0 0
3905 1 0.0 17.985 7.194 0 0 0
395 1 30.5745 14.388 30.5745 0 0 0
871 1 26.9775 21.582 26.9775 0 0 0
2007 1 16.1865 17.985 5.3955 0 0 0
2860 1 8.9925 23.3805 14.388 0 0 0
686 1 28.776 8.9925 5.3955 0 0 0
2254 1 14.388 5.3955 12.5895 0 0 0
2644 1 8.9925 5.3955 0.0 0 0 0
2366 1 14.388 16.1865 5.3955 0 0 0
3240 1 5.3955 19.7835 32.373 0 0 0
1697 1 21.582 25.179 14.388 0 0 0
2710 1 10.791 8.9925 26.9775 0 0 0
1072 1 23.3805 5.3955 25.179 0 0 0
2447 1 12.5895 21.582 5.3955 0 0 0
1842 1 17.985 5.3955 1.7985 0 0 0
1992 1 16.1865 16.1865 25.179 0 0 0
583 1 30.5745 32.373 19.7835 0 0 0
2938 1 10.791 30.5745 16.1865 0 0 0
495 1 30.5745 25.179 12.5895 0 0 0
511 1 30.5745 25.179 26.9775 0 0 0
2258 1 14.388 5.3955 16.1865 0 0 0
140 1 34.1715 23.3805 32.373 0 0 0
1565 1 21.582 14.388 3.597 0 0 0
991 1 26.9775 32.373 26.9775 0 0 0
1574 1 21.582 16.1865 12.5895 0 0 0
296 1 30.5745 8.9925 10.791 0 0 0
1664 1 19.7835 23.3805 17.985 0 0 0
3986 1 0.0 34.1715 8.9925 0 0 0
2405 1 14.388 17.985 3.597 0 0 0
3290 1 7.194 26.9775 8.9925 0 0 0
2478 1 14.388 23.3805 34.1715 0 0 0
3387 1 5.3955 32.373 23.3805 0 0 0
3435 1 1.7985 0.0 30.5745 0 0 0
2025 1 17.985 17.985 21.582 0 0 0
3066 1 7.194 5.3955 23.3805 0 0 0
2614 1 10.791 1.7985 12.5895 0 0 0
2554 1 14.388 30.5745 30.5745 0 0 0
1411 1 19.7835 0.0 8.9925 0 0 0
321 1 32.373 10.791 0.0 0 0 0
555 1 30.5745 28.776 30.5745 0 0 0
2984 1 8.9925 34.1715 17.985 0 0 0
3696 1 1.7985 26.9775 10.791 0 0 0
1095 1 23.3805 7.194 12.5895 0 0 0
48 1 34.1715 8.9925 10.791 0 0 0
751 1 26.9775 10.791 26.9775 0 0 0
3637 1 3.597 17.985 32.373 0 0 0
2336 1 12.5895 12.5895 10.791 0 0 0
1562 1 21.582 16.1865 1.7985 0 0 0
1138 1 25.179 12.5895 16.1865 0 0 0
2822 1 10.791 19.7835 19.7835 0 0 0
3378 1 7.194 34.1715 16.1865 0 0 0
1259 1 23.3805 21.582 16.1865 0 0 0
1154 1 25.179 12.5895 30.5745 0 0 0
3732 1 1.7985 30.5745 7.194 0 0 0
2314 1 14.388 8.9925 30.5745 0 0 0
3661 1 3.597 21.582 17.985 0 0 0
131 1 34.1715 21.582 19.7835 0 0 0
4000 1 0.0 34.1715 34.1715 0 0 0
60 1 34.1715 8.9925 32.373 0 0 0
874 1 28.776 23.3805 30.5745 0 0 0
3683 1 1.7985 25.179 1.7985 0 0 0
2227 1 12.5895 0.0 23.3805 0 0 0
3731 1 1.7985 28.776 8.9925 0 0 0
76 1 34.1715 12.5895 25.179 0 0 0
3959 1 0.0 25.179 32.373 0 0 0
3346 1 7.194 30.5745 23.3805 0 0 0
776 1 26.9775 16.1865 10.791 0 0 0
1356 1 23.3805 30.5745 28.776 0 0 0
1179 1 23.3805 14.388 16.1865 0 0 0
171 1 34.1715 28.776 19.7835 0 0 0
439 1 30.5745 17.985 34.1715 0 0 0
2930 1 10.791 30.5745 8.9925 0 0 0
1004 1 23.3805 1.7985 0.0 0 0 0
3878 1 0.0 12.5895 30.5745 0 0 0
1588 1 19.7835 16.1865 21.582 0 0 0
189 1 34.1715 32.373 16.1865 0 0 0
535 1 30.5745 28.776 12.5895 0 0 0
2102 1 17.985 26.9775 19.7835 0 0 0
1833 1 17.985 0.0 28.776 0 0 0
3456 1 1.7985 5.3955 10.791 0 0 0
3779 1 1.7985 32.373 16.1865 0 0 0
664 1 26.9775 5.3955 17.985 0 0 0
295 1 30.5745 7.194 12.5895 0 0 0
92 1 34.1715 16.1865 17.985 0 0 0
989 1 28.776 32.373 25.179 0 0 0
2425 1 14.388 17.985 21.582 0 0 0
2326 1 14.388 12.5895 5.3955 0 0 0
2041 1 17.985 21.582 0.0 0 0 0
2610 1 10.791 1.7985 8.9925 0 0 0
1889 1 17.985 7.194 7.194 0 0 0
2124 1 16.1865 30.5745 0.0 0 0 0
1602 1 21.582 19.7835 1.7985 0 0 0
1692 1 19.7835 26.9775 7.194 0 0 0
1670 1 21.582 23.3805 26.9775 0 0 0
389 1 32.373 14.388 25.179 0 0 0
1869 1 17.985 3.597 25.179 0 0 0
196 1 34.1715 34.1715 25.179 0 0 0
867 1 26.9775 21.582 23.3805 0 0 0
2122 1 17.985 30.5745 1.7985 0 0 0
9 1 34.1715 0.0 16.1865 0 0 0
391 1 30.5745 14.388 26.9775 0 0 0
3203 1 5.3955 17.985 1.7985 0 0 0
3576 1 1.7985 16.1865 10.791 0 0 0
571 1 30.5745 32.373 8.9925 0 0 0
388 1 30.5745 16.1865 21.582 0 0 0
65 1 34.1715 10.791 8.9925 0 0 0
3226 1 7.194 19.7835 23.3805 0 0 0
2991 1 8.9925 32.373 26.9775 0 0 0
1500 1 19.7835 8.9925 14.388 0 0 0
1707 1 19.7835 25.179 23.3805 0 0 0
276 1 30.5745 5.3955 28.776 0 0 0
3358 1 7.194 30.5745 34.1715 0 0 0
3492 1 1.7985 8.9925 7.194 0 0 0
1016 1 23.3805 1.7985 10.791 0 0 0
3912 1 0.0 19.7835 19.7835 0 0 0
3319 1 5.3955 25.179 34.1715 0 0 0
3528 1 1.7985 12.5895 3.597 0 0 0
3101 1 7.194 7.194 17.985 0 0 0
64 1 34.1715 12.5895 3.597 0 0 0
2674 1 10.791 5.3955 30.5745 0 0 0
1544 1 19.7835 12.5895 17.985 0 0 0
274 1 32.373 5.3955 30.5745 0 0 0
3479 1 1.7985 3.597 34.1715 0 0 0
2002 1 17.985 19.7835 1.7985 0 0 0
1934 1 17.985 12.5895 12.5895 0 0 0
1839 1 16.1865 0.0 34.1715 0 0 0
1453 1 21.582 3.597 10.791 0 0 0
2967 1 8.9925 32.373 5.3955 0 0 0
3866 1 0.0 12.5895 8.9925 0 0 0
2072 1 16.1865 23.3805 25.179 0 0 0
383 1 30.5745 14.388 19.7835 0 0 0
2882 1 10.791 26.9775 1.7985 0 0 0
2975 1 8.9925 32.373 12.5895 0 0 0
939 1 26.9775 28.776 16.1865 0 0 0
3284 1 5.3955 26.9775 0.0 0 0 0
634 1 28.776 1.7985 30.5745 0 0 0
2091 1 16.1865 25.179 8.9925 0 0 0
3913 1 0.0 17.985 21.582 0 0 0
3639 1 1.7985 17.985 34.1715 0 0 0
577 1 32.373 32.373 14.388 0 0 0
1408 1 19.7835 1.7985 3.597 0 0 0
1850 1 17.985 5.3955 8.9925 0 0 0
3920 1 0.0 19.7835 34.1715 0 0 0
883 1 26.9775 25.179 1.7985 0 0 0
37 1 34.1715 3.597 30.5745 0 0 0
950 1 28.776 30.5745 26.9775 0 0 0
1121 1 25.179 10.791 0.0 0 0 0
1318 1 25.179 26.9775 34.1715 0 0 0
112 1 34.1715 19.7835 17.985 0 0 0
2297 1 14.388 7.194 14.388 0 0 0
3077 1 7.194 3.597 32.373 0 0 0
2778 1 10.791 16.1865 16.1865 0 0 0
153 1 34.1715 25.179 23.3805 0 0 0
202 1 32.373 1.7985 1.7985 0 0 0
1877 1 17.985 3.597 32.373 0 0 0
1328 1 23.3805 30.5745 3.597 0 0 0
1335 1 23.3805 28.776 12.5895 0 0 0
3437 2 3.597 0.0 32.373 0 0 0
3141 2 7.194 10.791 17.985 0 0 0
3946 2 0.0 26.9775 8.9925 0 0 0
3587 2 1.7985 14.388 23.3805 0 0 0
1369 2 25.179 32.373 7.194 0 0 0
2296 2 12.5895 8.9925 10.791 0 0 0
1676 2 19.7835 23.3805 28.776 0 0 0
2563 2 12.5895 32.373 1.7985 0 0 0
2050 2 17.985 23.3805 8.9925 0 0 0
2519 2 12.5895 25.179 34.1715 0 0 0
601 2 28.776 0.0 0.0 0 0 0
1182 2 25.179 16.1865 19.7835 0 0 0
219 2 30.5745 0.0 16.1865 0 0 0
596 2 30.5745 34.1715 28.776 0 0 0
3535 2 1.7985 10.791 12.5895 0 0 0
2332 2 12.5895 12.5895 7.194 0 0 0
1758 2 21.582 30.5745 34.1715 0 0 0
666 2 28.776 5.3955 23.3805 0 0 0
2404 2 12.5895 19.7835 0.0 0 0 0
3573 2 3.597 14.388 10.791 0 0 0
1678 2 21.582 23.3805 34.1715 0 0 0
2918 2 10.791 26.9775 34.1715 0 0 0
2582 2 14.388 34.1715 19.7835 0 0 0
232 2 30.5745 1.7985 25.179 0 0 0
3449 2 3.597 3.597 7.194 0 0 0
3237 2 7.194 17.985 32.373 0 0 0
3230 2 7.194 19.7835 26.9775 0 0 0
1738 2 21.582 30.5745 16.1865 0 0 0
1932 2 16.1865 12.5895 7.194 0 0 0
1990 2 17.985 16.1865 26.9775 0 0 0
36 2 34.1715 5.3955 25.179 0 0 0
3365 2 7.194 32.373 3.597 0 0 0
1988 2 16.1865 16.1865 21.582 0 0 0
1519 2 19.7835 7.194 34.1715 0 0 0
3 2 34.1715 0.0 5.3955 0 0 0
3163 2 5.3955 14.388 1.7985 0 0 0
3486 2 3.597 8.9925 5.3955 0 0 0
2735 2 8.9925 10.791 12.5895 0 0 0
1471 2 19.7835 3.597 26.9775 0 0 0
2454 2 14.388 23.3805 12.5895 0 0 0
2406 2 14.388 19.7835 5.3955 0 0 0
2805 2 10.791 17.985 3.597 0 0 0
502 2 32.373 26.9775 19.7835 0 0 0
2087 2 16.1865 25.179 5.3955 0 0 0
1090 2 25.179 8.9925 8.9925 0 0 0
1330 2 25.179 30.5745 8.9925 0 0 0
611 2 26.9775 0.0 8.9925 0 0 0
2037 2 17.985 17.985 32.373 0 0 0
3982 2 0.0 34.1715 1.7985 0 0 0
2824 2 8.9925 19.7835 17.985 0 0 0
886 2 28.776 26.9775 5.3955 0 0 0
3010 2 7.194 1.7985 8.9925 0 0 0
292 2 30.5745 8.9925 7.194 0 0 0
1604 2 19.7835 19.7835 0.0 0 0 0
2148 2 16.1865 30.5745 21.582 0 0 0
1597 2 21.582 14.388 32.373 0 0 0
1871 2 16.1865 3.597 26.9775 0 0 0
2526 2 14.388 30.5745 5.3955 0 0 0
1733 2 21.582 28.776 10.791 0 0 0
485 2 32.373 25.179 3.597 0 0 0
1153 2 25.179 10.791 28.776 0 0 0
3824 2 0.0 5.3955 5.3955 0 0 0
3078 2 7.194 5.3955 34.1715 0 0 0
1925 2 17.985 10.791 3.597 0 0 0
3848 2 0.0 8.9925 12.5895 0 0 0
2806 2 10.791 19.7835 5.3955 0 0 0
2760 2 8.9925 12.5895 32.373 0 0 0
2361 2 14.388 14.388 0.0 0 0 0
633 2 28.776 0.0 28.776 0 0 0
3797 2 3.597 32.373 32.373 0 0 0
2006 2 17.985 19.7835 5.3955 0 0 0
1578 2 21.582 16.1865 16.1865 0 0 0
1076 2 23.3805 5.3955 28.776 0 0 0
1898 2 17.985 8.9925 16.1865 0 0 0
2902 2 10.791 26.9775 19.7835 0 0 0
1527 2 19.7835 10.791 5.3955 0 0 0
2180 2 16.1865 34.1715 14.388 0 0 0
1413 2 21.582 0.0 10.791 0 0 0
1907 2 16.1865 7.194 23.3805 0 0 0
3556 2 1.7985 12.5895 28.776 0 0 0
879 2 26.9775 21.582 34.1715 0 0 0
1419 2 19.7835 0.0 16.1865 0 0 0
1207 2 23.3805 17.985 5.3955 0 0 0
3443 2 1.7985 3.597 1.7985 0 0 0
1093 2 25.179 7.194 10.791 0 0 0
1769 2 21.582 32.373 7.194 0 0 0
1277 2 25.179 21.582 32.373 0 0 0
1543 2 19.7835 10.791 19.7835 0 0 0
2466 2 14.388 23.3805 23.3805 0 0 0
2527 2 12.5895 28.776 5.3955 0 0 0
862 2 28.776 23.3805 19.7835 0 0 0
1510 2 21.582 8.9925 26.9775 0 0 0
2396 2 12.5895 16.1865 28.776 0 0 0
804 2 26.9775 19.7835 0.0 0 0 0
2982 2 10.791 34.1715 19.7835 0 0 0
1806 2 17.985 1.7985 5.3955 0 0 0
800 2 26.9775 16.1865 32.373 0 0 0
2110 2 17.985 26.9775 26.9775 0 0 0
1566 2 21.582 16.1865 5.3955 0 0 0
2504 2 12.5895 26.9775 17.985 0 0 0
1017 2 25.179 0.0 14.388 0 0 0
3803 2 0.0 0.0 3.597 0 0 0
661 2 28.776 3.597 17.985 0 0 0
1409 2 21.582 0.0 7.194 0 0 0
1677 2 21.582 21.582 32.373 0 0 0
3718 2 3.597 26.9775 34.1715 0 0 0
3566 2 3.597 16.1865 5.3955 0 0 0
2402 2 14.388 19.7835 1.7985 0 0 0
2517 2 14.388 25.179 32.373 0 0 0
2465 2 14.388 21.582 21.582 0 0 0
717 2 28.776 7.194 32.373 0 0 0
2626 2 10.791 1.7985 23.3805 0 0 0
1370 2 25.179 34.1715 8.9925 0 0 0
2996 2 8.9925 34.1715 28.776 0 0 0
1151 2 23.3805 10.791 26.9775 0 0 0
1552 2 19.7835 12.5895 25.179 0 0 0
1872 2 16.1865 5.3955 25.179 0 0 0
1534 2 21.582 12.5895 12.5895 0 0 0
3051 2 5.3955 3.597 8.9925 0 0 0
3715 2 1.7985 25.179 30.5745 0 0 0
421 2 32.373 17.985 17.985 0 0 0
3451 2 1.7985 3.597 8.9925 0 0 0
1747 2 19.7835 28.776 23.3805 0 0 0
1808 2 16.1865 1.7985 3.597 0 0 0
2273 2 14.388 3.597 28.776 0 0 0
1722 2 21.582 30.5745 1.7985 0 0 0
3888 2 0.0 16.1865 12.5895 0 0 0
2160 2 16.1865 30.5745 32.373 0 0 0
3251 2 5.3955 21.582 8.9925 0 0 0
2529 2 14.388 28.776 7.194 0 0 0
2944 2 8.9925 30.5745 17.985 0 0 0
399 2 30.5745 14.388 34.1715 0 0 0
3805 2 0.0 0.0 7.194 0 0 0
2416 2 12.5895 19.7835 10.791 0 0 0
1945 2 17.985 10.791 21.582 0 0 0
3784 2 1.7985 34.1715 17.985 0 0 0
1673 2 21.582 21.582 28.776 0 0 0
3768 2 1.7985 34.1715 3.597 0 0 0
3333 2 7.194 28.776 10.791 0 0 0
2691 2 8.9925 7.194 8.9925 0 0 0
2062 2 17.985 23.3805 19.7835 0 0 0
2651 2 8.9925 3.597 8.9925 0 0 0
1426 2 21.582 1.7985 23.3805 0 0 0
2867 2 8.9925 21.582 23.3805 0 0 0
1041 2 25.179 3.597 0.0 0 0 0
2739 2 8.9925 10.791 16.1865 0 0 0
2243 2 12.5895 3.597 1.7985 0 0 0
3470 2 3.597 5.3955 26.9775 0 0 0
1083 2 23.3805 7.194 1.7985 0 0 0
1985 2 17.985 14.388 21.582 0 0 0
3138 2 7.194 12.5895 16.1865 0 0 0
1146 2 25.179 12.5895 23.3805 0 0 0
319 2 30.5745 7.194 34.1715 0 0 0
854 2 28.776 23.3805 12.5895 0 0 0
2810 2 10.791 19.7835 8.9925 0 0 0
2240 2 12.5895 1.7985 32.373 0 0 0
736 2 26.9775 12.5895 10.791 0 0 0
2601 2 10.791 0.0 0.0 0 0 0
2117 2 17.985 25.179 32.373 0 0 0
2965 2 10.791 32.373 3.597 0 0 0
2638 2 10.791 1.7985 34.1715 0 0 0
1211 2 23.3805 17.985 8.9925 0 0 0
1226 2 25.179 19.7835 23.3805 0 0 0
2368 2 12.5895 16.1865 3.597 0 0 0
2356 2 12.5895 12.5895 28.776 0 0 0
940 2 26.9775 30.5745 14.388 0 0 0
899 2 26.9775 25.179 16.1865 0 0 0
3370 2 7.194 34.1715 8.9925 0 0 0
1224 2 23.3805 19.7835 17.985 0 0 0
2866 2 10.791 23.3805 23.3805 0 0 0
2427 2 12.5895 17.985 23.3805 0 0 0
3695 2 1.7985 25.179 12.5895 0 0 0
2606 2 10.791 1.7985 5.3955 0 0 0
2197 2 17.985 32.373 32.373 0 0 0
942 2 28.776 30.5745 19.7835 0 0 0
3217 2 7.194 17.985 14.388 0 0 0
3302 2 7.194 26.9775 19.7835 0 0 0
2492 2 12.5895 26.9775 7.194 0 0 0
1564 2 19.7835 16.1865 0.0 0 0 0
363 2 30.5745 14.388 1.7985 0 0 0
1234 2 25.179 19.7835 30.5745 0 0 0
2605 2 10.791 0.0 3.597 0 0 0
1462 2 21.582 5.3955 19.7835 0 0 0
1693 2 21.582 25.179 10.791 0 0 0
266 2 32.373 5.3955 23.3805 0 0 0
3737 2 3.597 28.776 14.388 0 0 0
2862 2 10.791 23.3805 19.7835 0 0 0
3191 2 5.3955 14.388 26.9775 0 0 0
2120 2 16.1865 26.9775 32.373 0 0 0
3260 2 5.3955 23.3805 14.388 0 0 0
3105 2 7.194 7.194 21.582 0 0 0
1964 2 16.1865 16.1865 0.0 0 0 0
1554 2 21.582 12.5895 30.5745 0 0 0
425 2 32.373 17.985 21.582 0 0 0
1559 2 19.7835 10.791 34.1715 0 0 0
3600 2 1.7985 16.1865 32.373 0 0 0
532 2 30.5745 30.5745 7.194 0 0 0
121 2 34.1715 21.582 1.7985 0 0 0
858 2 28.776 23.3805 16.1865 0 0 0
3238 2 7.194 19.7835 34.1715 0 0 0
3463 2 1.7985 3.597 19.7835 0 0 0
1859 2 16.1865 3.597 16.1865 0 0 0
1364 2 23.3805 34.1715 0.0 0 0 0
1776 2 19.7835 34.1715 10.791 0 0 0
1816 2 16.1865 1.7985 10.791 0 0 0
2868 2 8.9925 23.3805 21.582 0 0 0
1928 2 16.1865 12.5895 3.597 0 0 0
364 2 30.5745 16.1865 0.0 0 0 0
3722 2 3.597 30.5745 1.7985 0 0 0
3423 2 1.7985 0.0 19.7835 0 0 0
1782 2 21.582 34.1715 19.7835 0 0 0
771 2 26.9775 14.388 8.9925 0 0 0
3145 2 7.194 10.791 21.582 0 0 0
1630 2 21.582 19.7835 26.9775 0 0 0
884 2 26.9775 26.9775 0.0 0 0 0
309 2 32.373 7.194 25.179 0 0 0
3102 2 7.194 8.9925 19.7835 0 0 0
3197 2 7.194 14.388 32.373 0 0 0
2804 2 8.9925 19.7835 0.0 0 0 0
1824 2 16.1865 1.7985 17.985 0 0 0
2872 2 8.9925 23.3805 25.179 0 0 0
40 2 34.1715 5.3955 32.373 0 0 0
2115 2 16.1865 25.179 30.5745 0 0 0
1498 2 21.582 8.9925 16.1865 0 0 0
3599 2 1.7985 14.388 34.1715 0 0 0
990 2 28.776 34.1715 26.9775 0 0 0
150 2 34.1715 26.9775 14.388 0 0 0
643 2 26.9775 3.597 1.7985 0 0 0
113 2 34.1715 17.985 23.3805 0 0 0
626 2 28.776 1.7985 23.3805 0 0 0
541 2 32.373 28.776 17.985 0 0 0
1651 2 19.7835 21.582 8.9925 0 0 0
1799 2 19.7835 32.373 34.1715 0 0 0
2280 2 12.5895 5.3955 32.373 0 0 0
557 2 32.373 28.776 32.373 0 0 0
3266 2 7.194 23.3805 23.3805 0 0 0
3744 2 1.7985 30.5745 17.985 0 0 0
2980 2 8.9925 34.1715 14.388 0 0 0
342 2 32.373 12.5895 19.7835 0 0 0
2494 2 14.388 26.9775 12.5895 0 0 0
1636 2 19.7835 19.7835 28.776 0 0 0
2773 2 10.791 14.388 10.791 0 0 0
1044 2 23.3805 5.3955 0.0 0 0 0
63 2 34.1715 10.791 5.3955 0 0 0
3812 2 0.0 1.7985 19.7835 0 0 0
89 2 34.1715 14.388 16.1865 0 0 0
552 2 30.5745 30.5745 25.179 0 0 0
3208 2 5.3955 19.7835 3.597 0 0 0
2634 2 10.791 1.7985 30.5745 0 0 0
3536 2 1.7985 12.5895 10.791 0 0 0
1279 2 23.3805 21.582 34.1715 0 0 0
451 2 30.5745 21.582 8.9925 0 0 0
3186 2 7.194 16.1865 23.3805 0 0 0
2127 2 16.1865 28.776 5.3955 0 0 0
3844 2 0.0 8.9925 5.3955 0 0 0
1993 2 17.985 14.388 28.776 0 0 0
945 2 28.776 28.776 21.582 0 0 0
2608 2 8.9925 1.7985 3.597 0 0 0
509 2 32.373 25.179 25.179 0 0 0
163 2 34.1715 28.776 5.3955 0 0 0
3089 2 7.194 7.194 7.194 0 0 0
118 2 34.1715 19.7835 28.776 0 0 0
3362 2 7.194 34.1715 1.7985 0 0 0
1223 2 23.3805 17.985 19.7835 0 0 0
614 2 28.776 1.7985 12.5895 0 0 0
1113 2 25.179 7.194 28.776 0 0 0
3200 2 5.3955 16.1865 32.373 0 0 0
2999 2 8.9925 32.373 34.1715 0 0 0
881 2 28.776 25.179 0.0 0 0 0
1333 2 25.179 28.776 10.791 0 0 0
525 2 32.373 28.776 3.597 0 0 0
2401 2 14.388 17.985 0.0 0 0 0
2096 2 16.1865 26.9775 10.791 0 0 0
2752 2 8.9925 12.5895 25.179 0 0 0
1107 2 23.3805 7.194 23.3805 0 0 0
462 2 32.373 23.3805 19.7835 0 0 0
3128 2 5.3955 12.5895 3.597 0 0 0
3293 2 7.194 25.179 10.791 0 0 0
1484 2 19.7835 8.9925 0.0 0 0 0
2687 2 8.9925 7.194 5.3955 0 0 0
2940 2 8.9925 30.5745 14.388 0 0 0
2068 2 16.1865 23.3805 21.582 0 0 0
254 2 32.373 5.3955 12.5895 0 0 0
2826 2 10.791 19.7835 23.3805 0 0 0
3502 2 3.597 8.9925 19.7835 0 0 0
3024 2 5.3955 1.7985 17.985 0 0 0
50 2 34.1715 8.9925 14.388 0 0 0
500 2 30.5745 26.9775 14.388 0 0 0
165 2 34.1715 28.776 8.9925 0 0 0
2008 2 16.1865 19.7835 3.597 0 0 0
753 2 28.776 10.791 28.776 0 0 0
2704 2 8.9925 8.9925 17.985 0 0 0
1796 2 19.7835 34.1715 28.776 0 0 0
1546 2 21.582 12.5895 23.3805 0 0 0
3589 2 3.597 14.388 25.179 0 0 0
3474 2 3.597 5.3955 30.5745 0 0 0
3705 2 3.597 25.179 21.582 0 0 0
3593 2 3.597 14.388 28.776 0 0 0
2313 2 14.388 7.194 28.776 0 0 0
246 2 32.373 5.3955 5.3955 0 0 0
83 2 34.1715 14.388 5.3955 0 0 0
1854 2 17.985 5.3955 12.5895 0 0 0
953 2 28.776 28.776 28.776 0 0 0
2508 2 12.5895 26.9775 21.582 0 0 0
100 2 34.1715 16.1865 32.373 0 0 0
1571 2 19.7835 14.388 8.9925 0 0 0
2276 2 12.5895 5.3955 28.776 0 0 0
3564 2 1.7985 16.1865 0.0 0 0 0
1011 2 23.3805 0.0 8.9925 0 0 0
668 2 26.9775 5.3955 21.582 0 0 0
3654 2 3.597 23.3805 12.5895 0 0 0
603 2 26.9775 0.0 1.7985 0 0 0
1133 2 25.179 10.791 10.791 0 0 0
966 2 28.776 34.1715 5.3955 0 0 0
2294 2 14.388 8.9925 12.5895 0 0 0
1392 2 23.3805 34.1715 25.179 0 0 0
334 2 32.373 12.5895 12.5895 0 0 0
2030 2 17.985 19.7835 26.9775 0 0 0
442 2 32.373 23.3805 1.7985 0 0 0
2019 2 16.1865 17.985 16.1865 0 0 0
3588 2 1.7985 16.1865 21.582 0 0 0
1569 2 21.582 14.388 7.194 0 0 0
175 2 34.1715 28.776 26.9775 0 0 0
267 2 30.5745 3.597 23.3805 0 0 0
1737 2 21.582 28.776 14.388 0 0 0
689 2 28.776 7.194 7.194 0 0 0
2493 2 14.388 25.179 10.791 0 0 0
3229 2 7.194 17.985 25.179 0 0 0
2118 2 17.985 26.9775 34.1715 0 0 0
1009 2 25.179 0.0 7.194 0 0 0
159 2 34.1715 25.179 34.1715 0 0 0
617 2 28.776 0.0 14.388 0 0 0
3776 2 1.7985 34.1715 10.791 0 0 0
3583 2 1.7985 14.388 19.7835 0 0 0
384 2 30.5745 16.1865 17.985 0 0 0
2966 2 10.791 34.1715 5.3955 0 0 0
3697 2 3.597 25.179 14.388 0 0 0
2450 2 14.388 23.3805 8.9925 0 0 0
2673 2 10.791 3.597 28.776 0 0 0
3602 2 3.597 19.7835 1.7985 0 0 0
1938 2 17.985 12.5895 16.1865 0 0 0
993 2 28.776 32.373 28.776 0 0 0
3724 2 1.7985 30.5745 0.0 0 0 0
812 2 26.9775 19.7835 7.194 0 0 0
3907 2 0.0 17.985 10.791 0 0 0
2208 2 12.5895 1.7985 3.597 0 0 0
3206 2 7.194 19.7835 5.3955 0 0 0
671 2 26.9775 3.597 26.9775 0 0 0
2712 2 8.9925 8.9925 25.179 0 0 0
3804 2 0.0 1.7985 5.3955 0 0 0
1361 2 25.179 32.373 0.0 0 0 0
1023 2 23.3805 0.0 19.7835 0 0 0
95 2 34.1715 14.388 26.9775 0 0 0
2074 2 17.985 23.3805 30.5745 0 0 0
2159 2 16.1865 28.776 34.1715 0 0 0
2238 2 14.388 1.7985 34.1715 0 0 0
1428 2 19.7835 1.7985 21.582 0 0 0
84 2 34.1715 16.1865 3.597 0 0 0
3043 2 5.3955 3.597 1.7985 0 0 0
2900 2 8.9925 26.9775 14.388 0 0 0
3410 2 3.597 1.7985 8.9925 0 0 0
2588 2 12.5895 34.1715 21.582 0 0 0
1688 2 19.7835 26.9775 3.597 0 0 0
3412 2 1.7985 1.7985 7.194 0 0 0
2138 2 17.985 30.5745 16.1865 0 0 0
3978 2 0.0 30.5745 30.5745 0 0 0
921 2 28.776 28.776 0.0 0 0 0
2579 2 12.5895 32.373 16.1865 0 0 0
999 2 26.9775 32.373 34.1715 0 0 0
695 2 26.9775 7.194 12.5895 0 0 0
600 2 30.5745 34.1715 32.373 0 0 0
1014 2 25.179 1.7985 12.5895 0 0 0
896 2 26.9775 26.9775 10.791 0 0 0
1343 2 23.3805 28.776 19.7835 0 0 0
2183 2 16.1865 32.373 19.7835 0 0 0
186 2 34.1715 34.1715 7.194 0 0 0
3881 2 0.0 14.388 0.0 0 0 0
818 2 28.776 19.7835 16.1865 0 0 0
2113 2 17.985 25.179 28.776 0 0 0
1720 2 19.7835 26.9775 32.373 0 0 0
2989 2 10.791 32.373 25.179 0 0 0
2256 2 12.5895 5.3955 10.791 0 0 0
2283 2 12.5895 7.194 1.7985 0 0 0
3509 2 3.597 7.194 25.179 0 0 0
3016 2 5.3955 1.7985 10.791 0 0 0
3159 2 5.3955 10.791 34.1715 0 0 0
3113 2 7.194 7.194 28.776 0 0 0
2282 2 14.388 8.9925 1.7985 0 0 0
2220 2 12.5895 1.7985 14.388 0 0 0
2441 2 14.388 21.582 0.0 0 0 0
1874 2 17.985 5.3955 30.5745 0 0 0
1836 2 16.1865 1.7985 28.776 0 0 0
813 2 28.776 17.985 10.791 0 0 0
932 2 26.9775 30.5745 7.194 0 0 0
499 2 30.5745 25.179 16.1865 0 0 0
290 2 32.373 8.9925 8.9925 0 0 0
3689 2 3.597 25.179 7.194 0 0 0
788 2 26.9775 16.1865 21.582 0 0 0
2511 2 12.5895 25.179 26.9775 0 0 0
3272 2 5.3955 23.3805 25.179 0 0 0
2319 2 12.5895 7.194 34.1715 0 0 0
1377 2 25.179 32.373 14.388 0 0 0
3771 2 1.7985 32.373 8.9925 0 0 0
1242 2 25.179 23.3805 1.7985 0 0 0
2378 2 14.388 16.1865 16.1865 0 0 0
654 2 28.776 5.3955 12.5895 0 0 0
467 2 30.5745 21.582 23.3805 0 0 0
1507 2 19.7835 7.194 23.3805 0 0 0
3948 2 0.0 26.9775 12.5895 0 0 0
1180 2 23.3805 16.1865 14.388 0 0 0
1701 2 21.582 25.179 17.985 0 0 0
3214 2 7.194 19.7835 12.5895 0 0 0
2849 2 10.791 21.582 7.194 0 0 0
376 2 30.5745 16.1865 10.791 0 0 0
2905 2 10.791 25.179 21.582 0 0 0
2514 2 14.388 26.9775 30.5745 0 0 0
2747 2 8.9925 10.791 23.3805 0 0 0
3927 2 0.0 21.582 10.791 0 0 0
372 2 30.5745 16.1865 7.194 0 0 0
1906 2 17.985 8.9925 23.3805 0 0 0
2453 2 14.388 21.582 10.791 0 0 0
3693 2 3.597 25.179 10.791 0 0 0
2524 2 12.5895 30.5745 0.0 0 0 0
610 2 28.776 1.7985 8.9925 0 0 0
3477 2 3.597 3.597 32.373 0 0 0
3425 2 3.597 0.0 21.582 0 0 0
1648 2 19.7835 23.3805 3.597 0 0 0
1168 2 23.3805 16.1865 3.597 0 0 0
178 2 34.1715 30.5745 28.776 0 0 0
783 2 26.9775 14.388 19.7835 0 0 0
30 2 34.1715 5.3955 14.388 0 0 0
653 2 28.776 3.597 10.791 0 0 0
3834 2 0.0 5.3955 23.3805 0 0 0
1147 2 23.3805 10.791 23.3805 0 0 0
3009 2 7.194 0.0 7.194 0 0 0
1890 2 17.985 8.9925 8.9925 0 0 0
1845 2 17.985 3.597 3.597 0 0 0
3958 2 0.0 26.9775 30.5745 0 0 0
3033 2 7.194 0.0 28.776 0 0 0
920 2 26.9775 26.9775 32.373 0 0 0
1375 2 23.3805 32.373 12.5895 0 0 0
2452 2 12.5895 23.3805 7.194 0 0 0
1262 2 25.179 23.3805 19.7835 0 0 0
3904 2 0.0 19.7835 5.3955 0 0 0
3855 2 0.0 7.194 25.179 0 0 0
1447 2 19.7835 3.597 5.3955 0 0 0
2268 2 12.5895 5.3955 21.582 0 0 0
483 2 30.5745 25.179 1.7985 0 0 0
123 2 34.1715 21.582 5.3955 0 0 0
2839 2 8.9925 17.985 34.1715 0 0 0
1157 2 25.179 10.791 32.373 0 0 0
179 2 34.1715 28.776 34.1715 0 0 0
176 2 34.1715 30.5745 25.179 0 0 0
1502 2 21.582 8.9925 19.7835 0 0 0
1320 2 23.3805 26.9775 32.373 0 0 0
628 2 26.9775 1.7985 21.582 0 0 0
2558 2 14.388 30.5745 34.1715 0 0 0
1930 2 17.985 12.5895 8.9925 0 0 0
1201 2 25.179 17.985 0.0 0 0 0
3488 2 1.7985 8.9925 3.597 0 0 0
394 2 32.373 16.1865 30.5745 0 0 0
1517 2 21.582 7.194 32.373 0 0 0
1446 2 21.582 5.3955 5.3955 0 0 0
3667 2 1.7985 21.582 23.3805 0 0 0
1503 2 19.7835 7.194 19.7835 0 0 0
3467 2 1.7985 3.597 23.3805 0 0 0
3894 2 0.0 16.1865 23.3805 0 0 0
3868 2 0.0 12.5895 12.5895 0 0 0
3367 2 5.3955 32.373 5.3955 0 0 0
3788 2 1.7985 34.1715 21.582 0 0 0
549 2 32.373 28.776 25.179 0 0 0
2374 2 14.388 16.1865 12.5895 0 0 0
2949 2 10.791 28.776 25.179 0 0 0
2537 2 14.388 28.776 14.388 0 0 0
554 2 32.373 30.5745 30.5745 0 0 0
2123 2 16.1865 28.776 1.7985 0 0 0
3185 2 7.194 14.388 21.582 0 0 0
3441 2 3.597 3.597 0.0 0 0 0
3660 2 1.7985 23.3805 14.388 0 0 0
78 2 34.1715 12.5895 28.776 0 0 0
3714 2 3.597 26.9775 30.5745 0 0 0
2233 2 14.388 0.0 28.776 0 0 0
2303 2 12.5895 7.194 19.7835 0 0 0
3221 2 7.194 17.985 17.985 0 0 0
3085 2 7.194 7.194 3.597 0 0 0
3635 2 1.7985 17.985 30.5745 0 0 0
1798 2 21.582 34.1715 34.1715 0 0 0
2327 2 12.5895 10.791 5.3955 0 0 0
910 2 28.776 26.9775 26.9775 0 0 0
2049 2 17.985 21.582 7.194 0 0 0
2203 2 12.5895 0.0 1.7985 0 0 0
3628 2 1.7985 19.7835 21.582 0 0 0
3664 2 1.7985 23.3805 17.985 0 0 0
2414 2 14.388 19.7835 12.5895 0 0 0
353 2 32.373 10.791 28.776 0 0 0
3132 2 5.3955 12.5895 7.194 0 0 0
3856 2 0.0 8.9925 26.9775 0 0 0
1915 2 16.1865 7.194 30.5745 0 0 0
2746 2 10.791 12.5895 23.3805 0 0 0
139 2 34.1715 21.582 34.1715 0 0 0
3733 2 3.597 28.776 10.791 0 0 0
1581 2 21.582 14.388 17.985 0 0 0
2135 2 16.1865 28.776 12.5895 0 0 0
3828 2 0.0 5.3955 12.5895 0 0 0
1164 2 23.3805 16.1865 0.0 0 0 0
331 2 30.5745 10.791 8.9925 0 0 0
2305 2 14.388 7.194 21.582 0 0 0
2472 2 12.5895 23.3805 25.179 0 0 0
3291 2 5.3955 25.179 8.9925 0 0 0
694 2 28.776 8.9925 12.5895 0 0 0
1891 2 16.1865 7.194 8.9925 0 0 0
1473 2 21.582 3.597 28.776 0 0 0
3177 2 7.194 14.388 14.388 0 0 0
187 2 34.1715 32.373 12.5895 0 0 0
2525 2 14.388 28.776 3.597 0 0 0
2543 2 12.5895 28.776 19.7835 0 0 0
3701 2 3.597 25.179 17.985 0 0 0
3341 2 7.194 28.776 17.985 0 0 0
1397 2 25.179 32.373 32.373 0 0 0
357 2 32.373 10.791 32.373 0 0 0
3591 2 1.7985 14.388 26.9775 0 0 0
1983 2 16.1865 14.388 19.7835 0 0 0
2648 2 8.9925 5.3955 3.597 0 0 0
2969 2 10.791 32.373 7.194 0 0 0
3810 2 0.0 1.7985 16.1865 0 0 0
1129 2 25.179 10.791 7.194 0 0 0
1973 2 17.985 14.388 10.791 0 0 0
897 2 28.776 25.179 14.388 0 0 0
405 2 32.373 17.985 3.597 0 0 0
3026 2 7.194 1.7985 23.3805 0 0 0
3490 2 3.597 8.9925 8.9925 0 0 0
3029 2 7.194 0.0 25.179 0 0 0
3380 2 5.3955 34.1715 14.388 0 0 0
2734 2 10.791 12.5895 12.5895 0 0 0
3627 2 1.7985 17.985 23.3805 0 0 0
1640 2 19.7835 19.7835 32.373 0 0 0
1480 2 19.7835 5.3955 32.373 0 0 0
696 2 26.9775 8.9925 10.791 0 0 0
3345 2 7.194 28.776 21.582 0 0 0
3037 2 7.194 0.0 32.373 0 0 0
2352 2 12.5895 12.5895 25.179 0 0 0
3616 2 1.7985 19.7835 10.791 0 0 0
892 2 26.9775 26.9775 7.194 0 0 0
3306 2 7.194 26.9775 23.3805 0 0 0
1686 2 21.582 26.9775 5.3955 0 0 0
262 2 32.373 5.3955 19.7835 0 0 0
3328 2 5.3955 30.5745 3.597 0 0 0
2337 2 14.388 10.791 14.388 0 0 0
1592 2 19.7835 16.1865 25.179 0 0 0
1909 2 17.985 7.194 25.179 0 0 0
2271 2 12.5895 3.597 26.9775 0 0 0
1849 2 17.985 3.597 7.194 0 0 0
3169 2 7.194 14.388 7.194 0 0 0
22 2 34.1715 5.3955 0.0 0 0 0
3971 2 0.0 28.776 17.985 0 0 0
424 2 30.5745 19.7835 17.985 0 0 0
3377 2 7.194 32.373 14.388 0 0 0
130 2 34.1715 23.3805 14.388 0 0 0
3433 2 3.597 0.0 28.776 0 0 0
806 2 28.776 19.7835 5.3955 0 0 0
1515 2 19.7835 7.194 30.5745 0 0 0
3851 2 0.0 7.194 17.985 0 0 0
1032 2 23.3805 1.7985 25.179 0 0 0
1862 2 17.985 5.3955 19.7835 0 0 0
2433 2 14.388 17.985 28.776 0 0 0
3017 2 7.194 0.0 14.388 0 0 0
3261 2 7.194 21.582 17.985 0 0 0
69 2 34.1715 10.791 16.1865 0 0 0
3751 2 1.7985 28.776 26.9775 0 0 0
2158 2 17.985 30.5745 34.1715 0 0 0
3762 2 3.597 34.1715 1.7985 0 0 0
1903 2 16.1865 7.194 19.7835 0 0 0
2990 2 10.791 34.1715 26.9775 0 0 0
12 2 34.1715 1.7985 17.985 0 0 0
1718 2 21.582 26.9775 34.1715 0 0 0
281 2 32.373 7.194 0.0 0 0 0
1186 2 25.179 16.1865 23.3805 0 0 0
1024 2 23.3805 1.7985 17.985 0 0 0
1029 2 25.179 0.0 25.179 0 0 0
954 2 28.776 30.5745 30.5745 0 0 0
3418 2 3.597 1.7985 16.1865 0 0 0
1346 2 25.179 30.5745 23.3805 0 0 0
490 2 32.373 26.9775 8.9925 0 0 0
957 2 28.776 28.776 32.373 0 0 0
2974 2 10.791 34.1715 12.5895 0 0 0
105 2 34.1715 17.985 8.9925 0 0 0
1027 2 23.3805 0.0 23.3805 0 0 0
770 2 28.776 16.1865 8.9925 0 0 0
2051 2 16.1865 21.582 8.9925 0 0 0
3790 2 3.597 34.1715 26.9775 0 0 0
3806 2 0.0 1.7985 8.9925 0 0 0
8 2 34.1715 1.7985 10.791 0 0 0
497 2 32.373 25.179 14.388 0 0 0
3258 2 7.194 23.3805 16.1865 0 0 0
119 2 34.1715 17.985 34.1715 0 0 0
1325 2 25.179 28.776 3.597 0 0 0
3104 2 5.3955 8.9925 17.985 0 0 0
1066 2 25.179 5.3955 23.3805 0 0 0
2835 2 8.9925 17.985 30.5745 0 0 0
1879 2 16.1865 3.597 34.1715 0 0 0
1051 2 23.3805 3.597 8.9925 0 0 0
2789 2 10.791 14.388 25.179 0 0 0
1815 2 16.1865 0.0 12.5895 0 0 0
777 2 28.776 14.388 14.388 0 0 0
3297 2 7.194 25.179 14.388 0 0 0
172 2 34.1715 30.5745 17.985 0 0 0
3746 2 3.597 30.5745 23.3805 0 0 0
1241 2 25.179 21.582 0.0 0 0 0
1425 2 21.582 0.0 21.582 0 0 0
638 2 28.776 1.7985 34.1715 0 0 0
2550 2 14.388 30.5745 26.9775 0 0 0
2377 2 14.388 14.388 14.388 0 0 0
1582 2 21.582 16.1865 19.7835 0 0 0
2917 2 10.791 25.179 32.373 0 0 0
2205 2 14.388 0.0 3.597 0 0 0
2895 2 8.9925 25.179 12.5895 0 0 0
3543 2 1.7985 10.791 19.7835 0 0 0
2214 2 14.388 1.7985 12.5895 0 0 0
2267 2 12.5895 3.597 23.3805 0 0 0
3323 2 5.3955 28.776 1.7985 0 0 0
1846 2 17.985 5.3955 5.3955 0 0 0
3392 2 5.3955 34.1715 25.179 0 0 0
2622 2 10.791 1.7985 19.7835 0 0 0
1155 2 23.3805 10.791 30.5745 0 0 0
1150 2 25.179 12.5895 26.9775 0 0 0
1596 2 19.7835 16.1865 28.776 0 0 0
3178 2 7.194 16.1865 16.1865 0 0 0
3386 2 7.194 34.1715 23.3805 0 0 0
3253 2 7.194 21.582 10.791 0 0 0
1671 2 19.7835 21.582 26.9775 0 0 0
422 2 32.373 19.7835 19.7835 0 0 0
1865 2 17.985 3.597 21.582 0 0 0
1336 2 23.3805 30.5745 10.791 0 0 0
1221 2 25.179 17.985 17.985 0 0 0
3022 2 7.194 1.7985 19.7835 0 0 0
2833 2 10.791 17.985 28.776 0 0 0
2333 2 14.388 10.791 10.791 0 0 0
1893 2 17.985 7.194 10.791 0 0 0
1257 2 25.179 21.582 14.388 0 0 0
1763 2 19.7835 32.373 1.7985 0 0 0
2819 2 8.9925 17.985 16.1865 0 0 0
3385 2 7.194 32.373 21.582 0 0 0
2521 2 14.388 28.776 0.0 0 0 0
2458 2 14.388 23.3805 16.1865 0 0 0
2964 2 8.9925 34.1715 0.0 0 0 0
889 2 28.776 25.179 7.194 0 0 0
2684 2 8.9925 8.9925 0.0 0 0 0
3124 2 5.3955 12.5895 0.0 0 0 0
3895 2 0.0 14.388 25.179 0 0 0
2611 2 8.9925 0.0 8.9925 0 0 0
1415 2 19.7835 0.0 12.5895 0 0 0
3669 2 3.597 21.582 25.179 0 0 0
2065 2 17.985 21.582 21.582 0 0 0
1468 2 19.7835 5.3955 21.582 0 0 0
2677 2 10.791 3.597 32.373 0 0 0
1652 2 19.7835 23.3805 7.194 0 0 0
2415 2 12.5895 17.985 12.5895 0 0 0
1210 2 25.179 19.7835 8.9925 0 0 0
3839 2 0.0 3.597 32.373 0 0 0
1249 2 25.179 21.582 7.194 0 0 0
3830 2 0.0 5.3955 16.1865 0 0 0
2690 2 10.791 8.9925 8.9925 0 0 0
2479 2 12.5895 21.582 34.1715 0 0 0
3245 2 7.194 21.582 3.597 0 0 0
2676 2 8.9925 5.3955 28.776 0 0 0
1404 2 19.7835 1.7985 0.0 0 0 0
2909 2 10.791 25.179 25.179 0 0 0
3493 2 3.597 7.194 10.791 0 0 0
2272 2 12.5895 5.3955 25.179 0 0 0
623 2 26.9775 0.0 19.7835 0 0 0
2076 2 16.1865 23.3805 28.776 0 0 0
637 2 28.776 0.0 32.373 0 0 0
711 2 26.9775 7.194 26.9775 0 0 0
3505 2 3.597 7.194 21.582 0 0 0
3395 2 5.3955 32.373 30.5745 0 0 0
1730 2 21.582 30.5745 8.9925 0 0 0
3678 2 3.597 23.3805 34.1715 0 0 0
2994 2 10.791 34.1715 30.5745 0 0 0
1922 2 17.985 12.5895 1.7985 0 0 0
3489 2 3.597 7.194 7.194 0 0 0
765 2 28.776 14.388 3.597 0 0 0
1183 3 23.3805 14.388 19.7835 0 0 0
3189 3 7.194 14.388 25.179 0 0 0
1420 3 19.7835 1.7985 14.388 0 0 0
216 3 30.5745 1.7985 10.791 0 0 0
2335 3 12.5895 10.791 12.5895 0 0 0
2188 3 16.1865 34.1715 21.582 0 0 0
2764 3 8.9925 16.1865 0.0 0 0 0
2664 3 8.9925 5.3955 17.985 0 0 0
3574 3 3.597 16.1865 12.5895 0 0 0
2397 3 14.388 14.388 32.373 0 0 0
3961 3 0.0 28.776 0.0 0 0 0
369 3 32.373 14.388 7.194 0 0 0
1949 3 17.985 10.791 25.179 0 0 0
1735 3 19.7835 28.776 12.5895 0 0 0
1472 3 19.7835 5.3955 25.179 0 0 0
2903 3 8.9925 25.179 19.7835 0 0 0
436 3 30.5745 19.7835 28.776 0 0 0
674 3 28.776 5.3955 30.5745 0 0 0
2759 3 8.9925 10.791 34.1715 0 0 0
1520 3 19.7835 8.9925 32.373 0 0 0
1437 3 21.582 0.0 32.373 0 0 0
2808 3 8.9925 19.7835 3.597 0 0 0
1987 3 16.1865 14.388 23.3805 0 0 0
2560 3 12.5895 30.5745 32.373 0 0 0
1702 3 21.582 26.9775 19.7835 0 0 0
339 3 30.5745 10.791 16.1865 0 0 0
3929 3 0.0 21.582 14.388 0 0 0
3413 3 3.597 0.0 10.791 0 0 0
3347 3 5.3955 28.776 23.3805 0 0 0
1679 3 19.7835 21.582 34.1715 0 0 0
546 3 32.373 30.5745 23.3805 0 0 0
845 3 28.776 21.582 3.597 0 0 0
3957 3 0.0 25.179 28.776 0 0 0
1110 3 25.179 8.9925 26.9775 0 0 0
3882 3 0.0 16.1865 1.7985 0 0 0
3631 3 1.7985 17.985 26.9775 0 0 0
3277 3 7.194 21.582 32.373 0 0 0
2431 3 12.5895 17.985 26.9775 0 0 0
1982 3 17.985 16.1865 19.7835 0 0 0
1813 3 17.985 0.0 10.791 0 0 0
3416 3 1.7985 1.7985 10.791 0 0 0
821 3 28.776 17.985 17.985 0 0 0
3520 3 1.7985 8.9925 32.373 0 0 0
1371 3 23.3805 32.373 8.9925 0 0 0
2491 3 12.5895 25.179 8.9925 0 0 0
1272 3 23.3805 23.3805 25.179 0 0 0
3023 3 5.3955 0.0 19.7835 0 0 0
1269 3 25.179 21.582 25.179 0 0 0
3941 3 0.0 25.179 0.0 0 0 0
2551 3 12.5895 28.776 26.9775 0 0 0
1202 3 25.179 19.7835 1.7985 0 0 0
38 3 34.1715 5.3955 28.776 0 0 0
3582 3 3.597 16.1865 19.7835 0 0 0
3045 3 7.194 3.597 3.597 0 0 0
3950 3 0.0 26.9775 16.1865 0 0 0
3891 3 0.0 14.388 17.985 0 0 0
3674 3 3.597 23.3805 30.5745 0 0 0
1114 3 25.179 8.9925 30.5745 0 0 0
3194 3 7.194 16.1865 30.5745 0 0 0
1931 3 16.1865 10.791 8.9925 0 0 0
3789 3 3.597 32.373 25.179 0 0 0
2549 3 14.388 28.776 25.179 0 0 0
3937 3 0.0 21.582 28.776 0 0 0
746 3 28.776 12.5895 23.3805 0 0 0
1368 3 23.3805 34.1715 3.597 0 0 0
1790 3 21.582 34.1715 26.9775 0 0 0
724 3 26.9775 12.5895 0.0 0 0 0
2129 3 17.985 28.776 7.194 0 0 0
973 3 28.776 32.373 10.791 0 0 0
1631 3 19.7835 17.985 26.9775 0 0 0
875 3 26.9775 21.582 30.5745 0 0 0
1634 3 21.582 19.7835 30.5745 0 0 0
3438 3 3.597 1.7985 34.1715 0 0 0
177 3 34.1715 28.776 30.5745 0 0 0
2649 3 10.791 3.597 7.194 0 0 0
1167 3 23.3805 14.388 5.3955 0 0 0
1953 3 17.985 10.791 28.776 0 0 0
2770 3 10.791 16.1865 8.9925 0 0 0
3977 3 0.0 28.776 28.776 0 0 0
1682 3 21.582 26.9775 1.7985 0 0 0
3094 3 7.194 8.9925 12.5895 0 0 0
3975 3 0.0 28.776 25.179 0 0 0
2744 3 8.9925 12.5895 17.985 0 0 0
2144 3 16.1865 30.5745 17.985 0 0 0
3708 3 1.7985 26.9775 21.582 0 0 0
1188 3 23.3805 16.1865 21.582 0 0 0
1348 3 23.3805 30.5745 21.582 0 0 0
1511 3 19.7835 7.194 26.9775 0 0 0
718 3 28.776 8.9925 34.1715 0 0 0
3995 3 0.0 32.373 25.179 0 0 0
784 3 26.9775 16.1865 17.985 0 0 0
732 3 26.9775 12.5895 7.194 0 0 0
1294 3 25.179 26.9775 12.5895 0 0 0
1444 3 19.7835 5.3955 0.0 0 0 0
1779 3 19.7835 32.373 16.1865 0 0 0
1689 3 21.582 25.179 7.194 0 0 0
2435 3 12.5895 17.985 30.5745 0 0 0
1159 3 23.3805 10.791 34.1715 0 0 0
397 3 32.373 14.388 32.373 0 0 0
3432 3 1.7985 1.7985 25.179 0 0 0
2834 3 10.791 19.7835 30.5745 0 0 0
304 3 30.5745 8.9925 17.985 0 0 0
673 3 28.776 3.597 28.776 0 0 0
1924 3 16.1865 12.5895 0.0 0 0 0
2695 3 8.9925 7.194 12.5895 0 0 0
3276 3 5.3955 23.3805 28.776 0 0 0
2978 3 10.791 34.1715 16.1865 0 0 0
1351 3 23.3805 28.776 26.9775 0 0 0
3107 3 5.3955 7.194 23.3805 0 0 0
2035 3 16.1865 17.985 30.5745 0 0 0
1958 3 17.985 12.5895 34.1715 0 0 0
1416 3 19.7835 1.7985 10.791 0 0 0
3867 3 0.0 10.791 10.791 0 0 0
3042 3 7.194 5.3955 1.7985 0 0 0
1244 3 23.3805 23.3805 0.0 0 0 0
2660 3 8.9925 5.3955 14.388 0 0 0
1736 3 19.7835 30.5745 10.791 0 0 0
2871 3 8.9925 21.582 26.9775 0 0 0
2947 3 8.9925 28.776 23.3805 0 0 0
2252 3 12.5895 5.3955 7.194 0 0 0
2430 3 14.388 19.7835 26.9775 0 0 0
3545 3 3.597 10.791 21.582 0 0 0
1187 3 23.3805 14.388 23.3805 0 0 0
2952 3 8.9925 30.5745 25.179 0 0 0
2075 3 16.1865 21.582 30.5745 0 0 0
3028 3 5.3955 1.7985 21.582 0 0 0
1817 3 17.985 0.0 14.388 0 0 0
3180 3 5.3955 16.1865 14.388 0 0 0
2172 3 16.1865 34.1715 7.194 0 0 0
3079 3 5.3955 3.597 34.1715 0 0 0
2218 3 14.388 1.7985 16.1865 0 0 0
31 3 34.1715 3.597 19.7835 0 0 0
3436 3 1.7985 1.7985 28.776 0 0 0
2698 3 10.791 8.9925 16.1865 0 0 0
323 3 30.5745 10.791 1.7985 0 0 0
799 3 26.9775 14.388 34.1715 0 0 0
1170 3 25.179 16.1865 8.9925 0 0 0
1847 3 16.1865 3.597 5.3955 0 0 0
848 3 26.9775 23.3805 3.597 0 0 0
1175 3 23.3805 14.388 12.5895 0 0 0
3099 3 5.3955 7.194 16.1865 0 0 0
3360 3 5.3955 30.5745 32.373 0 0 0
2471 3 12.5895 21.582 26.9775 0 0 0
2908 3 8.9925 26.9775 21.582 0 0 0
1976 3 16.1865 16.1865 10.791 0 0 0
1347 3 23.3805 28.776 23.3805 0 0 0
3558 3 3.597 12.5895 34.1715 0 0 0
3126 3 7.194 12.5895 5.3955 0 0 0
1357 3 25.179 28.776 32.373 0 0 0
3318 3 7.194 26.9775 34.1715 0 0 0
28 3 34.1715 5.3955 10.791 0 0 0
74 3 34.1715 12.5895 21.582 0 0 0
1251 3 23.3805 21.582 8.9925 0 0 0
2439 3 12.5895 17.985 34.1715 0 0 0
2807 3 8.9925 17.985 5.3955 0 0 0
1454 3 21.582 5.3955 12.5895 0 0 0
2581 3 14.388 32.373 17.985 0 0 0
3645 3 3.597 21.582 3.597 0 0 0
635 3 26.9775 0.0 30.5745 0 0 0
2851 3 8.9925 21.582 8.9925 0 0 0
3916 3 0.0 19.7835 26.9775 0 0 0
3059 3 5.3955 3.597 16.1865 0 0 0
2592 3 12.5895 34.1715 25.179 0 0 0
3157 3 7.194 10.791 32.373 0 0 0
1340 3 23.3805 30.5745 14.388 0 0 0
2094 3 17.985 26.9775 12.5895 0 0 0
1284 3 23.3805 26.9775 0.0 0 0 0
3687 3 1.7985 25.179 5.3955 0 0 0
2697 3 10.791 7.194 14.388 0 0 0
1475 3 19.7835 3.597 30.5745 0 0 0
597 3 32.373 32.373 32.373 0 0 0
3703 3 1.7985 25.179 19.7835 0 0 0
1341 3 25.179 28.776 17.985 0 0 0
3924 3 0.0 23.3805 5.3955 0 0 0
948 3 26.9775 30.5745 21.582 0 0 0
1561 3 21.582 14.388 0.0 0 0 0
794 3 28.776 16.1865 30.5745 0 0 0
2211 3 12.5895 0.0 8.9925 0 0 0
1793 3 21.582 32.373 28.776 0 0 0
589 3 32.373 32.373 25.179 0 0 0
1787 3 19.7835 32.373 23.3805 0 0 0
249 3 32.373 3.597 7.194 0 0 0
895 3 26.9775 25.179 12.5895 0 0 0
46 3 34.1715 8.9925 7.194 0 0 0
2488 3 12.5895 26.9775 3.597 0 0 0
3883 3 0.0 14.388 3.597 0 0 0
1708 3 19.7835 26.9775 21.582 0 0 0
1214 3 25.179 19.7835 12.5895 0 0 0
2705 3 10.791 7.194 21.582 0 0 0
3061 3 7.194 3.597 17.985 0 0 0
2874 3 10.791 23.3805 30.5745 0 0 0
2679 3 8.9925 3.597 34.1715 0 0 0
3321 3 7.194 28.776 0.0 0 0 0
815 3 26.9775 17.985 12.5895 0 0 0
1681 3 21.582 25.179 0.0 0 0 0
3926 3 0.0 23.3805 8.9925 0 0 0
964 3 26.9775 34.1715 0.0 0 0 0
484 3 30.5745 26.9775 0.0 0 0 0
983 3 26.9775 32.373 19.7835 0 0 0
1590 3 21.582 16.1865 26.9775 0 0 0
3833 3 0.0 3.597 21.582 0 0 0
1439 3 19.7835 0.0 34.1715 0 0 0
3644 3 1.7985 23.3805 0.0 0 0 0
2468 3 12.5895 23.3805 21.582 0 0 0
3340 3 5.3955 30.5745 14.388 0 0 0
1971 3 16.1865 14.388 8.9925 0 0 0
531 3 30.5745 28.776 8.9925 0 0 0
1046 3 25.179 5.3955 5.3955 0 0 0
3231 3 5.3955 17.985 26.9775 0 0 0
570 3 32.373 34.1715 8.9925 0 0 0
3988 3 0.0 34.1715 12.5895 0 0 0
2088 3 16.1865 26.9775 3.597 0 0 0
446 3 32.373 23.3805 5.3955 0 0 0
72 3 34.1715 12.5895 17.985 0 0 0
963 3 26.9775 32.373 1.7985 0 0 0
949 3 28.776 28.776 25.179 0 0 0
3622 3 3.597 19.7835 19.7835 0 0 0
2907 3 8.9925 25.179 23.3805 0 0 0
3935 3 0.0 21.582 25.179 0 0 0
810 3 28.776 19.7835 8.9925 0 0 0
1414 3 21.582 1.7985 12.5895 0 0 0
3932 3 0.0 23.3805 19.7835 0 0 0
1194 3 25.179 16.1865 30.5745 0 0 0
3204 3 5.3955 19.7835 0.0 0 0 0
1309 3 25.179 25.179 25.179 0 0 0
3908 3 0.0 19.7835 12.5895 0 0 0
77 3 34.1715 10.791 30.5745 0 0 0
209 3 32.373 0.0 7.194 0 0 0
925 3 28.776 28.776 3.597 0 0 0
2244 3 12.5895 5.3955 0.0 0 0 0
3213 3 7.194 17.985 10.791 0 0 0
3671 3 1.7985 21.582 26.9775 0 0 0
2140 3 16.1865 30.5745 14.388 0 0 0
1231 3 23.3805 17.985 26.9775 0 0 0
3018 3 7.194 1.7985 16.1865 0 0 0
1555 3 19.7835 10.791 30.5745 0 0 0
1770 3 21.582 34.1715 8.9925 0 0 0
1067 3 23.3805 3.597 23.3805 0 0 0
1209 3 25.179 17.985 7.194 0 0 0
205 3 32.373 0.0 3.597 0 0 0
3884 3 0.0 16.1865 5.3955 0 0 0
3626 3 3.597 19.7835 23.3805 0 0 0
400 3 30.5745 16.1865 32.373 0 0 0
3406 3 3.597 1.7985 5.3955 0 0 0
2772 3 8.9925 16.1865 7.194 0 0 0
3928 3 0.0 23.3805 12.5895 0 0 0
406 3 32.373 19.7835 5.3955 0 0 0
1523 3 19.7835 10.791 1.7985 0 0 0
2097 3 17.985 25.179 14.388 0 0 0
3469 3 3.597 3.597 25.179 0 0 0
433 3 32.373 17.985 28.776 0 0 0
2769 3 10.791 14.388 7.194 0 0 0
318 3 32.373 8.9925 34.1715 0 0 0
3275 3 5.3955 21.582 30.5745 0 0 0
3118 3 7.194 8.9925 34.1715 0 0 0
529 3 32.373 28.776 7.194 0 0 0
1398 3 25.179 34.1715 34.1715 0 0 0
138 3 34.1715 23.3805 28.776 0 0 0
212 3 30.5745 1.7985 7.194 0 0 0
3521 3 3.597 10.791 0.0 0 0 0
3777 3 3.597 32.373 14.388 0 0 0
3720 3 1.7985 26.9775 32.373 0 0 0
2897 3 10.791 25.179 14.388 0 0 0
1104 3 23.3805 8.9925 17.985 0 0 0
2534 3 14.388 30.5745 12.5895 0 0 0
3498 3 3.597 8.9925 16.1865 0 0 0
1669 3 21.582 21.582 25.179 0 0 0
2420 3 12.5895 19.7835 14.388 0 0 0
764 3 26.9775 16.1865 0.0 0 0 0
2788 3 8.9925 16.1865 21.582 0 0 0
148 3 34.1715 26.9775 10.791 0 0 0
3044 3 5.3955 5.3955 0.0 0 0 0
3766 3 3.597 34.1715 5.3955 0 0 0
3970 3 0.0 30.5745 16.1865 0 0 0
1783 3 19.7835 32.373 19.7835 0 0 0
887 3 26.9775 25.179 5.3955 0 0 0
504 3 30.5745 26.9775 17.985 0 0 0
3792 3 1.7985 34.1715 25.179 0 0 0
2341 3 14.388 10.791 17.985 0 0 0
1939 3 16.1865 10.791 16.1865 0 0 0
1003 3 23.3805 0.0 1.7985 0 0 0
80 3 34.1715 12.5895 32.373 0 0 0
2105 3 17.985 25.179 21.582 0 0 0
2776 3 8.9925 16.1865 10.791 0 0 0
3420 3 1.7985 1.7985 14.388 0 0 0
2957 3 10.791 28.776 32.373 0 0 0
2316 3 12.5895 8.9925 28.776 0 0 0
640 3 26.9775 1.7985 32.373 0 0 0
3938 3 0.0 23.3805 30.5745 0 0 0
3046 3 7.194 5.3955 5.3955 0 0 0
3223 3 5.3955 17.985 19.7835 0 0 0
663 3 26.9775 3.597 19.7835 0 0 0
1521 3 21.582 10.791 0.0 0 0 0
551 3 30.5745 28.776 26.9775 0 0 0
2426 3 14.388 19.7835 23.3805 0 0 0
1308 3 23.3805 26.9775 21.582 0 0 0
2951 3 8.9925 28.776 26.9775 0 0 0
1118 3 25.179 8.9925 34.1715 0 0 0
248 3 30.5745 5.3955 3.597 0 0 0
622 3 28.776 1.7985 19.7835 0 0 0
2161 3 17.985 32.373 0.0 0 0 0
568 3 30.5745 34.1715 3.597 0 0 0
1378 3 25.179 34.1715 16.1865 0 0 0
1749 3 21.582 28.776 25.179 0 0 0
2594 3 14.388 34.1715 30.5745 0 0 0
722 3 28.776 12.5895 1.7985 0 0 0
2742 3 10.791 12.5895 19.7835 0 0 0
2499 3 12.5895 25.179 16.1865 0 0 0
1007 3 23.3805 0.0 5.3955 0 0 0
1158 3 25.179 12.5895 34.1715 0 0 0
2147 3 16.1865 28.776 23.3805 0 0 0
188 3 34.1715 34.1715 10.791 0 0 0
55 3 34.1715 7.194 26.9775 0 0 0
29 3 34.1715 3.597 16.1865 0 0 0
387 3 30.5745 14.388 23.3805 0 0 0
683 3 26.9775 7.194 1.7985 0 0 0
3728 3 1.7985 30.5745 3.597 0 0 0
2484 3 12.5895 26.9775 0.0 0 0 0
2292 3 12.5895 8.9925 7.194 0 0 0
2658 3 10.791 5.3955 16.1865 0 0 0
935 3 26.9775 28.776 12.5895 0 0 0
645 3 28.776 3.597 3.597 0 0 0
297 3 32.373 7.194 14.388 0 0 0
3738 3 3.597 30.5745 16.1865 0 0 0
1021 3 25.179 0.0 17.985 0 0 0
2446 3 14.388 23.3805 5.3955 0 0 0
3974 3 0.0 30.5745 23.3805 0 0 0
3123 3 5.3955 10.791 1.7985 0 0 0
2099 3 16.1865 25.179 16.1865 0 0 0
3933 3 0.0 21.582 21.582 0 0 0
2496 3 12.5895 26.9775 10.791 0 0 0
207 3 30.5745 0.0 5.3955 0 0 0
287 3 30.5745 7.194 5.3955 0 0 0
1610 3 21.582 19.7835 8.9925 0 0 0
1809 3 17.985 0.0 7.194 0 0 0
182 3 34.1715 34.1715 0.0 0 0 0
3339 3 5.3955 28.776 16.1865 0 0 0
2236 3 12.5895 1.7985 28.776 0 0 0
1607 3 19.7835 17.985 5.3955 0 0 0
2596 3 12.5895 34.1715 28.776 0 0 0
2612 3 8.9925 1.7985 7.194 0 0 0
316 3 30.5745 8.9925 28.776 0 0 0
1583 3 19.7835 14.388 19.7835 0 0 0
1919 3 16.1865 7.194 34.1715 0 0 0
2914 3 10.791 26.9775 30.5745 0 0 0
3818 3 0.0 1.7985 30.5745 0 0 0
190 3 34.1715 34.1715 14.388 0 0 0
2632 3 8.9925 1.7985 25.179 0 0 0
2782 3 10.791 16.1865 19.7835 0 0 0
1070 3 25.179 5.3955 26.9775 0 0 0
2178 3 17.985 34.1715 16.1865 0 0 0
333 3 32.373 10.791 10.791 0 0 0
1794 3 21.582 34.1715 30.5745 0 0 0
3632 3 1.7985 19.7835 25.179 0 0 0
670 3 28.776 5.3955 26.9775 0 0 0
2603 3 8.9925 0.0 1.7985 0 0 0
3538 3 3.597 12.5895 16.1865 0 0 0
2802 3 10.791 19.7835 1.7985 0 0 0
3357 3 7.194 28.776 32.373 0 0 0
3086 3 7.194 8.9925 5.3955 0 0 0
2176 3 16.1865 34.1715 10.791 0 0 0
1455 3 19.7835 3.597 12.5895 0 0 0
1035 3 23.3805 0.0 30.5745 0 0 0
1540 3 19.7835 12.5895 14.388 0 0 0
2961 3 10.791 32.373 0.0 0 0 0
184 3 34.1715 34.1715 3.597 0 0 0
3402 3 3.597 1.7985 1.7985 0 0 0
1710 3 21.582 26.9775 26.9775 0 0 0
980 3 26.9775 34.1715 14.388 0 0 0
3992 3 0.0 34.1715 19.7835 0 0 0
1752 3 19.7835 30.5745 25.179 0 0 0
2846 3 10.791 23.3805 5.3955 0 0 0
3548 3 1.7985 12.5895 21.582 0 0 0
154 3 34.1715 26.9775 21.582 0 0 0
1089 3 25.179 7.194 7.194 0 0 0
1827 3 16.1865 0.0 23.3805 0 0 0
3350 3 7.194 30.5745 26.9775 0 0 0
2358 3 14.388 12.5895 34.1715 0 0 0
2057 3 17.985 21.582 14.388 0 0 0
1531 3 19.7835 10.791 8.9925 0 0 0
1379 3 23.3805 32.373 16.1865 0 0 0
3052 3 5.3955 5.3955 7.194 0 0 0
96 3 34.1715 16.1865 25.179 0 0 0
2063 3 16.1865 21.582 19.7835 0 0 0
2784 3 8.9925 16.1865 17.985 0 0 0
449 3 32.373 21.582 7.194 0 0 0
3736 3 1.7985 30.5745 10.791 0 0 0
3910 3 0.0 19.7835 16.1865 0 0 0
2548 3 12.5895 30.5745 21.582 0 0 0
275 3 30.5745 3.597 30.5745 0 0 0
1018 3 25.179 1.7985 16.1865 0 0 0
2137 3 17.985 28.776 14.388 0 0 0
1641 3 21.582 21.582 0.0 0 0 0
3707 3 1.7985 25.179 23.3805 0 0 0
1169 3 25.179 14.388 7.194 0 0 0
3400 3 5.3955 34.1715 32.373 0 0 0
2367 3 12.5895 14.388 5.3955 0 0 0
268 3 30.5745 5.3955 21.582 0 0 0
2669 3 10.791 3.597 25.179 0 0 0
1984 3 16.1865 16.1865 17.985 0 0 0
2848 3 8.9925 23.3805 3.597 0 0 0
470 3 32.373 23.3805 26.9775 0 0 0
641 3 28.776 3.597 0.0 0 0 0
3207 3 5.3955 17.985 5.3955 0 0 0
1278 3 25.179 23.3805 34.1715 0 0 0
1443 3 19.7835 3.597 1.7985 0 0 0
659 3 26.9775 3.597 16.1865 0 0 0
1944 3 16.1865 12.5895 17.985 0 0 0
320 3 30.5745 8.9925 32.373 0 0 0
273 3 32.373 3.597 28.776 0 0 0
465 3 32.373 21.582 21.582 0 0 0
1754 3 21.582 30.5745 30.5745 0 0 0
3945 3 0.0 25.179 7.194 0 0 0
520 3 30.5745 26.9775 32.373 0 0 0
2475 3 12.5895 21.582 30.5745 0 0 0
347 3 30.5745 10.791 23.3805 0 0 0
1576 3 19.7835 16.1865 10.791 0 0 0
3609 3 3.597 17.985 7.194 0 0 0
3390 3 7.194 34.1715 26.9775 0 0 0
2077 3 17.985 21.582 32.373 0 0 0
2565 3 14.388 32.373 3.597 0 0 0
814 3 28.776 19.7835 12.5895 0 0 0
1117 3 25.179 7.194 32.373 0 0 0
183 3 34.1715 32.373 5.3955 0 0 0
1955 3 16.1865 10.791 30.5745 0 0 0
1396 3 23.3805 34.1715 28.776 0 0 0
3236 3 5.3955 19.7835 28.776 0 0 0
3998 3 0.0 34.1715 30.5745 0 0 0
3015 3 5.3955 0.0 12.5895 0 0 0
675 3 26.9775 3.597 30.5745 0 0 0
1031 3 23.3805 0.0 26.9775 0 0 0
3993 3 0.0 32.373 21.582 0 0 0
3415 3 1.7985 0.0 12.5895 0 0 0
3405 3 3.597 0.0 3.597 0 0 0
3523 3 1.7985 10.791 1.7985 0 0 0
1033 3 25.179 0.0 28.776 0 0 0
2738 3 10.791 12.5895 16.1865 0 0 0
2061 3 17.985 21.582 17.985 0 0 0
2 3 34.1715 1.7985 0.0 0 0 0
586 3 32.373 34.1715 23.3805 0 0 0
598 3 32.373 34.1715 34.1715 0 0 0
2409 3 14.388 17.985 7.194 0 0 0
3919 3 0.0 17.985 32.373 0 0 0
2661 3 10.791 3.597 17.985 0 0 0
3034 3 7.194 1.7985 30.5745 0 0 0
744 3 26.9775 12.5895 17.985 0 0 0
3394 3 7.194 34.1715 30.5745 0 0 0
3481 3 3.597 7.194 0.0 0 0 0
2831 3 8.9925 17.985 26.9775 0 0 0
775 3 26.9775 14.388 12.5895 0 0 0
715 3 26.9775 7.194 30.5745 0 0 0
2933 3 10.791 28.776 10.791 0 0 0
1319 3 23.3805 25.179 34.1715 0 0 0
278 3 32.373 5.3955 34.1715 0 0 0
837 3 28.776 17.985 32.373 0 0 0
3173 3 7.194 14.388 10.791 0 0 0
956 3 26.9775 30.5745 28.776 0 0 0
1696 3 19.7835 26.9775 10.791 0 0 0
901 3 28.776 25.179 17.985 0 0 0
1050 3 25.179 5.3955 8.9925 0 0 0
3752 3 1.7985 30.5745 25.179 0 0 0
152 3 34.1715 26.9775 17.985 0 0 0
2647 3 8.9925 3.597 5.3955 0 0 0
2444 3 12.5895 23.3805 0.0 0 0 0
1698 3 21.582 26.9775 16.1865 0 0 0
1103 3 23.3805 7.194 19.7835 0 0 0
2968 3 8.9925 34.1715 3.597 0 0 0
2073 3 17.985 21.582 28.776 0 0 0
3429 3 3.597 0.0 25.179 0 0 0
786 3 28.776 16.1865 23.3805 0 0 0
979 3 26.9775 32.373 16.1865 0 0 0
2879 3 8.9925 21.582 34.1715 0 0 0
2225 3 14.388 0.0 21.582 0 0 0
463 3 30.5745 21.582 19.7835 0 0 0
3767 3 1.7985 32.373 5.3955 0 0 0
1047 3 23.3805 3.597 5.3955 0 0 0
2741 3 10.791 10.791 17.985 0 0 0
1632 3 19.7835 19.7835 25.179 0 0 0
3335 3 5.3955 28.776 12.5895 0 0 0
1605 3 21.582 17.985 3.597 0 0 0
3170 3 7.194 16.1865 8.9925 0 0 0
731 3 26.9775 10.791 8.9925 0 0 0
3071 3 5.3955 3.597 26.9775 0 0 0
962 3 28.776 34.1715 1.7985 0 0 0
3837 3 0.0 3.597 28.776 0 0 0
998 3 28.776 34.1715 34.1715 0 0 0
2310 3 14.388 8.9925 26.9775 0 0 0
3311 3 5.3955 25.179 26.9775 0 0 0
2723 3 8.9925 10.791 1.7985 0 0 0
2566 3 14.388 34.1715 5.3955 0 0 0
116 3 34.1715 19.7835 25.179 0 0 0
1683 3 19.7835 25.179 1.7985 0 0 0
2780 3 8.9925 16.1865 14.388 0 0 0
1149 3 25.179 10.791 25.179 0 0 0
3450 3 3.597 5.3955 8.9925 0 0 0
1643 3 19.7835 21.582 1.7985 0 0 0
2977 3 10.791 32.373 14.388 0 0 0
2972 3 8.9925 34.1715 7.194 0 0 0
2125 3 17.985 28.776 3.597 0 0 0
3794 3 3.597 34.1715 30.5745 0 0 0
1644 3 19.7835 23.3805 0.0 0 0 0
3108 3 5.3955 8.9925 21.582 0 0 0
2821 3 10.791 17.985 17.985 0 0 0
3389 3 7.194 32.373 25.179 0 0 0
636 3 26.9775 1.7985 28.776 0 0 0
1142 3 25.179 12.5895 19.7835 0 0 0
1270 3 25.179 23.3805 26.9775 0 0 0
3012 3 5.3955 1.7985 7.194 0 0 0
1629 3 21.582 17.985 25.179 0 0 0
1660 3 19.7835 23.3805 14.388 0 0 0
3615 3 1.7985 17.985 12.5895 0 0 0
3723 3 1.7985 28.776 1.7985 0 0 0
1069 3 25.179 3.597 25.179 0 0 0
2323 3 12.5895 10.791 1.7985 0 0 0
3750 3 3.597 30.5745 26.9775 0 0 0
968 3 26.9775 34.1715 3.597 0 0 0
3038 3 7.194 1.7985 34.1715 0 0 0
3524 3 1.7985 12.5895 0.0 0 0 0
699 3 26.9775 7.194 16.1865 0 0 0
1791 3 19.7835 32.373 26.9775 0 0 0
1274 3 25.179 23.3805 30.5745 0 0 0
1326 3 25.179 30.5745 5.3955 0 0 0
2260 3 12.5895 5.3955 14.388 0 0 0
1203 3 23.3805 17.985 1.7985 0 0 0
562 3 32.373 34.1715 1.7985 0 0 0
3596 3 1.7985 16.1865 28.776 0 0 0
3658 3 3.597 23.3805 16.1865 0 0 0
1606 3 21.582 19.7835 5.3955 0 0 0
223 3 30.5745 0.0 19.7835 0 0 0
1000 3 26.9775 34.1715 32.373 0 0 0
3371 3 5.3955 32.373 8.9925 0 0 0
1532 3 19.7835 12.5895 7.194 0 0 0
354 3 32.373 12.5895 30.5745 0 0 0
2442 3 14.388 23.3805 1.7985 0 0 0
3931 3 0.0 21.582 17.985 0 0 0
1968 3 16.1865 16.1865 3.597 0 0 0
1049 3 25.179 3.597 7.194 0 0 0
1800 3 19.7835 34.1715 32.373 0 0 0
2034 3 17.985 19.7835 30.5745 0 0 0
3361 3 7.194 32.373 0.0 0 0 0
3662 3 3.597 23.3805 19.7835 0 0 0
3162 3 7.194 16.1865 1.7985 0 0 0
2950 3 10.791 30.5745 26.9775 0 0 0
1299 3 23.3805 25.179 16.1865 0 0 0
1456 3 19.7835 5.3955 10.791 0 0 0
282 3 32.373 8.9925 1.7985 0 0 0
1967 3 16.1865 14.388 5.3955 0 0 0
1721 3 21.582 28.776 0.0 0 0 0
648 3 26.9775 5.3955 3.597 0 0 0
2469 3 14.388 21.582 25.179 0 0 0
3256 3 5.3955 23.3805 10.791 0 0 0
3690 3 3.597 26.9775 8.9925 0 0 0
922 3 28.776 30.5745 1.7985 0 0 0
2229 3 14.388 0.0 25.179 0 0 0
2315 3 12.5895 7.194 30.5745 0 0 0
3551 3 1.7985 10.791 26.9775 0 0 0
1063 3 23.3805 3.597 19.7835 0 0 0
842 3 28.776 23.3805 1.7985 0 0 0
3665 3 3.597 21.582 21.582 0 0 0
1908 3 16.1865 8.9925 21.582 0 0 0
3212 3 5.3955 19.7835 7.194 0 0 0
332 3 30.5745 12.5895 7.194 0 0 0
2988 3 8.9925 34.1715 21.582 0 0 0
2288 3 12.5895 8.9925 3.597 0 0 0
3964 3 0.0 30.5745 5.3955 0 0 0
3095 3 5.3955 7.194 12.5895 0 0 0
3081 3 7.194 7.194 0.0 0 0 0
665 3 28.776 3.597 21.582 0 0 0
2670 3 10.791 5.3955 26.9775 0 0 0
1767 3 19.7835 32.373 5.3955 0 0 0
2437 3 14.388 17.985 32.373 0 0 0
3694 3 3.597 26.9775 12.5895 0 0 0
537 3 32.373 28.776 14.388 0 0 0
2843 3 8.9925 21.582 1.7985 0 0 0
2224 3 12.5895 1.7985 17.985 0 0 0
1918 3 17.985 8.9925 34.1715 0 0 0
1878 3 17.985 5.3955 34.1715 0 0 0
2840 3 8.9925 19.7835 32.373 0 0 0
2797 3 10.791 14.388 32.373 0 0 0
2717 3 10.791 7.194 32.373 0 0 0
3174 3 7.194 16.1865 12.5895 0 0 0
3544 3 1.7985 12.5895 17.985 0 0 0
3647 3 1.7985 21.582 5.3955 0 0 0
2421 3 14.388 17.985 17.985 0 0 0
3865 3 0.0 10.791 7.194 0 0 0
1283 3 23.3805 25.179 1.7985 0 0 0
2799 3 8.9925 14.388 34.1715 0 0 0
3814 3 0.0 1.7985 23.3805 0 0 0
919 3 26.9775 25.179 34.1715 0 0 0
3624 3 1.7985 19.7835 17.985 0 0 0
2515 3 12.5895 25.179 30.5745 0 0 0
2657 3 10.791 3.597 14.388 0 0 0
934 3 28.776 30.5745 12.5895 0 0 0
508 3 30.5745 26.9775 21.582 0 0 0
2003 3 16.1865 17.985 1.7985 0 0 0
2919 3 8.9925 25.179 34.1715 0 0 0
3603 3 1.7985 17.985 1.7985 0 0 0
2910 3 10.791 26.9775 26.9775 0 0 0
2199 3 16.1865 32.373 34.1715 0 0 0
947 3 26.9775 28.776 23.3805 0 0 0
1556 3 19.7835 12.5895 28.776 0 0 0
1457 3 21.582 3.597 14.388 0 0 0
3252 3 5.3955 23.3805 7.194 0 0 0
3965 3 0.0 28.776 7.194 0 0 0
830 3 28.776 19.7835 26.9775 0 0 0
1522 3 21.582 12.5895 1.7985 0 0 0
3892 3 0.0 16.1865 19.7835 0 0 0
782 3 28.776 16.1865 19.7835 0 0 0
1367 3 23.3805 32.373 5.3955 0 0 0
1127 3 23.3805 10.791 5.3955 0 0 0
619 3 26.9775 0.0 16.1865 0 0 0
3352 3 5.3955 30.5745 25.179 0 0 0
3359 3 5.3955 28.776 34.1715 0 0 0
1028 3 23.3805 1.7985 21.582 0 0 0
3168 3 5.3955 16.1865 3.597 0 0 0
1712 3 19.7835 26.9775 25.179 0 0 0
2775 3 8.9925 14.388 12.5895 0 0 0
1711 3 19.7835 25.179 26.9775 0 0 0
3577 3 3.597 14.388 14.388 0 0 0
3880 3 0.0 12.5895 34.1715 0 0 0
1166 3 25.179 16.1865 5.3955 0 0 0
203 3 30.5745 0.0 1.7985 0 0 0
253 3 32.373 3.597 10.791 0 0 0
35 3 34.1715 3.597 26.9775 0 0 0
3172 3 5.3955 16.1865 7.194 0 0 0
1060 3 23.3805 5.3955 14.388 0 0 0
2393 3 14.388 14.388 28.776 0 0 0
1292 3 23.3805 26.9775 7.194 0 0 0
298 3 32.373 8.9925 16.1865 0 0 0
476 3 30.5745 23.3805 28.776 0 0 0
361 3 32.373 14.388 0.0 0 0 0
1684 3 19.7835 26.9775 0.0 0 0 0
351 3 30.5745 10.791 26.9775 0 0 0
2737 3 10.791 10.791 14.388 0 0 0
3725 3 3.597 28.776 3.597 0 0 0
767 3 26.9775 14.388 5.3955 0 0 0
3823 3 0.0 3.597 3.597 0 0 0
255 3 30.5745 3.597 12.5895 0 0 0
3403 3 1.7985 0.0 1.7985 0 0 0
3069 3 7.194 3.597 25.179 0 0 0
1247 3 23.3805 21.582 5.3955 0 0 0
195 3 34.1715 32.373 26.9775 0 0 0
3122 3 7.194 12.5895 1.7985 0 0 0
832 3 26.9775 19.7835 25.179 0 0 0
54 3 34.1715 8.9925 21.582 0 0 0
2275 3 12.5895 3.597 30.5745 0 0 0
2038 3 17.985 19.7835 34.1715 0 0 0
747 3 26.9775 10.791 23.3805 0 0 0
1382 3 25.179 34.1715 19.7835 0 0 0
57 3 34.1715 7.194 30.5745 0 0 0
3388 3 5.3955 34.1715 21.582 0 0 0
19 3 34.1715 0.0 34.1715 0 0 0
1647 3 19.7835 21.582 5.3955 0 0 0
2064 3 16.1865 23.3805 17.985 0 0 0
834 3 28.776 19.7835 30.5745 0 0 0
3710 3 3.597 26.9775 26.9775 0 0 0
2476 3 12.5895 23.3805 28.776 0 0 0
2408 3 12.5895 19.7835 3.597 0 0 0
2269 3 14.388 3.597 25.179 0 0 0
3196 3 5.3955 16.1865 28.776 0 0 0
2082 3 17.985 26.9775 1.7985 0 0 0
2725 3 10.791 10.791 3.597 0 0 0
1875 3 16.1865 3.597 30.5745 0 0 0
414 3 32.373 19.7835 12.5895 0 0 0
3300 3 5.3955 26.9775 14.388 0 0 0
2615 3 8.9925 0.0 12.5895 0 0 0
1038 3 25.179 1.7985 34.1715 0 0 0
3294 3 7.194 26.9775 12.5895 0 0 0
3014 3 7.194 1.7985 12.5895 0 0 0
1390 3 25.179 34.1715 26.9775 0 0 0
2403 3 12.5895 17.985 1.7985 0 0 0
3202 3 7.194 19.7835 1.7985 0 0 0
2156 3 16.1865 30.5745 28.776 0 0 0
3322 3 7.194 30.5745 1.7985 0 0 0
3117 3 7.194 7.194 32.373 0 0 0
3234 3 7.194 19.7835 30.5745 0 0 0
2359 3 12.5895 10.791 34.1715 0 0 0
3684 3 1.7985 26.9775 0.0 0 0 0
1315 3 23.3805 25.179 30.5745 0 0 0
3522 3 3.597 12.5895 1.7985 0 0 0
3847 3 0.0 7.194 10.791 0 0 0
3742 3 3.597 30.5745 19.7835 0 0 0
3934 3 0.0 23.3805 23.3805 0 0 0
472 3 30.5745 23.3805 25.179 0 0 0
2820 3 8.9925 19.7835 14.388 0 0 0
293 3 32.373 7.194 10.791 0 0 0
569 3 32.373 32.373 7.194 0 0 0
3672 3 1.7985 23.3805 25.179 0 0 0
3263 3 5.3955 21.582 19.7835 0 0 0
1464 3 19.7835 5.3955 17.985 0 0 0
3384 3 5.3955 34.1715 17.985 0 0 0
2445 3 14.388 21.582 3.597 0 0 0
272 3 30.5745 5.3955 25.179 0 0 0
2598 3 14.388 34.1715 34.1715 0 0 0
1077 3 25.179 3.597 32.373 0 0 0
20 3 34.1715 1.7985 32.373 0 0 0
2668 3 8.9925 5.3955 21.582 0 0 0
283 3 30.5745 7.194 1.7985 0 0 0
3754 3 3.597 30.5745 30.5745 0 0 0
2750 3 10.791 12.5895 26.9775 0 0 0
2173 3 17.985 32.373 10.791 0 0 0
584 3 30.5745 34.1715 17.985 0 0 0
2098 3 17.985 26.9775 16.1865 0 0 0
3296 3 5.3955 26.9775 10.791 0 0 0
3530 3 3.597 12.5895 8.9925 0 0 0
709 3 28.776 7.194 25.179 0 0 0
401 3 32.373 17.985 0.0 0 0 0
3638 3 3.597 19.7835 34.1715 0 0 0
1926 3 17.985 12.5895 5.3955 0 0 0
3763 3 1.7985 32.373 1.7985 0 0 0
3268 3 5.3955 23.3805 21.582 0 0 0
1339 3 23.3805 28.776 16.1865 0 0 0
2618 3 10.791 1.7985 16.1865 0 0 0
2239 3 12.5895 0.0 34.1715 0 0 0
173 3 34.1715 28.776 23.3805 0 0 0
501 3 32.373 25.179 17.985 0 0 0
1106 3 25.179 8.9925 23.3805 0 0 0
1271 3 23.3805 21.582 26.9775 0 0 0
1177 3 25.179 14.388 14.388 0 0 0
2815 3 8.9925 17.985 12.5895 0 0 0
199 3 34.1715 32.373 34.1715 0 0 0
572 3 30.5745 34.1715 7.194 0 0 0
2031 3 16.1865 17.985 26.9775 0 0 0
3222 3 7.194 19.7835 19.7835 0 0 0
536 3 30.5745 30.5745 10.791 0 0 0
1901 3 17.985 7.194 17.985 0 0 0
2675 3 8.9925 3.597 30.5745 0 0 0
1198 3 25.179 16.1865 34.1715 0 0 0
115 3 34.1715 17.985 26.9775 0 0 0
85 3 34.1715 14.388 8.9925 0 0 0
2021 3 17.985 17.985 17.985 0 0 0
3966 3 0.0 30.5745 8.9925 0 0 0
2027 3 16.1865 17.985 23.3805 0 0 0
1709 3 21.582 25.179 25.179 0 0 0
3114 3 7.194 8.9925 30.5745 0 0 0
2428 3 12.5895 19.7835 21.582 0 0 0
1975 3 16.1865 14.388 12.5895 0 0 0
1097 3 25.179 7.194 14.388 0 0 0
1383 3 23.3805 32.373 19.7835 0 0 0
2768 3 8.9925 16.1865 3.597 0 0 0
644 3 26.9775 5.3955 0.0 0 0 0
2987 3 8.9925 32.373 23.3805 0 0 0
1423 3 19.7835 0.0 19.7835 0 0 0
2298 3 14.388 8.9925 16.1865 0 0 0
3925 3 0.0 21.582 7.194 0 0 0
808 3 26.9775 19.7835 3.597 0 0 0
618 3 28.776 1.7985 16.1865 0 0 0
3540 3 1.7985 12.5895 14.388 0 0 0
3676 3 1.7985 23.3805 28.776 0 0 0
3852 3 0.0 8.9925 19.7835 0 0 0
3506 3 3.597 8.9925 23.3805 0 0 0
1350 3 25.179 30.5745 26.9775 0 0 0
2722 3 10.791 12.5895 1.7985 0 0 0
2230 3 14.388 1.7985 26.9775 0 0 0
851 3 26.9775 21.582 8.9925 0 0 0
1098 3 25.179 8.9925 16.1865 0 0 0
1400 3 23.3805 34.1715 32.373 0 0 0
2533 3 14.388 28.776 10.791 0 0 0
313 3 32.373 7.194 28.776 0 0 0
3838 3 0.0 5.3955 30.5745 0 0 0
3375 3 5.3955 32.373 12.5895 0 0 0
2226 3 14.388 1.7985 23.3805 0 0 0
3944 3 0.0 26.9775 5.3955 0 0 0
790 3 28.776 16.1865 26.9775 0 0 0
2878 3 10.791 23.3805 34.1715 0 0 0
3073 3 7.194 3.597 28.776 0 0 0
2692 3 8.9925 8.9925 7.194 0 0 0
3842 3 0.0 8.9925 1.7985 0 0 0
662 3 28.776 5.3955 19.7835 0 0 0
969 3 28.776 32.373 7.194 0 0 0
3139 3 5.3955 10.791 16.1865 0 0 0
843 3 26.9775 21.582 1.7985 0 0 0
2350 3 14.388 12.5895 26.9775 0 0 0
3542 3 3.597 12.5895 19.7835 0 0 0
996 3 26.9775 34.1715 28.776 0 0 0
1622 3 21.582 19.7835 19.7835 0 0 0
1086 3 25.179 8.9925 5.3955 0 0 0
1075 3 23.3805 3.597 30.5745 0 0 0
475 3 30.5745 21.582 30.5745 0 0 0
1603 3 19.7835 17.985 1.7985 0 0 0
3396 3 5.3955 34.1715 28.776 0 0 0
1870 3 17.985 5.3955 26.9775 0 0 0
3963 3 0.0 28.776 3.597 0 0 0
844 3 26.9775 23.3805 0.0 0 0 0
1441 3 21.582 3.597 0.0 0 0 0
1923 3 16.1865 10.791 1.7985 0 0 0
3899 3 0.0 14.388 32.373 0 0 0
32 3 34.1715 5.3955 17.985 0 0 0
2506 3 14.388 26.9775 23.3805 0 0 0
735 3 26.9775 10.791 12.5895 0 0 0
300 3 30.5745 8.9925 14.388 0 0 0
1052 3 23.3805 5.3955 7.194 0 0 0
1897 3 17.985 7.194 14.388 0 0 0
487 3 30.5745 25.179 5.3955 0 0 0
2382 3 14.388 16.1865 19.7835 0 0 0
3136 3 5.3955 12.5895 10.791 0 0 0
1538 3 21.582 12.5895 16.1865 0 0 0
700 3 26.9775 8.9925 14.388 0 0 0
2424 3 12.5895 19.7835 17.985 0 0 0
658 3 28.776 5.3955 16.1865 0 0 0
411 3 30.5745 17.985 8.9925 0 0 0
3943 3 0.0 25.179 3.597 0 0 0
3677 3 3.597 21.582 32.373 0 0 0
2482 3 14.388 26.9775 1.7985 0 0 0
2345 3 14.388 10.791 21.582 0 0 0
1235 3 23.3805 17.985 30.5745 0 0 0
3007 3 5.3955 0.0 5.3955 0 0 0
343 3 30.5745 10.791 19.7835 0 0 0
781 3 28.776 14.388 17.985 0 0 0
1731 3 19.7835 28.776 8.9925 0 0 0
1765 3 21.582 32.373 3.597 0 0 0
680 3 26.9775 5.3955 32.373 0 0 0
2013 3 17.985 17.985 10.791 0 0 0
136 3 34.1715 23.3805 25.179 0 0 0
866 3 28.776 23.3805 23.3805 0 0 0
3621 3 3.597 17.985 17.985 0 0 0
109 3 34.1715 17.985 16.1865 0 0 0
3031 3 5.3955 0.0 26.9775 0 0 0
473 3 32.373 21.582 28.776 0 0 0
2682 3 10.791 8.9925 1.7985 0 0 0
94 3 34.1715 16.1865 21.582 0 0 0
1487 3 19.7835 7.194 5.3955 0 0 0
2413 3 14.388 17.985 10.791 0 0 0
1951 3 16.1865 10.791 26.9775 0 0 0
1541 3 21.582 10.791 17.985 0 0 0
2891 3 8.9925 25.179 8.9925 0 0 0
147 3 34.1715 25.179 12.5895 0 0 0
256 3 30.5745 5.3955 10.791 0 0 0
450 3 32.373 23.3805 8.9925 0 0 0
2228 3 12.5895 1.7985 21.582 0 0 0
1435 3 19.7835 0.0 30.5745 0 0 0
3796 3 1.7985 34.1715 28.776 0 0 0
3953 3 0.0 25.179 21.582 0 0 0
1623 3 19.7835 17.985 19.7835 0 0 0
3572 3 1.7985 16.1865 7.194 0 0 0
1853 3 17.985 3.597 10.791 0 0 0
88 3 34.1715 16.1865 10.791 0 0 0
129 3 34.1715 21.582 16.1865 0 0 0
918 3 28.776 26.9775 34.1715 0 0 0
42 3 34.1715 8.9925 0.0 0 0 0
2221 3 14.388 0.0 17.985 0 0 0
1706 3 21.582 26.9775 23.3805 0 0 0
741 3 28.776 10.791 17.985 0 0 0
1059 3 23.3805 3.597 16.1865 0 0 0
1960 3 16.1865 12.5895 32.373 0 0 0
3642 3 3.597 23.3805 1.7985 0 0 0
864 3 26.9775 23.3805 17.985 0 0 0
3127 3 5.3955 10.791 5.3955 0 0 0
3334 3 7.194 30.5745 12.5895 0 0 0
10 3 34.1715 1.7985 14.388 0 0 0
2756 3 8.9925 12.5895 28.776 0 0 0
937 3 28.776 28.776 14.388 0 0 0
526 3 32.373 30.5745 5.3955 0 0 0
1313 3 25.179 25.179 28.776 0 0 0
3764 3 1.7985 34.1715 0.0 0 0 0
1174 3 25.179 16.1865 12.5895 0 0 0
2787 3 8.9925 14.388 23.3805 0 0 0
684 3 26.9775 8.9925 0.0 0 0 0
1433 3 21.582 0.0 28.776 0 0 0
1324 3 23.3805 30.5745 0.0 0 0 0
3161 3 7.194 14.388 0.0 0 0 0
3630 3 3.597 19.7835 26.9775 0 0 0
457 3 32.373 21.582 14.388 0 0 0
2012 3 16.1865 19.7835 7.194 0 0 0
2708 3 8.9925 8.9925 21.582 0 0 0
2264 3 12.5895 5.3955 17.985 0 0 0
18 3 34.1715 1.7985 28.776 0 0 0
523 3 30.5745 28.776 1.7985 0 0 0
1317 3 25.179 25.179 32.373 0 0 0
2354 3 14.388 12.5895 30.5745 0 0 0
3753 3 3.597 28.776 28.776 0 0 0
3455 3 1.7985 3.597 12.5895 0 0 0
2136 3 16.1865 30.5745 10.791 0 0 0
2719 3 8.9925 7.194 34.1715 0 0 0
3424 3 1.7985 1.7985 17.985 0 0 0
3748 3 1.7985 30.5745 21.582 0 0 0
3511 3 1.7985 7.194 26.9775 0 0 0
2858 3 10.791 23.3805 16.1865 0 0 0
2818 3 10.791 19.7835 16.1865 0 0 0
2836 3 8.9925 19.7835 28.776 0 0 0
819 3 26.9775 17.985 16.1865 0 0 0
3537 3 3.597 10.791 14.388 0 0 0
1220 3 23.3805 19.7835 14.388 0 0 0
52 3 34.1715 8.9925 17.985 0 0 0
2781 3 10.791 14.388 17.985 0 0 0
2343 3 12.5895 10.791 19.7835 0 0 0
2302 3 14.388 8.9925 19.7835 0 0 0
3991 3 0.0 32.373 17.985 0 0 0
1323 3 23.3805 28.776 1.7985 0 0 0
1587 3 19.7835 14.388 23.3805 0 0 0
1674 3 21.582 23.3805 30.5745 0 0 0
595 3 30.5745 32.373 30.5745 0 0 0
801 3 28.776 17.985 0.0 0 0 0
1298 3 25.179 26.9775 16.1865 0 0 0
2985 3 10.791 32.373 21.582 0 0 0
1160 3 23.3805 12.5895 32.373 0 0 0
1589 3 21.582 14.388 25.179 0 0 0
3002 3 7.194 1.7985 1.7985 0 0 0
1882 3 17.985 8.9925 1.7985 0 0 0
2032 3 16.1865 19.7835 25.179 0 0 0
3793 3 3.597 32.373 28.776 0 0 0
2284 3 12.5895 8.9925 0.0 0 0 0
2800 3 8.9925 16.1865 32.373 0 0 0
2711 3 8.9925 7.194 26.9775 0 0 0
3167 3 5.3955 14.388 5.3955 0 0 0
740 3 26.9775 12.5895 14.388 0 0 0
3494 3 3.597 8.9925 12.5895 0 0 0
373 3 32.373 14.388 10.791 0 0 0
2190 3 17.985 34.1715 26.9775 0 0 0
1281 3 25.179 25.179 0.0 0 0 0
2577 3 14.388 32.373 14.388 0 0 0
3140 3 5.3955 12.5895 14.388 0 0 0
312 3 30.5745 8.9925 25.179 0 0 0
229 3 32.373 0.0 25.179 0 0 0
2056 3 16.1865 23.3805 10.791 0 0 0
877 3 28.776 21.582 32.373 0 0 0
3487 3 1.7985 7.194 5.3955 0 0 0
2331 3 12.5895 10.791 8.9925 0 0 0
3248 3 5.3955 23.3805 3.597 0 0 0
392 3 30.5745 16.1865 25.179 0 0 0
620 3 26.9775 1.7985 14.388 0 0 0
265 3 32.373 3.597 21.582 0 0 0
3618 3 3.597 19.7835 16.1865 0 0 0
3798 3 3.597 34.1715 34.1715 0 0 0
2235 3 12.5895 0.0 30.5745 0 0 0
986 3 28.776 34.1715 23.3805 0 0 0
2699 3 8.9925 7.194 16.1865 0 0 0
3532 3 1.7985 12.5895 7.194 0 0 0
362 3 32.373 16.1865 1.7985 0 0 0
629 3 28.776 0.0 25.179 0 0 0
833 3 28.776 17.985 28.776 0 0 0
3190 3 7.194 16.1865 26.9775 0 0 0
576 3 30.5745 34.1715 10.791 0 0 0
2636 3 8.9925 1.7985 28.776 0 0 0
1345 3 25.179 28.776 21.582 0 0 0
99 3 34.1715 14.388 34.1715 0 0 0
869 3 28.776 21.582 25.179 0 0 0
214 3 32.373 1.7985 12.5895 0 0 0
3680 3 1.7985 23.3805 32.373 0 0 0
624 3 26.9775 1.7985 17.985 0 0 0
1584 3 19.7835 16.1865 17.985 0 0 0
676 3 26.9775 5.3955 28.776 0 0 0
2857 3 10.791 21.582 14.388 0 0 0
1134 3 25.179 12.5895 12.5895 0 0 0
1490 3 21.582 8.9925 8.9925 0 0 0
236 3 30.5745 1.7985 28.776 0 0 0
1477 3 21.582 3.597 32.373 0 0 0
3514 3 3.597 8.9925 30.5745 0 0 0
1109 3 25.179 7.194 25.179 0 0 0
2655 3 8.9925 3.597 12.5895 0 0 0
924 3 26.9775 30.5745 0.0 0 0 0
3239 3 5.3955 17.985 34.1715 0 0 0
144 3 34.1715 26.9775 3.597 0 0 0
3633 3 3.597 17.985 28.776 0 0 0
627 3 26.9775 0.0 23.3805 0 0 0
1287 3 23.3805 25.179 5.3955 0 0 0
390 3 32.373 16.1865 26.9775 0 0 0
368 3 30.5745 16.1865 3.597 0 0 0
1225 3 25.179 17.985 21.582 0 0 0
1402 3 21.582 1.7985 1.7985 0 0 0
2363 3 12.5895 14.388 1.7985 0 0 0
1857 3 17.985 3.597 14.388 0 0 0
3822 3 0.0 5.3955 1.7985 0 0 0
2293 3 14.388 7.194 10.791 0 0 0
2104 3 16.1865 26.9775 17.985 0 0 0
3471 3 1.7985 3.597 26.9775 0 0 0
2067 3 16.1865 21.582 23.3805 0 0 0
6 3 34.1715 1.7985 7.194 0 0 0
1946 3 17.985 12.5895 23.3805 0 0 0
3030 3 7.194 1.7985 26.9775 0 0 0
2451 3 12.5895 21.582 8.9925 0 0 0
1699 3 19.7835 25.179 16.1865 0 0 0
1613 3 21.582 17.985 10.791 0 0 0
3713 3 3.597 25.179 28.776 0 0 0
3013 3 7.194 0.0 10.791 0 0 0
860 3 26.9775 23.3805 14.388 0 0 0
2071 3 16.1865 21.582 26.9775 0 0 0
1465 3 21.582 3.597 21.582 0 0 0
3411 3 1.7985 0.0 8.9925 0 0 0
1772 3 19.7835 34.1715 7.194 0 0 0
1172 3 23.3805 16.1865 7.194 0 0 0
3047 3 5.3955 3.597 5.3955 0 0 0
1826 3 17.985 1.7985 23.3805 0 0 0
1832 3 16.1865 1.7985 25.179 0 0 0
2194 3 17.985 34.1715 30.5745 0 0 0
914 3 28.776 26.9775 30.5745 0 0 0
58 3 34.1715 8.9925 28.776 0 0 0
3729 3 3.597 28.776 7.194 0 0 0
2460 3 12.5895 23.3805 14.388 0 0 0
739 3 26.9775 10.791 16.1865 0 0 0
3129 3 7.194 10.791 7.194 0 0 0
419 3 30.5745 17.985 16.1865 0 0 0
1193 3 25.179 14.388 28.776 0 0 0
3131 3 5.3955 10.791 8.9925 0 0 0
1043 3 23.3805 3.597 1.7985 0 0 0
3947 3 0.0 25.179 10.791 0 0 0
1293 3 25.179 25.179 10.791 0 0 0
2380 3 12.5895 16.1865 14.388 0 0 0
1460 3 19.7835 5.3955 14.388 0 0 0
167 3 34.1715 28.776 12.5895 0 0 0
1045 3 25.179 3.597 3.597 0 0 0
685 3 28.776 7.194 3.597 0 0 0
211 3 30.5745 0.0 8.9925 0 0 0
197 3 34.1715 32.373 30.5745 0 0 0
464 3 30.5745 23.3805 17.985 0 0 0
2911 3 8.9925 25.179 26.9775 0 0 0
1759 3 19.7835 28.776 34.1715 0 0 0
2976 3 8.9925 34.1715 10.791 0 0 0
2567 3 12.5895 32.373 5.3955 0 0 0
3704 3 1.7985 26.9775 17.985 0 0 0
3887 3 0.0 14.388 10.791 0 0 0
3076 3 5.3955 5.3955 28.776 0 0 0
1876 3 16.1865 5.3955 28.776 0 0 0
2745 3 10.791 10.791 21.582 0 0 0
340 3 30.5745 12.5895 14.388 0 0 0
533 3 32.373 28.776 10.791 0 0 0
2686 3 10.791 8.9925 5.3955 0 0 0
1144 3 23.3805 12.5895 17.985 0 0 0
909 3 28.776 25.179 25.179 0 0 0
615 3 26.9775 0.0 12.5895 0 0 0
2584 3 12.5895 34.1715 17.985 0 0 0
270 3 32.373 5.3955 26.9775 0 0 0
1205 3 25.179 17.985 3.597 0 0 0
2732 3 8.9925 12.5895 7.194 0 0 0
3565 3 3.597 14.388 3.597 0 0 0
3090 3 7.194 8.9925 8.9925 0 0 0
1625 3 21.582 17.985 21.582 0 0 0
2680 3 8.9925 5.3955 32.373 0 0 0
3864 3 0.0 12.5895 5.3955 0 0 0
1501 3 21.582 7.194 17.985 0 0 0
1485 3 21.582 7.194 3.597 0 0 0
2763 3 8.9925 14.388 1.7985 0 0 0
3003 3 5.3955 0.0 1.7985 0 0 0
697 3 28.776 7.194 14.388 0 0 0
1239 3 23.3805 17.985 34.1715 0 0 0
1768 3 19.7835 34.1715 3.597 0 0 0
429 3 32.373 17.985 25.179 0 0 0
1860 3 16.1865 5.3955 14.388 0 0 0
701 3 28.776 7.194 17.985 0 0 0
1848 3 16.1865 5.3955 3.597 0 0 0
2169 3 17.985 32.373 7.194 0 0 0
2146 3 17.985 30.5745 23.3805 0 0 0
1381 3 25.179 32.373 17.985 0 0 0
2993 3 10.791 32.373 28.776 0 0 0
3142 3 7.194 12.5895 19.7835 0 0 0
3972 3 0.0 30.5745 19.7835 0 0 0
2175 3 16.1865 32.373 12.5895 0 0 0
2410 3 14.388 19.7835 8.9925 0 0 0
928 3 26.9775 30.5745 3.597 0 0 0
2748 3 8.9925 12.5895 21.582 0 0 0
2053 3 17.985 21.582 10.791 0 0 0
2937 3 10.791 28.776 14.388 0 0 0
2791 3 8.9925 14.388 26.9775 0 0 0
2048 3 16.1865 23.3805 3.597 0 0 0
3984 3 0.0 34.1715 5.3955 0 0 0
3495 3 1.7985 7.194 12.5895 0 0 0
2092 3 16.1865 26.9775 7.194 0 0 0
2913 3 10.791 25.179 28.776 0 0 0
2794 3 10.791 16.1865 30.5745 0 0 0
3408 3 1.7985 1.7985 3.597 0 0 0
344 3 30.5745 12.5895 17.985 0 0 0
3606 3 3.597 19.7835 5.3955 0 0 0
1091 3 23.3805 7.194 8.9925 0 0 0
71 3 34.1715 10.791 19.7835 0 0 0
2047 3 16.1865 21.582 5.3955 0 0 0
1509 3 21.582 7.194 25.179 0 0 0
492 3 30.5745 26.9775 7.194 0 0 0
1025 3 25.179 0.0 21.582 0 0 0
2143 3 16.1865 28.776 19.7835 0 0 0
2600 3 12.5895 34.1715 32.373 0 0 0
2906 3 10.791 26.9775 23.3805 0 0 0
1171 3 23.3805 14.388 8.9925 0 0 0
126 3 34.1715 23.3805 7.194 0 0 0
1616 3 19.7835 19.7835 10.791 0 0 0
1053 3 25.179 3.597 10.791 0 0 0
224 3 30.5745 1.7985 17.985 0 0 0
1310 3 25.179 26.9775 26.9775 0 0 0
3698 3 3.597 26.9775 16.1865 0 0 0
2349 3 14.388 10.791 25.179 0 0 0
1970 3 17.985 16.1865 8.9925 0 0 0
3999 3 0.0 32.373 32.373 0 0 0
587 3 30.5745 32.373 23.3805 0 0 0
1218 3 25.179 19.7835 16.1865 0 0 0
1744 3 19.7835 30.5745 17.985 0 0 0
2151 3 16.1865 28.776 26.9775 0 0 0
1488 3 19.7835 8.9925 3.597 0 0 0
745 3 28.776 10.791 21.582 0 0 0
1742 3 21.582 30.5745 19.7835 0 0 0
1884 3 16.1865 8.9925 0.0 0 0 0
3643 3 1.7985 21.582 1.7985 0 0 0
2163 3 16.1865 32.373 1.7985 0 0 0
515 3 30.5745 25.179 30.5745 0 0 0
413 3 32.373 17.985 10.791 0 0 0
716 3 26.9775 8.9925 28.776 0 0 0
3595 3 1.7985 14.388 30.5745 0 0 0
723 3 26.9775 10.791 1.7985 0 0 0
2635 3 8.9925 0.0 30.5745 0 0 0
3304 3 5.3955 26.9775 17.985 0 0 0
337 3 32.373 10.791 14.388 0 0 0
3840 3 0.0 5.3955 34.1715 0 0 0
519 3 30.5745 25.179 34.1715 0 0 0
2055 3 16.1865 21.582 12.5895 0 0 0
2530 3 14.388 30.5745 8.9925 0 0 0
43 3 34.1715 7.194 5.3955 0 0 0
415 3 30.5745 17.985 12.5895 0 0 0
1388 3 23.3805 34.1715 21.582 0 0 0
3439 3 1.7985 0.0 34.1715 0 0 0
375 3 30.5745 14.388 12.5895 0 0 0
2785 3 10.791 14.388 21.582 0 0 0
1130 3 25.179 12.5895 8.9925 0 0 0
2189 3 17.985 32.373 25.179 0 0 0
1296 3 23.3805 26.9775 10.791 0 0 0
3273 3 7.194 21.582 28.776 0 0 0
2779 3 8.9925 14.388 16.1865 0 0 0
1048 3 23.3805 5.3955 3.597 0 0 0
145 3 34.1715 25.179 8.9925 0 0 0
1981 3 17.985 14.388 17.985 0 0 0
1739 3 19.7835 28.776 16.1865 0 0 0
122 3 34.1715 23.3805 0.0 0 0 0
1136 3 23.3805 12.5895 10.791 0 0 0
238 3 32.373 1.7985 34.1715 0 0 0
882 3 28.776 26.9775 1.7985 0 0 0
1459 3 19.7835 3.597 16.1865 0 0 0
1714 3 21.582 26.9775 30.5745 0 0 0
604 3 26.9775 1.7985 0.0 0 0 0
1099 3 23.3805 7.194 16.1865 0 0 0
1995 3 16.1865 14.388 30.5745 0 0 0
3893 3 0.0 14.388 21.582 0 0 0
3765 3 3.597 32.373 3.597 0 0 0
2609 3 10.791 0.0 7.194 0 0 0
2505 3 14.388 25.179 21.582 0 0 0
3531 3 1.7985 10.791 8.9925 0 0 0
2372 3 12.5895 16.1865 7.194 0 0 0
432 3 30.5745 19.7835 25.179 0 0 0
3054 3 7.194 5.3955 12.5895 0 0 0
2754 3 10.791 12.5895 30.5745 0 0 0
3820 3 0.0 1.7985 34.1715 0 0 0
3956 3 0.0 26.9775 26.9775 0 0 0
1805 3 17.985 0.0 3.597 0 0 0
2387 3 12.5895 14.388 23.3805 0 0 0
1094 3 25.179 8.9925 12.5895 0 0 0
3011 3 5.3955 0.0 8.9925 0 0 0
1258 3 25.179 23.3805 16.1865 0 0 0
3485 3 3.597 7.194 3.597 0 0 0
2523 3 12.5895 28.776 1.7985 0 0 0
3355 3 5.3955 28.776 30.5745 0 0 0
1572 3 19.7835 16.1865 7.194 0 0 0
2589 3 14.388 32.373 25.179 0 0 0
3198 3 7.194 16.1865 34.1715 0 0 0
3383 3 5.3955 32.373 19.7835 0 0 0
2364 3 12.5895 16.1865 0.0 0 0 0
34 3 34.1715 5.3955 21.582 0 0 0
2641 3 10.791 3.597 0.0 0 0 0
2825 3 10.791 17.985 21.582 0 0 0
2538 3 14.388 30.5745 16.1865 0 0 0
2501 3 14.388 25.179 17.985 0 0 0
1899 3 16.1865 7.194 16.1865 0 0 0
1506 3 21.582 8.9925 23.3805 0 0 0
3205 3 7.194 17.985 3.597 0 0 0
841 3 28.776 21.582 0.0 0 0 0
2751 3 8.9925 10.791 26.9775 0 0 0
516 3 30.5745 26.9775 28.776 0 0 0
2369 3 14.388 14.388 7.194 0 0 0
3317 3 7.194 25.179 32.373 0 0 0
1802 3 17.985 1.7985 1.7985 0 0 0
2375 3 12.5895 14.388 12.5895 0 0 0
2187 3 16.1865 32.373 23.3805 0 0 0
1497 3 21.582 7.194 14.388 0 0 0
2899 3 8.9925 25.179 16.1865 0 0 0
2142 3 17.985 30.5745 19.7835 0 0 0
3594 3 3.597 16.1865 30.5745 0 0 0
3376 3 5.3955 34.1715 10.791 0 0 0
2599 3 12.5895 32.373 34.1715 0 0 0
1096 3 23.3805 8.9925 10.791 0 0 0
1943 3 16.1865 10.791 19.7835 0 0 0
702 3 28.776 8.9925 19.7835 0 0 0
3325 3 7.194 28.776 3.597 0 0 0
2925 3 10.791 28.776 3.597 0 0 0
1728 3 19.7835 30.5745 3.597 0 0 0
1065 3 25.179 3.597 21.582 0 0 0
3930 3 0.0 23.3805 16.1865 0 0 0
1363 3 23.3805 32.373 1.7985 0 0 0
2811 3 8.9925 17.985 8.9925 0 0 0
840 3 26.9775 19.7835 32.373 0 0 0
2922 3 10.791 30.5745 1.7985 0 0 0
3734 3 3.597 30.5745 12.5895 0 0 0
3040 3 5.3955 1.7985 32.373 0 0 0
15 3 34.1715 0.0 26.9775 0 0 0
1784 3 19.7835 34.1715 17.985 0 0 0
3130 3 7.194 12.5895 8.9925 0 0 0
3952 3 0.0 26.9775 19.7835 0 0 0
2556 3 12.5895 30.5745 28.776 0 0 0
2497 3 14.388 25.179 14.388 0 0 0
2150 3 17.985 30.5745 26.9775 0 0 0
3560 3 1.7985 12.5895 32.373 0 0 0
795 3 26.9775 14.388 30.5745 0 0 0
2929 3 10.791 28.776 7.194 0 0 0
1022 3 25.179 1.7985 19.7835 0 0 0
2266 3 14.388 5.3955 23.3805 0 0 0
528 3 30.5745 30.5745 3.597 0 0 0
2116 3 16.1865 26.9775 28.776 0 0 0
1775 3 19.7835 32.373 12.5895 0 0 0
3188 3 5.3955 16.1865 21.582 0 0 0
1942 3 17.985 12.5895 19.7835 0 0 0
2928 3 8.9925 30.5745 3.597 0 0 0
1389 3 25.179 32.373 25.179 0 0 0
1801 3 17.985 0.0 0.0 0 0 0
2279 3 12.5895 3.597 34.1715 0 0 0
1362 3 25.179 34.1715 1.7985 0 0 0
3064 3 5.3955 5.3955 17.985 0 0 0
3831 3 0.0 3.597 17.985 0 0 0
3019 3 5.3955 0.0 16.1865 0 0 0
2126 3 17.985 30.5745 5.3955 0 0 0
1344 3 23.3805 30.5745 17.985 0 0 0
2580 3 12.5895 34.1715 14.388 0 0 0
1013 3 25.179 0.0 10.791 0 0 0
221 3 32.373 0.0 17.985 0 0 0
3829 3 0.0 3.597 14.388 0 0 0
2890 3 10.791 26.9775 8.9925 0 0 0
2436 3 12.5895 19.7835 28.776 0 0 0
3808 3 0.0 1.7985 12.5895 0 0 0
3020 3 5.3955 1.7985 14.388 0 0 0
3466 3 3.597 5.3955 23.3805 0 0 0
1929 3 17.985 10.791 7.194 0 0 0
545 3 32.373 28.776 21.582 0 0 0
257 3 32.373 3.597 14.388 0 0 0
215 3 30.5745 0.0 12.5895 0 0 0
3819 3 0.0 0.0 32.373 0 0 0
1835 3 16.1865 0.0 30.5745 0 0 0
1628 3 19.7835 19.7835 21.582 0 0 0
1322 3 25.179 30.5745 1.7985 0 0 0
3876 3 0.0 12.5895 26.9775 0 0 0
1550 3 21.582 12.5895 26.9775 0 0 0
978 3 28.776 34.1715 16.1865 0 0 0
826 3 28.776 19.7835 23.3805 0 0 0
2132 3 16.1865 30.5745 7.194 0 0 0
3510 3 3.597 8.9925 26.9775 0 0 0
2557 3 14.388 28.776 32.373 0 0 0
87 3 34.1715 14.388 12.5895 0 0 0
244 3 30.5745 5.3955 0.0 0 0 0
823 3 26.9775 17.985 19.7835 0 0 0
3088 3 5.3955 8.9925 3.597 0 0 0
3597 3 3.597 14.388 32.373 0 0 0
2419 3 12.5895 17.985 16.1865 0 0 0
2015 3 16.1865 17.985 12.5895 0 0 0
1088 3 23.3805 8.9925 3.597 0 0 0
3008 3 5.3955 1.7985 3.597 0 0 0
1618 3 21.582 19.7835 16.1865 0 0 0
2970 3 10.791 34.1715 8.9925 0 0 0
3901 3 0.0 17.985 0.0 0 0 0
1173 3 25.179 14.388 10.791 0 0 0
3137 3 7.194 10.791 14.388 0 0 0
3338 3 7.194 30.5745 16.1865 0 0 0
1123 3 23.3805 10.791 1.7985 0 0 0
548 3 30.5745 30.5745 21.582 0 0 0
1948 3 16.1865 12.5895 21.582 0 0 0
3821 3 0.0 3.597 0.0 0 0 0
97 3 34.1715 14.388 30.5745 0 0 0
3699 3 1.7985 25.179 16.1865 0 0 0
2370 3 14.388 16.1865 8.9925 0 0 0
3407 3 1.7985 0.0 5.3955 0 0 0
3431 3 1.7985 0.0 26.9775 0 0 0
2943 3 8.9925 28.776 19.7835 0 0 0
2645 3 10.791 3.597 3.597 0 0 0
1197 3 25.179 14.388 32.373 0 0 0
1580 3 19.7835 16.1865 14.388 0 0 0
1771 3 19.7835 32.373 8.9925 0 0 0
2134 3 17.985 30.5745 12.5895 0 0 0
1386 3 25.179 34.1715 23.3805 0 0 0
2141 3 17.985 28.776 17.985 0 0 0
2217 3 14.388 0.0 14.388 0 0 0
3039 3 5.3955 0.0 34.1715 0 0 0
3049 3 7.194 3.597 7.194 0 0 0
1331 3 23.3805 28.776 8.9925 0 0 0
1491 3 19.7835 7.194 8.9925 0 0 0
755 3 26.9775 10.791 30.5745 0 0 0
1125 3 25.179 10.791 3.597 0 0 0
585 3 32.373 32.373 21.582 0 0 0
1068 3 23.3805 5.3955 21.582 0 0 0
2901 3 10.791 25.179 17.985 0 0 0
982 3 28.776 34.1715 19.7835 0 0 0
3087 3 5.3955 7.194 5.3955 0 0 0
1611 3 19.7835 17.985 8.9925 0 0 0
2066 3 17.985 23.3805 23.3805 0 0 0
2270 3 14.388 5.3955 26.9775 0 0 0
2631 3 8.9925 0.0 26.9775 0 0 0
3552 3 1.7985 12.5895 25.179 0 0 0
365 3 32.373 14.388 3.597 0 0 0
2639 3 8.9925 0.0 34.1715 0 0 0
3951 3 0.0 25.179 17.985 0 0 0
149 3 34.1715 25.179 16.1865 0 0 0
1483 3 19.7835 7.194 1.7985 0 0 0
1438 3 21.582 1.7985 34.1715 0 0 0
1200 3 23.3805 16.1865 32.373 0 0 0
1354 3 25.179 30.5745 30.5745 0 0 0
3457 3 3.597 3.597 14.388 0 0 0
2640 3 8.9925 1.7985 32.373 0 0 0
2889 3 10.791 25.179 7.194 0 0 0
3735 3 1.7985 28.776 12.5895 0 0 0
730 3 28.776 12.5895 8.9925 0 0 0
1289 3 25.179 25.179 7.194 0 0 0
2210 3 14.388 1.7985 8.9925 0 0 0
2981 3 10.791 32.373 17.985 0 0 0
1750 3 21.582 30.5745 26.9775 0 0 0
1675 3 19.7835 21.582 30.5745 0 0 0
2552 3 12.5895 30.5745 25.179 0 0 0
2381 4 14.388 14.388 17.985 0 0 0
1542 4 21.582 12.5895 19.7835 0 0 0
3156 4 5.3955 12.5895 28.776 0 0 0
2043 4 16.1865 21.582 1.7985 0 0 0
1463 4 19.7835 3.597 19.7835 0 0 0
1665 4 21.582 21.582 21.582 0 0 0
2309 4 14.388 7.194 25.179 0 0 0
1476 4 19.7835 5.3955 28.776 0 0 0
3611 4 1.7985 17.985 8.9925 0 0 0
2743 4 8.9925 10.791 19.7835 0 0 0
2887 4 8.9925 25.179 5.3955 0 0 0
2263 4 12.5895 3.597 19.7835 0 0 0
1914 4 17.985 8.9925 30.5745 0 0 0
907 4 26.9775 25.179 23.3805 0 0 0
2306 4 14.388 8.9925 23.3805 0 0 0
544 4 30.5745 30.5745 17.985 0 0 0
3512 4 1.7985 8.9925 25.179 0 0 0
3939 4 0.0 21.582 32.373 0 0 0
2376 4 12.5895 16.1865 10.791 0 0 0
2285 4 14.388 7.194 3.597 0 0 0
974 4 28.776 34.1715 12.5895 0 0 0
2777 4 10.791 14.388 14.388 0 0 0
2720 4 8.9925 8.9925 32.373 0 0 0
1803 4 16.1865 0.0 1.7985 0 0 0
621 4 28.776 0.0 17.985 0 0 0
2045 4 17.985 21.582 3.597 0 0 0
81 4 34.1715 14.388 1.7985 0 0 0
2204 4 12.5895 1.7985 0.0 0 0 0
1421 4 21.582 0.0 17.985 0 0 0
3559 4 1.7985 10.791 34.1715 0 0 0
3278 4 7.194 23.3805 34.1715 0 0 0
3264 4 5.3955 23.3805 17.985 0 0 0
876 4 26.9775 23.3805 28.776 0 0 0
3182 4 7.194 16.1865 19.7835 0 0 0
2044 4 16.1865 23.3805 0.0 0 0 0
102 4 34.1715 19.7835 0.0 0 0 0
355 4 30.5745 10.791 30.5745 0 0 0
905 4 28.776 25.179 21.582 0 0 0
324 4 30.5745 12.5895 0.0 0 0 0
2023 4 16.1865 17.985 19.7835 0 0 0
510 4 32.373 26.9775 26.9775 0 0 0
561 4 32.373 32.373 0.0 0 0 0
1620 4 19.7835 19.7835 14.388 0 0 0
2386 4 14.388 16.1865 23.3805 0 0 0
2507 4 12.5895 25.179 23.3805 0 0 0
2713 4 10.791 7.194 28.776 0 0 0
3021 4 7.194 0.0 17.985 0 0 0
2018 4 17.985 19.7835 16.1865 0 0 0
2503 4 12.5895 25.179 19.7835 0 0 0
703 4 26.9775 7.194 19.7835 0 0 0
3491 4 1.7985 7.194 8.9925 0 0 0
3187 4 5.3955 14.388 23.3805 0 0 0
3356 4 5.3955 30.5745 28.776 0 0 0
1927 4 16.1865 10.791 5.3955 0 0 0
3554 4 3.597 12.5895 30.5745 0 0 0
1621 4 21.582 17.985 17.985 0 0 0
3590 4 3.597 16.1865 26.9775 0 0 0
2181 4 17.985 32.373 17.985 0 0 0
514 4 32.373 26.9775 30.5745 0 0 0
3568 4 1.7985 16.1865 3.597 0 0 0
853 4 28.776 21.582 10.791 0 0 0
3181 4 7.194 14.388 17.985 0 0 0
2149 4 17.985 28.776 25.179 0 0 0
1122 4 25.179 12.5895 1.7985 0 0 0
156 4 34.1715 26.9775 25.179 0 0 0
3940 4 0.0 23.3805 34.1715 0 0 0
1855 4 16.1865 3.597 12.5895 0 0 0
191 4 34.1715 32.373 19.7835 0 0 0
1238 4 25.179 19.7835 34.1715 0 0 0
727 4 26.9775 10.791 5.3955 0 0 0
3125 4 7.194 10.791 3.597 0 0 0
2281 4 14.388 7.194 0.0 0 0 0
1726 4 21.582 30.5745 5.3955 0 0 0
3289 4 7.194 25.179 7.194 0 0 0
452 4 30.5745 23.3805 7.194 0 0 0
3836 4 0.0 5.3955 26.9775 0 0 0
240 4 30.5745 1.7985 32.373 0 0 0
1635 4 19.7835 17.985 30.5745 0 0 0
3682 4 3.597 26.9775 1.7985 0 0 0
1195 4 23.3805 14.388 30.5745 0 0 0
2481 4 14.388 25.179 0.0 0 0 0
1961 4 17.985 14.388 0.0 0 0 0
2080 4 16.1865 23.3805 32.373 0 0 0
2459 4 12.5895 21.582 16.1865 0 0 0
1666 4 21.582 23.3805 23.3805 0 0 0
2171 4 16.1865 32.373 8.9925 0 0 0
1940 4 16.1865 12.5895 14.388 0 0 0
3562 4 3.597 16.1865 1.7985 0 0 0
588 4 30.5745 34.1715 21.582 0 0 0
647 4 26.9775 3.597 5.3955 0 0 0
3269 4 7.194 21.582 25.179 0 0 0
1102 4 25.179 8.9925 19.7835 0 0 0
494 4 32.373 26.9775 12.5895 0 0 0
142 4 34.1715 26.9775 0.0 0 0 0
2477 4 14.388 21.582 32.373 0 0 0
1957 4 17.985 10.791 32.373 0 0 0
2154 4 17.985 30.5745 30.5745 0 0 0
2301 4 14.388 7.194 17.985 0 0 0
2242 4 14.388 5.3955 1.7985 0 0 0
3063 4 5.3955 3.597 19.7835 0 0 0
1300 4 23.3805 26.9775 14.388 0 0 0
1030 4 25.179 1.7985 26.9775 0 0 0
2246 4 14.388 5.3955 5.3955 0 0 0
639 4 26.9775 0.0 34.1715 0 0 0
593 4 32.373 32.373 28.776 0 0 0
3636 4 1.7985 19.7835 28.776 0 0 0
3976 4 0.0 30.5745 26.9775 0 0 0
742 4 28.776 12.5895 19.7835 0 0 0
1713 4 21.582 25.179 28.776 0 0 0
542 4 32.373 30.5745 19.7835 0 0 0
3747 4 1.7985 28.776 23.3805 0 0 0
3316 4 5.3955 26.9775 28.776 0 0 0
1837 4 17.985 0.0 32.373 0 0 0
301 4 32.373 7.194 17.985 0 0 0
933 4 28.776 28.776 10.791 0 0 0
3164 4 5.3955 16.1865 0.0 0 0 0
1831 4 16.1865 0.0 26.9775 0 0 0
1064 4 23.3805 5.3955 17.985 0 0 0
3553 4 3.597 10.791 28.776 0 0 0
2395 4 12.5895 14.388 30.5745 0 0 0
3374 4 7.194 34.1715 12.5895 0 0 0
1829 4 17.985 0.0 25.179 0 0 0
3472 4 1.7985 5.3955 25.179 0 0 0
1614 4 21.582 19.7835 12.5895 0 0 0
720 4 26.9775 8.9925 32.373 0 0 0
2864 4 8.9925 23.3805 17.985 0 0 0
3782 4 3.597 34.1715 19.7835 0 0 0
1445 4 21.582 3.597 3.597 0 0 0
3337 4 7.194 28.776 14.388 0 0 0
2753 4 10.791 10.791 28.776 0 0 0
3342 4 7.194 30.5745 19.7835 0 0 0
2000 4 16.1865 16.1865 32.373 0 0 0
2195 4 16.1865 32.373 30.5745 0 0 0
1653 4 21.582 21.582 10.791 0 0 0
2300 4 12.5895 8.9925 14.388 0 0 0
2587 4 12.5895 32.373 23.3805 0 0 0
506 4 32.373 26.9775 23.3805 0 0 0
271 4 30.5745 3.597 26.9775 0 0 0
1365 4 25.179 32.373 3.597 0 0 0
1276 4 23.3805 23.3805 28.776 0 0 0
2248 4 12.5895 5.3955 3.597 0 0 0
1685 4 21.582 25.179 3.597 0 0 0
1342 4 25.179 30.5745 19.7835 0 0 0
2090 4 17.985 26.9775 8.9925 0 0 0
1461 4 21.582 3.597 17.985 0 0 0
2449 4 14.388 21.582 7.194 0 0 0
944 4 26.9775 30.5745 17.985 0 0 0
2371 4 12.5895 14.388 8.9925 0 0 0
1452 4 19.7835 5.3955 7.194 0 0 0
158 4 34.1715 26.9775 28.776 0 0 0
2145 4 17.985 28.776 21.582 0 0 0
2259 4 12.5895 3.597 16.1865 0 0 0
750 4 28.776 12.5895 26.9775 0 0 0
1825 4 17.985 0.0 21.582 0 0 0
3158 4 7.194 12.5895 34.1715 0 0 0
1910 4 17.985 8.9925 26.9775 0 0 0
1911 4 16.1865 7.194 26.9775 0 0 0
1466 4 21.582 5.3955 23.3805 0 0 0
3757 4 3.597 28.776 32.373 0 0 0
2571 4 12.5895 32.373 8.9925 0 0 0
1005 4 25.179 0.0 3.597 0 0 0
2765 4 10.791 14.388 3.597 0 0 0
220 4 30.5745 1.7985 14.388 0 0 0
1690 4 21.582 26.9775 8.9925 0 0 0
3244 4 5.3955 23.3805 0.0 0 0 0
913 4 28.776 25.179 28.776 0 0 0
1245 4 25.179 21.582 3.597 0 0 0
2575 4 12.5895 32.373 12.5895 0 0 0
1579 4 19.7835 14.388 16.1865 0 0 0
3106 4 7.194 8.9925 23.3805 0 0 0
3555 4 1.7985 10.791 30.5745 0 0 0
3271 4 5.3955 21.582 26.9775 0 0 0
2709 4 10.791 7.194 25.179 0 0 0
2625 4 10.791 0.0 21.582 0 0 0
563 4 30.5745 32.373 1.7985 0 0 0
2998 4 10.791 34.1715 34.1715 0 0 0
2262 4 14.388 5.3955 19.7835 0 0 0
3759 4 1.7985 28.776 34.1715 0 0 0
370 4 32.373 16.1865 8.9925 0 0 0
3936 4 0.0 23.3805 26.9775 0 0 0
3366 4 7.194 34.1715 5.3955 0 0 0
1101 4 25.179 7.194 17.985 0 0 0
2320 4 12.5895 8.9925 32.373 0 0 0
104 4 34.1715 19.7835 3.597 0 0 0
1407 4 19.7835 0.0 5.3955 0 0 0
3773 4 3.597 32.373 10.791 0 0 0
1705 4 21.582 25.179 21.582 0 0 0
3772 4 1.7985 34.1715 7.194 0 0 0
3740 4 1.7985 30.5745 14.388 0 0 0
2861 4 10.791 21.582 17.985 0 0 0
3997 4 0.0 32.373 28.776 0 0 0
1724 4 19.7835 30.5745 0.0 0 0 0
1529 4 21.582 10.791 7.194 0 0 0
3067 4 5.3955 3.597 23.3805 0 0 0
2665 4 10.791 3.597 21.582 0 0 0
1954 4 17.985 12.5895 30.5745 0 0 0
1637 4 21.582 17.985 32.373 0 0 0
3712 4 1.7985 26.9775 25.179 0 0 0
3813 4 0.0 0.0 21.582 0 0 0
1715 4 19.7835 25.179 30.5745 0 0 0
3460 4 1.7985 5.3955 14.388 0 0 0
314 4 32.373 8.9925 30.5745 0 0 0
2167 4 16.1865 32.373 5.3955 0 0 0
1513 4 21.582 7.194 28.776 0 0 0
1394 4 25.179 34.1715 30.5745 0 0 0
2036 4 16.1865 19.7835 28.776 0 0 0
1418 4 21.582 1.7985 16.1865 0 0 0
1858 4 17.985 5.3955 16.1865 0 0 0
805 4 28.776 17.985 3.597 0 0 0
2474 4 14.388 23.3805 30.5745 0 0 0
3826 4 0.0 5.3955 8.9925 0 0 0
3795 4 1.7985 32.373 30.5745 0 0 0
17 4 34.1715 0.0 30.5745 0 0 0
3458 4 3.597 5.3955 16.1865 0 0 0
3613 4 3.597 17.985 10.791 0 0 0
2004 4 16.1865 19.7835 0.0 0 0 0
3192 4 5.3955 16.1865 25.179 0 0 0
1217 4 25.179 17.985 14.388 0 0 0
2607 4 8.9925 0.0 5.3955 0 0 0
1399 4 23.3805 32.373 34.1715 0 0 0
1143 4 23.3805 10.791 19.7835 0 0 0
1403 4 19.7835 0.0 1.7985 0 0 0
1974 4 17.985 16.1865 12.5895 0 0 0
836 4 26.9775 19.7835 28.776 0 0 0
809 4 28.776 17.985 7.194 0 0 0
831 4 26.9775 17.985 26.9775 0 0 0
2338 4 14.388 12.5895 16.1865 0 0 0
3815 4 0.0 0.0 25.179 0 0 0
846 4 28.776 23.3805 5.3955 0 0 0
3295 4 5.3955 25.179 12.5895 0 0 0
1719 4 19.7835 25.179 34.1715 0 0 0
1655 4 19.7835 21.582 12.5895 0 0 0
481 4 32.373 25.179 0.0 0 0 0
1440 4 19.7835 1.7985 32.373 0 0 0
3649 4 3.597 21.582 7.194 0 0 0
1442 4 21.582 5.3955 1.7985 0 0 0
111 4 34.1715 17.985 19.7835 0 0 0
1638 4 21.582 19.7835 34.1715 0 0 0
2392 4 12.5895 16.1865 25.179 0 0 0
2522 4 14.388 30.5745 1.7985 0 0 0
2513 4 14.388 25.179 28.776 0 0 0
1691 4 19.7835 25.179 8.9925 0 0 0
2480 4 12.5895 23.3805 32.373 0 0 0
656 4 26.9775 5.3955 10.791 0 0 0
1785 4 21.582 32.373 21.582 0 0 0
1 4 34.1715 0.0 1.7985 0 0 0
2873 4 10.791 21.582 28.776 0 0 0
3911 4 0.0 17.985 17.985 0 0 0
1215 4 23.3805 17.985 12.5895 0 0 0
2617 4 10.791 0.0 14.388 0 0 0
2706 4 10.791 8.9925 23.3805 0 0 0
381 4 32.373 14.388 17.985 0 0 0
1353 4 25.179 28.776 28.776 0 0 0
2646 4 10.791 5.3955 5.3955 0 0 0
2287 4 12.5895 7.194 5.3955 0 0 0
3811 4 0.0 0.0 17.985 0 0 0
3623 4 1.7985 17.985 19.7835 0 0 0
1424 4 19.7835 1.7985 17.985 0 0 0
1547 4 19.7835 10.791 23.3805 0 0 0
580 4 30.5745 34.1715 14.388 0 0 0
1895 4 16.1865 7.194 12.5895 0 0 0
2602 4 10.791 1.7985 1.7985 0 0 0
1989 4 17.985 14.388 25.179 0 0 0
1969 4 17.985 14.388 7.194 0 0 0
756 4 26.9775 12.5895 28.776 0 0 0
2813 4 10.791 17.985 10.791 0 0 0
1947 4 16.1865 10.791 23.3805 0 0 0
3227 4 5.3955 17.985 23.3805 0 0 0
1567 4 19.7835 14.388 5.3955 0 0 0
2070 4 17.985 23.3805 26.9775 0 0 0
926 4 28.776 30.5745 5.3955 0 0 0
2318 4 14.388 8.9925 34.1715 0 0 0
1965 4 17.985 14.388 3.597 0 0 0
2817 4 10.791 17.985 14.388 0 0 0
1672 4 19.7835 23.3805 25.179 0 0 0
2119 4 16.1865 25.179 34.1715 0 0 0
231 4 30.5745 0.0 26.9775 0 0 0
393 4 32.373 14.388 28.776 0 0 0
958 4 28.776 30.5745 34.1715 0 0 0
3247 4 5.3955 21.582 5.3955 0 0 0
1236 4 23.3805 19.7835 28.776 0 0 0
2570 4 14.388 34.1715 8.9925 0 0 0
2365 4 14.388 14.388 3.597 0 0 0
1999 4 16.1865 14.388 34.1715 0 0 0
2261 4 14.388 3.597 17.985 0 0 0
2334 4 14.388 12.5895 12.5895 0 0 0
3954 4 0.0 26.9775 23.3805 0 0 0
3706 4 3.597 26.9775 23.3805 0 0 0
3570 4 3.597 16.1865 8.9925 0 0 0
280 4 30.5745 5.3955 32.373 0 0 0
930 4 28.776 30.5745 8.9925 0 0 0
591 4 30.5745 32.373 26.9775 0 0 0
2733 4 10.791 10.791 10.791 0 0 0
2847 4 8.9925 21.582 5.3955 0 0 0
1128 4 23.3805 12.5895 3.597 0 0 0
1807 4 16.1865 0.0 5.3955 0 0 0
427 4 30.5745 17.985 23.3805 0 0 0
3550 4 3.597 12.5895 26.9775 0 0 0
315 4 30.5745 7.194 30.5745 0 0 0
1387 4 23.3805 32.373 23.3805 0 0 0
3473 4 3.597 3.597 28.776 0 0 0
2311 4 12.5895 7.194 26.9775 0 0 0
2340 4 12.5895 12.5895 14.388 0 0 0
712 4 26.9775 8.9925 25.179 0 0 0
1204 4 23.3805 19.7835 0.0 0 0 0
3121 4 7.194 10.791 0.0 0 0 0
927 4 26.9775 28.776 5.3955 0 0 0
1467 4 19.7835 3.597 23.3805 0 0 0
2412 4 12.5895 19.7835 7.194 0 0 0
200 4 34.1715 34.1715 32.373 0 0 0
3110 4 7.194 8.9925 26.9775 0 0 0
1181 4 25.179 14.388 17.985 0 0 0
61 4 34.1715 10.791 1.7985 0 0 0
2215 4 12.5895 0.0 12.5895 0 0 0
86 4 34.1715 16.1865 7.194 0 0 0
1056 4 23.3805 5.3955 10.791 0 0 0
994 4 28.776 34.1715 30.5745 0 0 0
157 4 34.1715 25.179 30.5745 0 0 0
2652 4 8.9925 5.3955 7.194 0 0 0
852 4 26.9775 23.3805 7.194 0 0 0
1380 4 23.3805 34.1715 14.388 0 0 0
2463 4 12.5895 21.582 19.7835 0 0 0
1810 4 17.985 1.7985 8.9925 0 0 0
237 4 32.373 0.0 32.373 0 0 0
1755 4 19.7835 28.776 30.5745 0 0 0
2330 4 14.388 12.5895 8.9925 0 0 0
2540 4 12.5895 30.5745 14.388 0 0 0
1723 4 19.7835 28.776 1.7985 0 0 0
3100 4 5.3955 8.9925 14.388 0 0 0
1406 4 21.582 1.7985 5.3955 0 0 0
26 4 34.1715 5.3955 7.194 0 0 0
758 4 28.776 12.5895 34.1715 0 0 0
1449 4 21.582 3.597 7.194 0 0 0
2730 4 10.791 12.5895 8.9925 0 0 0
2040 4 16.1865 19.7835 32.373 0 0 0
444 4 30.5745 23.3805 0.0 0 0 0
2407 4 12.5895 17.985 5.3955 0 0 0
127 4 34.1715 21.582 12.5895 0 0 0
3877 4 0.0 10.791 28.776 0 0 0
2597 4 14.388 32.373 32.373 0 0 0
1777 4 21.582 32.373 14.388 0 0 0
2234 4 14.388 1.7985 30.5745 0 0 0
3060 4 5.3955 5.3955 14.388 0 0 0
646 4 28.776 5.3955 5.3955 0 0 0
2312 4 12.5895 8.9925 25.179 0 0 0
3659 4 1.7985 21.582 16.1865 0 0 0
3243 4 5.3955 21.582 1.7985 0 0 0
3809 4 0.0 0.0 14.388 0 0 0
2213 4 14.388 0.0 10.791 0 0 0
669 4 28.776 3.597 25.179 0 0 0
608 4 26.9775 1.7985 3.597 0 0 0
1071 4 23.3805 3.597 26.9775 0 0 0
2844 4 8.9925 23.3805 0.0 0 0 0
1040 4 23.3805 1.7985 32.373 0 0 0
2429 4 14.388 17.985 25.179 0 0 0
2880 4 8.9925 23.3805 32.373 0 0 0
1246 4 25.179 23.3805 5.3955 0 0 0
2958 4 10.791 30.5745 34.1715 0 0 0
1789 4 21.582 32.373 25.179 0 0 0
428 4 30.5745 19.7835 21.582 0 0 0
2827 4 8.9925 17.985 23.3805 0 0 0
3717 4 3.597 25.179 32.373 0 0 0
2046 4 17.985 23.3805 5.3955 0 0 0
2462 4 14.388 23.3805 19.7835 0 0 0
1786 4 21.582 34.1715 23.3805 0 0 0
454 4 32.373 23.3805 12.5895 0 0 0
1295 4 23.3805 25.179 12.5895 0 0 0
1266 4 25.179 23.3805 23.3805 0 0 0
482 4 32.373 26.9775 1.7985 0 0 0
25 4 34.1715 3.597 8.9925 0 0 0
1265 4 25.179 21.582 21.582 0 0 0
434 4 32.373 19.7835 30.5745 0 0 0
3981 4 0.0 32.373 0.0 0 0 0
2206 4 14.388 1.7985 5.3955 0 0 0
1820 4 16.1865 1.7985 14.388 0 0 0
2139 4 16.1865 28.776 16.1865 0 0 0
916 4 26.9775 26.9775 28.776 0 0 0
477 4 32.373 21.582 32.373 0 0 0
174 4 34.1715 30.5745 21.582 0 0 0
307 4 30.5745 7.194 23.3805 0 0 0
1760 4 19.7835 30.5745 32.373 0 0 0
3115 4 5.3955 7.194 30.5745 0 0 0
135 4 34.1715 21.582 26.9775 0 0 0
1797 4 21.582 32.373 32.373 0 0 0
430 4 32.373 19.7835 26.9775 0 0 0
2936 4 8.9925 30.5745 10.791 0 0 0
3484 4 1.7985 8.9925 0.0 0 0 0
2749 4 10.791 10.791 25.179 0 0 0
2391 4 12.5895 14.388 26.9775 0 0 0
796 4 26.9775 16.1865 28.776 0 0 0
1010 4 25.179 1.7985 8.9925 0 0 0
3518 4 3.597 8.9925 34.1715 0 0 0
103 4 34.1715 17.985 5.3955 0 0 0
2277 4 14.388 3.597 32.373 0 0 0
2155 4 16.1865 28.776 30.5745 0 0 0
1656 4 19.7835 23.3805 10.791 0 0 0
1450 4 21.582 5.3955 8.9925 0 0 0
2960 4 8.9925 30.5745 32.373 0 0 0
3232 4 5.3955 19.7835 25.179 0 0 0
2202 4 14.388 1.7985 1.7985 0 0 0
2083 4 16.1865 25.179 1.7985 0 0 0
1360 4 23.3805 30.5745 32.373 0 0 0
1132 4 23.3805 12.5895 7.194 0 0 0
1917 4 17.985 7.194 32.373 0 0 0
385 4 32.373 14.388 21.582 0 0 0
708 4 26.9775 8.9925 21.582 0 0 0
1156 4 23.3805 12.5895 28.776 0 0 0
792 4 26.9775 16.1865 25.179 0 0 0
3211 4 5.3955 17.985 8.9925 0 0 0
3673 4 3.597 21.582 28.776 0 0 0
838 4 28.776 19.7835 34.1715 0 0 0
2520 4 12.5895 26.9775 32.373 0 0 0
498 4 32.373 26.9775 16.1865 0 0 0
250 4 32.373 5.3955 8.9925 0 0 0
2621 4 10.791 0.0 17.985 0 0 0
1751 4 19.7835 28.776 26.9775 0 0 0
2979 4 8.9925 32.373 16.1865 0 0 0
631 4 26.9775 0.0 26.9775 0 0 0
2461 4 14.388 21.582 17.985 0 0 0
1373 4 25.179 32.373 10.791 0 0 0
850 4 28.776 23.3805 8.9925 0 0 0
448 4 30.5745 23.3805 3.597 0 0 0
688 4 26.9775 8.9925 3.597 0 0 0
2620 4 8.9925 1.7985 14.388 0 0 0
590 4 32.373 34.1715 26.9775 0 0 0
3176 4 5.3955 16.1865 10.791 0 0 0
380 4 30.5745 16.1865 14.388 0 0 0
3279 4 5.3955 21.582 34.1715 0 0 0
988 4 26.9775 34.1715 21.582 0 0 0
1499 4 19.7835 7.194 16.1865 0 0 0
3955 4 0.0 25.179 25.179 0 0 0
2650 4 10.791 5.3955 8.9925 0 0 0
2191 4 16.1865 32.373 26.9775 0 0 0
2438 4 14.388 19.7835 34.1715 0 0 0
2790 4 10.791 16.1865 26.9775 0 0 0
1729 4 21.582 28.776 7.194 0 0 0
902 4 28.776 26.9775 19.7835 0 0 0
3770 4 3.597 34.1715 8.9925 0 0 0
1753 4 21.582 28.776 28.776 0 0 0
2983 4 8.9925 32.373 19.7835 0 0 0
3097 4 7.194 7.194 14.388 0 0 0
3224 4 5.3955 19.7835 17.985 0 0 0
3146 4 7.194 12.5895 23.3805 0 0 0
1039 4 23.3805 0.0 34.1715 0 0 0
217 4 32.373 0.0 14.388 0 0 0
687 4 26.9775 7.194 5.3955 0 0 0
3571 4 1.7985 14.388 8.9925 0 0 0
3083 4 5.3955 7.194 1.7985 0 0 0
2854 4 10.791 23.3805 12.5895 0 0 0
941 4 28.776 28.776 17.985 0 0 0
1533 4 21.582 10.791 10.791 0 0 0
690 4 28.776 8.9925 8.9925 0 0 0
3050 4 7.194 5.3955 8.9925 0 0 0
3133 4 7.194 10.791 10.791 0 0 0
1152 4 23.3805 12.5895 25.179 0 0 0
1508 4 19.7835 8.9925 21.582 0 0 0
698 4 28.776 8.9925 16.1865 0 0 0
1243 4 23.3805 21.582 1.7985 0 0 0
3468 4 1.7985 5.3955 21.582 0 0 0
1227 4 23.3805 17.985 23.3805 0 0 0
3426 4 3.597 1.7985 23.3805 0 0 0
3255 4 5.3955 21.582 12.5895 0 0 0
856 4 26.9775 23.3805 10.791 0 0 0
459 4 30.5745 21.582 16.1865 0 0 0
1649 4 21.582 21.582 7.194 0 0 0
2166 4 17.985 34.1715 5.3955 0 0 0
2932 4 8.9925 30.5745 7.194 0 0 0
2495 4 12.5895 25.179 12.5895 0 0 0
110 4 34.1715 19.7835 14.388 0 0 0
757 4 28.776 10.791 32.373 0 0 0
1633 4 21.582 17.985 28.776 0 0 0
1972 4 16.1865 16.1865 7.194 0 0 0
1553 4 21.582 10.791 28.776 0 0 0
2101 4 17.985 25.179 17.985 0 0 0
2795 4 8.9925 14.388 30.5745 0 0 0
1819 4 16.1865 0.0 16.1865 0 0 0
575 4 30.5745 32.373 12.5895 0 0 0
435 4 30.5745 17.985 30.5745 0 0 0
2455 4 12.5895 21.582 12.5895 0 0 0
1479 4 19.7835 3.597 34.1715 0 0 0
2328 4 12.5895 12.5895 3.597 0 0 0
263 4 30.5745 3.597 19.7835 0 0 0
1863 4 16.1865 3.597 19.7835 0 0 0
3285 4 7.194 25.179 3.597 0 0 0
1933 4 17.985 10.791 10.791 0 0 0
3686 4 3.597 26.9775 5.3955 0 0 0
923 4 26.9775 28.776 1.7985 0 0 0
672 4 26.9775 5.3955 25.179 0 0 0
2689 4 10.791 7.194 7.194 0 0 0
2654 4 10.791 5.3955 12.5895 0 0 0
3440 4 1.7985 1.7985 32.373 0 0 0
682 4 28.776 8.9925 1.7985 0 0 0
613 4 28.776 0.0 10.791 0 0 0
59 4 34.1715 7.194 34.1715 0 0 0
2168 4 16.1865 34.1715 3.597 0 0 0
1856 4 16.1865 5.3955 10.791 0 0 0
762 4 28.776 16.1865 1.7985 0 0 0
3675 4 1.7985 21.582 30.5745 0 0 0
1042 4 25.179 5.3955 1.7985 0 0 0
1892 4 16.1865 8.9925 7.194 0 0 0
2726 4 10.791 12.5895 5.3955 0 0 0
1312 4 23.3805 26.9775 25.179 0 0 0
2595 4 12.5895 32.373 30.5745 0 0 0
891 4 26.9775 25.179 8.9925 0 0 0
1885 4 17.985 7.194 3.597 0 0 0
839 4 26.9775 17.985 34.1715 0 0 0
1888 4 16.1865 8.9925 3.597 0 0 0
3802 4 0.0 1.7985 1.7985 0 0 0
310 4 32.373 8.9925 26.9775 0 0 0
299 4 30.5745 7.194 16.1865 0 0 0
2193 4 17.985 32.373 28.776 0 0 0
2100 4 16.1865 26.9775 14.388 0 0 0
632 4 26.9775 1.7985 25.179 0 0 0
1781 4 21.582 32.373 17.985 0 0 0
1482 4 21.582 8.9925 1.7985 0 0 0
417 4 32.373 17.985 14.388 0 0 0
403 4 30.5745 17.985 1.7985 0 0 0
1991 4 16.1865 14.388 26.9775 0 0 0
3653 4 3.597 21.582 10.791 0 0 0
193 4 34.1715 32.373 23.3805 0 0 0
2081 4 17.985 25.179 0.0 0 0 0
3320 4 5.3955 26.9775 32.373 0 0 0
1085 4 25.179 7.194 3.597 0 0 0
1314 4 25.179 26.9775 30.5745 0 0 0
2793 4 10.791 14.388 28.776 0 0 0
3870 4 0.0 12.5895 16.1865 0 0 0
2417 4 14.388 17.985 14.388 0 0 0
379 4 30.5745 14.388 16.1865 0 0 0
1119 4 23.3805 7.194 34.1715 0 0 0
1811 4 16.1865 0.0 8.9925 0 0 0
719 4 26.9775 7.194 34.1715 0 0 0
3557 4 3.597 10.791 32.373 0 0 0
2546 4 14.388 30.5745 23.3805 0 0 0
3575 4 1.7985 14.388 12.5895 0 0 0
2299 4 12.5895 7.194 16.1865 0 0 0
1792 4 19.7835 34.1715 25.179 0 0 0
779 4 26.9775 14.388 16.1865 0 0 0
245 4 32.373 3.597 3.597 0 0 0
749 4 28.776 10.791 25.179 0 0 0
2131 4 16.1865 28.776 8.9925 0 0 0
1263 4 23.3805 21.582 19.7835 0 0 0
3364 4 5.3955 34.1715 0.0 0 0 0
707 4 26.9775 7.194 23.3805 0 0 0
992 4 26.9775 34.1715 25.179 0 0 0
3598 4 3.597 16.1865 34.1715 0 0 0
677 4 28.776 3.597 32.373 0 0 0
3871 4 0.0 10.791 17.985 0 0 0
1469 4 21.582 3.597 25.179 0 0 0
423 4 30.5745 17.985 19.7835 0 0 0
3640 4 1.7985 19.7835 32.373 0 0 0
1199 4 23.3805 14.388 34.1715 0 0 0
44 4 34.1715 8.9925 3.597 0 0 0
822 4 28.776 19.7835 19.7835 0 0 0
705 4 28.776 7.194 21.582 0 0 0
2865 4 10.791 21.582 21.582 0 0 0
1560 4 19.7835 12.5895 32.373 0 0 0
1941 4 17.985 10.791 17.985 0 0 0
1391 4 23.3805 32.373 26.9775 0 0 0
2956 4 8.9925 30.5745 28.776 0 0 0
3612 4 1.7985 19.7835 7.194 0 0 0
1196 4 23.3805 16.1865 28.776 0 0 0
1189 4 25.179 14.388 25.179 0 0 0
3648 4 1.7985 23.3805 3.597 0 0 0
3774 4 3.597 34.1715 12.5895 0 0 0
1595 4 19.7835 14.388 30.5745 0 0 0
3220 4 5.3955 19.7835 14.388 0 0 0
2069 4 17.985 21.582 25.179 0 0 0
657 4 28.776 3.597 14.388 0 0 0
612 4 26.9775 1.7985 7.194 0 0 0
2573 4 14.388 32.373 10.791 0 0 0
402 4 32.373 19.7835 1.7985 0 0 0
2317 4 14.388 7.194 32.373 0 0 0
3685 4 3.597 25.179 3.597 0 0 0
778 4 28.776 16.1865 16.1865 0 0 0
890 4 28.776 26.9775 8.9925 0 0 0
503 4 30.5745 25.179 19.7835 0 0 0
3922 4 0.0 23.3805 1.7985 0 0 0
166 4 34.1715 30.5745 7.194 0 0 0
303 4 30.5745 7.194 19.7835 0 0 0
2054 4 17.985 23.3805 12.5895 0 0 0
3651 4 1.7985 21.582 8.9925 0 0 0
1184 4 23.3805 16.1865 17.985 0 0 0
3657 4 3.597 21.582 14.388 0 0 0
2850 4 10.791 23.3805 8.9925 0 0 0
3515 4 1.7985 7.194 30.5745 0 0 0
106 4 34.1715 19.7835 7.194 0 0 0
1921 4 17.985 10.791 0.0 0 0 0
194 4 34.1715 34.1715 21.582 0 0 0
2757 4 10.791 10.791 32.373 0 0 0
1355 4 23.3805 28.776 30.5745 0 0 0
2026 4 17.985 19.7835 23.3805 0 0 0
317 4 32.373 7.194 32.373 0 0 0
1135 4 23.3805 10.791 12.5895 0 0 0
2578 4 14.388 34.1715 16.1865 0 0 0
2058 4 17.985 23.3805 16.1865 0 0 0
1823 4 16.1865 0.0 19.7835 0 0 0
70 4 34.1715 12.5895 14.388 0 0 0
2174 4 17.985 34.1715 12.5895 0 0 0
358 4 32.373 12.5895 34.1715 0 0 0
3399 4 5.3955 32.373 34.1715 0 0 0
1084 4 23.3805 8.9925 0.0 0 0 0
3048 4 5.3955 5.3955 3.597 0 0 0
2855 4 8.9925 21.582 12.5895 0 0 0
3670 4 3.597 23.3805 26.9775 0 0 0
3135 4 5.3955 10.791 12.5895 0 0 0
241 4 32.373 3.597 0.0 0 0 0
2656 4 8.9925 5.3955 10.791 0 0 0
3461 4 3.597 3.597 17.985 0 0 0
3900 4 0.0 16.1865 34.1715 0 0 0
2093 4 17.985 25.179 10.791 0 0 0
3165 4 7.194 14.388 3.597 0 0 0
967 4 26.9775 32.373 5.3955 0 0 0
330 4 32.373 12.5895 8.9925 0 0 0
1092 4 23.3805 8.9925 7.194 0 0 0
1395 4 23.3805 32.373 30.5745 0 0 0
1492 4 19.7835 8.9925 7.194 0 0 0
2553 4 14.388 28.776 28.776 0 0 0
3890 4 0.0 16.1865 16.1865 0 0 0
2536 4 12.5895 30.5745 10.791 0 0 0
3444 4 1.7985 5.3955 0.0 0 0 0
264 4 30.5745 5.3955 17.985 0 0 0
912 4 26.9775 26.9775 25.179 0 0 0
3903 4 0.0 17.985 3.597 0 0 0
1131 4 23.3805 10.791 8.9925 0 0 0
3584 4 1.7985 16.1865 17.985 0 0 0
1539 4 19.7835 10.791 16.1865 0 0 0
807 4 26.9775 17.985 5.3955 0 0 0
737 4 28.776 10.791 14.388 0 0 0
3656 4 1.7985 23.3805 10.791 0 0 0
185 4 34.1715 32.373 8.9925 0 0 0
550 4 32.373 30.5745 26.9775 0 0 0
789 4 28.776 14.388 25.179 0 0 0
1073 4 25.179 3.597 28.776 0 0 0
286 4 32.373 8.9925 5.3955 0 0 0
1757 4 21.582 28.776 32.373 0 0 0
780 4 26.9775 16.1865 14.388 0 0 0
230 4 32.373 1.7985 26.9775 0 0 0
418 4 32.373 19.7835 16.1865 0 0 0
725 4 28.776 10.791 3.597 0 0 0
2838 4 10.791 19.7835 34.1715 0 0 0
1061 4 25.179 3.597 17.985 0 0 0
2079 4 16.1865 21.582 34.1715 0 0 0
2740 4 8.9925 12.5895 14.388 0 0 0
1773 4 21.582 32.373 10.791 0 0 0
2348 4 12.5895 12.5895 21.582 0 0 0
3379 4 5.3955 32.373 16.1865 0 0 0
2963 4 8.9925 32.373 1.7985 0 0 0
1704 4 19.7835 26.9775 17.985 0 0 0
3035 4 5.3955 0.0 30.5745 0 0 0
1904 4 16.1865 8.9925 17.985 0 0 0
2170 4 17.985 34.1715 8.9925 0 0 0
3292 4 5.3955 26.9775 7.194 0 0 0
1079 4 23.3805 3.597 34.1715 0 0 0
3898 4 0.0 16.1865 30.5745 0 0 0
3785 4 3.597 32.373 21.582 0 0 0
2490 4 14.388 26.9775 8.9925 0 0 0
2448 4 12.5895 23.3805 3.597 0 0 0
75 4 34.1715 10.791 26.9775 0 0 0
2856 4 8.9925 23.3805 10.791 0 0 0
222 4 32.373 1.7985 19.7835 0 0 0
3853 4 0.0 7.194 21.582 0 0 0
431 4 30.5745 17.985 26.9775 0 0 0
3549 4 3.597 10.791 25.179 0 0 0
574 4 32.373 34.1715 12.5895 0 0 0
1886 4 17.985 8.9925 5.3955 0 0 0
3184 4 5.3955 16.1865 17.985 0 0 0
2564 4 12.5895 34.1715 0.0 0 0 0
3962 4 0.0 30.5745 1.7985 0 0 0
1448 4 19.7835 5.3955 3.597 0 0 0
692 4 26.9775 8.9925 7.194 0 0 0
3175 4 5.3955 14.388 12.5895 0 0 0
1667 4 19.7835 21.582 23.3805 0 0 0
2249 4 14.388 3.597 7.194 0 0 0
1366 4 25.179 34.1715 5.3955 0 0 0
599 4 30.5745 32.373 34.1715 0 0 0
410 4 32.373 19.7835 8.9925 0 0 0
1349 4 25.179 28.776 25.179 0 0 0
164 4 34.1715 30.5745 3.597 0 0 0
2165 4 17.985 32.373 3.597 0 0 0
2714 4 10.791 8.9925 30.5745 0 0 0
1082 4 25.179 8.9925 1.7985 0 0 0
3663 4 1.7985 21.582 19.7835 0 0 0
2467 4 12.5895 21.582 23.3805 0 0 0
772 4 26.9775 16.1865 7.194 0 0 0
3120 4 5.3955 8.9925 32.373 0 0 0
1495 4 19.7835 7.194 12.5895 0 0 0
2024 4 16.1865 19.7835 17.985 0 0 0
1741 4 21.582 28.776 17.985 0 0 0
3228 4 5.3955 19.7835 21.582 0 0 0
2681 4 10.791 7.194 0.0 0 0 0
3199 4 5.3955 14.388 34.1715 0 0 0
3422 4 3.597 1.7985 19.7835 0 0 0
1055 4 23.3805 3.597 12.5895 0 0 0
1429 4 21.582 0.0 25.179 0 0 0
1525 4 21.582 10.791 3.597 0 0 0
181 4 34.1715 32.373 1.7985 0 0 0
3578 4 3.597 16.1865 16.1865 0 0 0
3307 4 5.3955 25.179 23.3805 0 0 0
915 4 26.9775 25.179 30.5745 0 0 0
691 4 26.9775 7.194 8.9925 0 0 0
1222 4 25.179 19.7835 19.7835 0 0 0
512 4 30.5745 26.9775 25.179 0 0 0
443 4 30.5745 21.582 1.7985 0 0 0
581 4 32.373 32.373 17.985 0 0 0
3987 4 0.0 32.373 10.791 0 0 0
1894 4 17.985 8.9925 12.5895 0 0 0
247 4 30.5745 3.597 5.3955 0 0 0
2702 4 10.791 8.9925 19.7835 0 0 0
553 4 32.373 28.776 28.776 0 0 0
3533 4 3.597 10.791 10.791 0 0 0
3259 4 5.3955 21.582 16.1865 0 0 0
134 4 34.1715 23.3805 21.582 0 0 0
1624 4 19.7835 19.7835 17.985 0 0 0
5 5 34.1715 0.0 8.9925 0 0 0
7 5 34.1715 0.0 12.5895 0 0 0
11 5 34.1715 0.0 19.7835 0 0 0
13 5 34.1715 0.0 23.3805 0 0 0
14 5 34.1715 1.7985 21.582 0 0 0
16 5 34.1715 1.7985 25.179 0 0 0
21 5 34.1715 3.597 1.7985 0 0 0
23 5 34.1715 3.597 5.3955 0 0 0
24 5 34.1715 5.3955 3.597 0 0 0
27 5 34.1715 3.597 12.5895 0 0 0
33 5 34.1715 3.597 23.3805 0 0 0
39 5 34.1715 3.597 34.1715 0 0 0
41 5 34.1715 7.194 1.7985 0 0 0
45 5 34.1715 7.194 8.9925 0 0 0
47 5 34.1715 7.194 12.5895 0 0 0
49 5 34.1715 7.194 16.1865 0 0 0
51 5 34.1715 7.194 19.7835 0 0 0
53 5 34.1715 7.194 23.3805 0 0 0
56 5 34.1715 8.9925 25.179 0 0 0
62 5 34.1715 12.5895 0.0 0 0 0
66 5 34.1715 12.5895 7.194 0 0 0
67 5 34.1715 10.791 12.5895 0 0 0
68 5 34.1715 12.5895 10.791 0 0 0
73 5 34.1715 10.791 23.3805 0 0 0
82 5 34.1715 16.1865 0.0 0 0 0
90 5 34.1715 16.1865 14.388 0 0 0
91 5 34.1715 14.388 19.7835 0 0 0
98 5 34.1715 16.1865 28.776 0 0 0
101 5 34.1715 17.985 1.7985 0 0 0
107 5 34.1715 17.985 12.5895 0 0 0
114 5 34.1715 19.7835 21.582 0 0 0
117 5 34.1715 17.985 30.5745 0 0 0
120 5 34.1715 19.7835 32.373 0 0 0
128 5 34.1715 23.3805 10.791 0 0 0
133 5 34.1715 21.582 23.3805 0 0 0
137 5 34.1715 21.582 30.5745 0 0 0
146 5 34.1715 26.9775 7.194 0 0 0
151 5 34.1715 25.179 19.7835 0 0 0
155 5 34.1715 25.179 26.9775 0 0 0
160 5 34.1715 26.9775 32.373 0 0 0
161 5 34.1715 28.776 1.7985 0 0 0
162 5 34.1715 30.5745 0.0 0 0 0
168 5 34.1715 30.5745 10.791 0 0 0
169 5 34.1715 28.776 16.1865 0 0 0
170 5 34.1715 30.5745 14.388 0 0 0
180 5 34.1715 30.5745 32.373 0 0 0
198 5 34.1715 34.1715 28.776 0 0 0
201 5 32.373 0.0 0.0 0 0 0
204 5 30.5745 1.7985 0.0 0 0 0
206 5 32.373 1.7985 5.3955 0 0 0
208 5 30.5745 1.7985 3.597 0 0 0
210 5 32.373 1.7985 8.9925 0 0 0
213 5 32.373 0.0 10.791 0 0 0
225 5 32.373 0.0 21.582 0 0 0
226 5 32.373 1.7985 23.3805 0 0 0
228 5 30.5745 1.7985 21.582 0 0 0
233 5 32.373 0.0 28.776 0 0 0
234 5 32.373 1.7985 30.5745 0 0 0
235 5 30.5745 0.0 30.5745 0 0 0
239 5 30.5745 0.0 34.1715 0 0 0
242 5 32.373 5.3955 1.7985 0 0 0
243 5 30.5745 3.597 1.7985 0 0 0
251 5 30.5745 3.597 8.9925 0 0 0
252 5 30.5745 5.3955 7.194 0 0 0
259 5 30.5745 3.597 16.1865 0 0 0
260 5 30.5745 5.3955 14.388 0 0 0
269 5 32.373 3.597 25.179 0 0 0
277 5 32.373 3.597 32.373 0 0 0
279 5 30.5745 3.597 34.1715 0 0 0
284 5 30.5745 8.9925 0.0 0 0 0
285 5 32.373 7.194 3.597 0 0 0
288 5 30.5745 8.9925 3.597 0 0 0
291 5 30.5745 7.194 8.9925 0 0 0
294 5 32.373 8.9925 12.5895 0 0 0
302 5 32.373 8.9925 19.7835 0 0 0
305 5 32.373 7.194 21.582 0 0 0
306 5 32.373 8.9925 23.3805 0 0 0
308 5 30.5745 8.9925 21.582 0 0 0
322 5 32.373 12.5895 1.7985 0 0 0
325 5 32.373 10.791 3.597 0 0 0
326 5 32.373 12.5895 5.3955 0 0 0
327 5 30.5745 10.791 5.3955 0 0 0
328 5 30.5745 12.5895 3.597 0 0 0
329 5 32.373 10.791 7.194 0 0 0
335 5 30.5745 10.791 12.5895 0 0 0
336 5 30.5745 12.5895 10.791 0 0 0
338 5 32.373 12.5895 16.1865 0 0 0
341 5 32.373 10.791 17.985 0 0 0
345 5 32.373 10.791 21.582 0 0 0
348 5 30.5745 12.5895 21.582 0 0 0
350 5 32.373 12.5895 26.9775 0 0 0
352 5 30.5745 12.5895 25.179 0 0 0
356 5 30.5745 12.5895 28.776 0 0 0
359 5 30.5745 10.791 34.1715 0 0 0
366 5 32.373 16.1865 5.3955 0 0 0
367 5 30.5745 14.388 5.3955 0 0 0
371 5 30.5745 14.388 8.9925 0 0 0
374 5 32.373 16.1865 12.5895 0 0 0
377 5 32.373 14.388 14.388 0 0 0
378 5 32.373 16.1865 16.1865 0 0 0
382 5 32.373 16.1865 19.7835 0 0 0
386 5 32.373 16.1865 23.3805 0 0 0
396 5 30.5745 16.1865 28.776 0 0 0
398 5 32.373 16.1865 34.1715 0 0 0
404 5 30.5745 19.7835 0.0 0 0 0
407 5 30.5745 17.985 5.3955 0 0 0
408 5 30.5745 19.7835 3.597 0 0 0
409 5 32.373 17.985 7.194 0 0 0
412 5 30.5745 19.7835 7.194 0 0 0
416 5 30.5745 19.7835 10.791 0 0 0
420 5 30.5745 19.7835 14.388 0 0 0
426 5 32.373 19.7835 23.3805 0 0 0
437 5 32.373 17.985 32.373 0 0 0
438 5 32.373 19.7835 34.1715 0 0 0
440 5 30.5745 19.7835 32.373 0 0 0
441 5 32.373 21.582 0.0 0 0 0
445 5 32.373 21.582 3.597 0 0 0
447 5 30.5745 21.582 5.3955 0 0 0
453 5 32.373 21.582 10.791 0 0 0
455 5 30.5745 21.582 12.5895 0 0 0
456 5 30.5745 23.3805 10.791 0 0 0
458 5 32.373 23.3805 16.1865 0 0 0
460 5 30.5745 23.3805 14.388 0 0 0
461 5 32.373 21.582 17.985 0 0 0
468 5 30.5745 23.3805 21.582 0 0 0
471 5 30.5745 21.582 26.9775 0 0 0
474 5 32.373 23.3805 30.5745 0 0 0
478 5 32.373 23.3805 34.1715 0 0 0
479 5 30.5745 21.582 34.1715 0 0 0
480 5 30.5745 23.3805 32.373 0 0 0
486 5 32.373 26.9775 5.3955 0 0 0
488 5 30.5745 26.9775 3.597 0 0 0
489 5 32.373 25.179 7.194 0 0 0
491 5 30.5745 25.179 8.9925 0 0 0
496 5 30.5745 26.9775 10.791 0 0 0
507 5 30.5745 25.179 23.3805 0 0 0
513 5 32.373 25.179 28.776 0 0 0
517 5 32.373 25.179 32.373 0 0 0
518 5 32.373 26.9775 34.1715 0 0 0
521 5 32.373 28.776 0.0 0 0 0
522 5 32.373 30.5745 1.7985 0 0 0
524 5 30.5745 30.5745 0.0 0 0 0
527 5 30.5745 28.776 5.3955 0 0 0
530 5 32.373 30.5745 8.9925 0 0 0
534 5 32.373 30.5745 12.5895 0 0 0
538 5 32.373 30.5745 16.1865 0 0 0
539 5 30.5745 28.776 16.1865 0 0 0
540 5 30.5745 30.5745 14.388 0 0 0
543 5 30.5745 28.776 19.7835 0 0 0
556 5 30.5745 30.5745 28.776 0 0 0
558 5 32.373 30.5745 34.1715 0 0 0
559 5 30.5745 28.776 34.1715 0 0 0
560 5 30.5745 30.5745 32.373 0 0 0
564 5 30.5745 34.1715 0.0 0 0 0
565 5 32.373 32.373 3.597 0 0 0
566 5 32.373 34.1715 5.3955 0 0 0
567 5 30.5745 32.373 5.3955 0 0 0
573 5 32.373 32.373 10.791 0 0 0
578 5 32.373 34.1715 16.1865 0 0 0
579 5 30.5745 32.373 16.1865 0 0 0
582 5 32.373 34.1715 19.7835 0 0 0
592 5 30.5745 34.1715 25.179 0 0 0
594 5 32.373 34.1715 30.5745 0 0 0
602 5 28.776 1.7985 1.7985 0 0 0
605 5 28.776 0.0 3.597 0 0 0
606 5 28.776 1.7985 5.3955 0 0 0
609 5 28.776 0.0 7.194 0 0 0
616 5 26.9775 1.7985 10.791 0 0 0
625 5 28.776 0.0 21.582 0 0 0
630 5 28.776 1.7985 26.9775 0 0 0
642 5 28.776 5.3955 1.7985 0 0 0
650 5 28.776 5.3955 8.9925 0 0 0
651 5 26.9775 3.597 8.9925 0 0 0
652 5 26.9775 5.3955 7.194 0 0 0
655 5 26.9775 3.597 12.5895 0 0 0
660 5 26.9775 5.3955 14.388 0 0 0
667 5 26.9775 3.597 23.3805 0 0 0
678 5 28.776 5.3955 34.1715 0 0 0
679 5 26.9775 3.597 34.1715 0 0 0
681 5 28.776 7.194 0.0 0 0 0
693 5 28.776 7.194 10.791 0 0 0
704 5 26.9775 8.9925 17.985 0 0 0
706 5 28.776 8.9925 23.3805 0 0 0
710 5 28.776 8.9925 26.9775 0 0 0
713 5 28.776 7.194 28.776 0 0 0
714 5 28.776 8.9925 30.5745 0 0 0
721 5 28.776 10.791 0.0 0 0 0
728 5 26.9775 12.5895 3.597 0 0 0
729 5 28.776 10.791 7.194 0 0 0
733 5 28.776 10.791 10.791 0 0 0
734 5 28.776 12.5895 12.5895 0 0 0
738 5 28.776 12.5895 16.1865 0 0 0
743 5 26.9775 10.791 19.7835 0 0 0
748 5 26.9775 12.5895 21.582 0 0 0
752 5 26.9775 12.5895 25.179 0 0 0
754 5 28.776 12.5895 30.5745 0 0 0
759 5 26.9775 10.791 34.1715 0 0 0
760 5 26.9775 12.5895 32.373 0 0 0
761 5 28.776 14.388 0.0 0 0 0
763 5 26.9775 14.388 1.7985 0 0 0
766 5 28.776 16.1865 5.3955 0 0 0
768 5 26.9775 16.1865 3.597 0 0 0
769 5 28.776 14.388 7.194 0 0 0
774 5 28.776 16.1865 12.5895 0 0 0
785 5 28.776 14.388 21.582 0 0 0
787 5 26.9775 14.388 23.3805 0 0 0
791 5 26.9775 14.388 26.9775 0 0 0
793 5 28.776 14.388 28.776 0 0 0
798 5 28.776 16.1865 34.1715 0 0 0
802 5 28.776 19.7835 1.7985 0 0 0
803 5 26.9775 17.985 1.7985 0 0 0
811 5 26.9775 17.985 8.9925 0 0 0
816 5 26.9775 19.7835 10.791 0 0 0
817 5 28.776 17.985 14.388 0 0 0
820 5 26.9775 19.7835 14.388 0 0 0
824 5 26.9775 19.7835 17.985 0 0 0
825 5 28.776 17.985 21.582 0 0 0
827 5 26.9775 17.985 23.3805 0 0 0
828 5 26.9775 19.7835 21.582 0 0 0
829 5 28.776 17.985 25.179 0 0 0
835 5 26.9775 17.985 30.5745 0 0 0
847 5 26.9775 21.582 5.3955 0 0 0
849 5 28.776 21.582 7.194 0 0 0
855 5 26.9775 21.582 12.5895 0 0 0
857 5 28.776 21.582 14.388 0 0 0
859 5 26.9775 21.582 16.1865 0 0 0
863 5 26.9775 21.582 19.7835 0 0 0
865 5 28.776 21.582 21.582 0 0 0
870 5 28.776 23.3805 26.9775 0 0 0
872 5 26.9775 23.3805 25.179 0 0 0
873 5 28.776 21.582 28.776 0 0 0
878 5 28.776 23.3805 34.1715 0 0 0
880 5 26.9775 23.3805 32.373 0 0 0
888 5 26.9775 26.9775 3.597 0 0 0
893 5 28.776 25.179 10.791 0 0 0
898 5 28.776 26.9775 16.1865 0 0 0
900 5 26.9775 26.9775 14.388 0 0 0
903 5 26.9775 25.179 19.7835 0 0 0
904 5 26.9775 26.9775 17.985 0 0 0
906 5 28.776 26.9775 23.3805 0 0 0
908 5 26.9775 26.9775 21.582 0 0 0
911 5 26.9775 25.179 26.9775 0 0 0
917 5 28.776 25.179 32.373 0 0 0
929 5 28.776 28.776 7.194 0 0 0
931 5 26.9775 28.776 8.9925 0 0 0
936 5 26.9775 30.5745 10.791 0 0 0
938 5 28.776 30.5745 16.1865 0 0 0
943 5 26.9775 28.776 19.7835 0 0 0
946 5 28.776 30.5745 23.3805 0 0 0
951 5 26.9775 28.776 26.9775 0 0 0
952 5 26.9775 30.5745 25.179 0 0 0
955 5 26.9775 28.776 30.5745 0 0 0
959 5 26.9775 28.776 34.1715 0 0 0
960 5 26.9775 30.5745 32.373 0 0 0
961 5 28.776 32.373 0.0 0 0 0
970 5 28.776 34.1715 8.9925 0 0 0
971 5 26.9775 32.373 8.9925 0 0 0
972 5 26.9775 34.1715 7.194 0 0 0
975 5 26.9775 32.373 12.5895 0 0 0
976 5 26.9775 34.1715 10.791 0 0 0
977 5 28.776 32.373 14.388 0 0 0
981 5 28.776 32.373 17.985 0 0 0
984 5 26.9775 34.1715 17.985 0 0 0
985 5 28.776 32.373 21.582 0 0 0
995 5 26.9775 32.373 30.5745 0 0 0
997 5 28.776 32.373 32.373 0 0 0
1001 5 25.179 0.0 0.0 0 0 0
1002 5 25.179 1.7985 1.7985 0 0 0
1006 5 25.179 1.7985 5.3955 0 0 0
1008 5 23.3805 1.7985 3.597 0 0 0
1012 5 23.3805 1.7985 7.194 0 0 0
1015 5 23.3805 0.0 12.5895 0 0 0
1019 5 23.3805 0.0 16.1865 0 0 0
1020 5 23.3805 1.7985 14.388 0 0 0
1026 5 25.179 1.7985 23.3805 0 0 0
1034 5 25.179 1.7985 30.5745 0 0 0
1036 5 23.3805 1.7985 28.776 0 0 0
1037 5 25.179 0.0 32.373 0 0 0
1054 5 25.179 5.3955 12.5895 0 0 0
1057 5 25.179 3.597 14.388 0 0 0
1058 5 25.179 5.3955 16.1865 0 0 0
1062 5 25.179 5.3955 19.7835 0 0 0
1074 5 25.179 5.3955 30.5745 0 0 0
1078 5 25.179 5.3955 34.1715 0 0 0
1080 5 23.3805 5.3955 32.373 0 0 0
1081 5 25.179 7.194 0.0 0 0 0
1087 5 23.3805 7.194 5.3955 0 0 0
1100 5 23.3805 8.9925 14.388 0 0 0
1105 5 25.179 7.194 21.582 0 0 0
1108 5 23.3805 8.9925 21.582 0 0 0
1111 5 23.3805 7.194 26.9775 0 0 0
1112 5 23.3805 8.9925 25.179 0 0 0
1115 5 23.3805 7.194 30.5745 0 0 0
1116 5 23.3805 8.9925 28.776 0 0 0
1126 5 25.179 12.5895 5.3955 0 0 0
1137 5 25.179 10.791 14.388 0 0 0
1139 5 23.3805 10.791 16.1865 0 0 0
1140 5 23.3805 12.5895 14.388 0 0 0
1141 5 25.179 10.791 17.985 0 0 0
1145 5 25.179 10.791 21.582 0 0 0
1148 5 23.3805 12.5895 21.582 0 0 0
1161 5 25.179 14.388 0.0 0 0 0
1162 5 25.179 16.1865 1.7985 0 0 0
1163 5 23.3805 14.388 1.7985 0 0 0
1165 5 25.179 14.388 3.597 0 0 0
1176 5 23.3805 16.1865 10.791 0 0 0
1178 5 25.179 16.1865 16.1865 0 0 0
1190 5 25.179 16.1865 26.9775 0 0 0
1191 5 23.3805 14.388 26.9775 0 0 0
1192 5 23.3805 16.1865 25.179 0 0 0
1206 5 25.179 19.7835 5.3955 0 0 0
1212 5 23.3805 19.7835 7.194 0 0 0
1213 5 25.179 17.985 10.791 0 0 0
1228 5 23.3805 19.7835 21.582 0 0 0
1229 5 25.179 17.985 25.179 0 0 0
1230 5 25.179 19.7835 26.9775 0 0 0
1232 5 23.3805 19.7835 25.179 0 0 0
1233 5 25.179 17.985 28.776 0 0 0
1237 5 25.179 17.985 32.373 0 0 0
1240 5 23.3805 19.7835 32.373 0 0 0
1248 5 23.3805 23.3805 3.597 0 0 0
1250 5 25.179 23.3805 8.9925 0 0 0
1252 5 23.3805 23.3805 7.194 0 0 0
1253 5 25.179 21.582 10.791 0 0 0
1254 5 25.179 23.3805 12.5895 0 0 0
1256 5 23.3805 23.3805 10.791 0 0 0
1260 5 23.3805 23.3805 14.388 0 0 0
1264 5 23.3805 23.3805 17.985 0 0 0
1267 5 23.3805 21.582 23.3805 0 0 0
1268 5 23.3805 23.3805 21.582 0 0 0
1273 5 25.179 21.582 28.776 0 0 0
1275 5 23.3805 21.582 30.5745 0 0 0
1280 5 23.3805 23.3805 32.373 0 0 0
1285 5 25.179 25.179 3.597 0 0 0
1286 5 25.179 26.9775 5.3955 0 0 0
1288 5 23.3805 26.9775 3.597 0 0 0
1290 5 25.179 26.9775 8.9925 0 0 0
1291 5 23.3805 25.179 8.9925 0 0 0
1297 5 25.179 25.179 14.388 0 0 0
1301 5 25.179 25.179 17.985 0 0 0
1302 5 25.179 26.9775 19.7835 0 0 0
1303 5 23.3805 25.179 19.7835 0 0 0
1304 5 23.3805 26.9775 17.985 0 0 0
1305 5 25.179 25.179 21.582 0 0 0
1306 5 25.179 26.9775 23.3805 0 0 0
1311 5 23.3805 25.179 26.9775 0 0 0
1316 5 23.3805 26.9775 28.776 0 0 0
1321 5 25.179 28.776 0.0 0 0 0
1329 5 25.179 28.776 7.194 0 0 0
1332 5 23.3805 30.5745 7.194 0 0 0
1334 5 25.179 30.5745 12.5895 0 0 0
1337 5 25.179 28.776 14.388 0 0 0
1352 5 23.3805 30.5745 25.179 0 0 0
1358 5 25.179 30.5745 34.1715 0 0 0
1359 5 23.3805 28.776 34.1715 0 0 0
1372 5 23.3805 34.1715 7.194 0 0 0
1374 5 25.179 34.1715 12.5895 0 0 0
1376 5 23.3805 34.1715 10.791 0 0 0
1384 5 23.3805 34.1715 17.985 0 0 0
1385 5 25.179 32.373 21.582 0 0 0
1393 5 25.179 32.373 28.776 0 0 0
1401 5 21.582 0.0 0.0 0 0 0
1410 5 21.582 1.7985 8.9925 0 0 0
1412 5 19.7835 1.7985 7.194 0 0 0
1417 5 21.582 0.0 14.388 0 0 0
1427 5 19.7835 0.0 23.3805 0 0 0
1430 5 21.582 1.7985 26.9775 0 0 0
1431 5 19.7835 0.0 26.9775 0 0 0
1432 5 19.7835 1.7985 25.179 0 0 0
1434 5 21.582 1.7985 30.5745 0 0 0
1436 5 19.7835 1.7985 28.776 0 0 0
1451 5 19.7835 3.597 8.9925 0 0 0
1458 5 21.582 5.3955 16.1865 0 0 0
1470 5 21.582 5.3955 26.9775 0 0 0
1474 5 21.582 5.3955 30.5745 0 0 0
1478 5 21.582 5.3955 34.1715 0 0 0
1481 5 21.582 7.194 0.0 0 0 0
1486 5 21.582 8.9925 5.3955 0 0 0
1489 5 21.582 7.194 7.194 0 0 0
1493 5 21.582 7.194 10.791 0 0 0
1494 5 21.582 8.9925 12.5895 0 0 0
1496 5 19.7835 8.9925 10.791 0 0 0
1504 5 19.7835 8.9925 17.985 0 0 0
1505 5 21.582 7.194 21.582 0 0 0
1512 5 19.7835 8.9925 25.179 0 0 0
1514 5 21.582 8.9925 30.5745 0 0 0
1516 5 19.7835 8.9925 28.776 0 0 0
1518 5 21.582 8.9925 34.1715 0 0 0
1524 5 19.7835 12.5895 0.0 0 0 0
1526 5 21.582 12.5895 5.3955 0 0 0
1530 5 21.582 12.5895 8.9925 0 0 0
1535 5 19.7835 10.791 12.5895 0 0 0
1536 5 19.7835 12.5895 10.791 0 0 0
1537 5 21.582 10.791 14.388 0 0 0
1545 5 21.582 10.791 21.582 0 0 0
1548 5 19.7835 12.5895 21.582 0 0 0
1549 5 21.582 10.791 25.179 0 0 0
1551 5 19.7835 10.791 26.9775 0 0 0
1557 5 21.582 10.791 32.373 0 0 0
1558 5 21.582 12.5895 34.1715 0 0 0
1563 5 19.7835 14.388 1.7985 0 0 0
1568 5 19.7835 16.1865 3.597 0 0 0
1570 5 21.582 16.1865 8.9925 0 0 0
1573 5 21.582 14.388 10.791 0 0 0
1575 5 19.7835 14.388 12.5895 0 0 0
1577 5 21.582 14.388 14.388 0 0 0
1585 5 21.582 14.388 21.582 0 0 0
1586 5 21.582 16.1865 23.3805 0 0 0
1591 5 19.7835 14.388 26.9775 0 0 0
1593 5 21.582 14.388 28.776 0 0 0
1594 5 21.582 16.1865 30.5745 0 0 0
1598 5 21.582 16.1865 34.1715 0 0 0
1599 5 19.7835 14.388 34.1715 0 0 0
1600 5 19.7835 16.1865 32.373 0 0 0
1608 5 19.7835 19.7835 3.597 0 0 0
1609 5 21.582 17.985 7.194 0 0 0
1612 5 19.7835 19.7835 7.194 0 0 0
1615 5 19.7835 17.985 12.5895 0 0 0
1617 5 21.582 17.985 14.388 0 0 0
1626 5 21.582 19.7835 23.3805 0 0 0
1627 5 19.7835 17.985 23.3805 0 0 0
1639 5 19.7835 17.985 34.1715 0 0 0
1642 5 21.582 23.3805 1.7985 0 0 0
1645 5 21.582 21.582 3.597 0 0 0
1650 5 21.582 23.3805 8.9925 0 0 0
1654 5 21.582 23.3805 12.5895 0 0 0
1657 5 21.582 21.582 14.388 0 0 0
1658 5 21.582 23.3805 16.1865 0 0 0
1659 5 19.7835 21.582 16.1865 0 0 0
1661 5 21.582 21.582 17.985 0 0 0
1662 5 21.582 23.3805 19.7835 0 0 0
1663 5 19.7835 21.582 19.7835 0 0 0
1668 5 19.7835 23.3805 21.582 0 0 0
1680 5 19.7835 23.3805 32.373 0 0 0
1687 5 19.7835 25.179 5.3955 0 0 0
1694 5 21.582 26.9775 12.5895 0 0 0
1703 5 19.7835 25.179 19.7835 0 0 0
1716 5 19.7835 26.9775 28.776 0 0 0
1717 5 21.582 25.179 32.373 0 0 0
1725 5 21.582 28.776 3.597 0 0 0
1727 5 19.7835 28.776 5.3955 0 0 0
1734 5 21.582 30.5745 12.5895 0 0 0
1740 5 19.7835 30.5745 14.388 0 0 0
1743 5 19.7835 28.776 19.7835 0 0 0
1745 5 21.582 28.776 21.582 0 0 0
1746 5 21.582 30.5745 23.3805 0 0 0
1748 5 19.7835 30.5745 21.582 0 0 0
1756 5 19.7835 30.5745 28.776 0 0 0
1762 5 21.582 34.1715 1.7985 0 0 0
1764 5 19.7835 34.1715 0.0 0 0 0
1766 5 21.582 34.1715 5.3955 0 0 0
1774 5 21.582 34.1715 12.5895 0 0 0
1778 5 21.582 34.1715 16.1865 0 0 0
1780 5 19.7835 34.1715 14.388 0 0 0
1788 5 19.7835 34.1715 21.582 0 0 0
1795 5 19.7835 32.373 30.5745 0 0 0
1804 5 16.1865 1.7985 0.0 0 0 0
1812 5 16.1865 1.7985 7.194 0 0 0
1814 5 17.985 1.7985 12.5895 0 0 0
1822 5 17.985 1.7985 19.7835 0 0 0
1828 5 16.1865 1.7985 21.582 0 0 0
1830 5 17.985 1.7985 26.9775 0 0 0
1834 5 17.985 1.7985 30.5745 0 0 0
1838 5 17.985 1.7985 34.1715 0 0 0
1840 5 16.1865 1.7985 32.373 0 0 0
1841 5 17.985 3.597 0.0 0 0 0
1843 5 16.1865 3.597 1.7985 0 0 0
1844 5 16.1865 5.3955 0.0 0 0 0
1851 5 16.1865 3.597 8.9925 0 0 0
1852 5 16.1865 5.3955 7.194 0 0 0
1861 5 17.985 3.597 17.985 0 0 0
1864 5 16.1865 5.3955 17.985 0 0 0
1866 5 17.985 5.3955 23.3805 0 0 0
1867 5 16.1865 3.597 23.3805 0 0 0
1868 5 16.1865 5.3955 21.582 0 0 0
1873 5 17.985 3.597 28.776 0 0 0
1880 5 16.1865 5.3955 32.373 0 0 0
1881 5 17.985 7.194 0.0 0 0 0
1883 5 16.1865 7.194 1.7985 0 0 0
1896 5 16.1865 8.9925 10.791 0 0 0
1902 5 17.985 8.9925 19.7835 0 0 0
1905 5 17.985 7.194 21.582 0 0 0
1912 5 16.1865 8.9925 25.179 0 0 0
1916 5 16.1865 8.9925 28.776 0 0 0
1920 5 16.1865 8.9925 32.373 0 0 0
1935 5 16.1865 10.791 12.5895 0 0 0
1936 5 16.1865 12.5895 10.791 0 0 0
1937 5 17.985 10.791 14.388 0 0 0
1950 5 17.985 12.5895 26.9775 0 0 0
1952 5 16.1865 12.5895 25.179 0 0 0
1956 5 16.1865 12.5895 28.776 0 0 0
1959 5 16.1865 10.791 34.1715 0 0 0
1962 5 17.985 16.1865 1.7985 0 0 0
1966 5 17.985 16.1865 5.3955 0 0 0
1977 5 17.985 14.388 14.388 0 0 0
1978 5 17.985 16.1865 16.1865 0 0 0
1979 5 16.1865 14.388 16.1865 0 0 0
1980 5 16.1865 16.1865 14.388 0 0 0
1986 5 17.985 16.1865 23.3805 0 0 0
1994 5 17.985 16.1865 30.5745 0 0 0
1996 5 16.1865 16.1865 28.776 0 0 0
1997 5 17.985 14.388 32.373 0 0 0
1998 5 17.985 16.1865 34.1715 0 0 0
2001 5 17.985 17.985 0.0 0 0 0
2005 5 17.985 17.985 3.597 0 0 0
2009 5 17.985 17.985 7.194 0 0 0
2010 5 17.985 19.7835 8.9925 0 0 0
2011 5 16.1865 17.985 8.9925 0 0 0
2014 5 17.985 19.7835 12.5895 0 0 0
2016 5 16.1865 19.7835 10.791 0 0 0
2017 5 17.985 17.985 14.388 0 0 0
2020 5 16.1865 19.7835 14.388 0 0 0
2028 5 16.1865 19.7835 21.582 0 0 0
2029 5 17.985 17.985 25.179 0 0 0
2033 5 17.985 17.985 28.776 0 0 0
2039 5 16.1865 17.985 34.1715 0 0 0
2042 5 17.985 23.3805 1.7985 0 0 0
2052 5 16.1865 23.3805 7.194 0 0 0
2060 5 16.1865 23.3805 14.388 0 0 0
2078 5 17.985 23.3805 34.1715 0 0 0
2084 5 16.1865 26.9775 0.0 0 0 0
2085 5 17.985 25.179 3.597 0 0 0
2086 5 17.985 26.9775 5.3955 0 0 0
2095 5 16.1865 25.179 12.5895 0 0 0
2103 5 16.1865 25.179 19.7835 0 0 0
2106 5 17.985 26.9775 23.3805 0 0 0
2108 5 16.1865 26.9775 21.582 0 0 0
2109 5 17.985 25.179 25.179 0 0 0
2111 5 16.1865 25.179 26.9775 0 0 0
2112 5 16.1865 26.9775 25.179 0 0 0
2114 5 17.985 26.9775 30.5745 0 0 0
2128 5 16.1865 30.5745 3.597 0 0 0
2130 5 17.985 30.5745 8.9925 0 0 0
2133 5 17.985 28.776 10.791 0 0 0
2152 5 16.1865 30.5745 25.179 0 0 0
2153 5 17.985 28.776 28.776 0 0 0
2157 5 17.985 28.776 32.373 0 0 0
2162 5 17.985 34.1715 1.7985 0 0 0
2164 5 16.1865 34.1715 0.0 0 0 0
2177 5 17.985 32.373 14.388 0 0 0
2179 5 16.1865 32.373 16.1865 0 0 0
2182 5 17.985 34.1715 19.7835 0 0 0
2185 5 17.985 32.373 21.582 0 0 0
2186 5 17.985 34.1715 23.3805 0 0 0
2192 5 16.1865 34.1715 25.179 0 0 0
2196 5 16.1865 34.1715 28.776 0 0 0
2198 5 17.985 34.1715 34.1715 0 0 0
2200 5 16.1865 34.1715 32.373 0 0 0
2201 5 14.388 0.0 0.0 0 0 0
2207 5 12.5895 0.0 5.3955 0 0 0
2209 5 14.388 0.0 7.194 0 0 0
2212 5 12.5895 1.7985 7.194 0 0 0
2216 5 12.5895 1.7985 10.791 0 0 0
2222 5 14.388 1.7985 19.7835 0 0 0
2223 5 12.5895 0.0 19.7835 0 0 0
2231 5 12.5895 0.0 26.9775 0 0 0
2232 5 12.5895 1.7985 25.179 0 0 0
2237 5 14.388 0.0 32.373 0 0 0
2241 5 14.388 3.597 0.0 0 0 0
2245 5 14.388 3.597 3.597 0 0 0
2247 5 12.5895 3.597 5.3955 0 0 0
2251 5 12.5895 3.597 8.9925 0 0 0
2253 5 14.388 3.597 10.791 0 0 0
2255 5 12.5895 3.597 12.5895 0 0 0
2257 5 14.388 3.597 14.388 0 0 0
2265 5 14.388 3.597 21.582 0 0 0
2274 5 14.388 5.3955 30.5745 0 0 0
2278 5 14.388 5.3955 34.1715 0 0 0
2286 5 14.388 8.9925 5.3955 0 0 0
2289 5 14.388 7.194 7.194 0 0 0
2290 5 14.388 8.9925 8.9925 0 0 0
2291 5 12.5895 7.194 8.9925 0 0 0
2295 5 12.5895 7.194 12.5895 0 0 0
2304 5 12.5895 8.9925 17.985 0 0 0
2307 5 12.5895 7.194 23.3805 0 0 0
2308 5 12.5895 8.9925 21.582 0 0 0
2321 5 14.388 10.791 0.0 0 0 0
2322 5 14.388 12.5895 1.7985 0 0 0
2324 5 12.5895 12.5895 0.0 0 0 0
2325 5 14.388 10.791 3.597 0 0 0
2329 5 14.388 10.791 7.194 0 0 0
2339 5 12.5895 10.791 16.1865 0 0 0
2342 5 14.388 12.5895 19.7835 0 0 0
2344 5 12.5895 12.5895 17.985 0 0 0
2346 5 14.388 12.5895 23.3805 0 0 0
2347 5 12.5895 10.791 23.3805 0 0 0
2351 5 12.5895 10.791 26.9775 0 0 0
2353 5 14.388 10.791 28.776 0 0 0
2355 5 12.5895 10.791 30.5745 0 0 0
2357 5 14.388 10.791 32.373 0 0 0
2360 5 12.5895 12.5895 32.373 0 0 0
2362 5 14.388 16.1865 1.7985 0 0 0
2373 5 14.388 14.388 10.791 0 0 0
2379 5 12.5895 14.388 16.1865 0 0 0
2383 5 12.5895 14.388 19.7835 0 0 0
2384 5 12.5895 16.1865 17.985 0 0 0
2385 5 14.388 14.388 21.582 0 0 0
2388 5 12.5895 16.1865 21.582 0 0 0
2389 5 14.388 14.388 25.179 0 0 0
2390 5 14.388 16.1865 26.9775 0 0 0
2394 5 14.388 16.1865 30.5745 0 0 0
2398 5 14.388 16.1865 34.1715 0 0 0
2399 5 12.5895 14.388 34.1715 0 0 0
2400 5 12.5895 16.1865 32.373 0 0 0
2411 5 12.5895 17.985 8.9925 0 0 0
2418 5 14.388 19.7835 16.1865 0 0 0
2422 5 14.388 19.7835 19.7835 0 0 0
2423 5 12.5895 17.985 19.7835 0 0 0
2432 5 12.5895 19.7835 25.179 0 0 0
2434 5 14.388 19.7835 30.5745 0 0 0
2440 5 12.5895 19.7835 32.373 0 0 0
2443 5 12.5895 21.582 1.7985 0 0 0
2456 5 12.5895 23.3805 10.791 0 0 0
2457 5 14.388 21.582 14.388 0 0 0
2464 5 12.5895 23.3805 17.985 0 0 0
2470 5 14.388 23.3805 26.9775 0 0 0
2473 5 14.388 21.582 28.776 0 0 0
2483 5 12.5895 25.179 1.7985 0 0 0
2485 5 14.388 25.179 3.597 0 0 0
2489 5 14.388 25.179 7.194 0 0 0
2500 5 12.5895 26.9775 14.388 0 0 0
2502 5 14.388 26.9775 19.7835 0 0 0
2509 5 14.388 25.179 25.179 0 0 0
2510 5 14.388 26.9775 26.9775 0 0 0
2512 5 12.5895 26.9775 25.179 0 0 0
2516 5 12.5895 26.9775 28.776 0 0 0
2518 5 14.388 26.9775 34.1715 0 0 0
2528 5 12.5895 30.5745 3.597 0 0 0
2531 5 12.5895 28.776 8.9925 0 0 0
2535 5 12.5895 28.776 12.5895 0 0 0
2539 5 12.5895 28.776 16.1865 0 0 0
2541 5 14.388 28.776 17.985 0 0 0
2544 5 12.5895 30.5745 17.985 0 0 0
2547 5 12.5895 28.776 23.3805 0 0 0
2559 5 12.5895 28.776 34.1715 0 0 0
2561 5 14.388 32.373 0.0 0 0 0
2562 5 14.388 34.1715 1.7985 0 0 0
2568 5 12.5895 34.1715 3.597 0 0 0
2569 5 14.388 32.373 7.194 0 0 0
2572 5 12.5895 34.1715 7.194 0 0 0
2574 5 14.388 34.1715 12.5895 0 0 0
2576 5 12.5895 34.1715 10.791 0 0 0
2583 5 12.5895 32.373 19.7835 0 0 0
2585 5 14.388 32.373 21.582 0 0 0
2586 5 14.388 34.1715 23.3805 0 0 0
2590 5 14.388 34.1715 26.9775 0 0 0
2591 5 12.5895 32.373 26.9775 0 0 0
2593 5 14.388 32.373 28.776 0 0 0
2604 5 8.9925 1.7985 0.0 0 0 0
2613 5 10.791 0.0 10.791 0 0 0
2616 5 8.9925 1.7985 10.791 0 0 0
2619 5 8.9925 0.0 16.1865 0 0 0
2623 5 8.9925 0.0 19.7835 0 0 0
2624 5 8.9925 1.7985 17.985 0 0 0
2627 5 8.9925 0.0 23.3805 0 0 0
2628 5 8.9925 1.7985 21.582 0 0 0
2629 5 10.791 0.0 25.179 0 0 0
2630 5 10.791 1.7985 26.9775 0 0 0
2637 5 10.791 0.0 32.373 0 0 0
2642 5 10.791 5.3955 1.7985 0 0 0
2643 5 8.9925 3.597 1.7985 0 0 0
2653 5 10.791 3.597 10.791 0 0 0
2659 5 8.9925 3.597 16.1865 0 0 0
2662 5 10.791 5.3955 19.7835 0 0 0
2663 5 8.9925 3.597 19.7835 0 0 0
2666 5 10.791 5.3955 23.3805 0 0 0
2667 5 8.9925 3.597 23.3805 0 0 0
2671 5 8.9925 3.597 26.9775 0 0 0
2672 5 8.9925 5.3955 25.179 0 0 0
2678 5 10.791 5.3955 34.1715 0 0 0
2683 5 8.9925 7.194 1.7985 0 0 0
2685 5 10.791 7.194 3.597 0 0 0
2688 5 8.9925 8.9925 3.597 0 0 0
2693 5 10.791 7.194 10.791 0 0 0
2694 5 10.791 8.9925 12.5895 0 0 0
2696 5 8.9925 8.9925 10.791 0 0 0
2701 5 10.791 7.194 17.985 0 0 0
2703 5 8.9925 7.194 19.7835 0 0 0
2707 5 8.9925 7.194 23.3805 0 0 0
2715 5 8.9925 7.194 30.5745 0 0 0
2716 5 8.9925 8.9925 28.776 0 0 0
2718 5 10.791 8.9925 34.1715 0 0 0
2721 5 10.791 10.791 0.0 0 0 0
2727 5 8.9925 10.791 5.3955 0 0 0
2728 5 8.9925 12.5895 3.597 0 0 0
2729 5 10.791 10.791 7.194 0 0 0
2731 5 8.9925 10.791 8.9925 0 0 0
2736 5 8.9925 12.5895 10.791 0 0 0
2755 5 8.9925 10.791 30.5745 0 0 0
2761 5 10.791 14.388 0.0 0 0 0
2762 5 10.791 16.1865 1.7985 0 0 0
2766 5 10.791 16.1865 5.3955 0 0 0
2767 5 8.9925 14.388 5.3955 0 0 0
2771 5 8.9925 14.388 8.9925 0 0 0
2774 5 10.791 16.1865 12.5895 0 0 0
2783 5 8.9925 14.388 19.7835 0 0 0
2796 5 8.9925 16.1865 28.776 0 0 0
2798 5 10.791 16.1865 34.1715 0 0 0
2801 5 10.791 17.985 0.0 0 0 0
2809 5 10.791 17.985 7.194 0 0 0
2812 5 8.9925 19.7835 7.194 0 0 0
2814 5 10.791 19.7835 12.5895 0 0 0
2816 5 8.9925 19.7835 10.791 0 0 0
2823 5 8.9925 17.985 19.7835 0 0 0
2828 5 8.9925 19.7835 21.582 0 0 0
2829 5 10.791 17.985 25.179 0 0 0
2830 5 10.791 19.7835 26.9775 0 0 0
2832 5 8.9925 19.7835 25.179 0 0 0
2837 5 10.791 17.985 32.373 0 0 0
2841 5 10.791 21.582 0.0 0 0 0
2842 5 10.791 23.3805 1.7985 0 0 0
2852 5 8.9925 23.3805 7.194 0 0 0
2853 5 10.791 21.582 10.791 0 0 0
2859 5 8.9925 21.582 16.1865 0 0 0
2863 5 8.9925 21.582 19.7835 0 0 0
2869 5 10.791 21.582 25.179 0 0 0
2870 5 10.791 23.3805 26.9775 0 0 0
2875 5 8.9925 21.582 30.5745 0 0 0
2876 5 8.9925 23.3805 28.776 0 0 0
2877 5 10.791 21.582 32.373 0 0 0
2881 5 10.791 25.179 0.0 0 0 0
2883 5 8.9925 25.179 1.7985 0 0 0
2884 5 8.9925 26.9775 0.0 0 0 0
2885 5 10.791 25.179 3.597 0 0 0
2886 5 10.791 26.9775 5.3955 0 0 0
2892 5 8.9925 26.9775 7.194 0 0 0
2893 5 10.791 25.179 10.791 0 0 0
2894 5 10.791 26.9775 12.5895 0 0 0
2896 5 8.9925 26.9775 10.791 0 0 0
2898 5 10.791 26.9775 16.1865 0 0 0
2904 5 8.9925 26.9775 17.985 0 0 0
2912 5 8.9925 26.9775 25.179 0 0 0
2915 5 8.9925 25.179 30.5745 0 0 0
2916 5 8.9925 26.9775 28.776 0 0 0
2921 5 10.791 28.776 0.0 0 0 0
2923 5 8.9925 28.776 1.7985 0 0 0
2924 5 8.9925 30.5745 0.0 0 0 0
2926 5 10.791 30.5745 5.3955 0 0 0
2927 5 8.9925 28.776 5.3955 0 0 0
2931 5 8.9925 28.776 8.9925 0 0 0
2934 5 10.791 30.5745 12.5895 0 0 0
2935 5 8.9925 28.776 12.5895 0 0 0
2939 5 8.9925 28.776 16.1865 0 0 0
2941 5 10.791 28.776 17.985 0 0 0
2942 5 10.791 30.5745 19.7835 0 0 0
2945 5 10.791 28.776 21.582 0 0 0
2946 5 10.791 30.5745 23.3805 0 0 0
2948 5 8.9925 30.5745 21.582 0 0 0
2953 5 10.791 28.776 28.776 0 0 0
2954 5 10.791 30.5745 30.5745 0 0 0
2955 5 8.9925 28.776 30.5745 0 0 0
2959 5 8.9925 28.776 34.1715 0 0 0
2962 5 10.791 34.1715 1.7985 0 0 0
2971 5 8.9925 32.373 8.9925 0 0 0
2973 5 10.791 32.373 10.791 0 0 0
2986 5 10.791 34.1715 23.3805 0 0 0
2992 5 8.9925 34.1715 25.179 0 0 0
2995 5 8.9925 32.373 30.5745 0 0 0
2997 5 10.791 32.373 32.373 0 0 0
3000 5 8.9925 34.1715 32.373 0 0 0
3001 5 7.194 0.0 0.0 0 0 0
3004 5 5.3955 1.7985 0.0 0 0 0
3006 5 7.194 1.7985 5.3955 0 0 0
3025 5 7.194 0.0 21.582 0 0 0
3027 5 5.3955 0.0 23.3805 0 0 0
3032 5 5.3955 1.7985 25.179 0 0 0
3036 5 5.3955 1.7985 28.776 0 0 0
3041 5 7.194 3.597 0.0 0 0 0
3053 5 7.194 3.597 10.791 0 0 0
3056 5 5.3955 5.3955 10.791 0 0 0
3057 5 7.194 3.597 14.388 0 0 0
3058 5 7.194 5.3955 16.1865 0 0 0
3062 5 7.194 5.3955 19.7835 0 0 0
3065 5 7.194 3.597 21.582 0 0 0
3068 5 5.3955 5.3955 21.582 0 0 0
3070 5 7.194 5.3955 26.9775 0 0 0
3072 5 5.3955 5.3955 25.179 0 0 0
3074 5 7.194 5.3955 30.5745 0 0 0
3075 5 5.3955 3.597 30.5745 0 0 0
3080 5 5.3955 5.3955 32.373 0 0 0
3084 5 5.3955 8.9925 0.0 0 0 0
3091 5 5.3955 7.194 8.9925 0 0 0
3093 5 7.194 7.194 10.791 0 0 0
3096 5 5.3955 8.9925 10.791 0 0 0
3098 5 7.194 8.9925 16.1865 0 0 0
3103 5 5.3955 7.194 19.7835 0 0 0
3109 5 7.194 7.194 25.179 0 0 0
3111 5 5.3955 7.194 26.9775 0 0 0
3112 5 5.3955 8.9925 25.179 0 0 0
3116 5 5.3955 8.9925 28.776 0 0 0
3119 5 5.3955 7.194 34.1715 0 0 0
3134 5 7.194 12.5895 12.5895 0 0 0
3143 5 5.3955 10.791 19.7835 0 0 0
3144 5 5.3955 12.5895 17.985 0 0 0
3147 5 5.3955 10.791 23.3805 0 0 0
3148 5 5.3955 12.5895 21.582 0 0 0
3149 5 7.194 10.791 25.179 0 0 0
3150 5 7.194 12.5895 26.9775 0 0 0
3151 5 5.3955 10.791 26.9775 0 0 0
3152 5 5.3955 12.5895 25.179 0 0 0
3153 5 7.194 10.791 28.776 0 0 0
3154 5 7.194 12.5895 30.5745 0 0 0
3155 5 5.3955 10.791 30.5745 0 0 0
3160 5 5.3955 12.5895 32.373 0 0 0
3166 5 7.194 16.1865 5.3955 0 0 0
3171 5 5.3955 14.388 8.9925 0 0 0
3179 5 5.3955 14.388 16.1865 0 0 0
3183 5 5.3955 14.388 19.7835 0 0 0
3193 5 7.194 14.388 28.776 0 0 0
3195 5 5.3955 14.388 30.5745 0 0 0
3201 5 7.194 17.985 0.0 0 0 0
3209 5 7.194 17.985 7.194 0 0 0
3210 5 7.194 19.7835 8.9925 0 0 0
3215 5 5.3955 17.985 12.5895 0 0 0
3216 5 5.3955 19.7835 10.791 0 0 0
3218 5 7.194 19.7835 16.1865 0 0 0
3219 5 5.3955 17.985 16.1865 0 0 0
3225 5 7.194 17.985 21.582 0 0 0
3233 5 7.194 17.985 28.776 0 0 0
3235 5 5.3955 17.985 30.5745 0 0 0
3241 5 7.194 21.582 0.0 0 0 0
3242 5 7.194 23.3805 1.7985 0 0 0
3246 5 7.194 23.3805 5.3955 0 0 0
3249 5 7.194 21.582 7.194 0 0 0
3250 5 7.194 23.3805 8.9925 0 0 0
3254 5 7.194 23.3805 12.5895 0 0 0
3257 5 7.194 21.582 14.388 0 0 0
3262 5 7.194 23.3805 19.7835 0 0 0
3267 5 5.3955 21.582 23.3805 0 0 0
3270 5 7.194 23.3805 26.9775 0 0 0
3274 5 7.194 23.3805 30.5745 0 0 0
3280 5 5.3955 23.3805 32.373 0 0 0
3281 5 7.194 25.179 0.0 0 0 0
3282 5 7.194 26.9775 1.7985 0 0 0
3286 5 7.194 26.9775 5.3955 0 0 0
3287 5 5.3955 25.179 5.3955 0 0 0
3298 5 7.194 26.9775 16.1865 0 0 0
3299 5 5.3955 25.179 16.1865 0 0 0
3301 5 7.194 25.179 17.985 0 0 0
3303 5 5.3955 25.179 19.7835 0 0 0
3305 5 7.194 25.179 21.582 0 0 0
3308 5 5.3955 26.9775 21.582 0 0 0
3309 5 7.194 25.179 25.179 0 0 0
3310 5 7.194 26.9775 26.9775 0 0 0
3312 5 5.3955 26.9775 25.179 0 0 0
3313 5 7.194 25.179 28.776 0 0 0
3314 5 7.194 26.9775 30.5745 0 0 0
3315 5 5.3955 25.179 30.5745 0 0 0
3324 5 5.3955 30.5745 0.0 0 0 0
3326 5 7.194 30.5745 5.3955 0 0 0
3327 5 5.3955 28.776 5.3955 0 0 0
3329 5 7.194 28.776 7.194 0 0 0
3330 5 7.194 30.5745 8.9925 0 0 0
3331 5 5.3955 28.776 8.9925 0 0 0
3332 5 5.3955 30.5745 7.194 0 0 0
3336 5 5.3955 30.5745 10.791 0 0 0
3343 5 5.3955 28.776 19.7835 0 0 0
3344 5 5.3955 30.5745 17.985 0 0 0
3348 5 5.3955 30.5745 21.582 0 0 0
3351 5 5.3955 28.776 26.9775 0 0 0
3353 5 7.194 28.776 28.776 0 0 0
3354 5 7.194 30.5745 30.5745 0 0 0
3363 5 5.3955 32.373 1.7985 0 0 0
3368 5 5.3955 34.1715 3.597 0 0 0
3369 5 7.194 32.373 7.194 0 0 0
3372 5 5.3955 34.1715 7.194 0 0 0
3373 5 7.194 32.373 10.791 0 0 0
3381 5 7.194 32.373 17.985 0 0 0
3382 5 7.194 34.1715 19.7835 0 0 0
3391 5 5.3955 32.373 26.9775 0 0 0
3393 5 7.194 32.373 28.776 0 0 0
3397 5 7.194 32.373 32.373 0 0 0
3398 5 7.194 34.1715 34.1715 0 0 0
3401 5 3.597 0.0 0.0 0 0 0
3404 5 1.7985 1.7985 0.0 0 0 0
3409 5 3.597 0.0 7.194 0 0 0
3414 5 3.597 1.7985 12.5895 0 0 0
3417 5 3.597 0.0 14.388 0 0 0
3419 5 1.7985 0.0 16.1865 0 0 0
3421 5 3.597 0.0 17.985 0 0 0
3427 5 1.7985 0.0 23.3805 0 0 0
3428 5 1.7985 1.7985 21.582 0 0 0
3434 5 3.597 1.7985 30.5745 0 0 0
3442 5 3.597 5.3955 1.7985 0 0 0
3445 5 3.597 3.597 3.597 0 0 0
3446 5 3.597 5.3955 5.3955 0 0 0
3447 5 1.7985 3.597 5.3955 0 0 0
3448 5 1.7985 5.3955 3.597 0 0 0
3452 5 1.7985 5.3955 7.194 0 0 0
3453 5 3.597 3.597 10.791 0 0 0
3459 5 1.7985 3.597 16.1865 0 0 0
3462 5 3.597 5.3955 19.7835 0 0 0
3465 5 3.597 3.597 21.582 0 0 0
3475 5 1.7985 3.597 30.5745 0 0 0
3476 5 1.7985 5.3955 28.776 0 0 0
3478 5 3.597 5.3955 34.1715 0 0 0
3480 5 1.7985 5.3955 32.373 0 0 0
3482 5 3.597 8.9925 1.7985 0 0 0
3496 5 1.7985 8.9925 10.791 0 0 0
3497 5 3.597 7.194 14.388 0 0 0
3499 5 1.7985 7.194 16.1865 0 0 0
3500 5 1.7985 8.9925 14.388 0 0 0
3501 5 3.597 7.194 17.985 0 0 0
3503 5 1.7985 7.194 19.7835 0 0 0
3504 5 1.7985 8.9925 17.985 0 0 0
3507 5 1.7985 7.194 23.3805 0 0 0
3508 5 1.7985 8.9925 21.582 0 0 0
3513 5 3.597 7.194 28.776 0 0 0
3516 5 1.7985 8.9925 28.776 0 0 0
3517 5 3.597 7.194 32.373 0 0 0
3519 5 1.7985 7.194 34.1715 0 0 0
3525 5 3.597 10.791 3.597 0 0 0
3526 5 3.597 12.5895 5.3955 0 0 0
3527 5 1.7985 10.791 5.3955 0 0 0
3529 5 3.597 10.791 7.194 0 0 0
3534 5 3.597 12.5895 12.5895 0 0 0
3539 5 1.7985 10.791 16.1865 0 0 0
3541 5 3.597 10.791 17.985 0 0 0
3546 5 3.597 12.5895 23.3805 0 0 0
3547 5 1.7985 10.791 23.3805 0 0 0
3563 5 1.7985 14.388 1.7985 0 0 0
3567 5 1.7985 14.388 5.3955 0 0 0
3569 5 3.597 14.388 7.194 0 0 0
3579 5 1.7985 14.388 16.1865 0 0 0
3580 5 1.7985 16.1865 14.388 0 0 0
3586 5 3.597 16.1865 23.3805 0 0 0
3592 5 1.7985 16.1865 25.179 0 0 0
3601 5 3.597 17.985 0.0 0 0 0
3604 5 1.7985 19.7835 0.0 0 0 0
3605 5 3.597 17.985 3.597 0 0 0
3607 5 1.7985 17.985 5.3955 0 0 0
3608 5 1.7985 19.7835 3.597 0 0 0
3610 5 3.597 19.7835 8.9925 0 0 0
3614 5 3.597 19.7835 12.5895 0 0 0
3617 5 3.597 17.985 14.388 0 0 0
3619 5 1.7985 17.985 16.1865 0 0 0
3620 5 1.7985 19.7835 14.388 0 0 0
3625 5 3.597 17.985 21.582 0 0 0
3629 5 3.597 17.985 25.179 0 0 0
3634 5 3.597 19.7835 30.5745 0 0 0
3641 5 3.597 21.582 0.0 0 0 0
3646 5 3.597 23.3805 5.3955 0 0 0
3650 5 3.597 23.3805 8.9925 0 0 0
3652 5 1.7985 23.3805 7.194 0 0 0
3655 5 1.7985 21.582 12.5895 0 0 0
3666 5 3.597 23.3805 23.3805 0 0 0
3668 5 1.7985 23.3805 21.582 0 0 0
3679 5 1.7985 21.582 34.1715 0 0 0
3681 5 3.597 25.179 0.0 0 0 0
3688 5 1.7985 26.9775 3.597 0 0 0
3691 5 1.7985 25.179 8.9925 0 0 0
3692 5 1.7985 26.9775 7.194 0 0 0
3700 5 1.7985 26.9775 14.388 0 0 0
3702 5 3.597 26.9775 19.7835 0 0 0
3709 5 3.597 25.179 25.179 0 0 0
3711 5 1.7985 25.179 26.9775 0 0 0
3716 5 1.7985 26.9775 28.776 0 0 0
3719 5 1.7985 25.179 34.1715 0 0 0
3721 5 3.597 28.776 0.0 0 0 0
3726 5 3.597 30.5745 5.3955 0 0 0
3727 5 1.7985 28.776 5.3955 0 0 0
3730 5 3.597 30.5745 8.9925 0 0 0
3739 5 1.7985 28.776 16.1865 0 0 0
3741 5 3.597 28.776 17.985 0 0 0
3743 5 1.7985 28.776 19.7835 0 0 0
3745 5 3.597 28.776 21.582 0 0 0
3749 5 3.597 28.776 25.179 0 0 0
3755 5 1.7985 28.776 30.5745 0 0 0
3756 5 1.7985 30.5745 28.776 0 0 0
3758 5 3.597 30.5745 34.1715 0 0 0
3760 5 1.7985 30.5745 32.373 0 0 0
3769 5 3.597 32.373 7.194 0 0 0
3775 5 1.7985 32.373 12.5895 0 0 0
3778 5 3.597 34.1715 16.1865 0 0 0
3780 5 1.7985 34.1715 14.388 0 0 0
3781 5 3.597 32.373 17.985 0 0 0
3783 5 1.7985 32.373 19.7835 0 0 0
3799 5 1.7985 32.373 34.1715 0 0 0
3800 5 1.7985 34.1715 32.373 0 0 0
3801 5 0.0 0.0 0.0 0 0 0
3816 5 0.0 1.7985 26.9775 0 0 0
3817 5 0.0 0.0 28.776 0 0 0
3825 5 0.0 3.597 7.194 0 0 0
3827 5 0.0 3.597 10.791 0 0 0
3832 5 0.0 5.3955 19.7835 0 0 0
3835 5 0.0 3.597 25.179 0 0 0
3841 5 0.0 7.194 0.0 0 0 0
3843 5 0.0 7.194 3.597 0 0 0
3845 5 0.0 7.194 7.194 0 0 0
3846 5 0.0 8.9925 8.9925 0 0 0
3849 5 0.0 7.194 14.388 0 0 0
3850 5 0.0 8.9925 16.1865 0 0 0
3854 5 0.0 8.9925 23.3805 0 0 0
3857 5 0.0 7.194 28.776 0 0 0
3858 5 0.0 8.9925 30.5745 0 0 0
3859 5 0.0 7.194 32.373 0 0 0
3860 5 0.0 8.9925 34.1715 0 0 0
3861 5 0.0 10.791 0.0 0 0 0
3862 5 0.0 12.5895 1.7985 0 0 0
3863 5 0.0 10.791 3.597 0 0 0
3869 5 0.0 10.791 14.388 0 0 0
3872 5 0.0 12.5895 19.7835 0 0 0
3873 5 0.0 10.791 21.582 0 0 0
3874 5 0.0 12.5895 23.3805 0 0 0
3875 5 0.0 10.791 25.179 0 0 0
3879 5 0.0 10.791 32.373 0 0 0
3885 5 0.0 14.388 7.194 0 0 0
3886 5 0.0 16.1865 8.9925 0 0 0
3889 5 0.0 14.388 14.388 0 0 0
3897 5 0.0 14.388 28.776 0 0 0
3902 5 0.0 19.7835 1.7985 0 0 0
3906 5 0.0 19.7835 8.9925 0 0 0
3909 5 0.0 17.985 14.388 0 0 0
3914 5 0.0 19.7835 23.3805 0 0 0
3915 5 0.0 17.985 25.179 0 0 0
3917 5 0.0 17.985 28.776 0 0 0
3918 5 0.0 19.7835 30.5745 0 0 0
3921 5 0.0 21.582 0.0 0 0 0
3923 5 0.0 21.582 3.597 0 0 0
3942 5 0.0 26.9775 1.7985 0 0 0
3960 5 0.0 26.9775 34.1715 0 0 0
3967 5 0.0 28.776 10.791 0 0 0
3968 5 0.0 30.5745 12.5895 0 0 0
3969 5 0.0 28.776 14.388 0 0 0
3973 5 0.0 28.776 21.582 0 0 0
3979 5 0.0 28.776 32.373 0 0 0
3980 5 0.0 30.5745 34.1715 0 0 0
3983 5 0.0 32.373 3.597 0 0 0
3985 5 0.0 32.373 7.194 0 0 0
3990 5 0.0 34.1715 16.1865 0 0 0
3994 5 0.0 34.1715 23.3805 0 0 0
3996 5 0.0 34.1715 26.9775 0 0 0
