LAMMPS data file via write_data version 30 Jul 2021 timestep = 0
4000 atoms
5 atom types
0 35.97 xlo xhi
0 35.97 ylo yhi
0 35.97 zlo zhi
0.0 0.0 0.0 xy xz yz
 
Masses
 
1 1.0
2 2.0
3 3.0
4 4.0
5 5.0
 
Atoms  # atomic
 
1871 1 16.1865 3.597 26.9775 0 0 0
160 1 34.1715 26.9775 32.373 0 0 0
2392 1 12.5895 16.1865 25.179 0 0 0
135 1 34.1715 21.582 26.9775 0 0 0
3299 1 5.3955 25.179 16.1865 0 0 0
1038 1 25.179 1.7985 34.1715 0 0 0
2131 1 16.1865 28.776 8.9925 0 0 0
3196 1 5.3955 16.1865 28.776 0 0 0
162 1 34.1715 30.5745 0.0 0 0 0
3942 1 0.0 26.9775 1.7985 0 0 0
2338 1 14.388 12.5895 16.1865 0 0 0
3985 1 0.0 32.373 7.194 0 0 0
3692 1 1.7985 26.9775 7.194 0 0 0
3367 1 5.3955 32.373 5.3955 0 0 0
1507 1 19.7835 7.194 23.3805 0 0 0
1199 1 23.3805 14.388 34.1715 0 0 0
3993 1 0.0 32.373 21.582 0 0 0
373 1 32.373 14.388 10.791 0 0 0
606 1 28.776 1.7985 5.3955 0 0 0
886 1 28.776 26.9775 5.3955 0 0 0
2357 1 14.388 10.791 32.373 0 0 0
2954 1 10.791 30.5745 30.5745 0 0 0
2989 1 10.791 32.373 25.179 0 0 0
2949 1 10.791 28.776 25.179 0 0 0
3131 1 5.3955 10.791 8.9925 0 0 0
874 1 28.776 23.3805 30.5745 0 0 0
2788 1 8.9925 16.1865 21.582 0 0 0
3677 1 3.597 21.582 32.373 0 0 0
49 1 34.1715 7.194 16.1865 0 0 0
487 1 30.5745 25.179 5.3955 0 0 0
3698 1 3.597 26.9775 16.1865 0 0 0
3657 1 3.597 21.582 14.388 0 0 0
1084 1 23.3805 8.9925 0.0 0 0 0
1645 1 21.582 21.582 3.597 0 0 0
1088 1 23.3805 8.9925 3.597 0 0 0
3823 1 0.0 3.597 3.597 0 0 0
2242 1 14.388 5.3955 1.7985 0 0 0
761 1 28.776 14.388 0.0 0 0 0
2304 1 12.5895 8.9925 17.985 0 0 0
426 1 32.373 19.7835 23.3805 0 0 0
2770 1 10.791 16.1865 8.9925 0 0 0
964 1 26.9775 34.1715 0.0 0 0 0
1319 1 23.3805 25.179 34.1715 0 0 0
969 1 28.776 32.373 7.194 0 0 0
3768 1 1.7985 34.1715 3.597 0 0 0
2933 1 10.791 28.776 10.791 0 0 0
1867 1 16.1865 3.597 23.3805 0 0 0
2002 1 17.985 19.7835 1.7985 0 0 0
3891 1 0.0 14.388 17.985 0 0 0
1822 1 17.985 1.7985 19.7835 0 0 0
3187 1 5.3955 14.388 23.3805 0 0 0
733 1 28.776 10.791 10.791 0 0 0
3361 1 7.194 32.373 0.0 0 0 0
1536 1 19.7835 12.5895 10.791 0 0 0
3389 1 7.194 32.373 25.179 0 0 0
3595 1 1.7985 14.388 30.5745 0 0 0
2355 1 12.5895 10.791 30.5745 0 0 0
2636 1 8.9925 1.7985 28.776 0 0 0
3987 1 0.0 32.373 10.791 0 0 0
2888 1 8.9925 26.9775 3.597 0 0 0
2475 1 12.5895 21.582 30.5745 0 0 0
1705 1 21.582 25.179 21.582 0 0 0
2503 1 12.5895 25.179 19.7835 0 0 0
3489 1 3.597 7.194 7.194 0 0 0
3055 1 5.3955 3.597 12.5895 0 0 0
528 1 30.5745 30.5745 3.597 0 0 0
2096 1 16.1865 26.9775 10.791 0 0 0
215 1 30.5745 0.0 12.5895 0 0 0
594 1 32.373 34.1715 30.5745 0 0 0
3949 1 0.0 25.179 14.388 0 0 0
1030 1 25.179 1.7985 26.9775 0 0 0
834 1 28.776 19.7835 30.5745 0 0 0
820 1 26.9775 19.7835 14.388 0 0 0
903 1 26.9775 25.179 19.7835 0 0 0
756 1 26.9775 12.5895 28.776 0 0 0
2284 1 12.5895 8.9925 0.0 0 0 0
2776 1 8.9925 16.1865 10.791 0 0 0
2514 1 14.388 26.9775 30.5745 0 0 0
3434 1 3.597 1.7985 30.5745 0 0 0
1094 1 25.179 8.9925 12.5895 0 0 0
5 1 34.1715 0.0 8.9925 0 0 0
201 1 32.373 0.0 0.0 0 0 0
1136 1 23.3805 12.5895 10.791 0 0 0
1503 1 19.7835 7.194 19.7835 0 0 0
988 1 26.9775 34.1715 21.582 0 0 0
787 1 26.9775 14.388 23.3805 0 0 0
2805 1 10.791 17.985 3.597 0 0 0
1558 1 21.582 12.5895 34.1715 0 0 0
568 1 30.5745 34.1715 3.597 0 0 0
1104 1 23.3805 8.9925 17.985 0 0 0
2008 1 16.1865 19.7835 3.597 0 0 0
1438 1 21.582 1.7985 34.1715 0 0 0
1280 1 23.3805 23.3805 32.373 0 0 0
1979 1 16.1865 14.388 16.1865 0 0 0
3551 1 1.7985 10.791 26.9775 0 0 0
216 1 30.5745 1.7985 10.791 0 0 0
3205 1 7.194 17.985 3.597 0 0 0
2780 1 8.9925 16.1865 14.388 0 0 0
2922 1 10.791 30.5745 1.7985 0 0 0
3048 1 5.3955 5.3955 3.597 0 0 0
960 1 26.9775 30.5745 32.373 0 0 0
186 1 34.1715 34.1715 7.194 0 0 0
1798 1 21.582 34.1715 34.1715 0 0 0
1665 1 21.582 21.582 21.582 0 0 0
2345 1 14.388 10.791 21.582 0 0 0
3623 1 1.7985 17.985 19.7835 0 0 0
2555 1 12.5895 28.776 30.5745 0 0 0
3514 1 3.597 8.9925 30.5745 0 0 0
1812 1 16.1865 1.7985 7.194 0 0 0
537 1 32.373 28.776 14.388 0 0 0
2726 1 10.791 12.5895 5.3955 0 0 0
2241 1 14.388 3.597 0.0 0 0 0
1684 1 19.7835 26.9775 0.0 0 0 0
3217 1 7.194 17.985 14.388 0 0 0
1788 1 19.7835 34.1715 21.582 0 0 0
3863 1 0.0 10.791 3.597 0 0 0
2547 1 12.5895 28.776 23.3805 0 0 0
628 1 26.9775 1.7985 21.582 0 0 0
3655 1 1.7985 21.582 12.5895 0 0 0
1192 1 23.3805 16.1865 25.179 0 0 0
2344 1 12.5895 12.5895 17.985 0 0 0
924 1 26.9775 30.5745 0.0 0 0 0
3263 1 5.3955 21.582 19.7835 0 0 0
1074 1 25.179 5.3955 30.5745 0 0 0
305 1 32.373 7.194 21.582 0 0 0
2095 1 16.1865 25.179 12.5895 0 0 0
906 1 28.776 26.9775 23.3805 0 0 0
3278 1 7.194 23.3805 34.1715 0 0 0
21 1 34.1715 3.597 1.7985 0 0 0
3170 1 7.194 16.1865 8.9925 0 0 0
2839 1 8.9925 17.985 34.1715 0 0 0
3858 1 0.0 8.9925 30.5745 0 0 0
1314 1 25.179 26.9775 30.5745 0 0 0
1448 1 19.7835 5.3955 3.597 0 0 0
1671 1 19.7835 21.582 26.9775 0 0 0
3868 1 0.0 12.5895 12.5895 0 0 0
838 1 28.776 19.7835 34.1715 0 0 0
635 1 26.9775 0.0 30.5745 0 0 0
156 1 34.1715 26.9775 25.179 0 0 0
172 1 34.1715 30.5745 17.985 0 0 0
1462 1 21.582 5.3955 19.7835 0 0 0
2161 1 17.985 32.373 0.0 0 0 0
632 1 26.9775 1.7985 25.179 0 0 0
353 1 32.373 10.791 28.776 0 0 0
3129 1 7.194 10.791 7.194 0 0 0
3467 1 1.7985 3.597 23.3805 0 0 0
3983 1 0.0 32.373 3.597 0 0 0
1124 1 23.3805 12.5895 0.0 0 0 0
982 1 28.776 34.1715 19.7835 0 0 0
3554 1 3.597 12.5895 30.5745 0 0 0
3569 1 3.597 14.388 7.194 0 0 0
2099 1 16.1865 25.179 16.1865 0 0 0
856 1 26.9775 23.3805 10.791 0 0 0
713 1 28.776 7.194 28.776 0 0 0
1066 1 25.179 5.3955 23.3805 0 0 0
521 1 32.373 28.776 0.0 0 0 0
142 1 34.1715 26.9775 0.0 0 0 0
2197 1 17.985 32.373 32.373 0 0 0
2651 1 8.9925 3.597 8.9925 0 0 0
687 1 26.9775 7.194 5.3955 0 0 0
1909 1 17.985 7.194 25.179 0 0 0
716 1 26.9775 8.9925 28.776 0 0 0
512 1 30.5745 26.9775 25.179 0 0 0
895 1 26.9775 25.179 12.5895 0 0 0
2470 1 14.388 23.3805 26.9775 0 0 0
1004 1 23.3805 1.7985 0.0 0 0 0
2976 1 8.9925 34.1715 10.791 0 0 0
1020 1 23.3805 1.7985 14.388 0 0 0
3557 1 3.597 10.791 32.373 0 0 0
3424 1 1.7985 1.7985 17.985 0 0 0
52 1 34.1715 8.9925 17.985 0 0 0
2582 1 14.388 34.1715 19.7835 0 0 0
309 1 32.373 7.194 25.179 0 0 0
1549 1 21.582 10.791 25.179 0 0 0
3937 1 0.0 21.582 28.776 0 0 0
3817 1 0.0 0.0 28.776 0 0 0
2439 1 12.5895 17.985 34.1715 0 0 0
2391 1 12.5895 14.388 26.9775 0 0 0
1005 1 25.179 0.0 3.597 0 0 0
126 1 34.1715 23.3805 7.194 0 0 0
1625 1 21.582 17.985 21.582 0 0 0
3650 1 3.597 23.3805 8.9925 0 0 0
2687 1 8.9925 7.194 5.3955 0 0 0
2903 1 8.9925 25.179 19.7835 0 0 0
2271 1 12.5895 3.597 26.9775 0 0 0
2931 1 8.9925 28.776 8.9925 0 0 0
3340 1 5.3955 30.5745 14.388 0 0 0
662 1 28.776 5.3955 19.7835 0 0 0
2228 1 12.5895 1.7985 21.582 0 0 0
3243 1 5.3955 21.582 1.7985 0 0 0
3852 1 0.0 8.9925 19.7835 0 0 0
2465 1 14.388 21.582 21.582 0 0 0
1382 1 25.179 34.1715 19.7835 0 0 0
677 1 28.776 3.597 32.373 0 0 0
1784 1 19.7835 34.1715 17.985 0 0 0
86 1 34.1715 16.1865 7.194 0 0 0
2324 1 12.5895 12.5895 0.0 0 0 0
610 1 28.776 1.7985 8.9925 0 0 0
984 1 26.9775 34.1715 17.985 0 0 0
889 1 28.776 25.179 7.194 0 0 0
174 1 34.1715 30.5745 21.582 0 0 0
3007 1 5.3955 0.0 5.3955 0 0 0
2174 1 17.985 34.1715 12.5895 0 0 0
1077 1 25.179 3.597 32.373 0 0 0
2451 1 12.5895 21.582 8.9925 0 0 0
1528 1 19.7835 12.5895 3.597 0 0 0
1886 1 17.985 8.9925 5.3955 0 0 0
1456 1 19.7835 5.3955 10.791 0 0 0
3935 1 0.0 21.582 25.179 0 0 0
3989 1 0.0 32.373 14.388 0 0 0
3679 1 1.7985 21.582 34.1715 0 0 0
2612 1 8.9925 1.7985 7.194 0 0 0
1824 1 16.1865 1.7985 17.985 0 0 0
1750 1 21.582 30.5745 26.9775 0 0 0
1668 1 19.7835 23.3805 21.582 0 0 0
326 1 32.373 12.5895 5.3955 0 0 0
3459 1 1.7985 3.597 16.1865 0 0 0
3518 1 3.597 8.9925 34.1715 0 0 0
2191 1 16.1865 32.373 26.9775 0 0 0
932 1 26.9775 30.5745 7.194 0 0 0
1918 1 17.985 8.9925 34.1715 0 0 0
1624 1 19.7835 19.7835 17.985 0 0 0
1352 1 23.3805 30.5745 25.179 0 0 0
3791 1 1.7985 32.373 26.9775 0 0 0
1612 1 19.7835 19.7835 7.194 0 0 0
1394 1 25.179 34.1715 30.5745 0 0 0
2023 1 16.1865 17.985 19.7835 0 0 0
150 1 34.1715 26.9775 14.388 0 0 0
2723 1 8.9925 10.791 1.7985 0 0 0
676 1 26.9775 5.3955 28.776 0 0 0
2754 1 10.791 12.5895 30.5745 0 0 0
2579 1 12.5895 32.373 16.1865 0 0 0
24 1 34.1715 5.3955 3.597 0 0 0
2022 1 17.985 19.7835 19.7835 0 0 0
252 1 30.5745 5.3955 7.194 0 0 0
1490 1 21.582 8.9925 8.9925 0 0 0
1065 1 25.179 3.597 21.582 0 0 0
2778 1 10.791 16.1865 16.1865 0 0 0
3859 1 0.0 7.194 32.373 0 0 0
1347 1 23.3805 28.776 23.3805 0 0 0
3966 1 0.0 30.5745 8.9925 0 0 0
247 1 30.5745 3.597 5.3955 0 0 0
3736 1 1.7985 30.5745 10.791 0 0 0
3667 1 1.7985 21.582 23.3805 0 0 0
2373 1 14.388 14.388 10.791 0 0 0
1891 1 16.1865 7.194 8.9925 0 0 0
345 1 32.373 10.791 21.582 0 0 0
3337 1 7.194 28.776 14.388 0 0 0
1727 1 19.7835 28.776 5.3955 0 0 0
3945 1 0.0 25.179 7.194 0 0 0
1783 1 19.7835 32.373 19.7835 0 0 0
1413 1 21.582 0.0 10.791 0 0 0
3584 1 1.7985 16.1865 17.985 0 0 0
2189 1 17.985 32.373 25.179 0 0 0
346 1 32.373 12.5895 23.3805 0 0 0
3386 1 7.194 34.1715 23.3805 0 0 0
3928 1 0.0 23.3805 12.5895 0 0 0
1744 1 19.7835 30.5745 17.985 0 0 0
2434 1 14.388 19.7835 30.5745 0 0 0
878 1 28.776 23.3805 34.1715 0 0 0
1359 1 23.3805 28.776 34.1715 0 0 0
1929 1 17.985 10.791 7.194 0 0 0
62 1 34.1715 12.5895 0.0 0 0 0
3255 1 5.3955 21.582 12.5895 0 0 0
3525 1 3.597 10.791 3.597 0 0 0
822 1 28.776 19.7835 19.7835 0 0 0
518 1 32.373 26.9775 34.1715 0 0 0
2039 1 16.1865 17.985 34.1715 0 0 0
3755 1 1.7985 28.776 30.5745 0 0 0
1126 1 25.179 12.5895 5.3955 0 0 0
841 1 28.776 21.582 0.0 0 0 0
430 1 32.373 19.7835 26.9775 0 0 0
1669 1 21.582 21.582 25.179 0 0 0
2185 1 17.985 32.373 21.582 0 0 0
3022 1 7.194 1.7985 19.7835 0 0 0
6 1 34.1715 1.7985 7.194 0 0 0
1586 1 21.582 16.1865 23.3805 0 0 0
1390 1 25.179 34.1715 26.9775 0 0 0
1524 1 19.7835 12.5895 0.0 0 0 0
1565 1 21.582 14.388 3.597 0 0 0
3840 1 0.0 5.3955 34.1715 0 0 0
983 1 26.9775 32.373 19.7835 0 0 0
1134 1 25.179 12.5895 12.5895 0 0 0
1616 1 19.7835 19.7835 10.791 0 0 0
3865 1 0.0 10.791 7.194 0 0 0
3853 1 0.0 7.194 21.582 0 0 0
1474 1 21.582 5.3955 30.5745 0 0 0
2702 1 10.791 8.9925 19.7835 0 0 0
2705 1 10.791 7.194 21.582 0 0 0
2734 1 10.791 12.5895 12.5895 0 0 0
2333 1 14.388 10.791 10.791 0 0 0
2704 1 8.9925 8.9925 17.985 0 0 0
1799 1 19.7835 32.373 34.1715 0 0 0
3120 1 5.3955 8.9925 32.373 0 0 0
2397 1 14.388 14.388 32.373 0 0 0
729 1 28.776 10.791 7.194 0 0 0
1444 1 19.7835 5.3955 0.0 0 0 0
1269 1 25.179 21.582 25.179 0 0 0
2774 1 10.791 16.1865 12.5895 0 0 0
2491 1 12.5895 25.179 8.9925 0 0 0
3270 1 7.194 23.3805 26.9775 0 0 0
870 1 28.776 23.3805 26.9775 0 0 0
449 1 32.373 21.582 7.194 0 0 0
3203 1 5.3955 17.985 1.7985 0 0 0
1517 1 21.582 7.194 32.373 0 0 0
3821 1 0.0 3.597 0.0 0 0 0
639 1 26.9775 0.0 34.1715 0 0 0
2110 1 17.985 26.9775 26.9775 0 0 0
623 1 26.9775 0.0 19.7835 0 0 0
3363 1 5.3955 32.373 1.7985 0 0 0
2310 1 14.388 8.9925 26.9775 0 0 0
438 1 32.373 19.7835 34.1715 0 0 0
3077 1 7.194 3.597 32.373 0 0 0
3256 1 5.3955 23.3805 10.791 0 0 0
1445 1 21.582 3.597 3.597 0 0 0
2885 1 10.791 25.179 3.597 0 0 0
1753 1 21.582 28.776 28.776 0 0 0
3886 1 0.0 16.1865 8.9925 0 0 0
3282 1 7.194 26.9775 1.7985 0 0 0
454 1 32.373 23.3805 12.5895 0 0 0
3272 1 5.3955 23.3805 25.179 0 0 0
3319 1 5.3955 25.179 34.1715 0 0 0
238 1 32.373 1.7985 34.1715 0 0 0
2291 1 12.5895 7.194 8.9925 0 0 0
1476 1 19.7835 5.3955 28.776 0 0 0
527 1 30.5745 28.776 5.3955 0 0 0
1271 1 23.3805 21.582 26.9775 0 0 0
267 1 30.5745 3.597 23.3805 0 0 0
85 1 34.1715 14.388 8.9925 0 0 0
3127 1 5.3955 10.791 5.3955 0 0 0
1071 1 23.3805 3.597 26.9775 0 0 0
3316 1 5.3955 26.9775 28.776 0 0 0
2899 1 8.9925 25.179 16.1865 0 0 0
1123 1 23.3805 10.791 1.7985 0 0 0
3763 1 1.7985 32.373 1.7985 0 0 0
2100 1 16.1865 26.9775 14.388 0 0 0
2929 1 10.791 28.776 7.194 0 0 0
3393 1 7.194 32.373 28.776 0 0 0
1573 1 21.582 14.388 10.791 0 0 0
3541 1 3.597 10.791 17.985 0 0 0
1187 1 23.3805 14.388 23.3805 0 0 0
1773 1 21.582 32.373 10.791 0 0 0
1690 1 21.582 26.9775 8.9925 0 0 0
2867 1 8.9925 21.582 23.3805 0 0 0
1472 1 19.7835 5.3955 25.179 0 0 0
2690 1 10.791 8.9925 8.9925 0 0 0
182 1 34.1715 34.1715 0.0 0 0 0
106 1 34.1715 19.7835 7.194 0 0 0
3078 1 7.194 5.3955 34.1715 0 0 0
2294 1 14.388 8.9925 12.5895 0 0 0
2348 1 12.5895 12.5895 21.582 0 0 0
962 1 28.776 34.1715 1.7985 0 0 0
229 1 32.373 0.0 25.179 0 0 0
166 1 34.1715 30.5745 7.194 0 0 0
143 1 34.1715 25.179 5.3955 0 0 0
560 1 30.5745 30.5745 32.373 0 0 0
3901 1 0.0 17.985 0.0 0 0 0
2213 1 14.388 0.0 10.791 0 0 0
2607 1 8.9925 0.0 5.3955 0 0 0
1709 1 21.582 25.179 25.179 0 0 0
3446 1 3.597 5.3955 5.3955 0 0 0
1674 1 21.582 23.3805 30.5745 0 0 0
803 1 26.9775 17.985 1.7985 0 0 0
2265 1 14.388 3.597 21.582 0 0 0
1463 1 19.7835 3.597 19.7835 0 0 0
3644 1 1.7985 23.3805 0.0 0 0 0
36 1 34.1715 5.3955 25.179 0 0 0
2085 1 17.985 25.179 3.597 0 0 0
3087 1 5.3955 7.194 5.3955 0 0 0
2655 1 8.9925 3.597 12.5895 0 0 0
1290 1 25.179 26.9775 8.9925 0 0 0
1364 1 23.3805 34.1715 0.0 0 0 0
3638 1 3.597 19.7835 34.1715 0 0 0
998 1 28.776 34.1715 34.1715 0 0 0
451 1 30.5745 21.582 8.9925 0 0 0
656 1 26.9775 5.3955 10.791 0 0 0
1708 1 19.7835 26.9775 21.582 0 0 0
1274 1 25.179 23.3805 30.5745 0 0 0
3401 1 3.597 0.0 0.0 0 0 0
1968 1 16.1865 16.1865 3.597 0 0 0
3833 1 0.0 3.597 21.582 0 0 0
3426 1 3.597 1.7985 23.3805 0 0 0
3759 1 1.7985 28.776 34.1715 0 0 0
2920 1 8.9925 26.9775 32.373 0 0 0
1566 1 21.582 16.1865 5.3955 0 0 0
1941 1 17.985 10.791 17.985 0 0 0
2765 1 10.791 14.388 3.597 0 0 0
777 1 28.776 14.388 14.388 0 0 0
2121 1 17.985 28.776 0.0 0 0 0
831 1 26.9775 17.985 26.9775 0 0 0
1386 1 25.179 34.1715 23.3805 0 0 0
806 1 28.776 19.7835 5.3955 0 0 0
1397 1 25.179 32.373 32.373 0 0 0
935 1 26.9775 28.776 12.5895 0 0 0
190 1 34.1715 34.1715 14.388 0 0 0
3913 1 0.0 17.985 21.582 0 0 0
2781 1 10.791 14.388 17.985 0 0 0
1805 1 17.985 0.0 3.597 0 0 0
829 1 28.776 17.985 25.179 0 0 0
2970 1 10.791 34.1715 8.9925 0 0 0
2585 1 14.388 32.373 21.582 0 0 0
3232 1 5.3955 19.7835 25.179 0 0 0
2223 1 12.5895 0.0 19.7835 0 0 0
1468 1 19.7835 5.3955 21.582 0 0 0
1267 1 23.3805 21.582 23.3805 0 0 0
2477 1 14.388 21.582 32.373 0 0 0
473 1 32.373 21.582 28.776 0 0 0
3475 1 1.7985 3.597 30.5745 0 0 0
2550 1 14.388 30.5745 26.9775 0 0 0
2478 1 14.388 23.3805 34.1715 0 0 0
686 1 28.776 8.9925 5.3955 0 0 0
2883 1 8.9925 25.179 1.7985 0 0 0
3029 1 7.194 0.0 25.179 0 0 0
1754 1 21.582 30.5745 30.5745 0 0 0
280 1 30.5745 5.3955 32.373 0 0 0
1388 1 23.3805 34.1715 21.582 0 0 0
3094 1 7.194 8.9925 12.5895 0 0 0
93 1 34.1715 14.388 23.3805 0 0 0
83 1 34.1715 14.388 5.3955 0 0 0
1050 1 25.179 5.3955 8.9925 0 0 0
2844 1 8.9925 23.3805 0.0 0 0 0
1693 1 21.582 25.179 10.791 0 0 0
3889 1 0.0 14.388 14.388 0 0 0
2118 1 17.985 26.9775 34.1715 0 0 0
188 1 34.1715 34.1715 10.791 0 0 0
3398 1 7.194 34.1715 34.1715 0 0 0
1167 1 23.3805 14.388 5.3955 0 0 0
2973 1 10.791 32.373 10.791 0 0 0
1215 1 23.3805 17.985 12.5895 0 0 0
3733 1 3.597 28.776 10.791 0 0 0
3151 1 5.3955 10.791 26.9775 0 0 0
377 1 32.373 14.388 14.388 0 0 0
999 1 26.9775 32.373 34.1715 0 0 0
1723 1 19.7835 28.776 1.7985 0 0 0
2454 1 14.388 23.3805 12.5895 0 0 0
2005 1 17.985 17.985 3.597 0 0 0
2594 1 14.388 34.1715 30.5745 0 0 0
958 1 28.776 30.5745 34.1715 0 0 0
2529 1 14.388 28.776 7.194 0 0 0
2763 1 8.9925 14.388 1.7985 0 0 0
383 1 30.5745 14.388 19.7835 0 0 0
13 1 34.1715 0.0 23.3805 0 0 0
979 1 26.9775 32.373 16.1865 0 0 0
2482 1 14.388 26.9775 1.7985 0 0 0
1498 1 21.582 8.9925 16.1865 0 0 0
2574 1 14.388 34.1715 12.5895 0 0 0
1073 1 25.179 3.597 28.776 0 0 0
2316 1 12.5895 8.9925 28.776 0 0 0
700 1 26.9775 8.9925 14.388 0 0 0
498 1 32.373 26.9775 16.1865 0 0 0
119 1 34.1715 17.985 34.1715 0 0 0
1273 1 25.179 21.582 28.776 0 0 0
331 1 30.5745 10.791 8.9925 0 0 0
2299 1 12.5895 7.194 16.1865 0 0 0
1384 1 23.3805 34.1715 17.985 0 0 0
2053 1 17.985 21.582 10.791 0 0 0
1492 2 19.7835 8.9925 7.194 0 0 0
3327 2 5.3955 28.776 5.3955 0 0 0
134 2 34.1715 23.3805 21.582 0 0 0
3870 2 0.0 12.5895 16.1865 0 0 0
1329 2 25.179 28.776 7.194 0 0 0
3404 2 1.7985 1.7985 0.0 0 0 0
1002 2 25.179 1.7985 1.7985 0 0 0
1689 2 21.582 25.179 7.194 0 0 0
1606 2 21.582 19.7835 5.3955 0 0 0
265 2 32.373 3.597 21.582 0 0 0
794 2 28.776 16.1865 30.5745 0 0 0
2823 2 8.9925 17.985 19.7835 0 0 0
1349 2 25.179 28.776 25.179 0 0 0
2598 2 14.388 34.1715 34.1715 0 0 0
1266 2 25.179 23.3805 23.3805 0 0 0
1817 2 17.985 0.0 14.388 0 0 0
2326 2 14.388 12.5895 5.3955 0 0 0
2584 2 12.5895 34.1715 17.985 0 0 0
2248 2 12.5895 5.3955 3.597 0 0 0
1908 2 16.1865 8.9925 21.582 0 0 0
2029 2 17.985 17.985 25.179 0 0 0
1553 2 21.582 10.791 28.776 0 0 0
448 2 30.5745 23.3805 3.597 0 0 0
1140 2 23.3805 12.5895 14.388 0 0 0
388 2 30.5745 16.1865 21.582 0 0 0
709 2 28.776 7.194 25.179 0 0 0
533 2 32.373 28.776 10.791 0 0 0
3238 2 7.194 19.7835 34.1715 0 0 0
3310 2 7.194 26.9775 26.9775 0 0 0
2910 2 10.791 26.9775 26.9775 0 0 0
3376 2 5.3955 34.1715 10.791 0 0 0
82 2 34.1715 16.1865 0.0 0 0 0
2390 2 14.388 16.1865 26.9775 0 0 0
1315 2 23.3805 25.179 30.5745 0 0 0
1159 2 23.3805 10.791 34.1715 0 0 0
2942 2 10.791 30.5745 19.7835 0 0 0
461 2 32.373 21.582 17.985 0 0 0
893 2 28.776 25.179 10.791 0 0 0
2894 2 10.791 26.9775 12.5895 0 0 0
1033 2 25.179 0.0 28.776 0 0 0
2877 2 10.791 21.582 32.373 0 0 0
2342 2 14.388 12.5895 19.7835 0 0 0
655 2 26.9775 3.597 12.5895 0 0 0
1201 2 25.179 17.985 0.0 0 0 0
1173 2 25.179 14.388 10.791 0 0 0
2162 2 17.985 34.1715 1.7985 0 0 0
1731 2 19.7835 28.776 8.9925 0 0 0
2961 2 10.791 32.373 0.0 0 0 0
2032 2 16.1865 19.7835 25.179 0 0 0
3101 2 7.194 7.194 17.985 0 0 0
1504 2 19.7835 8.9925 17.985 0 0 0
633 2 28.776 0.0 28.776 0 0 0
2218 2 14.388 1.7985 16.1865 0 0 0
968 2 26.9775 34.1715 3.597 0 0 0
3855 2 0.0 7.194 25.179 0 0 0
2314 2 14.388 8.9925 30.5745 0 0 0
1469 2 21.582 3.597 25.179 0 0 0
210 2 32.373 1.7985 8.9925 0 0 0
179 2 34.1715 28.776 34.1715 0 0 0
2749 2 10.791 10.791 25.179 0 0 0
483 2 30.5745 25.179 1.7985 0 0 0
3490 2 3.597 8.9925 8.9925 0 0 0
2300 2 12.5895 8.9925 14.388 0 0 0
3274 2 7.194 23.3805 30.5745 0 0 0
505 2 32.373 25.179 21.582 0 0 0
3417 2 3.597 0.0 14.388 0 0 0
2046 2 17.985 23.3805 5.3955 0 0 0
2886 2 10.791 26.9775 5.3955 0 0 0
1729 2 21.582 28.776 7.194 0 0 0
3003 2 5.3955 0.0 1.7985 0 0 0
3239 2 5.3955 17.985 34.1715 0 0 0
3030 2 7.194 1.7985 26.9775 0 0 0
3827 2 0.0 3.597 10.791 0 0 0
3998 2 0.0 34.1715 30.5745 0 0 0
2409 2 14.388 17.985 7.194 0 0 0
3050 2 7.194 5.3955 8.9925 0 0 0
2647 2 8.9925 3.597 5.3955 0 0 0
1110 2 25.179 8.9925 26.9775 0 0 0
2790 2 10.791 16.1865 26.9775 0 0 0
3045 2 7.194 3.597 3.597 0 0 0
2772 2 8.9925 16.1865 7.194 0 0 0
107 2 34.1715 17.985 12.5895 0 0 0
1787 2 19.7835 32.373 23.3805 0 0 0
3507 2 1.7985 7.194 23.3805 0 0 0
3409 2 3.597 0.0 7.194 0 0 0
3086 2 7.194 8.9925 5.3955 0 0 0
2980 2 8.9925 34.1715 14.388 0 0 0
3171 2 5.3955 14.388 8.9925 0 0 0
1512 2 19.7835 8.9925 25.179 0 0 0
1658 2 21.582 23.3805 16.1865 0 0 0
1988 2 16.1865 16.1865 21.582 0 0 0
970 2 28.776 34.1715 8.9925 0 0 0
2793 2 10.791 14.388 28.776 0 0 0
556 2 30.5745 30.5745 28.776 0 0 0
3553 2 3.597 10.791 28.776 0 0 0
148 2 34.1715 26.9775 10.791 0 0 0
372 2 30.5745 16.1865 7.194 0 0 0
863 2 26.9775 21.582 19.7835 0 0 0
3472 2 1.7985 5.3955 25.179 0 0 0
370 2 32.373 16.1865 8.9925 0 0 0
2820 2 8.9925 19.7835 14.388 0 0 0
3128 2 5.3955 12.5895 3.597 0 0 0
3455 2 1.7985 3.597 12.5895 0 0 0
1467 2 19.7835 3.597 23.3805 0 0 0
2329 2 14.388 10.791 7.194 0 0 0
934 2 28.776 30.5745 12.5895 0 0 0
1712 2 19.7835 26.9775 25.179 0 0 0
3338 2 7.194 30.5745 16.1865 0 0 0
3931 2 0.0 21.582 17.985 0 0 0
15 2 34.1715 0.0 26.9775 0 0 0
3056 2 5.3955 5.3955 10.791 0 0 0
2665 2 10.791 3.597 21.582 0 0 0
1297 2 25.179 25.179 14.388 0 0 0
3640 2 1.7985 19.7835 32.373 0 0 0
755 2 26.9775 10.791 30.5745 0 0 0
46 2 34.1715 8.9925 7.194 0 0 0
3119 2 5.3955 7.194 34.1715 0 0 0
3473 2 3.597 3.597 28.776 0 0 0
1582 2 21.582 16.1865 19.7835 0 0 0
2352 2 12.5895 12.5895 25.179 0 0 0
3615 2 1.7985 17.985 12.5895 0 0 0
3023 2 5.3955 0.0 19.7835 0 0 0
912 2 26.9775 26.9775 25.179 0 0 0
2643 2 8.9925 3.597 1.7985 0 0 0
117 2 34.1715 17.985 30.5745 0 0 0
525 2 32.373 28.776 3.597 0 0 0
2638 2 10.791 1.7985 34.1715 0 0 0
626 2 28.776 1.7985 23.3805 0 0 0
3808 2 0.0 1.7985 12.5895 0 0 0
1534 2 21.582 12.5895 12.5895 0 0 0
2512 2 12.5895 26.9775 25.179 0 0 0
2084 2 16.1865 26.9775 0.0 0 0 0
1663 2 19.7835 21.582 19.7835 0 0 0
966 2 28.776 34.1715 5.3955 0 0 0
288 2 30.5745 8.9925 3.597 0 0 0
3694 2 3.597 26.9775 12.5895 0 0 0
1860 2 16.1865 5.3955 14.388 0 0 0
2038 2 17.985 19.7835 34.1715 0 0 0
1341 2 25.179 28.776 17.985 0 0 0
1195 2 23.3805 14.388 30.5745 0 0 0
2164 2 16.1865 34.1715 0.0 0 0 0
1550 2 21.582 12.5895 26.9775 0 0 0
3038 2 7.194 1.7985 34.1715 0 0 0
3674 2 3.597 23.3805 30.5745 0 0 0
1521 2 21.582 10.791 0.0 0 0 0
2422 2 14.388 19.7835 19.7835 0 0 0
2916 2 8.9925 26.9775 28.776 0 0 0
2730 2 10.791 12.5895 8.9925 0 0 0
499 2 30.5745 25.179 16.1865 0 0 0
3149 2 7.194 10.791 25.179 0 0 0
3857 2 0.0 7.194 28.776 0 0 0
2994 2 10.791 34.1715 30.5745 0 0 0
1399 2 23.3805 32.373 34.1715 0 0 0
3915 2 0.0 17.985 25.179 0 0 0
3273 2 7.194 21.582 28.776 0 0 0
757 2 28.776 10.791 32.373 0 0 0
961 2 28.776 32.373 0.0 0 0 0
1949 2 17.985 10.791 25.179 0 0 0
3721 2 3.597 28.776 0.0 0 0 0
1895 2 16.1865 7.194 12.5895 0 0 0
319 2 30.5745 7.194 34.1715 0 0 0
1530 2 21.582 12.5895 8.9925 0 0 0
2670 2 10.791 5.3955 26.9775 0 0 0
1995 2 16.1865 14.388 30.5745 0 0 0
989 2 28.776 32.373 25.179 0 0 0
3494 2 3.597 8.9925 12.5895 0 0 0
3069 2 7.194 3.597 25.179 0 0 0
1276 2 23.3805 23.3805 28.776 0 0 0
3849 2 0.0 7.194 14.388 0 0 0
2169 2 17.985 32.373 7.194 0 0 0
3846 2 0.0 8.9925 8.9925 0 0 0
140 2 34.1715 23.3805 32.373 0 0 0
1003 2 23.3805 0.0 1.7985 0 0 0
3920 2 0.0 19.7835 34.1715 0 0 0
1078 2 25.179 5.3955 34.1715 0 0 0
3108 2 5.3955 8.9925 21.582 0 0 0
1361 2 25.179 32.373 0.0 0 0 0
2619 2 8.9925 0.0 16.1865 0 0 0
3301 2 7.194 25.179 17.985 0 0 0
3774 2 3.597 34.1715 12.5895 0 0 0
2296 2 12.5895 8.9925 10.791 0 0 0
812 2 26.9775 19.7835 7.194 0 0 0
491 2 30.5745 25.179 8.9925 0 0 0
1861 2 17.985 3.597 17.985 0 0 0
1858 2 17.985 5.3955 16.1865 0 0 0
3771 2 1.7985 32.373 8.9925 0 0 0
3941 2 0.0 25.179 0.0 0 0 0
3573 2 3.597 14.388 10.791 0 0 0
316 2 30.5745 8.9925 28.776 0 0 0
1810 2 17.985 1.7985 8.9925 0 0 0
721 2 28.776 10.791 0.0 0 0 0
744 2 26.9775 12.5895 17.985 0 0 0
3399 2 5.3955 32.373 34.1715 0 0 0
1259 2 23.3805 21.582 16.1865 0 0 0
2968 2 8.9925 34.1715 3.597 0 0 0
2424 2 12.5895 19.7835 17.985 0 0 0
3609 2 3.597 17.985 7.194 0 0 0
561 2 32.373 32.373 0.0 0 0 0
898 2 28.776 26.9775 16.1865 0 0 0
2753 2 10.791 10.791 28.776 0 0 0
2580 2 12.5895 34.1715 14.388 0 0 0
3526 2 3.597 12.5895 5.3955 0 0 0
2421 2 14.388 17.985 17.985 0 0 0
3882 2 0.0 16.1865 1.7985 0 0 0
731 2 26.9775 10.791 8.9925 0 0 0
3016 2 5.3955 1.7985 10.791 0 0 0
2158 2 17.985 30.5745 34.1715 0 0 0
1284 2 23.3805 26.9775 0.0 0 0 0
197 2 34.1715 32.373 30.5745 0 0 0
1830 2 17.985 1.7985 26.9775 0 0 0
3034 2 7.194 1.7985 30.5745 0 0 0
1155 2 23.3805 10.791 30.5745 0 0 0
114 2 34.1715 19.7835 21.582 0 0 0
3801 2 0.0 0.0 0.0 0 0 0
1742 2 21.582 30.5745 19.7835 0 0 0
669 2 28.776 3.597 25.179 0 0 0
3620 2 1.7985 19.7835 14.388 0 0 0
1337 2 25.179 28.776 14.388 0 0 0
3453 2 3.597 3.597 10.791 0 0 0
3391 2 5.3955 32.373 26.9775 0 0 0
2499 2 12.5895 25.179 16.1865 0 0 0
2202 2 14.388 1.7985 1.7985 0 0 0
3397 2 7.194 32.373 32.373 0 0 0
1618 2 21.582 19.7835 16.1865 0 0 0
2716 2 8.9925 8.9925 28.776 0 0 0
3498 2 3.597 8.9925 16.1865 0 0 0
263 2 30.5745 3.597 19.7835 0 0 0
2543 2 12.5895 28.776 19.7835 0 0 0
967 2 26.9775 32.373 5.3955 0 0 0
2208 2 12.5895 1.7985 3.597 0 0 0
311 2 30.5745 7.194 26.9775 0 0 0
115 2 34.1715 17.985 26.9775 0 0 0
1251 2 23.3805 21.582 8.9925 0 0 0
1028 2 23.3805 1.7985 21.582 0 0 0
224 2 30.5745 1.7985 17.985 0 0 0
154 2 34.1715 26.9775 21.582 0 0 0
1632 2 19.7835 19.7835 25.179 0 0 0
2850 2 10.791 23.3805 8.9925 0 0 0
3031 2 5.3955 0.0 26.9775 0 0 0
864 2 26.9775 23.3805 17.985 0 0 0
3528 2 1.7985 12.5895 3.597 0 0 0
860 2 26.9775 23.3805 14.388 0 0 0
207 2 30.5745 0.0 5.3955 0 0 0
2648 2 8.9925 5.3955 3.597 0 0 0
3711 2 1.7985 25.179 26.9775 0 0 0
259 2 30.5745 3.597 16.1865 0 0 0
531 2 30.5745 28.776 8.9925 0 0 0
1135 2 23.3805 10.791 12.5895 0 0 0
1253 2 25.179 21.582 10.791 0 0 0
72 2 34.1715 12.5895 17.985 0 0 0
511 2 30.5745 25.179 26.9775 0 0 0
2896 2 8.9925 26.9775 10.791 0 0 0
2807 2 8.9925 17.985 5.3955 0 0 0
1157 2 25.179 10.791 32.373 0 0 0
1501 2 21.582 7.194 17.985 0 0 0
3967 2 0.0 28.776 10.791 0 0 0
3197 2 7.194 14.388 32.373 0 0 0
3228 2 5.3955 19.7835 21.582 0 0 0
1577 2 21.582 14.388 14.388 0 0 0
1746 2 21.582 30.5745 23.3805 0 0 0
1631 2 19.7835 17.985 26.9775 0 0 0
2600 2 12.5895 34.1715 32.373 0 0 0
1425 2 21.582 0.0 21.582 0 0 0
192 2 34.1715 34.1715 17.985 0 0 0
872 2 26.9775 23.3805 25.179 0 0 0
2604 2 8.9925 1.7985 0.0 0 0 0
3486 2 3.597 8.9925 5.3955 0 0 0
3322 2 7.194 30.5745 1.7985 0 0 0
3308 2 5.3955 26.9775 21.582 0 0 0
605 2 28.776 0.0 3.597 0 0 0
3139 2 5.3955 10.791 16.1865 0 0 0
818 2 28.776 19.7835 16.1865 0 0 0
2601 2 10.791 0.0 0.0 0 0 0
1741 2 21.582 28.776 17.985 0 0 0
208 2 30.5745 1.7985 3.597 0 0 0
1378 2 25.179 34.1715 16.1865 0 0 0
3306 2 7.194 26.9775 23.3805 0 0 0
1836 2 16.1865 1.7985 28.776 0 0 0
336 2 30.5745 12.5895 10.791 0 0 0
272 2 30.5745 5.3955 25.179 0 0 0
763 2 26.9775 14.388 1.7985 0 0 0
3776 2 1.7985 34.1715 10.791 0 0 0
1774 2 21.582 34.1715 12.5895 0 0 0
2897 2 10.791 25.179 14.388 0 0 0
1131 2 23.3805 10.791 8.9925 0 0 0
991 2 26.9775 32.373 26.9775 0 0 0
3838 2 0.0 5.3955 30.5745 0 0 0
581 2 32.373 32.373 17.985 0 0 0
19 2 34.1715 0.0 34.1715 0 0 0
752 2 26.9775 12.5895 25.179 0 0 0
3663 2 1.7985 21.582 19.7835 0 0 0
1779 2 19.7835 32.373 16.1865 0 0 0
774 2 28.776 16.1865 12.5895 0 0 0
1905 2 17.985 7.194 21.582 0 0 0
434 2 32.373 19.7835 30.5745 0 0 0
2481 2 14.388 25.179 0.0 0 0 0
1666 2 21.582 23.3805 23.3805 0 0 0
871 2 26.9775 21.582 26.9775 0 0 0
276 2 30.5745 5.3955 28.776 0 0 0
2405 2 14.388 17.985 3.597 0 0 0
1890 2 17.985 8.9925 8.9925 0 0 0
3873 2 0.0 10.791 21.582 0 0 0
746 2 28.776 12.5895 23.3805 0 0 0
3659 2 1.7985 21.582 16.1865 0 0 0
320 2 30.5745 8.9925 32.373 0 0 0
2479 2 12.5895 21.582 34.1715 0 0 0
324 2 30.5745 12.5895 0.0 0 0 0
1256 2 23.3805 23.3805 10.791 0 0 0
2076 2 16.1865 23.3805 28.776 0 0 0
1484 2 19.7835 8.9925 0.0 0 0 0
3837 2 0.0 3.597 28.776 0 0 0
1643 2 19.7835 21.582 1.7985 0 0 0
711 2 26.9775 7.194 26.9775 0 0 0
2027 2 16.1865 17.985 23.3805 0 0 0
824 2 26.9775 19.7835 17.985 0 0 0
1237 2 25.179 17.985 32.373 0 0 0
728 2 26.9775 12.5895 3.597 0 0 0
3298 2 7.194 26.9775 16.1865 0 0 0
2204 2 12.5895 1.7985 0.0 0 0 0
385 2 32.373 14.388 21.582 0 0 0
2062 2 17.985 23.3805 19.7835 0 0 0
1851 2 16.1865 3.597 8.9925 0 0 0
3331 2 5.3955 28.776 8.9925 0 0 0
118 2 34.1715 19.7835 28.776 0 0 0
1957 2 17.985 10.791 32.373 0 0 0
3737 2 3.597 28.776 14.388 0 0 0
791 2 26.9775 14.388 26.9775 0 0 0
3831 2 0.0 3.597 17.985 0 0 0
1027 2 23.3805 0.0 23.3805 0 0 0
2588 2 12.5895 34.1715 21.582 0 0 0
2672 2 8.9925 5.3955 25.179 0 0 0
2654 2 10.791 5.3955 12.5895 0 0 0
2257 2 14.388 3.597 14.388 0 0 0
764 2 26.9775 16.1865 0.0 0 0 0
3542 2 3.597 12.5895 19.7835 0 0 0
3488 2 1.7985 8.9925 3.597 0 0 0
2452 2 12.5895 23.3805 7.194 0 0 0
3152 2 5.3955 12.5895 25.179 0 0 0
667 2 26.9775 3.597 23.3805 0 0 0
2889 2 10.791 25.179 7.194 0 0 0
2544 2 12.5895 30.5745 17.985 0 0 0
2859 2 8.9925 21.582 16.1865 0 0 0
2332 2 12.5895 12.5895 7.194 0 0 0
796 2 26.9775 16.1865 28.776 0 0 0
1596 2 19.7835 16.1865 28.776 0 0 0
618 2 28.776 1.7985 16.1865 0 0 0
3088 2 5.3955 8.9925 3.597 0 0 0
468 2 30.5745 23.3805 21.582 0 0 0
237 2 32.373 0.0 32.373 0 0 0
1850 2 17.985 5.3955 8.9925 0 0 0
708 2 26.9775 8.9925 21.582 0 0 0
2419 2 12.5895 17.985 16.1865 0 0 0
2715 2 8.9925 7.194 30.5745 0 0 0
3587 2 1.7985 14.388 23.3805 0 0 0
2461 2 14.388 21.582 17.985 0 0 0
565 2 32.373 32.373 3.597 0 0 0
1350 2 25.179 30.5745 26.9775 0 0 0
2500 2 12.5895 26.9775 14.388 0 0 0
3648 2 1.7985 23.3805 3.597 0 0 0
3109 2 7.194 7.194 25.179 0 0 0
2277 2 14.388 3.597 32.373 0 0 0
2787 2 8.9925 14.388 23.3805 0 0 0
1654 2 21.582 23.3805 12.5895 0 0 0
3329 2 7.194 28.776 7.194 0 0 0
3364 2 5.3955 34.1715 0.0 0 0 0
3216 2 5.3955 19.7835 10.791 0 0 0
1797 2 21.582 32.373 32.373 0 0 0
3699 2 1.7985 25.179 16.1865 0 0 0
805 2 28.776 17.985 3.597 0 0 0
2707 2 8.9925 7.194 23.3805 0 0 0
2276 2 12.5895 5.3955 28.776 0 0 0
3368 2 5.3955 34.1715 3.597 0 0 0
707 2 26.9775 7.194 23.3805 0 0 0
854 2 28.776 23.3805 12.5895 0 0 0
2372 2 12.5895 16.1865 7.194 0 0 0
3384 2 5.3955 34.1715 17.985 0 0 0
2120 2 16.1865 26.9775 32.373 0 0 0
2846 2 10.791 23.3805 5.3955 0 0 0
1260 2 23.3805 23.3805 14.388 0 0 0
1305 2 25.179 25.179 21.582 0 0 0
3450 2 3.597 5.3955 8.9925 0 0 0
901 2 28.776 25.179 17.985 0 0 0
2689 2 10.791 7.194 7.194 0 0 0
391 2 30.5745 14.388 26.9775 0 0 0
931 2 26.9775 28.776 8.9925 0 0 0
29 2 34.1715 3.597 16.1865 0 0 0
2389 2 14.388 14.388 25.179 0 0 0
2656 2 8.9925 5.3955 10.791 0 0 0
462 2 32.373 23.3805 19.7835 0 0 0
638 2 28.776 1.7985 34.1715 0 0 0
3968 2 0.0 30.5745 12.5895 0 0 0
826 2 28.776 19.7835 23.3805 0 0 0
1513 2 21.582 7.194 28.776 0 0 0
2359 2 12.5895 10.791 34.1715 0 0 0
493 2 32.373 25.179 10.791 0 0 0
1247 2 23.3805 21.582 5.3955 0 0 0
1502 2 21.582 8.9925 19.7835 0 0 0
222 2 32.373 1.7985 19.7835 0 0 0
2216 2 12.5895 1.7985 10.791 0 0 0
775 2 26.9775 14.388 12.5895 0 0 0
1044 2 23.3805 5.3955 0.0 0 0 0
1706 2 21.582 26.9775 23.3805 0 0 0
1584 2 19.7835 16.1865 17.985 0 0 0
3175 2 5.3955 14.388 12.5895 0 0 0
2246 2 14.388 5.3955 5.3955 0 0 0
2766 2 10.791 16.1865 5.3955 0 0 0
2826 2 10.791 19.7835 23.3805 0 0 0
2538 2 14.388 30.5745 16.1865 0 0 0
3493 2 3.597 7.194 10.791 0 0 0
1240 2 23.3805 19.7835 32.373 0 0 0
1034 2 25.179 1.7985 30.5745 0 0 0
3046 2 7.194 5.3955 5.3955 0 0 0
200 2 34.1715 34.1715 32.373 0 0 0
1063 2 23.3805 3.597 19.7835 0 0 0
1282 2 25.179 26.9775 1.7985 0 0 0
2760 2 8.9925 12.5895 32.373 0 0 0
3633 2 3.597 17.985 28.776 0 0 0
1795 2 19.7835 32.373 30.5745 0 0 0
1511 2 19.7835 7.194 26.9775 0 0 0
3035 2 5.3955 0.0 30.5745 0 0 0
1261 2 25.179 21.582 17.985 0 0 0
737 2 28.776 10.791 14.388 0 0 0
437 2 32.373 17.985 32.373 0 0 0
1960 2 16.1865 12.5895 32.373 0 0 0
1842 2 17.985 5.3955 1.7985 0 0 0
2746 2 10.791 12.5895 23.3805 0 0 0
3926 2 0.0 23.3805 8.9925 0 0 0
1381 2 25.179 32.373 17.985 0 0 0
3497 2 3.597 7.194 14.388 0 0 0
990 2 28.776 34.1715 26.9775 0 0 0
404 2 30.5745 19.7835 0.0 0 0 0
502 2 32.373 26.9775 19.7835 0 0 0
315 2 30.5745 7.194 30.5745 0 0 0
1079 2 23.3805 3.597 34.1715 0 0 0
911 2 26.9775 25.179 26.9775 0 0 0
3377 2 7.194 32.373 14.388 0 0 0
3617 2 3.597 17.985 14.388 0 0 0
3933 2 0.0 21.582 21.582 0 0 0
675 2 26.9775 3.597 30.5745 0 0 0
2115 2 16.1865 25.179 30.5745 0 0 0
1057 2 25.179 3.597 14.388 0 0 0
2441 2 14.388 21.582 0.0 0 0 0
3057 2 7.194 3.597 14.388 0 0 0
1186 2 25.179 16.1865 23.3805 0 0 0
1250 2 25.179 23.3805 8.9925 0 0 0
2590 2 14.388 34.1715 26.9775 0 0 0
926 2 28.776 30.5745 5.3955 0 0 0
3047 2 5.3955 3.597 5.3955 0 0 0
2940 2 8.9925 30.5745 14.388 0 0 0
2724 2 8.9925 12.5895 0.0 0 0 0
1840 2 16.1865 1.7985 32.373 0 0 0
2993 2 10.791 32.373 28.776 0 0 0
2677 2 10.791 3.597 32.373 0 0 0
3718 2 3.597 26.9775 34.1715 0 0 0
2623 2 8.9925 0.0 19.7835 0 0 0
2941 2 10.791 28.776 17.985 0 0 0
139 2 34.1715 21.582 34.1715 0 0 0
1191 2 23.3805 14.388 26.9775 0 0 0
1411 2 19.7835 0.0 8.9925 0 0 0
3792 2 1.7985 34.1715 25.179 0 0 0
2433 2 14.388 17.985 28.776 0 0 0
2836 2 8.9925 19.7835 28.776 0 0 0
251 2 30.5745 3.597 8.9925 0 0 0
2473 2 14.388 21.582 28.776 0 0 0
3095 2 5.3955 7.194 12.5895 0 0 0
1583 2 19.7835 14.388 19.7835 0 0 0
3581 2 3.597 14.388 17.985 0 0 0
3041 2 7.194 3.597 0.0 0 0 0
634 2 28.776 1.7985 30.5745 0 0 0
1442 2 21.582 5.3955 1.7985 0 0 0
542 2 32.373 30.5745 19.7835 0 0 0
563 2 30.5745 32.373 1.7985 0 0 0
704 2 26.9775 8.9925 17.985 0 0 0
1200 2 23.3805 16.1865 32.373 0 0 0
2065 2 17.985 21.582 21.582 0 0 0
129 2 34.1715 21.582 16.1865 0 0 0
1607 2 19.7835 17.985 5.3955 0 0 0
3738 2 3.597 30.5745 16.1865 0 0 0
2112 2 16.1865 26.9775 25.179 0 0 0
2298 2 14.388 8.9925 16.1865 0 0 0
3899 2 0.0 14.388 32.373 0 0 0
1172 2 23.3805 16.1865 7.194 0 0 0
3630 2 3.597 19.7835 26.9775 0 0 0
3235 2 5.3955 17.985 30.5745 0 0 0
2843 2 8.9925 21.582 1.7985 0 0 0
1354 2 25.179 30.5745 30.5745 0 0 0
2775 2 8.9925 14.388 12.5895 0 0 0
550 2 32.373 30.5745 26.9775 0 0 0
1142 2 25.179 12.5895 19.7835 0 0 0
2732 2 8.9925 12.5895 7.194 0 0 0
3499 2 1.7985 7.194 16.1865 0 0 0
3860 2 0.0 8.9925 34.1715 0 0 0
3647 2 1.7985 21.582 5.3955 0 0 0
3691 2 1.7985 25.179 8.9925 0 0 0
3444 2 1.7985 5.3955 0.0 0 0 0
1598 2 21.582 16.1865 34.1715 0 0 0
1406 2 21.582 1.7985 5.3955 0 0 0
1581 2 21.582 14.388 17.985 0 0 0
3429 2 3.597 0.0 25.179 0 0 0
2709 2 10.791 7.194 25.179 0 0 0
2104 2 16.1865 26.9775 17.985 0 0 0
2688 2 8.9925 8.9925 3.597 0 0 0
585 2 32.373 32.373 21.582 0 0 0
337 2 32.373 10.791 14.388 0 0 0
1833 2 17.985 0.0 28.776 0 0 0
1334 2 25.179 30.5745 12.5895 0 0 0
361 2 32.373 14.388 0.0 0 0 0
3783 2 1.7985 32.373 19.7835 0 0 0
248 2 30.5745 5.3955 3.597 0 0 0
3660 2 1.7985 23.3805 14.388 0 0 0
2635 2 8.9925 0.0 30.5745 0 0 0
1205 2 25.179 17.985 3.597 0 0 0
3373 2 7.194 32.373 10.791 0 0 0
2429 2 14.388 17.985 25.179 0 0 0
2400 2 12.5895 16.1865 32.373 0 0 0
70 2 34.1715 12.5895 14.388 0 0 0
3485 2 3.597 7.194 3.597 0 0 0
736 2 26.9775 12.5895 10.791 0 0 0
1765 2 21.582 32.373 3.597 0 0 0
3252 2 5.3955 23.3805 7.194 0 0 0
3281 2 7.194 25.179 0.0 0 0 0
520 2 30.5745 26.9775 32.373 0 0 0
1190 2 25.179 16.1865 26.9775 0 0 0
1311 2 23.3805 25.179 26.9775 0 0 0
907 2 26.9775 25.179 23.3805 0 0 0
2621 2 10.791 0.0 17.985 0 0 0
2382 2 14.388 16.1865 19.7835 0 0 0
1939 2 16.1865 10.791 16.1865 0 0 0
2040 2 16.1865 19.7835 32.373 0 0 0
919 2 26.9775 25.179 34.1715 0 0 0
3978 2 0.0 30.5745 30.5745 0 0 0
1114 2 25.179 8.9925 30.5745 0 0 0
3575 2 1.7985 14.388 12.5895 0 0 0
2137 2 17.985 28.776 14.388 0 0 0
3280 2 5.3955 23.3805 32.373 0 0 0
275 2 30.5745 3.597 30.5745 0 0 0
375 2 30.5745 14.388 12.5895 0 0 0
2527 2 12.5895 28.776 5.3955 0 0 0
3645 2 3.597 21.582 3.597 0 0 0
1417 2 21.582 0.0 14.388 0 0 0
349 2 32.373 10.791 25.179 0 0 0
2061 2 17.985 21.582 17.985 0 0 0
1515 2 19.7835 7.194 30.5745 0 0 0
1560 2 19.7835 12.5895 32.373 0 0 0
965 2 28.776 32.373 3.597 0 0 0
3878 2 0.0 12.5895 30.5745 0 0 0
1934 2 17.985 12.5895 12.5895 0 0 0
2587 2 12.5895 32.373 23.3805 0 0 0
2569 2 14.388 32.373 7.194 0 0 0
2244 2 12.5895 5.3955 0.0 0 0 0
2101 2 17.985 25.179 17.985 0 0 0
2999 2 8.9925 32.373 34.1715 0 0 0
2268 2 12.5895 5.3955 21.582 0 0 0
3160 2 5.3955 12.5895 32.373 0 0 0
444 2 30.5745 23.3805 0.0 0 0 0
112 2 34.1715 19.7835 17.985 0 0 0
2873 2 10.791 21.582 28.776 0 0 0
474 2 32.373 23.3805 30.5745 0 0 0
2706 2 10.791 8.9925 23.3805 0 0 0
3700 2 1.7985 26.9775 14.388 0 0 0
596 2 30.5745 34.1715 28.776 0 0 0
2181 2 17.985 32.373 17.985 0 0 0
3326 2 7.194 30.5745 5.3955 0 0 0
2117 2 17.985 25.179 32.373 0 0 0
3512 2 1.7985 8.9925 25.179 0 0 0
1323 2 23.3805 28.776 1.7985 0 0 0
2667 2 8.9925 3.597 23.3805 0 0 0
3343 2 5.3955 28.776 19.7835 0 0 0
2882 2 10.791 26.9775 1.7985 0 0 0
1544 2 19.7835 12.5895 17.985 0 0 0
1737 2 21.582 28.776 14.388 0 0 0
3482 2 3.597 8.9925 1.7985 0 0 0
682 2 28.776 8.9925 1.7985 0 0 0
3954 2 0.0 26.9775 23.3805 0 0 0
1254 2 25.179 23.3805 12.5895 0 0 0
515 2 30.5745 25.179 30.5745 0 0 0
152 2 34.1715 26.9775 17.985 0 0 0
2586 2 14.388 34.1715 23.3805 0 0 0
3018 2 7.194 1.7985 16.1865 0 0 0
702 2 28.776 8.9925 19.7835 0 0 0
2179 2 16.1865 32.373 16.1865 0 0 0
1017 2 25.179 0.0 14.388 0 0 0
3580 2 1.7985 16.1865 14.388 0 0 0
1471 2 19.7835 3.597 26.9775 0 0 0
788 2 26.9775 16.1865 21.582 0 0 0
2376 2 12.5895 16.1865 10.791 0 0 0
1892 2 16.1865 8.9925 7.194 0 0 0
3410 2 3.597 1.7985 8.9925 0 0 0
3559 2 1.7985 10.791 34.1715 0 0 0
173 2 34.1715 28.776 23.3805 0 0 0
1780 2 19.7835 34.1715 14.388 0 0 0
1366 2 25.179 34.1715 5.3955 0 0 0
2302 2 14.388 8.9925 19.7835 0 0 0
773 2 28.776 14.388 10.791 0 0 0
66 2 34.1715 12.5895 7.194 0 0 0
1803 2 16.1865 0.0 1.7985 0 0 0
3279 2 5.3955 21.582 34.1715 0 0 0
2427 2 12.5895 17.985 23.3805 0 0 0
3715 2 1.7985 25.179 30.5745 0 0 0
3668 2 1.7985 23.3805 21.582 0 0 0
3110 2 7.194 8.9925 26.9775 0 0 0
1644 2 19.7835 23.3805 0.0 0 0 0
199 2 34.1715 32.373 34.1715 0 0 0
3093 2 7.194 7.194 10.791 0 0 0
3782 2 3.597 34.1715 19.7835 0 0 0
802 2 28.776 19.7835 1.7985 0 0 0
1304 2 23.3805 26.9775 17.985 0 0 0
3704 2 1.7985 26.9775 17.985 0 0 0
3313 2 7.194 25.179 28.776 0 0 0
456 2 30.5745 23.3805 10.791 0 0 0
578 2 32.373 34.1715 16.1865 0 0 0
2180 2 16.1865 34.1715 14.388 0 0 0
1373 2 25.179 32.373 10.791 0 0 0
665 2 28.776 3.597 21.582 0 0 0
3288 2 5.3955 26.9775 3.597 0 0 0
642 2 28.776 5.3955 1.7985 0 0 0
2513 2 14.388 25.179 28.776 0 0 0
1672 2 19.7835 23.3805 25.179 0 0 0
1883 2 16.1865 7.194 1.7985 0 0 0
3596 2 1.7985 16.1865 28.776 0 0 0
1313 2 25.179 25.179 28.776 0 0 0
392 2 30.5745 16.1865 25.179 0 0 0
1978 2 17.985 16.1865 16.1865 0 0 0
3534 2 3.597 12.5895 12.5895 0 0 0
3919 2 0.0 17.985 32.373 0 0 0
1601 2 21.582 17.985 0.0 0 0 0
3137 2 7.194 10.791 14.388 0 0 0
3230 2 7.194 19.7835 26.9775 0 0 0
3598 2 3.597 16.1865 34.1715 0 0 0
285 2 32.373 7.194 3.597 0 0 0
3905 2 0.0 17.985 7.194 0 0 0
548 2 30.5745 30.5745 21.582 0 0 0
3724 2 1.7985 30.5745 0.0 0 0 0
1330 2 25.179 30.5745 8.9925 0 0 0
3148 2 5.3955 12.5895 21.582 0 0 0
3822 2 0.0 5.3955 1.7985 0 0 0
3558 2 3.597 12.5895 34.1715 0 0 0
1061 2 25.179 3.597 17.985 0 0 0
2187 2 16.1865 32.373 23.3805 0 0 0
643 2 26.9775 3.597 1.7985 0 0 0
34 2 34.1715 5.3955 21.582 0 0 0
2007 2 16.1865 17.985 5.3955 0 0 0
3134 2 7.194 12.5895 12.5895 0 0 0
450 2 32.373 23.3805 8.9925 0 0 0
693 2 28.776 7.194 10.791 0 0 0
3739 2 1.7985 28.776 16.1865 0 0 0
1408 2 19.7835 1.7985 3.597 0 0 0
2756 2 8.9925 12.5895 28.776 0 0 0
3820 2 0.0 1.7985 34.1715 0 0 0
439 2 30.5745 17.985 34.1715 0 0 0
1194 2 25.179 16.1865 30.5745 0 0 0
603 2 26.9775 0.0 1.7985 0 0 0
1955 2 16.1865 10.791 30.5745 0 0 0
3811 2 0.0 0.0 17.985 0 0 0
136 2 34.1715 23.3805 25.179 0 0 0
1759 2 19.7835 28.776 34.1715 0 0 0
749 2 28.776 10.791 25.179 0 0 0
943 2 26.9775 28.776 19.7835 0 0 0
2786 2 10.791 16.1865 23.3805 0 0 0
3491 2 1.7985 7.194 8.9925 0 0 0
876 2 26.9775 23.3805 28.776 0 0 0
3505 2 3.597 7.194 21.582 0 0 0
2368 2 12.5895 16.1865 3.597 0 0 0
3960 2 0.0 26.9775 34.1715 0 0 0
1926 2 17.985 12.5895 5.3955 0 0 0
3318 2 7.194 26.9775 34.1715 0 0 0
1652 2 19.7835 23.3805 7.194 0 0 0
3815 2 0.0 0.0 25.179 0 0 0
996 2 26.9775 34.1715 28.776 0 0 0
3188 2 5.3955 16.1865 21.582 0 0 0
3511 2 1.7985 7.194 26.9775 0 0 0
1107 2 23.3805 7.194 23.3805 0 0 0
338 2 32.373 12.5895 16.1865 0 0 0
1647 2 19.7835 21.582 5.3955 0 0 0
1547 2 19.7835 10.791 23.3805 0 0 0
3740 2 1.7985 30.5745 14.388 0 0 0
2460 2 12.5895 23.3805 14.388 0 0 0
855 2 26.9775 21.582 12.5895 0 0 0
250 2 32.373 5.3955 8.9925 0 0 0
3836 2 0.0 5.3955 26.9775 0 0 0
3996 2 0.0 34.1715 26.9775 0 0 0
612 2 26.9775 1.7985 7.194 0 0 0
3946 2 0.0 26.9775 8.9925 0 0 0
3594 2 3.597 16.1865 30.5745 0 0 0
1006 2 25.179 1.7985 5.3955 0 0 0
2069 2 17.985 21.582 25.179 0 0 0
862 2 28.776 23.3805 19.7835 0 0 0
1053 2 25.179 3.597 10.791 0 0 0
685 2 28.776 7.194 3.597 0 0 0
1238 2 25.179 19.7835 34.1715 0 0 0
489 2 32.373 25.179 7.194 0 0 0
1062 2 25.179 5.3955 19.7835 0 0 0
997 2 28.776 32.373 32.373 0 0 0
1615 2 19.7835 17.985 12.5895 0 0 0
2729 2 10.791 10.791 7.194 0 0 0
1026 2 25.179 1.7985 23.3805 0 0 0
1870 2 17.985 5.3955 26.9775 0 0 0
1982 2 17.985 16.1865 19.7835 0 0 0
698 2 28.776 8.9925 16.1865 0 0 0
2045 2 17.985 21.582 3.597 0 0 0
3135 2 5.3955 10.791 12.5895 0 0 0
2950 2 10.791 30.5745 26.9775 0 0 0
1620 2 19.7835 19.7835 14.388 0 0 0
1351 2 23.3805 28.776 26.9775 0 0 0
3071 2 5.3955 3.597 26.9775 0 0 0
3530 2 3.597 12.5895 8.9925 0 0 0
2416 2 12.5895 19.7835 10.791 0 0 0
2945 2 10.791 28.776 21.582 0 0 0
1181 2 25.179 14.388 17.985 0 0 0
3242 2 7.194 23.3805 1.7985 0 0 0
1852 2 16.1865 5.3955 7.194 0 0 0
384 2 30.5745 16.1865 17.985 0 0 0
421 2 32.373 17.985 17.985 0 0 0
2486 2 14.388 26.9775 5.3955 0 0 0
1943 2 16.1865 10.791 19.7835 0 0 0
2485 2 14.388 25.179 3.597 0 0 0
3464 2 1.7985 5.3955 17.985 0 0 0
1964 2 16.1865 16.1865 0.0 0 0 0
193 2 34.1715 32.373 23.3805 0 0 0
3887 2 0.0 14.388 10.791 0 0 0
2081 2 17.985 25.179 0.0 0 0 0
1655 2 19.7835 21.582 12.5895 0 0 0
44 2 34.1715 8.9925 3.597 0 0 0
2125 2 17.985 28.776 3.597 0 0 0
1293 2 25.179 25.179 10.791 0 0 0
543 2 30.5745 28.776 19.7835 0 0 0
963 2 26.9775 32.373 1.7985 0 0 0
1272 2 23.3805 23.3805 25.179 0 0 0
1112 2 23.3805 8.9925 25.179 0 0 0
3020 2 5.3955 1.7985 14.388 0 0 0
3496 2 1.7985 8.9925 10.791 0 0 0
1772 2 19.7835 34.1715 7.194 0 0 0
3958 2 0.0 26.9775 30.5745 0 0 0
1685 2 21.582 25.179 3.597 0 0 0
2675 2 8.9925 3.597 30.5745 0 0 0
1400 2 23.3805 34.1715 32.373 0 0 0
2575 2 12.5895 32.373 12.5895 0 0 0
887 2 26.9775 25.179 5.3955 0 0 0
1745 2 21.582 28.776 21.582 0 0 0
2863 2 8.9925 21.582 19.7835 0 0 0
2041 2 17.985 21.582 0.0 0 0 0
1457 2 21.582 3.597 14.388 0 0 0
564 2 30.5745 34.1715 0.0 0 0 0
2440 2 12.5895 19.7835 32.373 0 0 0
2581 2 14.388 32.373 17.985 0 0 0
177 2 34.1715 28.776 30.5745 0 0 0
73 2 34.1715 10.791 23.3805 0 0 0
3684 2 1.7985 26.9775 0.0 0 0 0
2874 2 10.791 23.3805 30.5745 0 0 0
3717 2 3.597 25.179 32.373 0 0 0
2198 2 17.985 34.1715 34.1715 0 0 0
452 2 30.5745 23.3805 7.194 0 0 0
1676 2 19.7835 23.3805 28.776 0 0 0
975 2 26.9775 32.373 12.5895 0 0 0
2842 2 10.791 23.3805 1.7985 0 0 0
2650 2 10.791 5.3955 8.9925 0 0 0
3223 2 5.3955 17.985 19.7835 0 0 0
3545 2 3.597 10.791 21.582 0 0 0
2948 2 8.9925 30.5745 21.582 0 0 0
2363 2 12.5895 14.388 1.7985 0 0 0
3752 2 1.7985 30.5745 25.179 0 0 0
9 2 34.1715 0.0 16.1865 0 0 0
1403 2 19.7835 0.0 1.7985 0 0 0
60 2 34.1715 8.9925 32.373 0 0 0
1320 2 23.3805 26.9775 32.373 0 0 0
3802 2 0.0 1.7985 1.7985 0 0 0
2875 2 8.9925 21.582 30.5745 0 0 0
2050 2 17.985 23.3805 8.9925 0 0 0
1021 2 25.179 0.0 17.985 0 0 0
2063 2 16.1865 21.582 19.7835 0 0 0
3839 2 0.0 3.597 32.373 0 0 0
1348 2 23.3805 30.5745 21.582 0 0 0
1043 2 23.3805 3.597 1.7985 0 0 0
1176 2 23.3805 16.1865 10.791 0 0 0
896 2 26.9775 26.9775 10.791 0 0 0
1039 2 23.3805 0.0 34.1715 0 0 0
296 2 30.5745 8.9925 10.791 0 0 0
2831 2 8.9925 17.985 26.9775 0 0 0
3861 2 0.0 10.791 0.0 0 0 0
3372 2 5.3955 34.1715 7.194 0 0 0
2991 2 8.9925 32.373 26.9775 0 0 0
680 2 26.9775 5.3955 32.373 0 0 0
1286 2 25.179 26.9775 5.3955 0 0 0
1270 2 25.179 23.3805 26.9775 0 0 0
3656 2 1.7985 23.3805 10.791 0 0 0
859 2 26.9775 21.582 16.1865 0 0 0
167 2 34.1715 28.776 12.5895 0 0 0
3835 2 0.0 3.597 25.179 0 0 0
403 2 30.5745 17.985 1.7985 0 0 0
1308 2 23.3805 26.9775 21.582 0 0 0
3975 2 0.0 28.776 25.179 0 0 0
1302 2 25.179 26.9775 19.7835 0 0 0
479 2 30.5745 21.582 34.1715 0 0 0
1327 2 23.3805 28.776 5.3955 0 0 0
892 2 26.9775 26.9775 7.194 0 0 0
3943 2 0.0 25.179 3.597 0 0 0
2693 2 10.791 7.194 10.791 0 0 0
2560 2 12.5895 30.5745 32.373 0 0 0
1242 2 25.179 23.3805 1.7985 0 0 0
2495 2 12.5895 25.179 12.5895 0 0 0
100 2 34.1715 16.1865 32.373 0 0 0
2779 2 8.9925 14.388 16.1865 0 0 0
1185 2 25.179 14.388 21.582 0 0 0
922 2 28.776 30.5745 1.7985 0 0 0
3689 2 3.597 25.179 7.194 0 0 0
2841 2 10.791 21.582 0.0 0 0 0
386 2 32.373 16.1865 23.3805 0 0 0
2428 2 12.5895 19.7835 21.582 0 0 0
26 2 34.1715 5.3955 7.194 0 0 0
2047 2 16.1865 21.582 5.3955 0 0 0
2759 2 8.9925 10.791 34.1715 0 0 0
3991 2 0.0 32.373 17.985 0 0 0
3162 2 7.194 16.1865 1.7985 0 0 0
1876 2 16.1865 5.3955 28.776 0 0 0
88 2 34.1715 16.1865 10.791 0 0 0
3311 2 5.3955 25.179 26.9775 0 0 0
3599 2 1.7985 14.388 34.1715 0 0 0
2947 2 8.9925 28.776 23.3805 0 0 0
3844 2 0.0 8.9925 5.3955 0 0 0
2565 2 14.388 32.373 3.597 0 0 0
1246 2 25.179 23.3805 5.3955 0 0 0
3049 2 7.194 3.597 7.194 0 0 0
1519 2 19.7835 7.194 34.1715 0 0 0
3502 2 3.597 8.9925 19.7835 0 0 0
3841 2 0.0 7.194 0.0 0 0 0
3610 2 3.597 19.7835 8.9925 0 0 0
2091 2 16.1865 25.179 8.9925 0 0 0
458 2 32.373 23.3805 16.1865 0 0 0
2243 2 12.5895 3.597 1.7985 0 0 0
1879 2 16.1865 3.597 34.1715 0 0 0
2717 2 10.791 7.194 32.373 0 0 0
2090 2 17.985 26.9775 8.9925 0 0 0
1589 2 21.582 14.388 25.179 0 0 0
2078 2 17.985 23.3805 34.1715 0 0 0
780 2 26.9775 16.1865 14.388 0 0 0
1813 2 17.985 0.0 10.791 0 0 0
3560 2 1.7985 12.5895 32.373 0 0 0
1680 2 19.7835 23.3805 32.373 0 0 0
3810 2 0.0 1.7985 16.1865 0 0 0
1318 2 25.179 26.9775 34.1715 0 0 0
351 2 30.5745 10.791 26.9775 0 0 0
558 2 32.373 30.5745 34.1715 0 0 0
1264 2 23.3805 23.3805 17.985 0 0 0
1837 2 17.985 0.0 32.373 0 0 0
1007 2 23.3805 0.0 5.3955 0 0 0
1849 2 17.985 3.597 7.194 0 0 0
3305 2 7.194 25.179 21.582 0 0 0
1368 2 23.3805 34.1715 3.597 0 0 0
3834 2 0.0 5.3955 23.3805 0 0 0
3583 2 1.7985 14.388 19.7835 0 0 0
1150 2 25.179 12.5895 26.9775 0 0 0
3540 2 1.7985 12.5895 14.388 0 0 0
406 2 32.373 19.7835 5.3955 0 0 0
894 2 28.776 26.9775 12.5895 0 0 0
2911 2 8.9925 25.179 26.9775 0 0 0
3793 2 3.597 32.373 28.776 0 0 0
2232 2 12.5895 1.7985 25.179 0 0 0
950 2 28.776 30.5745 26.9775 0 0 0
2979 2 8.9925 32.373 16.1865 0 0 0
1367 2 23.3805 32.373 5.3955 0 0 0
2751 2 8.9925 10.791 26.9775 0 0 0
2201 2 14.388 0.0 0.0 0 0 0
1055 2 23.3805 3.597 12.5895 0 0 0
3349 2 7.194 28.776 25.179 0 0 0
1392 2 23.3805 34.1715 25.179 0 0 0
3419 2 1.7985 0.0 16.1865 0 0 0
145 2 34.1715 25.179 8.9925 0 0 0
233 2 32.373 0.0 28.776 0 0 0
2177 2 17.985 32.373 14.388 0 0 0
300 2 30.5745 8.9925 14.388 0 0 0
2153 2 17.985 28.776 28.776 0 0 0
1459 2 19.7835 3.597 16.1865 0 0 0
3701 2 3.597 25.179 17.985 0 0 0
1878 2 17.985 5.3955 34.1715 0 0 0
1834 2 17.985 1.7985 30.5745 0 0 0
1439 2 19.7835 0.0 34.1715 0 0 0
954 2 28.776 30.5745 30.5745 0 0 0
819 2 26.9775 17.985 16.1865 0 0 0
2542 2 14.388 30.5745 19.7835 0 0 0
668 2 26.9775 5.3955 21.582 0 0 0
2800 2 8.9925 16.1865 32.373 0 0 0
3651 2 1.7985 21.582 8.9925 0 0 0
1068 2 23.3805 5.3955 21.582 0 0 0
1986 2 17.985 16.1865 23.3805 0 0 0
2523 2 12.5895 28.776 1.7985 0 0 0
1535 2 19.7835 10.791 12.5895 0 0 0
659 2 26.9775 3.597 16.1865 0 0 0
2462 2 14.388 23.3805 19.7835 0 0 0
2258 2 14.388 5.3955 16.1865 0 0 0
740 2 26.9775 12.5895 14.388 0 0 0
1790 2 21.582 34.1715 26.9775 0 0 0
2927 2 8.9925 28.776 5.3955 0 0 0
801 2 28.776 17.985 0.0 0 0 0
469 2 32.373 21.582 25.179 0 0 0
494 2 32.373 26.9775 12.5895 0 0 0
3006 2 7.194 1.7985 5.3955 0 0 0
2469 2 14.388 21.582 25.179 0 0 0
1698 2 21.582 26.9775 16.1865 0 0 0
3984 2 0.0 34.1715 5.3955 0 0 0
1538 2 21.582 12.5895 16.1865 0 0 0
127 2 34.1715 21.582 12.5895 0 0 0
717 2 28.776 7.194 32.373 0 0 0
1091 2 23.3805 7.194 8.9925 0 0 0
1944 2 16.1865 12.5895 17.985 0 0 0
1025 2 25.179 0.0 21.582 0 0 0
1148 2 23.3805 12.5895 21.582 0 0 0
2761 2 10.791 14.388 0.0 0 0 0
2595 2 12.5895 32.373 30.5745 0 0 0
2006 2 17.985 19.7835 5.3955 0 0 0
2160 2 16.1865 30.5745 32.373 0 0 0
1569 2 21.582 14.388 7.194 0 0 0
2459 2 12.5895 21.582 16.1865 0 0 0
2818 2 10.791 19.7835 16.1865 0 0 0
1391 2 23.3805 32.373 26.9775 0 0 0
1595 2 19.7835 14.388 30.5745 0 0 0
2710 2 10.791 8.9925 26.9775 0 0 0
597 2 32.373 32.373 32.373 0 0 0
1932 2 16.1865 12.5895 7.194 0 0 0
1896 2 16.1865 8.9925 10.791 0 0 0
3074 2 7.194 5.3955 30.5745 0 0 0
1791 2 19.7835 32.373 26.9775 0 0 0
3509 2 3.597 7.194 25.179 0 0 0
1575 2 19.7835 14.388 12.5895 0 0 0
2293 2 14.388 7.194 10.791 0 0 0
333 2 32.373 10.791 10.791 0 0 0
1227 2 23.3805 17.985 23.3805 0 0 0
99 2 34.1715 14.388 34.1715 0 0 0
1125 2 25.179 10.791 3.597 0 0 0
2 2 34.1715 1.7985 0.0 0 0 0
175 2 34.1715 28.776 26.9775 0 0 0
949 2 28.776 28.776 25.179 0 0 0
3854 2 0.0 8.9925 23.3805 0 0 0
3728 2 1.7985 30.5745 3.597 0 0 0
1208 2 23.3805 19.7835 3.597 0 0 0
2336 2 12.5895 12.5895 10.791 0 0 0
3457 2 3.597 3.597 14.388 0 0 0
3113 2 7.194 7.194 28.776 0 0 0
3063 2 5.3955 3.597 19.7835 0 0 0
348 2 30.5745 12.5895 21.582 0 0 0
1358 2 25.179 30.5745 34.1715 0 0 0
1623 2 19.7835 17.985 19.7835 0 0 0
2762 2 10.791 16.1865 1.7985 0 0 0
508 2 30.5745 26.9775 21.582 0 0 0
557 2 32.373 28.776 32.373 0 0 0
2525 2 14.388 28.776 3.597 0 0 0
3851 2 0.0 7.194 17.985 0 0 0
2127 2 16.1865 28.776 5.3955 0 0 0
1494 2 21.582 8.9925 12.5895 0 0 0
1343 2 23.3805 28.776 19.7835 0 0 0
2921 2 10.791 28.776 0.0 0 0 0
3606 2 3.597 19.7835 5.3955 0 0 0
830 2 28.776 19.7835 26.9775 0 0 0
75 2 34.1715 10.791 26.9775 0 0 0
1052 2 23.3805 5.3955 7.194 0 0 0
3412 2 1.7985 1.7985 7.194 0 0 0
3796 2 1.7985 34.1715 28.776 0 0 0
689 2 28.776 7.194 7.194 0 0 0
3180 2 5.3955 16.1865 14.388 0 0 0
2165 2 17.985 32.373 3.597 0 0 0
3204 2 5.3955 19.7835 0.0 0 0 0
1450 2 21.582 5.3955 8.9925 0 0 0
783 2 26.9775 14.388 19.7835 0 0 0
1287 2 23.3805 25.179 5.3955 0 0 0
2166 2 17.985 34.1715 5.3955 0 0 0
3164 2 5.3955 16.1865 0.0 0 0 0
1122 2 25.179 12.5895 1.7985 0 0 0
837 2 28.776 17.985 32.373 0 0 0
1506 2 21.582 8.9925 23.3805 0 0 0
1436 2 19.7835 1.7985 28.776 0 0 0
3268 2 5.3955 23.3805 21.582 0 0 0
389 2 32.373 14.388 25.179 0 0 0
725 2 28.776 10.791 3.597 0 0 0
3261 2 7.194 21.582 17.985 0 0 0
2738 2 10.791 12.5895 16.1865 0 0 0
3458 2 3.597 5.3955 16.1865 0 0 0
3748 2 1.7985 30.5745 21.582 0 0 0
2664 2 8.9925 5.3955 17.985 0 0 0
3563 2 1.7985 14.388 1.7985 0 0 0
3470 2 3.597 5.3955 26.9775 0 0 0
1633 2 21.582 17.985 28.776 0 0 0
3629 2 3.597 17.985 25.179 0 0 0
1161 2 25.179 14.388 0.0 0 0 0
1460 2 19.7835 5.3955 14.388 0 0 0
3537 2 3.597 10.791 14.388 0 0 0
2274 2 14.388 5.3955 30.5745 0 0 0
1539 2 19.7835 10.791 16.1865 0 0 0
2437 2 14.388 17.985 32.373 0 0 0
2334 2 14.388 12.5895 12.5895 0 0 0
3552 2 1.7985 12.5895 25.179 0 0 0
552 2 30.5745 30.5745 25.179 0 0 0
77 2 34.1715 10.791 30.5745 0 0 0
1222 2 25.179 19.7835 19.7835 0 0 0
1015 2 23.3805 0.0 12.5895 0 0 0
559 2 30.5745 28.776 34.1715 0 0 0
3874 2 0.0 12.5895 23.3805 0 0 0
131 2 34.1715 21.582 19.7835 0 0 0
2526 2 14.388 30.5745 5.3955 0 0 0
1365 2 25.179 32.373 3.597 0 0 0
3902 2 0.0 19.7835 1.7985 0 0 0
1232 2 23.3805 19.7835 25.179 0 0 0
673 2 28.776 3.597 28.776 0 0 0
1184 2 23.3805 16.1865 17.985 0 0 0
1423 2 19.7835 0.0 19.7835 0 0 0
2649 2 10.791 3.597 7.194 0 0 0
1996 2 16.1865 16.1865 28.776 0 0 0
2794 2 10.791 16.1865 30.5745 0 0 0
3622 2 3.597 19.7835 19.7835 0 0 0
1924 2 16.1865 12.5895 0.0 0 0 0
3981 2 0.0 32.373 0.0 0 0 0
915 2 26.9775 25.179 30.5745 0 0 0
1704 2 19.7835 26.9775 17.985 0 0 0
657 2 28.776 3.597 14.388 0 0 0
258 2 32.373 5.3955 16.1865 0 0 0
1782 2 21.582 34.1715 19.7835 0 0 0
3770 2 3.597 34.1715 8.9925 0 0 0
2913 2 10.791 25.179 28.776 0 0 0
3163 2 5.3955 14.388 1.7985 0 0 0
2546 2 14.388 30.5745 23.3805 0 0 0
1385 2 25.179 32.373 21.582 0 0 0
3794 2 3.597 34.1715 30.5745 0 0 0
3290 2 7.194 26.9775 8.9925 0 0 0
1156 2 23.3805 12.5895 28.776 0 0 0
2134 2 17.985 30.5745 12.5895 0 0 0
3744 2 1.7985 30.5745 17.985 0 0 0
2642 2 10.791 5.3955 1.7985 0 0 0
637 2 28.776 0.0 32.373 0 0 0
1901 2 17.985 7.194 17.985 0 0 0
1121 2 25.179 10.791 0.0 0 0 0
1626 2 21.582 19.7835 23.3805 0 0 0
592 2 30.5745 34.1715 25.179 0 0 0
2816 2 8.9925 19.7835 10.791 0 0 0
517 2 32.373 25.179 32.373 0 0 0
3044 2 5.3955 5.3955 0.0 0 0 0
3028 2 5.3955 1.7985 21.582 0 0 0
2214 2 14.388 1.7985 12.5895 0 0 0
3438 2 3.597 1.7985 34.1715 0 0 0
2088 2 16.1865 26.9775 3.597 0 0 0
1947 2 16.1865 10.791 23.3805 0 0 0
1940 2 16.1865 12.5895 14.388 0 0 0
1610 2 21.582 19.7835 8.9925 0 0 0
920 2 26.9775 26.9775 32.373 0 0 0
2436 2 12.5895 19.7835 28.776 0 0 0
2255 2 12.5895 3.597 12.5895 0 0 0
1285 2 25.179 25.179 3.597 0 0 0
1548 2 19.7835 12.5895 21.582 0 0 0
712 2 26.9775 8.9925 25.179 0 0 0
3214 2 7.194 19.7835 12.5895 0 0 0
1510 2 21.582 8.9925 26.9775 0 0 0
1011 2 23.3805 0.0 8.9925 0 0 0
2453 2 14.388 21.582 10.791 0 0 0
1600 2 19.7835 16.1865 32.373 0 0 0
1443 2 19.7835 3.597 1.7985 0 0 0
435 2 30.5745 17.985 30.5745 0 0 0
2330 2 14.388 12.5895 8.9925 0 0 0
3266 2 7.194 23.3805 23.3805 0 0 0
3264 2 5.3955 23.3805 17.985 0 0 0
495 2 30.5745 25.179 12.5895 0 0 0
3957 2 0.0 25.179 28.776 0 0 0
359 2 30.5745 10.791 34.1715 0 0 0
2784 2 8.9925 16.1865 17.985 0 0 0
3710 2 3.597 26.9775 26.9775 0 0 0
11 2 34.1715 0.0 19.7835 0 0 0
3394 2 7.194 34.1715 30.5745 0 0 0
1072 2 23.3805 5.3955 25.179 0 0 0
3430 2 3.597 1.7985 26.9775 0 0 0
3556 2 1.7985 12.5895 28.776 0 0 0
529 2 32.373 28.776 7.194 0 0 0
1380 2 23.3805 34.1715 14.388 0 0 0
125 2 34.1715 21.582 8.9925 0 0 0
2001 2 17.985 17.985 0.0 0 0 0
3224 2 5.3955 19.7835 17.985 0 0 0
3646 2 3.597 23.3805 5.3955 0 0 0
1433 2 21.582 0.0 28.776 0 0 0
3089 2 7.194 7.194 7.194 0 0 0
3830 2 0.0 5.3955 16.1865 0 0 0
236 2 30.5745 1.7985 28.776 0 0 0
3259 2 5.3955 21.582 16.1865 0 0 0
3673 2 3.597 21.582 28.776 0 0 0
1554 2 21.582 12.5895 30.5745 0 0 0
2752 2 8.9925 12.5895 25.179 0 0 0
2917 2 10.791 25.179 32.373 0 0 0
3039 2 5.3955 0.0 34.1715 0 0 0
652 2 26.9775 5.3955 7.194 0 0 0
3872 2 0.0 12.5895 19.7835 0 0 0
2944 2 8.9925 30.5745 17.985 0 0 0
3221 2 7.194 17.985 17.985 0 0 0
1728 2 19.7835 30.5745 3.597 0 0 0
985 2 28.776 32.373 21.582 0 0 0
1198 2 25.179 16.1865 34.1715 0 0 0
1292 2 23.3805 26.9775 7.194 0 0 0
2554 2 14.388 30.5745 30.5745 0 0 0
974 2 28.776 34.1715 12.5895 0 0 0
1864 2 16.1865 5.3955 17.985 0 0 0
3004 2 5.3955 1.7985 0.0 0 0 0
3864 2 0.0 12.5895 5.3955 0 0 0
2021 2 17.985 17.985 17.985 0 0 0
2528 2 12.5895 30.5745 3.597 0 0 0
1447 2 19.7835 3.597 5.3955 0 0 0
2566 2 14.388 34.1715 5.3955 0 0 0
1164 2 23.3805 16.1865 0.0 0 0 0
2866 2 10.791 23.3805 23.3805 0 0 0
1153 2 25.179 10.791 28.776 0 0 0
3785 2 3.597 32.373 21.582 0 0 0
2456 2 12.5895 23.3805 10.791 0 0 0
1969 2 17.985 14.388 7.194 0 0 0
2833 2 10.791 17.985 28.776 0 0 0
2369 2 14.388 14.388 7.194 0 0 0
2272 2 12.5895 5.3955 25.179 0 0 0
3177 2 7.194 14.388 14.388 0 0 0
274 2 32.373 5.3955 30.5745 0 0 0
3155 2 5.3955 10.791 30.5745 0 0 0
1994 2 17.985 16.1865 30.5745 0 0 0
1188 2 23.3805 16.1865 21.582 0 0 0
3603 2 1.7985 17.985 1.7985 0 0 0
1356 2 23.3805 30.5745 28.776 0 0 0
745 2 28.776 10.791 21.582 0 0 0
3547 2 1.7985 10.791 23.3805 0 0 0
1109 2 25.179 7.194 25.179 0 0 0
3466 2 3.597 5.3955 23.3805 0 0 0
692 2 26.9775 8.9925 7.194 0 0 0
2928 2 8.9925 30.5745 3.597 0 0 0
2423 2 12.5895 17.985 19.7835 0 0 0
927 2 26.9775 28.776 5.3955 0 0 0
1811 2 16.1865 0.0 8.9925 0 0 0
165 2 34.1715 28.776 8.9925 0 0 0
2321 2 14.388 10.791 0.0 0 0 0
1082 2 25.179 8.9925 1.7985 0 0 0
2974 2 10.791 34.1715 12.5895 0 0 0
670 2 28.776 5.3955 26.9775 0 0 0
843 2 26.9775 21.582 1.7985 0 0 0
1935 2 16.1865 10.791 12.5895 0 0 0
504 2 30.5745 26.9775 17.985 0 0 0
706 2 28.776 8.9925 23.3805 0 0 0
2617 2 10.791 0.0 14.388 0 0 0
149 2 34.1715 25.179 16.1865 0 0 0
1656 2 19.7835 23.3805 10.791 0 0 0
1235 2 23.3805 17.985 30.5745 0 0 0
3925 2 0.0 21.582 7.194 0 0 0
2577 2 14.388 32.373 14.388 0 0 0
2556 2 12.5895 30.5745 28.776 0 0 0
2054 2 17.985 23.3805 12.5895 0 0 0
269 2 32.373 3.597 25.179 0 0 0
3002 2 7.194 1.7985 1.7985 0 0 0
411 2 30.5745 17.985 8.9925 0 0 0
3757 2 3.597 28.776 32.373 0 0 0
3052 2 5.3955 5.3955 7.194 0 0 0
3662 2 3.597 23.3805 19.7835 0 0 0
825 2 28.776 17.985 21.582 0 0 0
2492 2 12.5895 26.9775 7.194 0 0 0
2188 2 16.1865 34.1715 21.582 0 0 0
1997 2 17.985 14.388 32.373 0 0 0
750 2 28.776 12.5895 26.9775 0 0 0
1807 2 16.1865 0.0 5.3955 0 0 0
3195 2 5.3955 14.388 30.5745 0 0 0
3515 2 1.7985 7.194 30.5745 0 0 0
1679 2 19.7835 21.582 34.1715 0 0 0
908 2 26.9775 26.9775 21.582 0 0 0
679 2 26.9775 3.597 34.1715 0 0 0
3154 2 7.194 12.5895 30.5745 0 0 0
3951 2 0.0 25.179 17.985 0 0 0
3126 2 7.194 12.5895 5.3955 0 0 0
549 2 32.373 28.776 25.179 0 0 0
940 2 26.9775 30.5745 14.388 0 0 0
654 2 28.776 5.3955 12.5895 0 0 0
2824 2 8.9925 19.7835 17.985 0 0 0
1453 2 21.582 3.597 10.791 0 0 0
3040 2 5.3955 1.7985 32.373 0 0 0
64 2 34.1715 12.5895 3.597 0 0 0
1018 2 25.179 1.7985 16.1865 0 0 0
2992 2 8.9925 34.1715 25.179 0 0 0
3425 2 3.597 0.0 21.582 0 0 0
3898 3 0.0 16.1865 30.5745 0 0 0
2937 3 10.791 28.776 14.388 0 0 0
532 3 30.5745 30.5745 7.194 0 0 0
3406 3 3.597 1.7985 5.3955 0 0 0
2802 3 10.791 19.7835 1.7985 0 0 0
3890 3 0.0 16.1865 16.1865 0 0 0
2857 3 10.791 21.582 14.388 0 0 0
1882 3 17.985 8.9925 1.7985 0 0 0
442 3 32.373 23.3805 1.7985 0 0 0
1243 3 23.3805 21.582 1.7985 0 0 0
350 3 32.373 12.5895 26.9775 0 0 0
1009 3 25.179 0.0 7.194 0 0 0
2385 3 14.388 14.388 21.582 0 0 0
3443 3 1.7985 3.597 1.7985 0 0 0
3566 3 3.597 16.1865 5.3955 0 0 0
3416 3 1.7985 1.7985 10.791 0 0 0
2371 3 12.5895 14.388 8.9925 0 0 0
2195 3 16.1865 32.373 30.5745 0 0 0
1735 3 19.7835 28.776 12.5895 0 0 0
2537 3 14.388 28.776 14.388 0 0 0
3009 3 7.194 0.0 7.194 0 0 0
3590 3 3.597 16.1865 26.9775 0 0 0
3251 3 5.3955 21.582 8.9925 0 0 0
417 3 32.373 17.985 14.388 0 0 0
2128 3 16.1865 30.5745 3.597 0 0 0
1303 3 23.3805 25.179 19.7835 0 0 0
3336 3 5.3955 30.5745 10.791 0 0 0
254 3 32.373 5.3955 12.5895 0 0 0
3814 3 0.0 1.7985 23.3805 0 0 0
2290 3 14.388 8.9925 8.9925 0 0 0
583 3 30.5745 32.373 19.7835 0 0 0
1431 3 19.7835 0.0 26.9775 0 0 0
2887 3 8.9925 25.179 5.3955 0 0 0
339 3 30.5745 10.791 16.1865 0 0 0
2173 3 17.985 32.373 10.791 0 0 0
545 3 32.373 28.776 21.582 0 0 0
1295 3 23.3805 25.179 12.5895 0 0 0
664 3 26.9775 5.3955 17.985 0 0 0
2666 3 10.791 5.3955 23.3805 0 0 0
2471 3 12.5895 21.582 26.9775 0 0 0
80 3 34.1715 12.5895 32.373 0 0 0
2224 3 12.5895 1.7985 17.985 0 0 0
3146 3 7.194 12.5895 23.3805 0 0 0
3930 3 0.0 23.3805 16.1865 0 0 0
1717 3 21.582 25.179 32.373 0 0 0
823 3 26.9775 17.985 19.7835 0 0 0
3578 3 3.597 16.1865 16.1865 0 0 0
590 3 32.373 34.1715 26.9775 0 0 0
3567 3 1.7985 14.388 5.3955 0 0 0
1163 3 23.3805 14.388 1.7985 0 0 0
3132 3 5.3955 12.5895 7.194 0 0 0
2367 3 12.5895 14.388 5.3955 0 0 0
1414 3 21.582 1.7985 12.5895 0 0 0
371 3 30.5745 14.388 8.9925 0 0 0
423 3 30.5745 17.985 19.7835 0 0 0
1590 3 21.582 16.1865 26.9775 0 0 0
376 3 30.5745 16.1865 10.791 0 0 0
2502 3 14.388 26.9775 19.7835 0 0 0
3174 3 7.194 16.1865 12.5895 0 0 0
1635 3 19.7835 17.985 30.5745 0 0 0
1177 3 25.179 14.388 14.388 0 0 0
2632 3 8.9925 1.7985 25.179 0 0 0
3469 3 3.597 3.597 25.179 0 0 0
2442 3 14.388 23.3805 1.7985 0 0 0
1491 3 19.7835 7.194 8.9925 0 0 0
2387 3 12.5895 14.388 23.3805 0 0 0
2659 3 8.9925 3.597 16.1865 0 0 0
3786 3 3.597 34.1715 23.3805 0 0 0
2809 3 10.791 17.985 7.194 0 0 0
2226 3 14.388 1.7985 23.3805 0 0 0
1296 3 23.3805 26.9775 10.791 0 0 0
3422 3 3.597 1.7985 19.7835 0 0 0
1031 3 23.3805 0.0 26.9775 0 0 0
1873 3 17.985 3.597 28.776 0 0 0
798 3 28.776 16.1865 34.1715 0 0 0
481 3 32.373 25.179 0.0 0 0 0
2398 3 14.388 16.1865 34.1715 0 0 0
1432 3 19.7835 1.7985 25.179 0 0 0
3952 3 0.0 26.9775 19.7835 0 0 0
2059 3 16.1865 21.582 16.1865 0 0 0
1049 3 25.179 3.597 7.194 0 0 0
2073 3 17.985 21.582 28.776 0 0 0
1370 3 25.179 34.1715 8.9925 0 0 0
3411 3 1.7985 0.0 8.9925 0 0 0
3121 3 7.194 10.791 0.0 0 0 0
22 3 34.1715 5.3955 0.0 0 0 0
3643 3 1.7985 21.582 1.7985 0 0 0
292 3 30.5745 8.9925 7.194 0 0 0
695 3 26.9775 7.194 12.5895 0 0 0
1012 3 23.3805 1.7985 7.194 0 0 0
3506 3 3.597 8.9925 23.3805 0 0 0
972 3 26.9775 34.1715 7.194 0 0 0
3869 3 0.0 10.791 14.388 0 0 0
2865 3 10.791 21.582 21.582 0 0 0
235 3 30.5745 0.0 30.5745 0 0 0
3760 3 1.7985 30.5745 32.373 0 0 0
2997 3 10.791 32.373 32.373 0 0 0
1933 3 17.985 10.791 10.791 0 0 0
3253 3 7.194 21.582 10.791 0 0 0
1880 3 16.1865 5.3955 32.373 0 0 0
3294 3 7.194 26.9775 12.5895 0 0 0
584 3 30.5745 34.1715 17.985 0 0 0
1317 3 25.179 25.179 32.373 0 0 0
3758 3 3.597 30.5745 34.1715 0 0 0
78 3 34.1715 12.5895 28.776 0 0 0
2714 3 10.791 8.9925 30.5745 0 0 0
3688 3 1.7985 26.9775 3.597 0 0 0
1525 3 21.582 10.791 3.597 0 0 0
2982 3 10.791 34.1715 19.7835 0 0 0
1216 3 23.3805 19.7835 10.791 0 0 0
433 3 32.373 17.985 28.776 0 0 0
683 3 26.9775 7.194 1.7985 0 0 0
2235 3 12.5895 0.0 30.5745 0 0 0
3516 3 1.7985 8.9925 28.776 0 0 0
14 3 34.1715 1.7985 21.582 0 0 0
2183 3 16.1865 32.373 19.7835 0 0 0
111 3 34.1715 17.985 19.7835 0 0 0
703 3 26.9775 7.194 19.7835 0 0 0
720 3 26.9775 8.9925 32.373 0 0 0
3848 3 0.0 8.9925 12.5895 0 0 0
598 3 32.373 34.1715 34.1715 0 0 0
3804 3 0.0 1.7985 5.3955 0 0 0
3608 3 1.7985 19.7835 3.597 0 0 0
582 3 32.373 34.1715 19.7835 0 0 0
3178 3 7.194 16.1865 16.1865 0 0 0
2378 3 14.388 16.1865 16.1865 0 0 0
2306 3 14.388 8.9925 23.3805 0 0 0
1054 3 25.179 5.3955 12.5895 0 0 0
644 3 26.9775 5.3955 0.0 0 0 0
2868 3 8.9925 23.3805 21.582 0 0 0
2251 3 12.5895 3.597 8.9925 0 0 0
2309 3 14.388 7.194 25.179 0 0 0
2141 3 17.985 28.776 17.985 0 0 0
3024 3 5.3955 1.7985 17.985 0 0 0
3454 3 3.597 5.3955 12.5895 0 0 0
344 3 30.5745 12.5895 17.985 0 0 0
1410 3 21.582 1.7985 8.9925 0 0 0
3142 3 7.194 12.5895 19.7835 0 0 0
3317 3 7.194 25.179 32.373 0 0 0
3092 3 5.3955 8.9925 7.194 0 0 0
1345 3 25.179 28.776 21.582 0 0 0
1937 3 17.985 10.791 14.388 0 0 0
836 3 26.9775 19.7835 28.776 0 0 0
1789 3 21.582 32.373 25.179 0 0 0
3856 3 0.0 8.9925 26.9775 0 0 0
1333 3 25.179 28.776 10.791 0 0 0
3133 3 7.194 10.791 10.791 0 0 0
2132 3 16.1865 30.5745 7.194 0 0 0
2516 3 12.5895 26.9775 28.776 0 0 0
2143 3 16.1865 28.776 19.7835 0 0 0
1987 3 16.1865 14.388 23.3805 0 0 0
1775 3 19.7835 32.373 12.5895 0 0 0
1809 3 17.985 0.0 7.194 0 0 0
277 3 32.373 3.597 32.373 0 0 0
3671 3 1.7985 21.582 26.9775 0 0 0
120 3 34.1715 19.7835 32.373 0 0 0
2407 3 12.5895 17.985 5.3955 0 0 0
3058 3 7.194 5.3955 16.1865 0 0 0
3665 3 3.597 21.582 21.582 0 0 0
3147 3 5.3955 10.791 23.3805 0 0 0
1118 3 25.179 8.9925 34.1715 0 0 0
3544 3 1.7985 12.5895 17.985 0 0 0
2282 3 14.388 8.9925 1.7985 0 0 0
2858 3 10.791 23.3805 16.1865 0 0 0
1649 3 21.582 21.582 7.194 0 0 0
1416 3 19.7835 1.7985 10.791 0 0 0
2901 3 10.791 25.179 17.985 0 0 0
2281 3 14.388 7.194 0.0 0 0 0
2878 3 10.791 23.3805 34.1715 0 0 0
3291 3 5.3955 25.179 8.9925 0 0 0
1923 3 16.1865 10.791 1.7985 0 0 0
1726 3 21.582 30.5745 5.3955 0 0 0
3764 3 1.7985 34.1715 0.0 0 0 0
2093 3 17.985 25.179 10.791 0 0 0
1913 3 17.985 7.194 28.776 0 0 0
760 3 26.9775 12.5895 32.373 0 0 0
1691 3 19.7835 25.179 8.9925 0 0 0
2105 3 17.985 25.179 21.582 0 0 0
690 3 28.776 8.9925 8.9925 0 0 0
3476 3 1.7985 5.3955 28.776 0 0 0
3879 3 0.0 10.791 32.373 0 0 0
1973 3 17.985 14.388 10.791 0 0 0
1209 3 25.179 17.985 7.194 0 0 0
1214 3 25.179 19.7835 12.5895 0 0 0
484 3 30.5745 26.9775 0.0 0 0 0
3539 3 1.7985 10.791 16.1865 0 0 0
53 3 34.1715 7.194 23.3805 0 0 0
2082 3 17.985 26.9775 1.7985 0 0 0
3339 3 5.3955 28.776 16.1865 0 0 0
368 3 30.5745 16.1865 3.597 0 0 0
1785 3 21.582 32.373 21.582 0 0 0
641 3 28.776 3.597 0.0 0 0 0
3893 3 0.0 14.388 21.582 0 0 0
3011 3 5.3955 0.0 8.9925 0 0 0
3597 3 3.597 14.388 32.373 0 0 0
3880 3 0.0 12.5895 34.1715 0 0 0
2837 3 10.791 17.985 32.373 0 0 0
2150 3 17.985 30.5745 26.9775 0 0 0
2603 3 8.9925 0.0 1.7985 0 0 0
1108 3 23.3805 8.9925 21.582 0 0 0
198 3 34.1715 34.1715 28.776 0 0 0
101 3 34.1715 17.985 1.7985 0 0 0
1268 3 23.3805 23.3805 21.582 0 0 0
3706 3 3.597 26.9775 23.3805 0 0 0
2578 3 14.388 34.1715 16.1865 0 0 0
1847 3 16.1865 3.597 5.3955 0 0 0
1143 3 23.3805 10.791 19.7835 0 0 0
110 3 34.1715 19.7835 14.388 0 0 0
3742 3 3.597 30.5745 19.7835 0 0 0
2094 3 17.985 26.9775 12.5895 0 0 0
2109 3 17.985 25.179 25.179 0 0 0
2674 3 10.791 5.3955 30.5745 0 0 0
2238 3 14.388 1.7985 34.1715 0 0 0
3686 3 3.597 26.9775 5.3955 0 0 0
1353 3 25.179 28.776 28.776 0 0 0
3788 3 1.7985 34.1715 21.582 0 0 0
1766 3 21.582 34.1715 5.3955 0 0 0
261 3 32.373 3.597 17.985 0 0 0
3611 3 1.7985 17.985 8.9925 0 0 0
1496 3 19.7835 8.9925 10.791 0 0 0
540 3 30.5745 30.5745 14.388 0 0 0
3383 3 5.3955 32.373 19.7835 0 0 0
3247 3 5.3955 21.582 5.3955 0 0 0
881 3 28.776 25.179 0.0 0 0 0
2030 3 17.985 19.7835 26.9775 0 0 0
3702 3 3.597 26.9775 19.7835 0 0 0
845 3 28.776 21.582 3.597 0 0 0
1059 3 23.3805 3.597 16.1865 0 0 0
1239 3 23.3805 17.985 34.1715 0 0 0
2414 3 14.388 19.7835 12.5895 0 0 0
2200 3 16.1865 34.1715 32.373 0 0 0
2016 3 16.1865 19.7835 10.791 0 0 0
1117 3 25.179 7.194 32.373 0 0 0
3565 3 3.597 14.388 3.597 0 0 0
2864 3 8.9925 23.3805 17.985 0 0 0
2203 3 12.5895 0.0 1.7985 0 0 0
243 3 30.5745 3.597 1.7985 0 0 0
2138 3 17.985 30.5745 16.1865 0 0 0
930 3 28.776 30.5745 8.9925 0 0 0
2678 3 10.791 5.3955 34.1715 0 0 0
1950 3 17.985 12.5895 26.9775 0 0 0
1357 3 25.179 28.776 32.373 0 0 0
3944 3 0.0 26.9775 5.3955 0 0 0
2261 3 14.388 3.597 17.985 0 0 0
87 3 34.1715 14.388 12.5895 0 0 0
1970 3 17.985 16.1865 8.9925 0 0 0
2571 3 12.5895 32.373 8.9925 0 0 0
1376 3 23.3805 34.1715 10.791 0 0 0
3445 3 3.597 3.597 3.597 0 0 0
209 3 32.373 0.0 7.194 0 0 0
2741 3 10.791 10.791 17.985 0 0 0
441 3 32.373 21.582 0.0 0 0 0
3051 3 5.3955 3.597 8.9925 0 0 0
1999 3 16.1865 14.388 34.1715 0 0 0
1481 3 21.582 7.194 0.0 0 0 0
748 3 26.9775 12.5895 21.582 0 0 0
2879 3 8.9925 21.582 34.1715 0 0 0
3550 3 3.597 12.5895 26.9775 0 0 0
1894 3 17.985 8.9925 12.5895 0 0 0
3341 3 7.194 28.776 17.985 0 0 0
2249 3 14.388 3.597 7.194 0 0 0
573 3 32.373 32.373 10.791 0 0 0
1688 3 19.7835 26.9775 3.597 0 0 0
205 3 32.373 0.0 3.597 0 0 0
104 3 34.1715 19.7835 3.597 0 0 0
3548 3 1.7985 12.5895 21.582 0 0 0
3921 3 0.0 21.582 0.0 0 0 0
1325 3 25.179 28.776 3.597 0 0 0
3572 3 1.7985 16.1865 7.194 0 0 0
2273 3 14.388 3.597 28.776 0 0 0
789 3 28.776 14.388 25.179 0 0 0
2966 3 10.791 34.1715 5.3955 0 0 0
1383 3 23.3805 32.373 19.7835 0 0 0
2267 3 12.5895 3.597 23.3805 0 0 0
1338 3 25.179 30.5745 16.1865 0 0 0
298 3 32.373 8.9925 16.1865 0 0 0
817 3 28.776 17.985 14.388 0 0 0
828 3 26.9775 19.7835 21.582 0 0 0
3199 3 5.3955 14.388 34.1715 0 0 0
3257 3 7.194 21.582 14.388 0 0 0
3588 3 1.7985 16.1865 21.582 0 0 0
1518 3 21.582 8.9925 34.1715 0 0 0
1983 3 16.1865 14.388 19.7835 0 0 0
3033 3 7.194 0.0 28.776 0 0 0
3675 3 1.7985 21.582 30.5745 0 0 0
1853 3 17.985 3.597 10.791 0 0 0
2583 3 12.5895 32.373 19.7835 0 0 0
1193 3 25.179 14.388 28.776 0 0 0
3325 3 7.194 28.776 3.597 0 0 0
1389 3 25.179 32.373 25.179 0 0 0
1451 3 19.7835 3.597 8.9925 0 0 0
3513 3 3.597 7.194 28.776 0 0 0
625 3 28.776 0.0 21.582 0 0 0
2286 3 14.388 8.9925 5.3955 0 0 0
2610 3 10.791 1.7985 8.9925 0 0 0
738 3 28.776 12.5895 16.1865 0 0 0
427 3 30.5745 17.985 23.3805 0 0 0
2420 3 12.5895 19.7835 14.388 0 0 0
3947 3 0.0 25.179 10.791 0 0 0
1058 3 25.179 5.3955 16.1865 0 0 0
3953 3 0.0 25.179 21.582 0 0 0
2918 3 10.791 26.9775 34.1715 0 0 0
223 3 30.5745 0.0 19.7835 0 0 0
3413 3 3.597 0.0 10.791 0 0 0
1659 3 19.7835 21.582 16.1865 0 0 0
1090 3 25.179 8.9925 8.9925 0 0 0
726 3 28.776 12.5895 5.3955 0 0 0
3816 3 0.0 1.7985 26.9775 0 0 0
3358 3 7.194 30.5745 34.1715 0 0 0
2686 3 10.791 8.9925 5.3955 0 0 0
3072 3 5.3955 5.3955 25.179 0 0 0
297 3 32.373 7.194 14.388 0 0 0
2541 3 14.388 28.776 17.985 0 0 0
2914 3 10.791 26.9775 30.5745 0 0 0
1146 3 25.179 12.5895 23.3805 0 0 0
1083 3 23.3805 7.194 1.7985 0 0 0
3980 3 0.0 30.5745 34.1715 0 0 0
1627 3 19.7835 17.985 23.3805 0 0 0
3070 3 7.194 5.3955 26.9775 0 0 0
3754 3 3.597 30.5745 30.5745 0 0 0
3897 3 0.0 14.388 28.776 0 0 0
1441 3 21.582 3.597 0.0 0 0 0
1482 3 21.582 8.9925 1.7985 0 0 0
3593 3 3.597 14.388 28.776 0 0 0
90 3 34.1715 16.1865 14.388 0 0 0
2170 3 17.985 34.1715 8.9925 0 0 0
3695 3 1.7985 25.179 12.5895 0 0 0
1694 3 21.582 26.9775 12.5895 0 0 0
1000 3 26.9775 34.1715 32.373 0 0 0
2217 3 14.388 0.0 14.388 0 0 0
1231 3 23.3805 17.985 26.9775 0 0 0
65 3 34.1715 10.791 8.9925 0 0 0
1010 3 25.179 1.7985 8.9925 0 0 0
3847 3 0.0 7.194 10.791 0 0 0
3825 3 0.0 3.597 7.194 0 0 0
2151 3 16.1865 28.776 26.9775 0 0 0
1230 3 25.179 19.7835 26.9775 0 0 0
367 3 30.5745 14.388 5.3955 0 0 0
2089 3 17.985 25.179 7.194 0 0 0
453 3 32.373 21.582 10.791 0 0 0
1420 3 19.7835 1.7985 14.388 0 0 0
232 3 30.5745 1.7985 25.179 0 0 0
128 3 34.1715 23.3805 10.791 0 0 0
994 3 28.776 34.1715 30.5745 0 0 0
342 3 32.373 12.5895 19.7835 0 0 0
514 3 32.373 26.9775 30.5745 0 0 0
2773 3 10.791 14.388 10.791 0 0 0
3884 3 0.0 16.1865 5.3955 0 0 0
1821 3 17.985 0.0 17.985 0 0 0
3501 3 3.597 7.194 17.985 0 0 0
3779 3 1.7985 32.373 16.1865 0 0 0
418 3 32.373 19.7835 16.1865 0 0 0
2622 3 10.791 1.7985 19.7835 0 0 0
3461 3 3.597 3.597 17.985 0 0 0
3117 3 7.194 7.194 32.373 0 0 0
1170 3 25.179 16.1865 8.9925 0 0 0
1707 3 19.7835 25.179 23.3805 0 0 0
2079 3 16.1865 21.582 34.1715 0 0 0
2146 3 17.985 30.5745 23.3805 0 0 0
3019 3 5.3955 0.0 16.1865 0 0 0
3842 3 0.0 8.9925 1.7985 0 0 0
1567 3 19.7835 14.388 5.3955 0 0 0
2871 3 8.9925 21.582 26.9775 0 0 0
2848 3 8.9925 23.3805 3.597 0 0 0
3818 3 0.0 1.7985 30.5745 0 0 0
2733 3 10.791 10.791 10.791 0 0 0
3504 3 1.7985 8.9925 17.985 0 0 0
2758 3 10.791 12.5895 34.1715 0 0 0
3697 3 3.597 25.179 14.388 0 0 0
1673 3 21.582 21.582 28.776 0 0 0
719 3 26.9775 7.194 34.1715 0 0 0
1526 3 21.582 12.5895 5.3955 0 0 0
1080 3 23.3805 5.3955 32.373 0 0 0
3708 3 1.7985 26.9775 21.582 0 0 0
278 3 32.373 5.3955 34.1715 0 0 0
3302 3 7.194 26.9775 19.7835 0 0 0
3635 3 1.7985 17.985 30.5745 0 0 0
1158 3 25.179 12.5895 34.1715 0 0 0
2783 3 8.9925 14.388 19.7835 0 0 0
3756 3 1.7985 30.5745 28.776 0 0 0
3370 3 7.194 34.1715 8.9925 0 0 0
3161 3 7.194 14.388 0.0 0 0 0
477 3 32.373 21.582 32.373 0 0 0
1889 3 17.985 7.194 7.194 0 0 0
653 3 28.776 3.597 10.791 0 0 0
2813 3 10.791 17.985 10.791 0 0 0
413 3 32.373 17.985 10.791 0 0 0
844 3 26.9775 23.3805 0.0 0 0 0
32 3 34.1715 5.3955 17.985 0 0 0
1739 3 19.7835 28.776 16.1865 0 0 0
328 3 30.5745 12.5895 3.597 0 0 0
3805 3 0.0 0.0 7.194 0 0 0
1956 3 16.1865 12.5895 28.776 0 0 0
1362 3 25.179 34.1715 1.7985 0 0 0
2939 3 8.9925 28.776 16.1865 0 0 0
1485 3 21.582 7.194 3.597 0 0 0
1106 3 25.179 8.9925 23.3805 0 0 0
992 3 26.9775 34.1715 25.179 0 0 0
1081 3 25.179 7.194 0.0 0 0 0
1660 3 19.7835 23.3805 14.388 0 0 0
897 3 28.776 25.179 14.388 0 0 0
613 3 28.776 0.0 10.791 0 0 0
3066 3 7.194 5.3955 23.3805 0 0 0
697 3 28.776 7.194 14.388 0 0 0
2172 3 16.1865 34.1715 7.194 0 0 0
666 3 28.776 5.3955 23.3805 0 0 0
168 3 34.1715 30.5745 10.791 0 0 0
3085 3 7.194 7.194 3.597 0 0 0
1218 3 25.179 19.7835 16.1865 0 0 0
3366 3 7.194 34.1715 5.3955 0 0 0
270 3 32.373 5.3955 26.9775 0 0 0
1670 3 21.582 23.3805 26.9775 0 0 0
330 3 32.373 12.5895 8.9925 0 0 0
1661 3 21.582 21.582 17.985 0 0 0
1429 3 21.582 0.0 25.179 0 0 0
3600 3 1.7985 16.1865 32.373 0 0 0
1312 3 23.3805 26.9775 25.179 0 0 0
1844 3 16.1865 5.3955 0.0 0 0 0
2504 3 12.5895 26.9775 17.985 0 0 0
604 3 26.9775 1.7985 0.0 0 0 0
3751 3 1.7985 28.776 26.9775 0 0 0
2955 3 8.9925 28.776 30.5745 0 0 0
849 3 28.776 21.582 7.194 0 0 0
2035 3 16.1865 17.985 30.5745 0 0 0
734 3 28.776 12.5895 12.5895 0 0 0
1069 3 25.179 3.597 25.179 0 0 0
1016 3 23.3805 1.7985 10.791 0 0 0
3245 3 7.194 21.582 3.597 0 0 0
1604 3 19.7835 19.7835 0.0 0 0 0
2682 3 10.791 8.9925 1.7985 0 0 0
1437 3 21.582 0.0 32.373 0 0 0
2971 3 8.9925 32.373 8.9925 0 0 0
3888 3 0.0 16.1865 12.5895 0 0 0
2000 3 16.1865 16.1865 32.373 0 0 0
121 3 34.1715 21.582 1.7985 0 0 0
3145 3 7.194 10.791 21.582 0 0 0
3082 3 7.194 8.9925 1.7985 0 0 0
2017 3 17.985 17.985 14.388 0 0 0
352 3 30.5745 12.5895 25.179 0 0 0
1962 3 17.985 16.1865 1.7985 0 0 0
2149 3 17.985 28.776 25.179 0 0 0
3911 3 0.0 17.985 17.985 0 0 0
295 3 30.5745 7.194 12.5895 0 0 0
2072 3 16.1865 23.3805 25.179 0 0 0
3961 3 0.0 28.776 0.0 0 0 0
3209 3 7.194 17.985 7.194 0 0 0
956 3 26.9775 30.5745 28.776 0 0 0
1696 3 19.7835 26.9775 10.791 0 0 0
2230 3 14.388 1.7985 26.9775 0 0 0
347 3 30.5745 10.791 23.3805 0 0 0
2660 3 8.9925 5.3955 14.388 0 0 0
155 3 34.1715 25.179 26.9775 0 0 0
3753 3 3.597 28.776 28.776 0 0 0
147 3 34.1715 25.179 12.5895 0 0 0
2074 3 17.985 23.3805 30.5745 0 0 0
3194 3 7.194 16.1865 30.5745 0 0 0
4000 3 0.0 34.1715 34.1715 0 0 0
381 3 32.373 14.388 17.985 0 0 0
3604 3 1.7985 19.7835 0.0 0 0 0
2318 3 14.388 8.9925 34.1715 0 0 0
214 3 32.373 1.7985 12.5895 0 0 0
1628 3 19.7835 19.7835 21.582 0 0 0
3521 3 3.597 10.791 0.0 0 0 0
3191 3 5.3955 14.388 26.9775 0 0 0
3001 3 7.194 0.0 0.0 0 0 0
2872 3 8.9925 23.3805 25.179 0 0 0
2211 3 12.5895 0.0 8.9925 0 0 0
937 3 28.776 28.776 14.388 0 0 0
2932 3 8.9925 30.5745 7.194 0 0 0
2225 3 14.388 0.0 21.582 0 0 0
2474 3 14.388 23.3805 30.5745 0 0 0
1301 3 25.179 25.179 17.985 0 0 0
3248 3 5.3955 23.3805 3.597 0 0 0
3351 3 5.3955 28.776 26.9775 0 0 0
2375 3 12.5895 14.388 12.5895 0 0 0
2895 3 8.9925 25.179 12.5895 0 0 0
3208 3 5.3955 19.7835 3.597 0 0 0
3233 3 7.194 17.985 28.776 0 0 0
2458 3 14.388 23.3805 16.1865 0 0 0
2596 3 12.5895 34.1715 28.776 0 0 0
1646 3 21.582 23.3805 5.3955 0 0 0
1832 3 16.1865 1.7985 25.179 0 0 0
2381 3 14.388 14.388 17.985 0 0 0
3206 3 7.194 19.7835 5.3955 0 0 0
3707 3 1.7985 25.179 23.3805 0 0 0
286 3 32.373 8.9925 5.3955 0 0 0
599 3 30.5745 32.373 34.1715 0 0 0
2438 3 14.388 19.7835 34.1715 0 0 0
2876 3 8.9925 23.3805 28.776 0 0 0
157 3 34.1715 25.179 30.5745 0 0 0
3156 3 5.3955 12.5895 28.776 0 0 0
3614 3 3.597 19.7835 12.5895 0 0 0
850 3 28.776 23.3805 8.9925 0 0 0
1630 3 21.582 19.7835 26.9775 0 0 0
2142 3 17.985 30.5745 19.7835 0 0 0
92 3 34.1715 16.1865 17.985 0 0 0
137 3 34.1715 21.582 30.5745 0 0 0
1197 3 25.179 14.388 32.373 0 0 0
3950 3 0.0 26.9775 16.1865 0 0 0
1642 3 21.582 23.3805 1.7985 0 0 0
2425 3 14.388 17.985 21.582 0 0 0
230 3 32.373 1.7985 26.9775 0 0 0
3582 3 3.597 16.1865 19.7835 0 0 0
917 3 28.776 25.179 32.373 0 0 0
1098 3 25.179 8.9925 16.1865 0 0 0
3533 3 3.597 10.791 10.791 0 0 0
3992 3 0.0 34.1715 19.7835 0 0 0
3112 3 5.3955 8.9925 25.179 0 0 0
2591 3 12.5895 32.373 26.9775 0 0 0
2450 3 14.388 23.3805 8.9925 0 0 0
3639 3 1.7985 17.985 34.1715 0 0 0
1387 3 23.3805 32.373 23.3805 0 0 0
27 3 34.1715 3.597 12.5895 0 0 0
500 3 30.5745 26.9775 14.388 0 0 0
1687 3 19.7835 25.179 5.3955 0 0 0
1845 3 17.985 3.597 3.597 0 0 0
1991 3 16.1865 14.388 26.9775 0 0 0
3653 3 3.597 21.582 10.791 0 0 0
814 3 28.776 19.7835 12.5895 0 0 0
3107 3 5.3955 7.194 23.3805 0 0 0
3378 3 7.194 34.1715 16.1865 0 0 0
973 3 28.776 32.373 10.791 0 0 0
2087 3 16.1865 25.179 5.3955 0 0 0
2804 3 8.9925 19.7835 0.0 0 0 0
2893 3 10.791 25.179 10.791 0 0 0
2432 3 12.5895 19.7835 25.179 0 0 0
3877 3 0.0 10.791 28.776 0 0 0
97 3 34.1715 14.388 30.5745 0 0 0
466 3 32.373 23.3805 23.3805 0 0 0
3713 3 3.597 25.179 28.776 0 0 0
2205 3 14.388 0.0 3.597 0 0 0
2337 3 14.388 10.791 14.388 0 0 0
2256 3 12.5895 5.3955 10.791 0 0 0
694 3 28.776 8.9925 12.5895 0 0 0
3994 3 0.0 34.1715 23.3805 0 0 0
2628 3 8.9925 1.7985 21.582 0 0 0
3621 3 3.597 17.985 17.985 0 0 0
536 3 30.5745 30.5745 10.791 0 0 0
2572 3 12.5895 34.1715 7.194 0 0 0
482 3 32.373 26.9775 1.7985 0 0 0
1801 3 17.985 0.0 0.0 0 0 0
171 3 34.1715 28.776 19.7835 0 0 0
312 3 30.5745 8.9925 25.179 0 0 0
76 3 34.1715 12.5895 25.179 0 0 0
2092 3 16.1865 26.9775 7.194 0 0 0
1831 3 16.1865 0.0 26.9775 0 0 0
1557 3 21.582 10.791 32.373 0 0 0
2692 3 8.9925 8.9925 7.194 0 0 0
409 3 32.373 17.985 7.194 0 0 0
2936 3 8.9925 30.5745 10.791 0 0 0
1699 3 19.7835 25.179 16.1865 0 0 0
2307 3 12.5895 7.194 23.3805 0 0 0
2048 3 16.1865 23.3805 3.597 0 0 0
743 3 26.9775 10.791 19.7835 0 0 0
2549 3 14.388 28.776 25.179 0 0 0
1041 3 25.179 3.597 0.0 0 0 0
765 3 28.776 14.388 3.597 0 0 0
732 3 26.9775 12.5895 7.194 0 0 0
1911 3 16.1865 7.194 26.9775 0 0 0
3775 3 1.7985 32.373 12.5895 0 0 0
396 3 30.5745 16.1865 28.776 0 0 0
3803 3 0.0 0.0 3.597 0 0 0
459 3 30.5745 21.582 16.1865 0 0 0
1540 3 19.7835 12.5895 14.388 0 0 0
2608 3 8.9925 1.7985 3.597 0 0 0
3843 3 0.0 7.194 3.597 0 0 0
1322 3 25.179 30.5745 1.7985 0 0 0
2247 3 12.5895 3.597 5.3955 0 0 0
245 3 32.373 3.597 3.597 0 0 0
2490 3 14.388 26.9775 8.9925 0 0 0
3080 3 5.3955 5.3955 32.373 0 0 0
2320 3 12.5895 8.9925 32.373 0 0 0
2215 3 12.5895 0.0 12.5895 0 0 0
1952 3 16.1865 12.5895 25.179 0 0 0
2493 3 14.388 25.179 10.791 0 0 0
3407 3 1.7985 0.0 5.3955 0 0 0
2049 3 17.985 21.582 7.194 0 0 0
2178 3 17.985 34.1715 16.1865 0 0 0
1309 3 25.179 25.179 25.179 0 0 0
2597 3 14.388 32.373 32.373 0 0 0
1781 3 21.582 32.373 17.985 0 0 0
1497 3 21.582 7.194 14.388 0 0 0
1819 3 16.1865 0.0 16.1865 0 0 0
1703 3 19.7835 25.179 19.7835 0 0 0
57 3 34.1715 7.194 30.5745 0 0 0
2962 3 10.791 34.1715 1.7985 0 0 0
2616 3 8.9925 1.7985 10.791 0 0 0
2750 3 10.791 12.5895 26.9775 0 0 0
476 3 30.5745 23.3805 28.776 0 0 0
290 3 32.373 8.9925 8.9925 0 0 0
2890 3 10.791 26.9775 8.9925 0 0 0
2592 3 12.5895 34.1715 25.179 0 0 0
2496 3 12.5895 26.9775 10.791 0 0 0
289 3 32.373 7.194 7.194 0 0 0
2986 3 10.791 34.1715 23.3805 0 0 0
522 3 32.373 30.5745 1.7985 0 0 0
2275 3 12.5895 3.597 30.5745 0 0 0
2209 3 14.388 0.0 7.194 0 0 0
3895 3 0.0 14.388 25.179 0 0 0
2123 3 16.1865 28.776 1.7985 0 0 0
1529 3 21.582 10.791 7.194 0 0 0
2455 3 12.5895 21.582 12.5895 0 0 0
936 3 26.9775 30.5745 10.791 0 0 0
2418 3 14.388 19.7835 16.1865 0 0 0
2627 3 8.9925 0.0 23.3805 0 0 0
588 3 30.5745 34.1715 21.582 0 0 0
2995 3 8.9925 32.373 30.5745 0 0 0
1556 3 19.7835 12.5895 28.776 0 0 0
1587 3 19.7835 14.388 23.3805 0 0 0
3222 3 7.194 19.7835 19.7835 0 0 0
2698 3 10.791 8.9925 16.1865 0 0 0
1035 3 23.3805 0.0 30.5745 0 0 0
1401 3 21.582 0.0 0.0 0 0 0
2520 3 12.5895 26.9775 32.373 0 0 0
1514 3 21.582 8.9925 30.5745 0 0 0
1307 3 23.3805 25.179 23.3805 0 0 0
407 3 30.5745 17.985 5.3955 0 0 0
282 3 32.373 8.9925 1.7985 0 0 0
3669 3 3.597 21.582 25.179 0 0 0
340 3 30.5745 12.5895 14.388 0 0 0
424 3 30.5745 19.7835 17.985 0 0 0
217 3 32.373 0.0 14.388 0 0 0
3974 3 0.0 30.5745 23.3805 0 0 0
178 3 34.1715 30.5745 28.776 0 0 0
262 3 32.373 5.3955 19.7835 0 0 0
2311 3 12.5895 7.194 26.9775 0 0 0
2498 3 14.388 26.9775 16.1865 0 0 0
1046 3 25.179 5.3955 5.3955 0 0 0
1541 3 21.582 10.791 17.985 0 0 0
3867 3 0.0 10.791 10.791 0 0 0
2240 3 12.5895 1.7985 32.373 0 0 0
1818 3 17.985 1.7985 16.1865 0 0 0
2958 3 10.791 30.5745 34.1715 0 0 0
910 3 28.776 26.9775 26.9775 0 0 0
2259 3 12.5895 3.597 16.1865 0 0 0
948 3 26.9775 30.5745 21.582 0 0 0
2967 3 8.9925 32.373 5.3955 0 0 0
2252 3 12.5895 5.3955 7.194 0 0 0
1095 3 23.3805 7.194 12.5895 0 0 0
1786 3 21.582 34.1715 23.3805 0 0 0
1229 3 25.179 17.985 25.179 0 0 0
2849 3 10.791 21.582 7.194 0 0 0
1900 3 16.1865 8.9925 14.388 0 0 0
431 3 30.5745 17.985 26.9775 0 0 0
1360 3 23.3805 30.5745 32.373 0 0 0
1985 3 17.985 14.388 21.582 0 0 0
741 3 28.776 10.791 17.985 0 0 0
2466 3 14.388 23.3805 23.3805 0 0 0
2472 3 12.5895 23.3805 25.179 0 0 0
3900 3 0.0 16.1865 34.1715 0 0 0
2315 3 12.5895 7.194 30.5745 0 0 0
3330 3 7.194 30.5745 8.9925 0 0 0
183 3 34.1715 32.373 5.3955 0 0 0
1736 3 19.7835 30.5745 10.791 0 0 0
1086 3 25.179 8.9925 5.3955 0 0 0
1613 3 21.582 17.985 10.791 0 0 0
3014 3 7.194 1.7985 12.5895 0 0 0
1070 3 25.179 5.3955 26.9775 0 0 0
914 3 28.776 26.9775 30.5745 0 0 0
2708 3 8.9925 8.9925 21.582 0 0 0
2977 3 10.791 32.373 14.388 0 0 0
839 3 26.9775 17.985 34.1715 0 0 0
3260 3 5.3955 23.3805 14.388 0 0 0
429 3 32.373 17.985 25.179 0 0 0
2415 3 12.5895 17.985 12.5895 0 0 0
1508 3 19.7835 8.9925 21.582 0 0 0
1102 3 25.179 8.9925 19.7835 0 0 0
1770 3 21.582 34.1715 8.9925 0 0 0
1037 3 25.179 0.0 32.373 0 0 0
158 3 34.1715 26.9775 28.776 0 0 0
463 3 30.5745 21.582 19.7835 0 0 0
3396 3 5.3955 34.1715 28.776 0 0 0
929 3 28.776 28.776 7.194 0 0 0
2625 3 10.791 0.0 21.582 0 0 0
3300 3 5.3955 26.9775 14.388 0 0 0
1872 3 16.1865 5.3955 25.179 0 0 0
3395 3 5.3955 32.373 30.5745 0 0 0
45 3 34.1715 7.194 8.9925 0 0 0
1611 3 19.7835 17.985 8.9925 0 0 0
1931 3 16.1865 10.791 8.9925 0 0 0
2196 3 16.1865 34.1715 28.776 0 0 0
321 3 32.373 10.791 0.0 0 0 0
161 3 34.1715 28.776 1.7985 0 0 0
2736 3 8.9925 12.5895 10.791 0 0 0
116 3 34.1715 19.7835 25.179 0 0 0
1702 3 21.582 26.9775 19.7835 0 0 0
2412 3 12.5895 19.7835 7.194 0 0 0
3484 3 1.7985 8.9925 0.0 0 0 0
1579 3 19.7835 14.388 16.1865 0 0 0
1067 3 23.3805 3.597 23.3805 0 0 0
905 3 28.776 25.179 21.582 0 0 0
1428 3 19.7835 1.7985 21.582 0 0 0
3790 3 3.597 34.1715 26.9775 0 0 0
1603 3 19.7835 17.985 1.7985 0 0 0
658 3 28.776 5.3955 16.1865 0 0 0
1101 3 25.179 7.194 17.985 0 0 0
3896 3 0.0 16.1865 26.9775 0 0 0
124 3 34.1715 23.3805 3.597 0 0 0
1838 3 17.985 1.7985 34.1715 0 0 0
191 3 34.1715 32.373 19.7835 0 0 0
3463 3 1.7985 3.597 19.7835 0 0 0
3053 3 7.194 3.597 10.791 0 0 0
242 3 32.373 5.3955 1.7985 0 0 0
2533 3 14.388 28.776 10.791 0 0 0
3705 3 3.597 25.179 21.582 0 0 0
3342 3 7.194 30.5745 19.7835 0 0 0
2219 3 12.5895 0.0 16.1865 0 0 0
534 3 32.373 30.5745 12.5895 0 0 0
1169 3 25.179 14.388 7.194 0 0 0
2510 3 14.388 26.9775 26.9775 0 0 0
3627 3 1.7985 17.985 23.3805 0 0 0
3799 3 1.7985 32.373 34.1715 0 0 0
2505 3 14.388 25.179 21.582 0 0 0
1294 3 25.179 26.9775 12.5895 0 0 0
3725 3 3.597 28.776 3.597 0 0 0
569 3 32.373 32.373 7.194 0 0 0
3632 3 1.7985 19.7835 25.179 0 0 0
1139 3 23.3805 10.791 16.1865 0 0 0
617 3 28.776 0.0 14.388 0 0 0
2167 3 16.1865 32.373 5.3955 0 0 0
293 3 32.373 7.194 10.791 0 0 0
3096 3 5.3955 8.9925 10.791 0 0 0
2695 3 8.9925 7.194 12.5895 0 0 0
1592 3 19.7835 16.1865 25.179 0 0 0
3766 3 3.597 34.1715 5.3955 0 0 0
3642 3 3.597 23.3805 1.7985 0 0 0
3017 3 7.194 0.0 14.388 0 0 0
314 3 32.373 8.9925 30.5745 0 0 0
2663 3 8.9925 3.597 19.7835 0 0 0
2043 3 16.1865 21.582 1.7985 0 0 0
3626 3 3.597 19.7835 23.3805 0 0 0
3778 3 3.597 34.1715 16.1865 0 0 0
2055 3 16.1865 21.582 12.5895 0 0 0
3972 3 0.0 30.5745 19.7835 0 0 0
3892 3 0.0 16.1865 19.7835 0 0 0
570 3 32.373 34.1715 8.9925 0 0 0
1621 3 21.582 17.985 17.985 0 0 0
1422 3 21.582 1.7985 19.7835 0 0 0
1946 3 17.985 12.5895 23.3805 0 0 0
3097 3 7.194 7.194 14.388 0 0 0
3619 3 1.7985 17.985 16.1865 0 0 0
2280 3 12.5895 5.3955 32.373 0 0 0
2322 3 14.388 12.5895 1.7985 0 0 0
1179 3 23.3805 14.388 16.1865 0 0 0
108 3 34.1715 19.7835 10.791 0 0 0
509 3 32.373 25.179 25.179 0 0 0
3876 3 0.0 12.5895 26.9775 0 0 0
3927 3 0.0 21.582 10.791 0 0 0
2769 3 10.791 14.388 7.194 0 0 0
3090 3 7.194 8.9925 8.9925 0 0 0
2019 3 16.1865 17.985 16.1865 0 0 0
130 3 34.1715 23.3805 14.388 0 0 0
2325 3 14.388 10.791 3.597 0 0 0
3903 3 0.0 17.985 3.597 0 0 0
3932 3 0.0 23.3805 19.7835 0 0 0
3176 3 5.3955 16.1865 10.791 0 0 0
2988 3 8.9925 34.1715 21.582 0 0 0
2806 3 10.791 19.7835 5.3955 0 0 0
1336 3 23.3805 30.5745 10.791 0 0 0
447 3 30.5745 21.582 5.3955 0 0 0
3303 3 5.3955 25.179 19.7835 0 0 0
3767 3 1.7985 32.373 5.3955 0 0 0
2347 3 12.5895 10.791 23.3805 0 0 0
1574 3 21.582 16.1865 12.5895 0 0 0
2340 3 12.5895 12.5895 14.388 0 0 0
2114 3 17.985 26.9775 30.5745 0 0 0
1794 3 21.582 34.1715 30.5745 0 0 0
31 3 34.1715 3.597 19.7835 0 0 0
3503 3 1.7985 7.194 19.7835 0 0 0
1588 3 19.7835 16.1865 21.582 0 0 0
3249 3 7.194 21.582 7.194 0 0 0
1404 3 19.7835 1.7985 0.0 0 0 0
1953 3 17.985 10.791 28.776 0 0 0
2904 3 8.9925 26.9775 17.985 0 0 0
1265 3 25.179 21.582 21.582 0 0 0
2668 3 8.9925 5.3955 21.582 0 0 0
2289 3 14.388 7.194 7.194 0 0 0
3225 3 7.194 17.985 21.582 0 0 0
3452 3 1.7985 5.3955 7.194 0 0 0
3447 3 1.7985 3.597 5.3955 0 0 0
792 3 26.9775 16.1865 25.179 0 0 0
341 3 32.373 10.791 17.985 0 0 0
1681 3 21.582 25.179 0.0 0 0 0
3102 3 7.194 8.9925 19.7835 0 0 0
1829 3 17.985 0.0 25.179 0 0 0
1189 3 25.179 14.388 25.179 0 0 0
1207 3 23.3805 17.985 5.3955 0 0 0
2467 3 12.5895 21.582 23.3805 0 0 0
1344 3 23.3805 30.5745 17.985 0 0 0
574 3 32.373 34.1715 12.5895 0 0 0
1089 3 25.179 7.194 7.194 0 0 0
3451 3 1.7985 3.597 8.9925 0 0 0
1419 3 19.7835 0.0 16.1865 0 0 0
2010 3 17.985 19.7835 8.9925 0 0 0
1963 3 16.1865 14.388 1.7985 0 0 0
332 3 30.5745 12.5895 7.194 0 0 0
3348 3 5.3955 30.5745 21.582 0 0 0
3295 3 5.3955 25.179 12.5895 0 0 0
3100 3 5.3955 8.9925 14.388 0 0 0
944 3 26.9775 30.5745 17.985 0 0 0
387 3 30.5745 14.388 23.3805 0 0 0
196 3 34.1715 34.1715 25.179 0 0 0
3524 3 1.7985 12.5895 0.0 0 0 0
2797 3 10.791 14.388 32.373 0 0 0
1893 3 17.985 7.194 10.791 0 0 0
1725 3 21.582 28.776 3.597 0 0 0
1629 3 21.582 17.985 25.179 0 0 0
3480 3 1.7985 5.3955 32.373 0 0 0
1720 3 19.7835 26.9775 32.373 0 0 0
827 3 26.9775 17.985 23.3805 0 0 0
35 3 34.1715 3.597 26.9775 0 0 0
2926 3 10.791 30.5745 5.3955 0 0 0
2034 3 17.985 19.7835 30.5745 0 0 0
3714 3 3.597 26.9775 30.5745 0 0 0
2319 3 12.5895 7.194 34.1715 0 0 0
691 3 26.9775 7.194 8.9925 0 0 0
1915 3 16.1865 7.194 30.5745 0 0 0
1974 3 17.985 16.1865 12.5895 0 0 0
1899 3 16.1865 7.194 16.1865 0 0 0
231 3 30.5745 0.0 26.9775 0 0 0
1520 3 19.7835 8.9925 32.373 0 0 0
3780 3 1.7985 34.1715 14.388 0 0 0
2830 3 10.791 19.7835 26.9775 0 0 0
1984 3 16.1865 16.1865 17.985 0 0 0
212 3 30.5745 1.7985 7.194 0 0 0
2515 3 12.5895 25.179 30.5745 0 0 0
3812 3 0.0 1.7985 19.7835 0 0 0
18 3 34.1715 1.7985 28.776 0 0 0
3613 3 3.597 17.985 10.791 0 0 0
2884 3 8.9925 26.9775 0.0 0 0 0
3795 3 1.7985 32.373 30.5745 0 0 0
2025 3 17.985 17.985 21.582 0 0 0
3487 3 1.7985 7.194 5.3955 0 0 0
2122 3 17.985 30.5745 1.7985 0 0 0
2629 3 10.791 0.0 25.179 0 0 0
3111 3 5.3955 7.194 26.9775 0 0 0
587 3 30.5745 32.373 23.3805 0 0 0
1418 3 21.582 1.7985 16.1865 0 0 0
579 3 30.5745 32.373 16.1865 0 0 0
722 3 28.776 12.5895 1.7985 0 0 0
3431 3 1.7985 0.0 26.9775 0 0 0
2712 3 8.9925 8.9925 25.179 0 0 0
393 3 32.373 14.388 28.776 0 0 0
497 3 32.373 25.179 14.388 0 0 0
1898 3 17.985 8.9925 16.1865 0 0 0
2518 3 14.388 26.9775 34.1715 0 0 0
879 3 26.9775 21.582 34.1715 0 0 0
1961 3 17.985 14.388 0.0 0 0 0
2494 3 14.388 26.9775 12.5895 0 0 0
1559 3 19.7835 10.791 34.1715 0 0 0
2676 3 8.9925 5.3955 28.776 0 0 0
3765 3 3.597 32.373 3.597 0 0 0
228 3 30.5745 1.7985 21.582 0 0 0
1174 3 25.179 16.1865 12.5895 0 0 0
1024 3 23.3805 1.7985 17.985 0 0 0
571 3 30.5745 32.373 8.9925 0 0 0
397 3 32.373 14.388 32.373 0 0 0
3709 3 3.597 25.179 25.179 0 0 0
2810 3 10.791 19.7835 8.9925 0 0 0
601 3 28.776 0.0 0.0 0 0 0
3612 3 1.7985 19.7835 7.194 0 0 0
2570 3 14.388 34.1715 8.9925 0 0 0
1132 3 23.3805 12.5895 7.194 0 0 0
2144 3 16.1865 30.5745 17.985 0 0 0
507 3 30.5745 25.179 23.3805 0 0 0
2814 3 10.791 19.7835 12.5895 0 0 0
1885 3 17.985 7.194 3.597 0 0 0
1465 3 21.582 3.597 21.582 0 0 0
884 3 26.9775 26.9775 0.0 0 0 0
457 3 32.373 21.582 14.388 0 0 0
1914 3 17.985 8.9925 30.5745 0 0 0
2645 3 10.791 3.597 3.597 0 0 0
37 3 34.1715 3.597 30.5745 0 0 0
3227 3 5.3955 17.985 23.3805 0 0 0
2747 3 8.9925 10.791 23.3805 0 0 0
2551 3 12.5895 28.776 26.9775 0 0 0
1426 3 21.582 1.7985 23.3805 0 0 0
3471 3 1.7985 3.597 26.9775 0 0 0
3731 3 1.7985 28.776 8.9925 0 0 0
2694 3 10.791 8.9925 12.5895 0 0 0
1487 3 19.7835 7.194 5.3955 0 0 0
1808 3 16.1865 1.7985 3.597 0 0 0
3400 3 5.3955 34.1715 32.373 0 0 0
146 3 34.1715 26.9775 7.194 0 0 0
577 3 32.373 32.373 14.388 0 0 0
816 3 26.9775 19.7835 10.791 0 0 0
2803 3 8.9925 17.985 1.7985 0 0 0
3971 3 0.0 28.776 17.985 0 0 0
3875 3 0.0 10.791 25.179 0 0 0
2782 4 10.791 16.1865 19.7835 0 0 0
3157 4 7.194 10.791 32.373 0 0 0
3043 4 5.3955 3.597 1.7985 0 0 0
3200 4 5.3955 16.1865 32.373 0 0 0
3678 4 3.597 23.3805 34.1715 0 0 0
2071 4 16.1865 21.582 26.9775 0 0 0
646 4 28.776 5.3955 5.3955 0 0 0
3481 4 3.597 7.194 0.0 0 0 0
91 4 34.1715 14.388 19.7835 0 0 0
1175 4 23.3805 14.388 12.5895 0 0 0
2266 4 14.388 5.3955 23.3805 0 0 0
1300 4 23.3805 26.9775 14.388 0 0 0
2487 4 12.5895 25.179 5.3955 0 0 0
3122 4 7.194 12.5895 1.7985 0 0 0
2539 4 12.5895 28.776 16.1865 0 0 0
3173 4 7.194 14.388 10.791 0 0 0
358 4 32.373 12.5895 34.1715 0 0 0
1732 4 19.7835 30.5745 7.194 0 0 0
1608 4 19.7835 19.7835 3.597 0 0 0
3549 4 3.597 10.791 25.179 0 0 0
1678 4 21.582 23.3805 34.1715 0 0 0
3637 4 3.597 17.985 32.373 0 0 0
1648 4 19.7835 23.3805 3.597 0 0 0
2476 4 12.5895 23.3805 28.776 0 0 0
2558 4 14.388 30.5745 34.1715 0 0 0
3543 4 1.7985 10.791 19.7835 0 0 0
2957 4 10.791 28.776 32.373 0 0 0
3624 4 1.7985 19.7835 17.985 0 0 0
1967 4 16.1865 14.388 5.3955 0 0 0
219 4 30.5745 0.0 16.1865 0 0 0
1938 4 17.985 12.5895 16.1865 0 0 0
2264 4 12.5895 5.3955 17.985 0 0 0
79 4 34.1715 10.791 34.1715 0 0 0
2905 4 10.791 25.179 21.582 0 0 0
2745 4 10.791 10.791 21.582 0 0 0
1120 4 23.3805 8.9925 32.373 0 0 0
1475 4 19.7835 3.597 30.5745 0 0 0
980 4 26.9775 34.1715 14.388 0 0 0
2825 4 10.791 17.985 21.582 0 0 0
55 4 34.1715 7.194 26.9775 0 0 0
2018 4 17.985 19.7835 16.1865 0 0 0
631 4 26.9775 0.0 26.9775 0 0 0
1904 4 16.1865 8.9925 17.985 0 0 0
2011 4 16.1865 17.985 8.9925 0 0 0
1865 4 17.985 3.597 21.582 0 0 0
2639 4 8.9925 0.0 34.1715 0 0 0
1848 4 16.1865 5.3955 3.597 0 0 0
43 4 34.1715 7.194 5.3955 0 0 0
1045 4 25.179 3.597 3.597 0 0 0
3979 4 0.0 28.776 32.373 0 0 0
2014 4 17.985 19.7835 12.5895 0 0 0
3420 4 1.7985 1.7985 14.388 0 0 0
3440 4 1.7985 1.7985 32.373 0 0 0
2003 4 16.1865 17.985 1.7985 0 0 0
3681 4 3.597 25.179 0.0 0 0 0
2136 4 16.1865 30.5745 10.791 0 0 0
2900 4 8.9925 26.9775 14.388 0 0 0
3591 4 1.7985 14.388 26.9775 0 0 0
1093 4 25.179 7.194 10.791 0 0 0
2530 4 14.388 30.5745 8.9925 0 0 0
3379 4 5.3955 32.373 16.1865 0 0 0
2856 4 8.9925 23.3805 10.791 0 0 0
1042 4 25.179 5.3955 1.7985 0 0 0
865 4 28.776 21.582 21.582 0 0 0
1755 4 19.7835 28.776 30.5745 0 0 0
1682 4 21.582 26.9775 1.7985 0 0 0
3784 4 1.7985 34.1715 17.985 0 0 0
939 4 26.9775 28.776 16.1865 0 0 0
3387 4 5.3955 32.373 23.3805 0 0 0
1244 4 23.3805 23.3805 0.0 0 0 0
3320 4 5.3955 26.9775 32.373 0 0 0
1651 4 19.7835 21.582 8.9925 0 0 0
1029 4 25.179 0.0 25.179 0 0 0
1255 4 23.3805 21.582 12.5895 0 0 0
2697 4 10.791 7.194 14.388 0 0 0
2067 4 16.1865 21.582 23.3805 0 0 0
2862 4 10.791 23.3805 19.7835 0 0 0
2925 4 10.791 28.776 3.597 0 0 0
48 4 34.1715 8.9925 10.791 0 0 0
2720 4 8.9925 8.9925 32.373 0 0 0
3062 4 7.194 5.3955 19.7835 0 0 0
759 4 26.9775 10.791 34.1715 0 0 0
2657 4 10.791 3.597 14.388 0 0 0
2552 4 12.5895 30.5745 25.179 0 0 0
3532 4 1.7985 12.5895 7.194 0 0 0
416 4 30.5745 19.7835 10.791 0 0 0
2323 4 12.5895 10.791 1.7985 0 0 0
2562 4 14.388 34.1715 1.7985 0 0 0
3115 4 5.3955 7.194 30.5745 0 0 0
1412 4 19.7835 1.7985 7.194 0 0 0
1396 4 23.3805 34.1715 28.776 0 0 0
3265 4 7.194 21.582 21.582 0 0 0
1700 4 19.7835 26.9775 14.388 0 0 0
684 4 26.9775 8.9925 0.0 0 0 0
496 4 30.5745 26.9775 10.791 0 0 0
600 4 30.5745 34.1715 32.373 0 0 0
1965 4 17.985 14.388 3.597 0 0 0
3589 4 3.597 14.388 25.179 0 0 0
1522 4 21.582 12.5895 1.7985 0 0 0
771 4 26.9775 14.388 8.9925 0 0 0
257 4 32.373 3.597 14.388 0 0 0
194 4 34.1715 34.1715 21.582 0 0 0
356 4 30.5745 12.5895 28.776 0 0 0
2812 4 8.9925 19.7835 7.194 0 0 0
3819 4 0.0 0.0 32.373 0 0 0
460 4 30.5745 23.3805 14.388 0 0 0
3850 4 0.0 8.9925 16.1865 0 0 0
2711 4 8.9925 7.194 26.9775 0 0 0
619 4 26.9775 0.0 16.1865 0 0 0
1796 4 19.7835 34.1715 28.776 0 0 0
71 4 34.1715 10.791 19.7835 0 0 0
2269 4 14.388 3.597 25.179 0 0 0
1552 4 19.7835 12.5895 25.179 0 0 0
3997 4 0.0 32.373 28.776 0 0 0
123 4 34.1715 21.582 5.3955 0 0 0
2356 4 12.5895 12.5895 28.776 0 0 0
2380 4 12.5895 16.1865 14.388 0 0 0
3906 4 0.0 19.7835 8.9925 0 0 0
1051 4 23.3805 3.597 8.9925 0 0 0
1375 4 23.3805 32.373 12.5895 0 0 0
1748 4 19.7835 30.5745 21.582 0 0 0
1916 4 16.1865 8.9925 28.776 0 0 0
3091 4 5.3955 7.194 8.9925 0 0 0
2346 4 14.388 12.5895 23.3805 0 0 0
1713 4 21.582 25.179 28.776 0 0 0
645 4 28.776 3.597 3.597 0 0 0
3179 4 5.3955 14.388 16.1865 0 0 0
821 4 28.776 17.985 17.985 0 0 0
96 4 34.1715 16.1865 25.179 0 0 0
1099 4 23.3805 7.194 16.1865 0 0 0
1298 4 25.179 26.9775 16.1865 0 0 0
103 4 34.1715 17.985 5.3955 0 0 0
2278 4 14.388 5.3955 34.1715 0 0 0
1594 4 21.582 16.1865 30.5745 0 0 0
2978 4 10.791 34.1715 16.1865 0 0 0
624 4 26.9775 1.7985 17.985 0 0 0
464 4 30.5745 23.3805 17.985 0 0 0
3193 4 7.194 14.388 28.776 0 0 0
284 4 30.5745 8.9925 0.0 0 0 0
3388 4 5.3955 34.1715 21.582 0 0 0
2975 4 8.9925 32.373 12.5895 0 0 0
3592 4 1.7985 16.1865 25.179 0 0 0
3314 4 7.194 26.9775 30.5745 0 0 0
2229 4 14.388 0.0 25.179 0 0 0
3670 4 3.597 23.3805 26.9775 0 0 0
3495 4 1.7985 7.194 12.5895 0 0 0
1859 4 16.1865 3.597 16.1865 0 0 0
271 4 30.5745 3.597 26.9775 0 0 0
40 4 34.1715 5.3955 32.373 0 0 0
3800 4 1.7985 34.1715 32.373 0 0 0
81 4 34.1715 14.388 1.7985 0 0 0
1113 4 25.179 7.194 28.776 0 0 0
1971 4 16.1865 14.388 8.9925 0 0 0
541 4 32.373 28.776 17.985 0 0 0
3918 4 0.0 19.7835 30.5745 0 0 0
2755 4 8.9925 10.791 30.5745 0 0 0
2909 4 10.791 25.179 25.179 0 0 0
2785 4 10.791 14.388 21.582 0 0 0
3427 4 1.7985 0.0 23.3805 0 0 0
2524 4 12.5895 30.5745 0.0 0 0 0
779 4 26.9775 14.388 16.1865 0 0 0
1203 4 23.3805 17.985 1.7985 0 0 0
3025 4 7.194 0.0 21.582 0 0 0
671 4 26.9775 3.597 26.9775 0 0 0
1730 4 21.582 30.5745 8.9925 0 0 0
334 4 32.373 12.5895 12.5895 0 0 0
1977 4 17.985 14.388 14.388 0 0 0
20 4 34.1715 1.7985 32.373 0 0 0
3666 4 3.597 23.3805 23.3805 0 0 0
335 4 30.5745 10.791 12.5895 0 0 0
3579 4 1.7985 14.388 16.1865 0 0 0
395 4 30.5745 14.388 30.5745 0 0 0
354 4 32.373 12.5895 30.5745 0 0 0
1096 4 23.3805 8.9925 10.791 0 0 0
246 4 32.373 5.3955 5.3955 0 0 0
1479 4 19.7835 3.597 34.1715 0 0 0
3202 4 7.194 19.7835 1.7985 0 0 0
3433 4 3.597 0.0 28.776 0 0 0
2620 4 8.9925 1.7985 14.388 0 0 0
394 4 32.373 16.1865 30.5745 0 0 0
2168 4 16.1865 34.1715 3.597 0 0 0
189 4 34.1715 32.373 16.1865 0 0 0
2573 4 14.388 32.373 10.791 0 0 0
382 4 32.373 16.1865 19.7835 0 0 0
3297 4 7.194 25.179 14.388 0 0 0
3797 4 3.597 32.373 32.373 0 0 0
2353 4 14.388 10.791 28.776 0 0 0
1477 4 21.582 3.597 32.373 0 0 0
3027 4 5.3955 0.0 23.3805 0 0 0
2292 4 12.5895 8.9925 7.194 0 0 0
2396 4 12.5895 16.1865 28.776 0 0 0
3347 4 5.3955 28.776 23.3805 0 0 0
2106 4 17.985 26.9775 23.3805 0 0 0
1483 4 19.7835 7.194 1.7985 0 0 0
1841 4 17.985 3.597 0.0 0 0 0
3789 4 3.597 32.373 25.179 0 0 0
2417 4 14.388 17.985 14.388 0 0 0
2589 4 14.388 32.373 25.179 0 0 0
1843 4 16.1865 3.597 1.7985 0 0 0
153 4 34.1715 25.179 23.3805 0 0 0
2791 4 8.9925 14.388 26.9775 0 0 0
1771 4 19.7835 32.373 8.9925 0 0 0
833 4 28.776 17.985 28.776 0 0 0
1236 4 23.3805 19.7835 28.776 0 0 0
2341 4 14.388 10.791 17.985 0 0 0
3703 4 1.7985 25.179 19.7835 0 0 0
1597 4 21.582 14.388 32.373 0 0 0
3068 4 5.3955 5.3955 21.582 0 0 0
1636 4 19.7835 19.7835 28.776 0 0 0
3683 4 1.7985 25.179 1.7985 0 0 0
3965 4 0.0 28.776 7.194 0 0 0
951 4 26.9775 28.776 26.9775 0 0 0
1716 4 19.7835 26.9775 28.776 0 0 0
3988 4 0.0 34.1715 12.5895 0 0 0
3448 4 1.7985 5.3955 3.597 0 0 0
414 4 32.373 19.7835 12.5895 0 0 0
1245 4 25.179 21.582 3.597 0 0 0
2739 4 8.9925 10.791 16.1865 0 0 0
2568 4 12.5895 34.1715 3.597 0 0 0
1839 4 16.1865 0.0 34.1715 0 0 0
2303 4 12.5895 7.194 19.7835 0 0 0
1427 4 19.7835 0.0 23.3805 0 0 0
1650 4 21.582 23.3805 8.9925 0 0 0
2408 4 12.5895 19.7835 3.597 0 0 0
302 4 32.373 8.9925 19.7835 0 0 0
3172 4 5.3955 16.1865 7.194 0 0 0
572 4 30.5745 34.1715 7.194 0 0 0
3285 4 7.194 25.179 3.597 0 0 0
2119 4 16.1865 25.179 34.1715 0 0 0
3153 4 7.194 10.791 28.776 0 0 0
2026 4 17.985 19.7835 23.3805 0 0 0
3075 4 5.3955 3.597 30.5745 0 0 0
3680 4 1.7985 23.3805 32.373 0 0 0
1959 4 16.1865 10.791 34.1715 0 0 0
1374 4 25.179 34.1715 12.5895 0 0 0
647 4 26.9775 3.597 5.3955 0 0 0
1405 4 21.582 0.0 3.597 0 0 0
3719 4 1.7985 25.179 34.1715 0 0 0
3220 4 5.3955 19.7835 14.388 0 0 0
221 4 32.373 0.0 17.985 0 0 0
2981 4 10.791 32.373 17.985 0 0 0
2633 4 10.791 0.0 28.776 0 0 0
2287 4 12.5895 7.194 5.3955 0 0 0
1056 4 23.3805 5.3955 10.791 0 0 0
957 4 28.776 28.776 32.373 0 0 0
938 4 28.776 30.5745 16.1865 0 0 0
3385 4 7.194 32.373 21.582 0 0 0
2206 4 14.388 1.7985 5.3955 0 0 0
1277 4 25.179 21.582 32.373 0 0 0
1275 4 23.3805 21.582 30.5745 0 0 0
1523 4 19.7835 10.791 1.7985 0 0 0
1546 4 21.582 12.5895 23.3805 0 0 0
1767 4 19.7835 32.373 5.3955 0 0 0
2133 4 17.985 28.776 10.791 0 0 0
562 4 32.373 34.1715 1.7985 0 0 0
1531 4 19.7835 10.791 8.9925 0 0 0
2360 4 12.5895 12.5895 32.373 0 0 0
1945 4 17.985 10.791 21.582 0 0 0
1800 4 19.7835 34.1715 32.373 0 0 0
2959 4 8.9925 28.776 34.1715 0 0 0
516 4 30.5745 26.9775 28.776 0 0 0
325 4 32.373 10.791 3.597 0 0 0
3405 4 3.597 0.0 3.597 0 0 0
799 4 26.9775 14.388 34.1715 0 0 0
2447 4 12.5895 21.582 5.3955 0 0 0
470 4 32.373 23.3805 26.9775 0 0 0
1533 4 21.582 10.791 10.791 0 0 0
313 4 32.373 7.194 28.776 0 0 0
3955 4 0.0 25.179 25.179 0 0 0
1763 4 19.7835 32.373 1.7985 0 0 0
904 4 26.9775 26.9775 17.985 0 0 0
566 4 32.373 34.1715 5.3955 0 0 0
2851 4 8.9925 21.582 8.9925 0 0 0
95 4 34.1715 14.388 26.9775 0 0 0
3392 4 5.3955 34.1715 25.179 0 0 0
239 4 30.5745 0.0 34.1715 0 0 0
203 4 30.5745 0.0 1.7985 0 0 0
3964 4 0.0 30.5745 5.3955 0 0 0
1064 4 23.3805 5.3955 17.985 0 0 0
503 4 30.5745 25.179 19.7835 0 0 0
132 4 34.1715 23.3805 17.985 0 0 0
465 4 32.373 21.582 21.582 0 0 0
2245 4 14.388 3.597 3.597 0 0 0
3824 4 0.0 5.3955 5.3955 0 0 0
1339 4 23.3805 28.776 16.1865 0 0 0
842 4 28.776 23.3805 1.7985 0 0 0
436 4 30.5745 19.7835 28.776 0 0 0
3460 4 1.7985 5.3955 14.388 0 0 0
3519 4 1.7985 7.194 34.1715 0 0 0
266 4 32.373 5.3955 23.3805 0 0 0
2634 4 10.791 1.7985 30.5745 0 0 0
3289 4 7.194 25.179 7.194 0 0 0
2157 4 17.985 28.776 32.373 0 0 0
1920 4 16.1865 8.9925 32.373 0 0 0
3959 4 0.0 25.179 32.373 0 0 0
882 4 28.776 26.9775 1.7985 0 0 0
785 4 28.776 14.388 21.582 0 0 0
3198 4 7.194 16.1865 34.1715 0 0 0
3210 4 7.194 19.7835 8.9925 0 0 0
3826 4 0.0 5.3955 8.9925 0 0 0
3990 4 0.0 34.1715 16.1865 0 0 0
3421 4 3.597 0.0 17.985 0 0 0
2444 4 12.5895 23.3805 0.0 0 0 0
2220 4 12.5895 1.7985 14.388 0 0 0
2618 4 10.791 1.7985 16.1865 0 0 0
3344 4 5.3955 30.5745 17.985 0 0 0
169 4 34.1715 28.776 16.1865 0 0 0
390 4 32.373 16.1865 26.9775 0 0 0
1217 4 25.179 17.985 14.388 0 0 0
1036 4 23.3805 1.7985 28.776 0 0 0
1695 4 19.7835 25.179 12.5895 0 0 0
3061 4 7.194 3.597 17.985 0 0 0
2253 4 14.388 3.597 10.791 0 0 0
273 4 32.373 3.597 28.776 0 0 0
1793 4 21.582 32.373 28.776 0 0 0
2680 4 8.9925 5.3955 32.373 0 0 0
3352 4 5.3955 30.5745 25.179 0 0 0
2301 4 14.388 7.194 17.985 0 0 0
3125 4 7.194 10.791 3.597 0 0 0
3934 4 0.0 23.3805 23.3805 0 0 0
2283 4 12.5895 7.194 1.7985 0 0 0
380 4 30.5745 16.1865 14.388 0 0 0
3021 4 7.194 0.0 17.985 0 0 0
1402 4 21.582 1.7985 1.7985 0 0 0
810 4 28.776 19.7835 8.9925 0 0 0
1087 4 23.3805 7.194 5.3955 0 0 0
3973 4 0.0 28.776 21.582 0 0 0
3236 4 5.3955 19.7835 28.776 0 0 0
2234 4 14.388 1.7985 30.5745 0 0 0
1454 4 21.582 5.3955 12.5895 0 0 0
2221 4 14.388 0.0 17.985 0 0 0
3576 4 1.7985 16.1865 10.791 0 0 0
2350 4 14.388 12.5895 26.9775 0 0 0
318 4 32.373 8.9925 34.1715 0 0 0
323 4 30.5745 10.791 1.7985 0 0 0
1075 4 23.3805 3.597 30.5745 0 0 0
2930 4 10.791 30.5745 8.9925 0 0 0
705 4 28.776 7.194 21.582 0 0 0
2700 4 8.9925 8.9925 14.388 0 0 0
2679 4 8.9925 3.597 34.1715 0 0 0
2263 4 12.5895 3.597 19.7835 0 0 0
3286 4 7.194 26.9775 5.3955 0 0 0
3037 4 7.194 0.0 32.373 0 0 0
1551 4 19.7835 10.791 26.9775 0 0 0
402 4 32.373 19.7835 1.7985 0 0 0
1641 4 21.582 21.582 0.0 0 0 0
3685 4 3.597 25.179 3.597 0 0 0
1421 4 21.582 0.0 17.985 0 0 0
3586 4 3.597 16.1865 23.3805 0 0 0
2464 4 12.5895 23.3805 17.985 0 0 0
1675 4 19.7835 21.582 30.5745 0 0 0
1252 4 23.3805 23.3805 7.194 0 0 0
1954 4 17.985 12.5895 30.5745 0 0 0
1470 4 21.582 5.3955 26.9775 0 0 0
1820 4 16.1865 1.7985 14.388 0 0 0
727 4 26.9775 10.791 5.3955 0 0 0
3520 4 1.7985 8.9925 32.373 0 0 0
2799 4 8.9925 14.388 34.1715 0 0 0
804 4 26.9775 19.7835 0.0 0 0 0
3084 4 5.3955 8.9925 0.0 0 0 0
832 4 26.9775 19.7835 25.179 0 0 0
2028 4 16.1865 19.7835 21.582 0 0 0
2748 4 8.9925 12.5895 21.582 0 0 0
2199 4 16.1865 32.373 34.1715 0 0 0
1638 4 21.582 19.7835 34.1715 0 0 0
3036 4 5.3955 1.7985 28.776 0 0 0
3682 4 3.597 26.9775 1.7985 0 0 0
3832 4 0.0 5.3955 19.7835 0 0 0
3353 4 7.194 28.776 28.776 0 0 0
3982 4 0.0 34.1715 1.7985 0 0 0
3641 4 3.597 21.582 0.0 0 0 0
2506 4 14.388 26.9775 23.3805 0 0 0
1591 4 19.7835 14.388 26.9775 0 0 0
2838 4 10.791 19.7835 34.1715 0 0 0
3324 4 5.3955 30.5745 0.0 0 0 0
2086 4 17.985 26.9775 5.3955 0 0 0
2869 4 10.791 21.582 25.179 0 0 0
3696 4 1.7985 26.9775 10.791 0 0 0
2155 4 16.1865 28.776 30.5745 0 0 0
1854 4 17.985 5.3955 12.5895 0 0 0
873 4 28.776 21.582 28.776 0 0 0
2103 4 16.1865 25.179 19.7835 0 0 0
74 4 34.1715 12.5895 21.582 0 0 0
663 4 26.9775 3.597 19.7835 0 0 0
735 4 26.9775 10.791 12.5895 0 0 0
2902 4 10.791 26.9775 19.7835 0 0 0
3165 4 7.194 14.388 3.597 0 0 0
2192 4 16.1865 34.1715 25.179 0 0 0
2507 4 12.5895 25.179 23.3805 0 0 0
1257 4 25.179 21.582 14.388 0 0 0
616 4 26.9775 1.7985 10.791 0 0 0
102 4 34.1715 19.7835 0.0 0 0 0
3166 4 7.194 16.1865 5.3955 0 0 0
1768 4 19.7835 34.1715 3.597 0 0 0
3130 4 7.194 12.5895 8.9925 0 0 0
3564 4 1.7985 16.1865 0.0 0 0 0
1219 4 23.3805 17.985 16.1865 0 0 0
446 4 32.373 23.3805 5.3955 0 0 0
1846 4 17.985 5.3955 5.3955 0 0 0
2406 4 14.388 19.7835 5.3955 0 0 0
1160 4 23.3805 12.5895 32.373 0 0 0
1585 4 21.582 14.388 21.582 0 0 0
2448 4 12.5895 23.3805 3.597 0 0 0
2531 4 12.5895 28.776 8.9925 0 0 0
400 4 30.5745 16.1865 32.373 0 0 0
3917 4 0.0 17.985 28.776 0 0 0
2175 4 16.1865 32.373 12.5895 0 0 0
554 4 32.373 30.5745 30.5745 0 0 0
415 4 30.5745 17.985 12.5895 0 0 0
1291 4 23.3805 25.179 8.9925 0 0 0
2938 4 10.791 30.5745 16.1865 0 0 0
159 4 34.1715 25.179 34.1715 0 0 0
923 4 26.9775 28.776 1.7985 0 0 0
3962 4 0.0 30.5745 1.7985 0 0 0
2835 4 8.9925 17.985 30.5745 0 0 0
3141 4 7.194 10.791 17.985 0 0 0
1722 4 21.582 30.5745 1.7985 0 0 0
3309 4 7.194 25.179 25.179 0 0 0
723 4 26.9775 10.791 1.7985 0 0 0
2796 4 8.9925 16.1865 28.776 0 0 0
3437 4 3.597 0.0 32.373 0 0 0
1178 4 25.179 16.1865 16.1865 0 0 0
38 4 34.1715 5.3955 28.776 0 0 0
3423 4 1.7985 0.0 19.7835 0 0 0
2898 4 10.791 26.9775 16.1865 0 0 0
1306 4 25.179 26.9775 23.3805 0 0 0
3250 4 7.194 23.3805 8.9925 0 0 0
3059 4 5.3955 3.597 16.1865 0 0 0
3828 4 0.0 5.3955 12.5895 0 0 0
3769 4 3.597 32.373 7.194 0 0 0
1948 4 16.1865 12.5895 21.582 0 0 0
2653 4 10.791 3.597 10.791 0 0 0
170 4 34.1715 30.5745 14.388 0 0 0
2097 4 17.985 25.179 14.388 0 0 0
660 4 26.9775 5.3955 14.388 0 0 0
2972 4 8.9925 34.1715 7.194 0 0 0
857 4 28.776 21.582 14.388 0 0 0
1993 4 17.985 14.388 28.776 0 0 0
2630 4 10.791 1.7985 26.9775 0 0 0
2662 4 10.791 5.3955 19.7835 0 0 0
3369 4 7.194 32.373 7.194 0 0 0
811 4 26.9775 17.985 8.9925 0 0 0
813 4 28.776 17.985 10.791 0 0 0
260 4 30.5745 5.3955 14.388 0 0 0
1927 4 16.1865 10.791 5.3955 0 0 0
861 4 28.776 21.582 17.985 0 0 0
3012 4 5.3955 1.7985 7.194 0 0 0
1825 4 17.985 0.0 21.582 0 0 0
480 4 30.5745 23.3805 32.373 0 0 0
1580 4 19.7835 16.1865 14.388 0 0 0
595 4 30.5745 32.373 30.5745 0 0 0
768 4 26.9775 16.1865 3.597 0 0 0
2064 4 16.1865 23.3805 17.985 0 0 0
1377 4 25.179 32.373 14.388 0 0 0
440 4 30.5745 19.7835 32.373 0 0 0
2854 4 10.791 23.3805 12.5895 0 0 0
3809 4 0.0 0.0 14.388 0 0 0
2605 4 10.791 0.0 3.597 0 0 0
1815 4 16.1865 0.0 12.5895 0 0 0
303 4 30.5745 7.194 19.7835 0 0 0
3628 4 1.7985 19.7835 21.582 0 0 0
1147 4 23.3805 10.791 23.3805 0 0 0
3536 4 1.7985 12.5895 10.791 0 0 0
471 4 30.5745 21.582 26.9775 0 0 0
3244 4 5.3955 23.3805 0.0 0 0 0
1262 4 25.179 23.3805 19.7835 0 0 0
551 4 30.5745 28.776 26.9775 0 0 0
3845 4 0.0 7.194 7.194 0 0 0
567 4 30.5745 32.373 5.3955 0 0 0
2822 4 10.791 19.7835 19.7835 0 0 0
3570 4 3.597 16.1865 8.9925 0 0 0
2044 4 16.1865 23.3805 0.0 0 0 0
3380 4 5.3955 34.1715 14.388 0 0 0
3976 4 0.0 30.5745 26.9775 0 0 0
61 4 34.1715 10.791 1.7985 0 0 0
478 4 32.373 23.3805 34.1715 0 0 0
1823 4 16.1865 0.0 19.7835 0 0 0
1455 4 19.7835 3.597 12.5895 0 0 0
16 4 34.1715 1.7985 25.179 0 0 0
591 4 30.5745 32.373 26.9775 0 0 0
867 4 26.9775 21.582 23.3805 0 0 0
3079 4 5.3955 3.597 34.1715 0 0 0
1542 4 21.582 12.5895 19.7835 0 0 0
2934 4 10.791 30.5745 12.5895 0 0 0
3465 4 3.597 3.597 21.582 0 0 0
724 4 26.9775 12.5895 0.0 0 0 0
2828 4 8.9925 19.7835 21.582 0 0 0
420 4 30.5745 19.7835 14.388 0 0 0
1103 4 23.3805 7.194 19.7835 0 0 0
213 4 32.373 0.0 10.791 0 0 0
3529 4 3.597 10.791 7.194 0 0 0
1346 4 25.179 30.5745 23.3805 0 0 0
3355 4 5.3955 28.776 30.5745 0 0 0
2987 4 8.9925 32.373 23.3805 0 0 0
2644 4 8.9925 5.3955 0.0 0 0 0
1634 4 21.582 19.7835 30.5745 0 0 0
1019 4 23.3805 0.0 16.1865 0 0 0
1097 4 25.179 7.194 14.388 0 0 0
3577 4 3.597 14.388 14.388 0 0 0
1478 4 21.582 5.3955 34.1715 0 0 0
3287 4 5.3955 25.179 5.3955 0 0 0
1875 4 16.1865 3.597 30.5745 0 0 0
1480 4 19.7835 5.3955 32.373 0 0 0
3787 4 1.7985 32.373 23.3805 0 0 0
202 4 32.373 1.7985 1.7985 0 0 0
899 4 26.9775 25.179 16.1865 0 0 0
3114 4 7.194 8.9925 30.5745 0 0 0
1458 4 21.582 5.3955 16.1865 0 0 0
3159 4 5.3955 10.791 34.1715 0 0 0
2403 4 12.5895 17.985 1.7985 0 0 0
2297 4 14.388 7.194 14.388 0 0 0
2728 4 8.9925 12.5895 3.597 0 0 0
2744 4 8.9925 12.5895 17.985 0 0 0
1165 4 25.179 14.388 3.597 0 0 0
1085 4 25.179 7.194 3.597 0 0 0
2489 4 14.388 25.179 7.194 0 0 0
2364 4 12.5895 16.1865 0.0 0 0 0
3762 4 3.597 34.1715 1.7985 0 0 0
2154 4 17.985 30.5745 30.5745 0 0 0
2231 4 12.5895 0.0 26.9775 0 0 0
1316 4 23.3805 26.9775 28.776 0 0 0
1827 4 16.1865 0.0 23.3805 0 0 0
2163 4 16.1865 32.373 1.7985 0 0 0
718 4 28.776 8.9925 34.1715 0 0 0
3916 4 0.0 19.7835 26.9775 0 0 0
2963 4 8.9925 32.373 1.7985 0 0 0
3904 4 0.0 19.7835 5.3955 0 0 0
1488 4 19.7835 8.9925 3.597 0 0 0
2891 4 8.9925 25.179 8.9925 0 0 0
959 4 26.9775 28.776 34.1715 0 0 0
1 4 34.1715 0.0 1.7985 0 0 0
3555 4 1.7985 10.791 30.5745 0 0 0
2602 4 10.791 1.7985 1.7985 0 0 0
3441 4 3.597 3.597 0.0 0 0 0
1599 4 19.7835 14.388 34.1715 0 0 0
3720 4 1.7985 26.9775 32.373 0 0 0
640 4 26.9775 1.7985 32.373 0 0 0
3807 4 0.0 0.0 10.791 0 0 0
1724 4 19.7835 30.5745 0.0 0 0 0
1667 4 19.7835 21.582 23.3805 0 0 0
47 4 34.1715 7.194 12.5895 0 0 0
41 4 34.1715 7.194 1.7985 0 0 0
3403 4 1.7985 0.0 1.7985 0 0 0
408 4 30.5745 19.7835 3.597 0 0 0
1379 4 23.3805 32.373 16.1865 0 0 0
921 4 28.776 28.776 0.0 0 0 0
360 4 30.5745 12.5895 32.373 0 0 0
1435 4 19.7835 0.0 30.5745 0 0 0
2445 4 14.388 21.582 3.597 0 0 0
2731 4 8.9925 10.791 8.9925 0 0 0
971 4 26.9775 32.373 8.9925 0 0 0
2463 4 12.5895 21.582 19.7835 0 0 0
1877 4 17.985 3.597 32.373 0 0 0
3307 4 5.3955 25.179 23.3805 0 0 0
301 4 32.373 7.194 17.985 0 0 0
2317 4 14.388 7.194 32.373 0 0 0
475 4 30.5745 21.582 30.5745 0 0 0
1234 4 25.179 19.7835 30.5745 0 0 0
1869 4 17.985 3.597 25.179 0 0 0
1241 4 25.179 21.582 0.0 0 0 0
1430 4 21.582 1.7985 26.9775 0 0 0
3712 4 1.7985 26.9775 25.179 0 0 0
1653 4 21.582 21.582 10.791 0 0 0
1527 4 19.7835 10.791 5.3955 0 0 0
3661 4 3.597 21.582 17.985 0 0 0
2906 4 10.791 26.9775 23.3805 0 0 0
3676 4 1.7985 23.3805 28.776 0 0 0
2374 4 14.388 16.1865 12.5895 0 0 0
113 4 34.1715 17.985 23.3805 0 0 0
3866 4 0.0 12.5895 8.9925 0 0 0
3734 4 3.597 30.5745 12.5895 0 0 0
2402 4 14.388 19.7835 1.7985 0 0 0
279 4 30.5745 3.597 34.1715 0 0 0
1500 4 19.7835 8.9925 14.388 0 0 0
2908 4 8.9925 26.9775 21.582 0 0 0
2535 4 12.5895 28.776 12.5895 0 0 0
2953 4 10.791 28.776 28.776 0 0 0
54 4 34.1715 8.9925 21.582 0 0 0
1461 4 21.582 3.597 17.985 0 0 0
2077 4 17.985 21.582 32.373 0 0 0
3276 4 5.3955 23.3805 28.776 0 0 0
1701 4 21.582 25.179 17.985 0 0 0
2557 4 14.388 28.776 32.373 0 0 0
89 4 34.1715 14.388 16.1865 0 0 0
299 4 30.5745 7.194 16.1865 0 0 0
524 4 30.5745 30.5745 0.0 0 0 0
3414 4 3.597 1.7985 12.5895 0 0 0
374 4 32.373 16.1865 12.5895 0 0 0
2483 4 12.5895 25.179 1.7985 0 0 0
3277 4 7.194 21.582 32.373 0 0 0
1806 4 17.985 1.7985 5.3955 0 0 0
1464 4 19.7835 5.3955 17.985 0 0 0
1224 4 23.3805 19.7835 17.985 0 0 0
1022 4 25.179 1.7985 19.7835 0 0 0
3618 4 3.597 19.7835 16.1865 0 0 0
1543 4 19.7835 10.791 19.7835 0 0 0
2985 4 10.791 32.373 21.582 0 0 0
3418 4 3.597 1.7985 16.1865 0 0 0
1014 4 25.179 1.7985 12.5895 0 0 0
256 4 30.5745 5.3955 10.791 0 0 0
3672 4 1.7985 23.3805 25.179 0 0 0
1505 4 21.582 7.194 21.582 0 0 0
1210 4 25.179 19.7835 8.9925 0 0 0
281 4 32.373 7.194 0.0 0 0 0
1115 4 23.3805 7.194 30.5745 0 0 0
185 4 34.1715 32.373 8.9925 0 0 0
3271 4 5.3955 21.582 26.9775 0 0 0
3144 4 5.3955 12.5895 17.985 0 0 0
3167 4 5.3955 14.388 5.3955 0 0 0
1493 4 21.582 7.194 10.791 0 0 0
2060 4 16.1865 23.3805 14.388 0 0 0
3083 4 5.3955 7.194 1.7985 0 0 0
2126 4 17.985 30.5745 5.3955 0 0 0
1310 4 25.179 26.9775 26.9775 0 0 0
2847 4 8.9925 21.582 5.3955 0 0 0
3924 4 0.0 23.3805 5.3955 0 0 0
1545 4 21.582 10.791 21.582 0 0 0
2545 4 14.388 28.776 21.582 0 0 0
2394 4 14.388 16.1865 30.5745 0 0 0
3246 4 7.194 23.3805 5.3955 0 0 0
1228 4 23.3805 19.7835 21.582 0 0 0
432 4 30.5745 19.7835 25.179 0 0 0
2832 4 8.9925 19.7835 25.179 0 0 0
3267 4 5.3955 21.582 23.3805 0 0 0
3365 4 7.194 32.373 3.597 0 0 0
3335 4 5.3955 28.776 12.5895 0 0 0
1866 4 17.985 5.3955 23.3805 0 0 0
995 4 26.9775 32.373 30.5745 0 0 0
3449 4 3.597 3.597 7.194 0 0 0
2943 4 8.9925 28.776 19.7835 0 0 0
2853 4 10.791 21.582 10.791 0 0 0
3963 4 0.0 28.776 3.597 0 0 0
608 4 26.9775 1.7985 3.597 0 0 0
981 4 28.776 32.373 17.985 0 0 0
3284 4 5.3955 26.9775 0.0 0 0 0
1751 4 19.7835 28.776 26.9775 0 0 0
234 4 32.373 1.7985 30.5745 0 0 0
2840 4 8.9925 19.7835 32.373 0 0 0
3315 4 5.3955 25.179 30.5745 0 0 0
3190 4 7.194 16.1865 26.9775 0 0 0
2135 4 16.1865 28.776 12.5895 0 0 0
1180 4 23.3805 16.1865 14.388 0 0 0
2148 4 16.1865 30.5745 21.582 0 0 0
519 4 30.5745 25.179 34.1715 0 0 0
122 4 34.1715 23.3805 0.0 0 0 0
2250 4 14.388 5.3955 8.9925 0 0 0
3652 4 1.7985 23.3805 7.194 0 0 0
3390 4 7.194 34.1715 26.9775 0 0 0
555 4 30.5745 28.776 30.5745 0 0 0
3099 4 5.3955 7.194 16.1865 0 0 0
2661 4 10.791 3.597 17.985 0 0 0
1013 4 25.179 0.0 10.791 0 0 0
1888 4 16.1865 8.9925 3.597 0 0 0
3350 4 7.194 30.5745 26.9775 0 0 0
405 4 32.373 17.985 3.597 0 0 0
1221 4 25.179 17.985 17.985 0 0 0
3254 4 7.194 23.3805 12.5895 0 0 0
3732 4 1.7985 30.5745 7.194 0 0 0
3013 4 7.194 0.0 10.791 0 0 0
2536 4 12.5895 30.5745 10.791 0 0 0
1912 4 16.1865 8.9925 25.179 0 0 0
1576 4 19.7835 16.1865 10.791 0 0 0
793 4 28.776 14.388 28.776 0 0 0
3428 4 1.7985 1.7985 21.582 0 0 0
1757 4 21.582 28.776 32.373 0 0 0
1710 4 21.582 26.9775 26.9775 0 0 0
3081 4 7.194 7.194 0.0 0 0 0
2042 4 17.985 23.3805 1.7985 0 0 0
883 4 26.9775 25.179 1.7985 0 0 0
3773 4 3.597 32.373 10.791 0 0 0
399 4 30.5745 14.388 34.1715 0 0 0
918 4 28.776 26.9775 34.1715 0 0 0
2699 4 8.9925 7.194 16.1865 0 0 0
2615 4 8.9925 0.0 12.5895 0 0 0
50 4 34.1715 8.9925 14.388 0 0 0
781 4 28.776 14.388 17.985 0 0 0
840 4 26.9775 19.7835 32.373 0 0 0
1409 4 21.582 0.0 7.194 0 0 0
3468 4 1.7985 5.3955 21.582 0 0 0
2343 4 12.5895 10.791 19.7835 0 0 0
3781 4 3.597 32.373 17.985 0 0 0
2457 4 14.388 21.582 14.388 0 0 0
2037 4 17.985 17.985 32.373 0 0 0
2671 4 8.9925 3.597 26.9775 0 0 0
1495 4 19.7835 7.194 12.5895 0 0 0
506 4 32.373 26.9775 23.3805 0 0 0
379 4 30.5745 14.388 16.1865 0 0 0
3124 4 5.3955 12.5895 0.0 0 0 0
2145 4 17.985 28.776 21.582 0 0 0
678 4 28.776 5.3955 34.1715 0 0 0
28 4 34.1715 5.3955 10.791 0 0 0
1111 4 23.3805 7.194 26.9775 0 0 0
797 4 28.776 14.388 32.373 0 0 0
2012 4 16.1865 19.7835 7.194 0 0 0
2411 4 12.5895 17.985 8.9925 0 0 0
3435 4 1.7985 0.0 30.5745 0 0 0
1289 4 25.179 25.179 7.194 0 0 0
1602 4 21.582 19.7835 1.7985 0 0 0
3693 4 3.597 25.179 10.791 0 0 0
869 4 28.776 21.582 25.179 0 0 0
3360 4 5.3955 30.5745 32.373 0 0 0
3948 4 0.0 26.9775 12.5895 0 0 0
3026 4 7.194 1.7985 23.3805 0 0 0
1922 4 17.985 12.5895 1.7985 0 0 0
181 4 34.1715 32.373 1.7985 0 0 0
1279 4 23.3805 21.582 34.1715 0 0 0
782 4 28.776 16.1865 19.7835 0 0 0
674 4 28.776 5.3955 30.5745 0 0 0
2508 4 12.5895 26.9775 21.582 0 0 0
547 4 30.5745 28.776 23.3805 0 0 0
651 4 26.9775 3.597 8.9925 0 0 0
2260 4 12.5895 5.3955 14.388 0 0 0
327 4 30.5745 10.791 5.3955 0 0 0
17 4 34.1715 0.0 30.5745 0 0 0
1138 4 25.179 12.5895 16.1865 0 0 0
2140 4 16.1865 30.5745 14.388 0 0 0
535 4 30.5745 28.776 12.5895 0 0 0
1925 4 17.985 10.791 3.597 0 0 0
2031 4 16.1865 17.985 26.9775 0 0 0
317 4 32.373 7.194 32.373 0 0 0
1335 4 23.3805 28.776 12.5895 0 0 0
3478 4 3.597 5.3955 34.1715 0 0 0
2327 4 12.5895 10.791 5.3955 0 0 0
2735 4 8.9925 10.791 12.5895 0 0 0
530 4 32.373 30.5745 8.9925 0 0 0
1321 4 25.179 28.776 0.0 0 0 0
2519 4 12.5895 25.179 34.1715 0 0 0
2907 4 8.9925 25.179 23.3805 0 0 0
3462 4 3.597 5.3955 19.7835 0 0 0
776 4 26.9775 16.1865 10.791 0 0 0
2881 4 10.791 25.179 0.0 0 0 0
1288 4 23.3805 26.9775 3.597 0 0 0
630 4 28.776 1.7985 26.9775 0 0 0
976 4 26.9775 34.1715 10.791 0 0 0
3201 4 7.194 17.985 0.0 0 0 0
1981 4 17.985 14.388 17.985 0 0 0
2764 4 8.9925 16.1865 0.0 0 0 0
133 4 34.1715 21.582 23.3805 0 0 0
2129 4 17.985 28.776 7.194 0 0 0
2068 4 16.1865 23.3805 21.582 0 0 0
1902 4 17.985 8.9925 19.7835 0 0 0
184 4 34.1715 34.1715 3.597 0 0 0
485 4 32.373 25.179 3.597 0 0 0
1740 4 19.7835 30.5745 14.388 0 0 0
3323 4 5.3955 28.776 1.7985 0 0 0
762 4 28.776 16.1865 1.7985 0 0 0
1564 4 19.7835 16.1865 0.0 0 0 0
1749 4 21.582 28.776 25.179 0 0 0
1862 4 17.985 5.3955 19.7835 0 0 0
3442 4 3.597 5.3955 1.7985 0 0 0
204 4 30.5745 1.7985 0.0 0 0 0
928 4 26.9775 30.5745 3.597 0 0 0
2815 4 8.9925 17.985 12.5895 0 0 0
1324 4 23.3805 30.5745 0.0 0 0 0
307 4 30.5745 7.194 23.3805 0 0 0
586 4 32.373 34.1715 23.3805 0 0 0
1516 4 19.7835 8.9925 28.776 0 0 0
3894 4 0.0 16.1865 23.3805 0 0 0
1555 4 19.7835 10.791 30.5745 0 0 0
790 4 28.776 16.1865 26.9775 0 0 0
241 4 32.373 3.597 0.0 0 0 0
544 4 30.5745 30.5745 17.985 0 0 0
1863 4 16.1865 3.597 19.7835 0 0 0
2658 4 10.791 5.3955 16.1865 0 0 0
3923 4 0.0 21.582 3.597 0 0 0
847 4 26.9775 21.582 5.3955 0 0 0
3304 4 5.3955 26.9775 17.985 0 0 0
3258 4 7.194 23.3805 16.1865 0 0 0
1835 4 16.1865 0.0 30.5745 0 0 0
2951 4 8.9925 28.776 26.9775 0 0 0
621 4 28.776 0.0 17.985 0 0 0
3508 4 1.7985 8.9925 21.582 0 0 0
2827 4 8.9925 17.985 23.3805 0 0 0
304 4 30.5745 8.9925 17.985 0 0 0
2328 4 12.5895 12.5895 3.597 0 0 0
593 4 32.373 32.373 28.776 0 0 0
1211 4 23.3805 17.985 8.9925 0 0 0
2684 4 8.9925 8.9925 0.0 0 0 0
10 4 34.1715 1.7985 14.388 0 0 0
3527 4 1.7985 10.791 5.3955 0 0 0
3749 4 3.597 28.776 25.179 0 0 0
3969 4 0.0 28.776 14.388 0 0 0
795 4 26.9775 14.388 30.5745 0 0 0
3456 4 1.7985 5.3955 10.791 0 0 0
378 4 32.373 16.1865 16.1865 0 0 0
58 4 34.1715 8.9925 28.776 0 0 0
291 4 30.5745 7.194 8.9925 0 0 0
1486 4 21.582 8.9925 5.3955 0 0 0
742 4 28.776 12.5895 19.7835 0 0 0
1372 4 23.3805 34.1715 7.194 0 0 0
1342 4 25.179 30.5745 19.7835 0 0 0
3150 4 7.194 12.5895 26.9775 0 0 0
2305 4 14.388 7.194 21.582 0 0 0
715 4 26.9775 7.194 30.5745 0 0 0
3561 4 3.597 14.388 0.0 0 0 0
2640 4 8.9925 1.7985 32.373 0 0 0
1144 4 23.3805 12.5895 17.985 0 0 0
98 4 34.1715 16.1865 28.776 0 0 0
766 4 28.776 16.1865 5.3955 0 0 0
187 4 34.1715 32.373 12.5895 0 0 0
2703 4 8.9925 7.194 19.7835 0 0 0
3219 4 5.3955 17.985 16.1865 0 0 0
688 4 26.9775 8.9925 3.597 0 0 0
739 4 26.9775 10.791 16.1865 0 0 0
2190 4 17.985 34.1715 26.9775 0 0 0
3408 4 1.7985 1.7985 3.597 0 0 0
412 4 30.5745 19.7835 7.194 0 0 0
3658 4 3.597 23.3805 16.1865 0 0 0
1331 4 23.3805 28.776 8.9925 0 0 0
365 4 32.373 14.388 3.597 0 0 0
3168 4 5.3955 16.1865 3.597 0 0 0
1258 4 25.179 23.3805 16.1865 0 0 0
2426 4 14.388 19.7835 23.3805 0 0 0
1936 4 16.1865 12.5895 10.791 0 0 0
3359 4 5.3955 28.776 34.1715 0 0 0
3240 4 5.3955 19.7835 32.373 0 0 0
2611 4 8.9925 0.0 8.9925 0 0 0
3747 4 1.7985 28.776 23.3805 0 0 0
1171 4 23.3805 14.388 8.9925 0 0 0
2795 4 8.9925 14.388 30.5745 0 0 0
1958 4 17.985 12.5895 34.1715 0 0 0
1734 4 21.582 30.5745 12.5895 0 0 0
2834 4 10.791 19.7835 30.5745 0 0 0
3729 4 3.597 28.776 7.194 0 0 0
2808 4 8.9925 19.7835 3.597 0 0 0
2722 4 10.791 12.5895 1.7985 0 0 0
3690 4 3.597 26.9775 8.9925 0 0 0
3065 4 7.194 3.597 21.582 0 0 0
3332 4 5.3955 30.5745 7.194 0 0 0
3977 4 0.0 28.776 28.776 0 0 0
2522 4 14.388 30.5745 1.7985 0 0 0
1001 4 25.179 0.0 0.0 0 0 0
63 4 34.1715 10.791 5.3955 0 0 0
227 4 30.5745 0.0 23.3805 0 0 0
1828 4 16.1865 1.7985 21.582 0 0 0
2613 4 10.791 0.0 10.791 0 0 0
3212 4 5.3955 19.7835 7.194 0 0 0
94 4 34.1715 16.1865 21.582 0 0 0
3474 4 3.597 5.3955 30.5745 0 0 0
2852 4 8.9925 23.3805 7.194 0 0 0
1340 4 23.3805 30.5745 14.388 0 0 0
1129 4 25.179 10.791 7.194 0 0 0
546 4 32.373 30.5745 23.3805 0 0 0
3909 4 0.0 17.985 14.388 0 0 0
3362 4 7.194 34.1715 1.7985 0 0 0
2919 4 8.9925 25.179 34.1715 0 0 0
1128 4 23.3805 12.5895 3.597 0 0 0
3103 4 5.3955 7.194 19.7835 0 0 0
2176 4 16.1865 34.1715 10.791 0 0 0
3654 4 3.597 23.3805 12.5895 0 0 0
2210 4 14.388 1.7985 8.9925 0 0 0
467 4 30.5745 21.582 23.3805 0 0 0
2952 4 8.9925 30.5745 25.179 0 0 0
2956 4 8.9925 30.5745 28.776 0 0 0
1721 4 21.582 28.776 0.0 0 0 0
2870 4 10.791 23.3805 26.9775 0 0 0
1249 4 25.179 21.582 7.194 0 0 0
3346 4 7.194 30.5745 23.3805 0 0 0
2152 4 16.1865 30.5745 25.179 0 0 0
649 4 28.776 3.597 7.194 0 0 0
2484 4 12.5895 26.9775 0.0 0 0 0
2156 4 16.1865 30.5745 28.776 0 0 0
1363 4 23.3805 32.373 1.7985 0 0 0
2624 4 8.9925 1.7985 17.985 0 0 0
589 4 32.373 32.373 25.179 0 0 0
629 4 28.776 0.0 25.179 0 0 0
1609 4 21.582 17.985 7.194 0 0 0
1509 4 21.582 7.194 25.179 0 0 0
2969 4 10.791 32.373 7.194 0 0 0
2626 4 10.791 1.7985 23.3805 0 0 0
2443 4 12.5895 21.582 1.7985 0 0 0
1141 4 25.179 10.791 17.985 0 0 0
622 4 28.776 1.7985 19.7835 0 0 0
1743 4 19.7835 28.776 19.7835 0 0 0
218 4 32.373 1.7985 16.1865 0 0 0
661 4 28.776 3.597 17.985 0 0 0
2817 4 10.791 17.985 14.388 0 0 0
1930 4 17.985 12.5895 8.9925 0 0 0
747 4 26.9775 10.791 23.3805 0 0 0
2606 4 10.791 1.7985 5.3955 0 0 0
3798 4 3.597 34.1715 34.1715 0 0 0
1752 4 19.7835 30.5745 25.179 0 0 0
211 4 30.5745 0.0 8.9925 0 0 0
2015 4 16.1865 17.985 12.5895 0 0 0
3439 4 1.7985 0.0 34.1715 0 0 0
3186 4 7.194 16.1865 23.3805 0 0 0
3374 4 7.194 34.1715 12.5895 0 0 0
1578 4 21.582 16.1865 16.1865 0 0 0
1060 4 23.3805 5.3955 14.388 0 0 0
2861 4 10.791 21.582 17.985 0 0 0
1299 4 23.3805 25.179 16.1865 0 0 0
3354 4 7.194 30.5745 30.5745 0 0 0
3262 4 7.194 23.3805 19.7835 0 0 0
851 4 26.9775 21.582 8.9925 0 0 0
1998 4 17.985 16.1865 34.1715 0 0 0
648 4 26.9775 5.3955 3.597 0 0 0
3750 4 3.597 30.5745 26.9775 0 0 0
3477 4 3.597 3.597 32.373 0 0 0
526 4 32.373 30.5745 5.3955 0 0 0
3625 4 3.597 17.985 21.582 0 0 0
3726 4 3.597 30.5745 5.3955 0 0 0
650 4 28.776 5.3955 8.9925 0 0 0
443 4 30.5745 21.582 1.7985 0 0 0
890 4 28.776 26.9775 8.9925 0 0 0
105 4 34.1715 17.985 8.9925 0 0 0
1572 4 19.7835 16.1865 7.194 0 0 0
1657 4 21.582 21.582 14.388 0 0 0
953 4 28.776 28.776 28.776 0 0 0
249 4 32.373 3.597 7.194 0 0 0
2721 4 10.791 10.791 0.0 0 0 0
2207 4 12.5895 0.0 5.3955 0 0 0
1640 4 19.7835 19.7835 32.373 0 0 0
1220 4 23.3805 19.7835 14.388 0 0 0
2033 4 17.985 17.985 28.776 0 0 0
3546 4 3.597 12.5895 23.3805 0 0 0
2534 4 14.388 30.5745 12.5895 0 0 0
3500 4 1.7985 8.9925 14.388 0 0 0
2480 4 12.5895 23.3805 32.373 0 0 0
784 4 26.9775 16.1865 17.985 0 0 0
176 4 34.1715 30.5745 25.179 0 0 0
226 4 32.373 1.7985 23.3805 0 0 0
253 4 32.373 3.597 10.791 0 0 0
3723 4 1.7985 28.776 1.7985 0 0 0
1023 4 23.3805 0.0 19.7835 0 0 0
1168 4 23.3805 16.1865 3.597 0 0 0
2393 4 14.388 14.388 28.776 0 0 0
3067 4 5.3955 3.597 23.3805 0 0 0
2237 4 14.388 0.0 32.373 0 0 0
1440 4 19.7835 1.7985 32.373 0 0 0
151 4 34.1715 25.179 19.7835 0 0 0
2130 4 17.985 30.5745 8.9925 0 0 0
3073 4 7.194 3.597 28.776 0 0 0
1223 4 23.3805 17.985 19.7835 0 0 0
2637 4 10.791 0.0 32.373 0 0 0
1677 4 21.582 21.582 32.373 0 0 0
1570 4 21.582 16.1865 8.9925 0 0 0
1718 4 21.582 26.9775 34.1715 0 0 0
2365 4 14.388 14.388 3.597 0 0 0
3076 4 5.3955 5.3955 28.776 0 0 0
2727 4 8.9925 10.791 5.3955 0 0 0
2312 4 12.5895 8.9925 25.179 0 0 0
1637 4 21.582 17.985 32.373 0 0 0
264 4 30.5745 5.3955 17.985 0 0 0
2576 4 12.5895 34.1715 10.791 0 0 0
2743 4 8.9925 10.791 19.7835 0 0 0
2339 4 12.5895 10.791 16.1865 0 0 0
2193 4 17.985 32.373 28.776 0 0 0
1906 4 17.985 8.9925 23.3805 0 0 0
3106 4 7.194 8.9925 23.3805 0 0 0
2184 4 16.1865 34.1715 17.985 0 0 0
2194 4 17.985 34.1715 30.5745 0 0 0
575 4 30.5745 32.373 12.5895 0 0 0
2740 4 8.9925 12.5895 14.388 0 0 0
2080 4 16.1865 23.3805 32.373 0 0 0
240 4 30.5745 1.7985 32.373 0 0 0
3229 4 7.194 17.985 25.179 0 0 0
3574 4 3.597 16.1865 12.5895 0 0 0
3806 4 0.0 1.7985 8.9925 0 0 0
1868 4 16.1865 5.3955 21.582 0 0 0
730 4 28.776 12.5895 8.9925 0 0 0
2236 4 12.5895 1.7985 28.776 0 0 0
1568 4 19.7835 16.1865 3.597 0 0 0
2965 4 10.791 32.373 3.597 0 0 0
510 4 32.373 26.9775 26.9775 0 0 0
2701 4 10.791 7.194 17.985 0 0 0
1154 4 25.179 12.5895 30.5745 0 0 0
751 4 26.9775 10.791 26.9775 0 0 0
946 4 28.776 30.5745 23.3805 0 0 0
3585 4 3.597 14.388 21.582 0 0 0
2056 4 16.1865 23.3805 10.791 0 0 0
941 4 28.776 28.776 17.985 0 0 0
1715 4 19.7835 25.179 30.5745 0 0 0
1856 4 16.1865 5.3955 10.791 0 0 0
1092 4 23.3805 8.9925 7.194 0 0 0
2431 4 12.5895 17.985 26.9775 0 0 0
1048 4 23.3805 5.3955 3.597 0 0 0
2139 4 16.1865 28.776 16.1865 0 0 0
3436 4 1.7985 1.7985 28.776 0 0 0
68 4 34.1715 12.5895 10.791 0 0 0
3871 4 0.0 10.791 17.985 0 0 0
1395 4 23.3805 32.373 30.5745 0 0 0
758 4 28.776 12.5895 34.1715 0 0 0
3761 4 3.597 32.373 0.0 0 0 0
3664 4 1.7985 23.3805 17.985 0 0 0
2013 4 17.985 17.985 10.791 0 0 0
2057 4 17.985 21.582 14.388 0 0 0
877 4 28.776 21.582 32.373 0 0 0
3207 4 5.3955 17.985 5.3955 0 0 0
609 4 28.776 0.0 7.194 0 0 0
2308 4 12.5895 8.9925 21.582 0 0 0
925 4 28.776 28.776 3.597 0 0 0
2915 4 8.9925 25.179 30.5745 0 0 0
614 4 28.776 1.7985 12.5895 0 0 0
2051 4 16.1865 21.582 8.9925 0 0 0
3169 4 7.194 14.388 7.194 0 0 0
3602 4 3.597 19.7835 1.7985 0 0 0
369 4 32.373 14.388 7.194 0 0 0
945 4 28.776 28.776 21.582 0 0 0
1593 4 21.582 14.388 28.776 0 0 0
3929 4 0.0 21.582 14.388 0 0 0
3375 4 5.3955 32.373 12.5895 0 0 0
164 4 34.1715 30.5745 3.597 0 0 0
2227 4 12.5895 0.0 23.3805 0 0 0
51 4 34.1715 7.194 19.7835 0 0 0
12 4 34.1715 1.7985 17.985 0 0 0
3607 4 1.7985 17.985 5.3955 0 0 0
1278 4 25.179 23.3805 34.1715 0 0 0
3483 4 1.7985 7.194 1.7985 0 0 0
67 4 34.1715 10.791 12.5895 0 0 0
770 4 28.776 16.1865 8.9925 0 0 0
2212 4 12.5895 1.7985 7.194 0 0 0
3601 4 3.597 17.985 0.0 0 0 0
3226 4 7.194 19.7835 23.3805 0 0 0
3189 4 7.194 14.388 25.179 0 0 0
3234 4 7.194 19.7835 30.5745 0 0 0
2912 4 8.9925 26.9775 25.179 0 0 0
30 4 34.1715 5.3955 14.388 0 0 0
1332 4 23.3805 30.5745 7.194 0 0 0
2036 4 16.1865 19.7835 28.776 0 0 0
1919 4 16.1865 7.194 34.1715 0 0 0
2361 4 14.388 14.388 0.0 0 0 0
2614 4 10.791 1.7985 12.5895 0 0 0
3772 4 1.7985 34.1715 7.194 0 0 0
2399 4 12.5895 14.388 34.1715 0 0 0
2819 4 8.9925 17.985 16.1865 0 0 0
3123 4 5.3955 10.791 1.7985 0 0 0
401 4 32.373 17.985 0.0 0 0 0
1884 4 16.1865 8.9925 0.0 0 0 0
3885 4 0.0 14.388 7.194 0 0 0
2295 4 12.5895 7.194 12.5895 0 0 0
138 4 34.1715 23.3805 28.776 0 0 0
2004 4 16.1865 19.7835 0.0 0 0 0
3008 4 5.3955 1.7985 3.597 0 0 0
2559 4 12.5895 28.776 34.1715 0 0 0
2935 4 8.9925 28.776 12.5895 0 0 0
1664 4 19.7835 23.3805 17.985 0 0 0
3293 4 7.194 25.179 10.791 0 0 0
2641 4 10.791 3.597 0.0 0 0 0
322 4 32.373 12.5895 1.7985 0 0 0
2108 4 16.1865 26.9775 21.582 0 0 0
3910 4 0.0 19.7835 16.1865 0 0 0
1605 4 21.582 17.985 3.597 0 0 0
2066 4 17.985 23.3805 23.3805 0 0 0
1683 4 19.7835 25.179 1.7985 0 0 0
1152 4 23.3805 12.5895 25.179 0 0 0
2563 4 12.5895 32.373 1.7985 0 0 0
772 4 26.9775 16.1865 7.194 0 0 0
1562 4 21.582 16.1865 1.7985 0 0 0
1697 4 21.582 25.179 14.388 0 0 0
2285 4 14.388 7.194 3.597 0 0 0
1196 4 23.3805 16.1865 28.776 0 0 0
2370 4 14.388 16.1865 8.9925 0 0 0
2386 4 14.388 16.1865 23.3805 0 0 0
1233 4 25.179 17.985 28.776 0 0 0
3064 4 5.3955 5.3955 17.985 0 0 0
916 4 26.9775 26.9775 28.776 0 0 0
3185 4 7.194 14.388 21.582 0 0 0
1733 4 21.582 28.776 10.791 0 0 0
3382 4 7.194 34.1715 19.7835 0 0 0
3192 4 5.3955 16.1865 25.179 0 0 0
3015 4 5.3955 0.0 12.5895 0 0 0
3182 4 7.194 16.1865 19.7835 0 0 0
364 4 30.5745 16.1865 0.0 0 0 0
1281 4 25.179 25.179 0.0 0 0 0
3616 4 1.7985 19.7835 10.791 0 0 0
2159 4 16.1865 28.776 34.1715 0 0 0
3940 4 0.0 23.3805 34.1715 0 0 0
672 4 26.9775 5.3955 25.179 0 0 0
2593 4 14.388 32.373 28.776 0 0 0
754 4 28.776 12.5895 30.5745 0 0 0
636 4 26.9775 1.7985 28.776 0 0 0
3321 4 7.194 28.776 0.0 0 0 0
2892 4 8.9925 26.9775 7.194 0 0 0
3328 4 5.3955 30.5745 3.597 0 0 0
2335 4 12.5895 10.791 12.5895 0 0 0
3538 4 3.597 12.5895 16.1865 0 0 0
1489 4 21.582 7.194 7.194 0 0 0
3 5 34.1715 0.0 5.3955 0 0 0
4 5 34.1715 1.7985 3.597 0 0 0
7 5 34.1715 0.0 12.5895 0 0 0
8 5 34.1715 1.7985 10.791 0 0 0
23 5 34.1715 3.597 5.3955 0 0 0
25 5 34.1715 3.597 8.9925 0 0 0
33 5 34.1715 3.597 23.3805 0 0 0
39 5 34.1715 3.597 34.1715 0 0 0
42 5 34.1715 8.9925 0.0 0 0 0
56 5 34.1715 8.9925 25.179 0 0 0
59 5 34.1715 7.194 34.1715 0 0 0
69 5 34.1715 10.791 16.1865 0 0 0
84 5 34.1715 16.1865 3.597 0 0 0
109 5 34.1715 17.985 16.1865 0 0 0
141 5 34.1715 25.179 1.7985 0 0 0
144 5 34.1715 26.9775 3.597 0 0 0
163 5 34.1715 28.776 5.3955 0 0 0
180 5 34.1715 30.5745 32.373 0 0 0
195 5 34.1715 32.373 26.9775 0 0 0
206 5 32.373 1.7985 5.3955 0 0 0
220 5 30.5745 1.7985 14.388 0 0 0
225 5 32.373 0.0 21.582 0 0 0
244 5 30.5745 5.3955 0.0 0 0 0
255 5 30.5745 3.597 12.5895 0 0 0
268 5 30.5745 5.3955 21.582 0 0 0
283 5 30.5745 7.194 1.7985 0 0 0
287 5 30.5745 7.194 5.3955 0 0 0
294 5 32.373 8.9925 12.5895 0 0 0
306 5 32.373 8.9925 23.3805 0 0 0
308 5 30.5745 8.9925 21.582 0 0 0
310 5 32.373 8.9925 26.9775 0 0 0
329 5 32.373 10.791 7.194 0 0 0
343 5 30.5745 10.791 19.7835 0 0 0
355 5 30.5745 10.791 30.5745 0 0 0
357 5 32.373 10.791 32.373 0 0 0
362 5 32.373 16.1865 1.7985 0 0 0
363 5 30.5745 14.388 1.7985 0 0 0
366 5 32.373 16.1865 5.3955 0 0 0
398 5 32.373 16.1865 34.1715 0 0 0
410 5 32.373 19.7835 8.9925 0 0 0
419 5 30.5745 17.985 16.1865 0 0 0
422 5 32.373 19.7835 19.7835 0 0 0
425 5 32.373 17.985 21.582 0 0 0
428 5 30.5745 19.7835 21.582 0 0 0
445 5 32.373 21.582 3.597 0 0 0
455 5 30.5745 21.582 12.5895 0 0 0
472 5 30.5745 23.3805 25.179 0 0 0
486 5 32.373 26.9775 5.3955 0 0 0
488 5 30.5745 26.9775 3.597 0 0 0
490 5 32.373 26.9775 8.9925 0 0 0
492 5 30.5745 26.9775 7.194 0 0 0
501 5 32.373 25.179 17.985 0 0 0
513 5 32.373 25.179 28.776 0 0 0
523 5 30.5745 28.776 1.7985 0 0 0
538 5 32.373 30.5745 16.1865 0 0 0
539 5 30.5745 28.776 16.1865 0 0 0
553 5 32.373 28.776 28.776 0 0 0
576 5 30.5745 34.1715 10.791 0 0 0
580 5 30.5745 34.1715 14.388 0 0 0
602 5 28.776 1.7985 1.7985 0 0 0
607 5 26.9775 0.0 5.3955 0 0 0
611 5 26.9775 0.0 8.9925 0 0 0
615 5 26.9775 0.0 12.5895 0 0 0
620 5 26.9775 1.7985 14.388 0 0 0
627 5 26.9775 0.0 23.3805 0 0 0
681 5 28.776 7.194 0.0 0 0 0
696 5 26.9775 8.9925 10.791 0 0 0
699 5 26.9775 7.194 16.1865 0 0 0
701 5 28.776 7.194 17.985 0 0 0
710 5 28.776 8.9925 26.9775 0 0 0
714 5 28.776 8.9925 30.5745 0 0 0
753 5 28.776 10.791 28.776 0 0 0
767 5 26.9775 14.388 5.3955 0 0 0
769 5 28.776 14.388 7.194 0 0 0
778 5 28.776 16.1865 16.1865 0 0 0
786 5 28.776 16.1865 23.3805 0 0 0
800 5 26.9775 16.1865 32.373 0 0 0
807 5 26.9775 17.985 5.3955 0 0 0
808 5 26.9775 19.7835 3.597 0 0 0
809 5 28.776 17.985 7.194 0 0 0
815 5 26.9775 17.985 12.5895 0 0 0
835 5 26.9775 17.985 30.5745 0 0 0
846 5 28.776 23.3805 5.3955 0 0 0
848 5 26.9775 23.3805 3.597 0 0 0
852 5 26.9775 23.3805 7.194 0 0 0
853 5 28.776 21.582 10.791 0 0 0
858 5 28.776 23.3805 16.1865 0 0 0
866 5 28.776 23.3805 23.3805 0 0 0
868 5 26.9775 23.3805 21.582 0 0 0
875 5 26.9775 21.582 30.5745 0 0 0
880 5 26.9775 23.3805 32.373 0 0 0
885 5 28.776 25.179 3.597 0 0 0
888 5 26.9775 26.9775 3.597 0 0 0
891 5 26.9775 25.179 8.9925 0 0 0
900 5 26.9775 26.9775 14.388 0 0 0
902 5 28.776 26.9775 19.7835 0 0 0
909 5 28.776 25.179 25.179 0 0 0
913 5 28.776 25.179 28.776 0 0 0
933 5 28.776 28.776 10.791 0 0 0
942 5 28.776 30.5745 19.7835 0 0 0
947 5 26.9775 28.776 23.3805 0 0 0
952 5 26.9775 30.5745 25.179 0 0 0
955 5 26.9775 28.776 30.5745 0 0 0
977 5 28.776 32.373 14.388 0 0 0
978 5 28.776 34.1715 16.1865 0 0 0
986 5 28.776 34.1715 23.3805 0 0 0
987 5 26.9775 32.373 23.3805 0 0 0
993 5 28.776 32.373 28.776 0 0 0
1008 5 23.3805 1.7985 3.597 0 0 0
1032 5 23.3805 1.7985 25.179 0 0 0
1040 5 23.3805 1.7985 32.373 0 0 0
1047 5 23.3805 3.597 5.3955 0 0 0
1076 5 23.3805 5.3955 28.776 0 0 0
1100 5 23.3805 8.9925 14.388 0 0 0
1105 5 25.179 7.194 21.582 0 0 0
1116 5 23.3805 8.9925 28.776 0 0 0
1119 5 23.3805 7.194 34.1715 0 0 0
1127 5 23.3805 10.791 5.3955 0 0 0
1130 5 25.179 12.5895 8.9925 0 0 0
1133 5 25.179 10.791 10.791 0 0 0
1137 5 25.179 10.791 14.388 0 0 0
1145 5 25.179 10.791 21.582 0 0 0
1149 5 25.179 10.791 25.179 0 0 0
1151 5 23.3805 10.791 26.9775 0 0 0
1162 5 25.179 16.1865 1.7985 0 0 0
1166 5 25.179 16.1865 5.3955 0 0 0
1182 5 25.179 16.1865 19.7835 0 0 0
1183 5 23.3805 14.388 19.7835 0 0 0
1202 5 25.179 19.7835 1.7985 0 0 0
1204 5 23.3805 19.7835 0.0 0 0 0
1206 5 25.179 19.7835 5.3955 0 0 0
1212 5 23.3805 19.7835 7.194 0 0 0
1213 5 25.179 17.985 10.791 0 0 0
1225 5 25.179 17.985 21.582 0 0 0
1226 5 25.179 19.7835 23.3805 0 0 0
1248 5 23.3805 23.3805 3.597 0 0 0
1263 5 23.3805 21.582 19.7835 0 0 0
1283 5 23.3805 25.179 1.7985 0 0 0
1326 5 25.179 30.5745 5.3955 0 0 0
1328 5 23.3805 30.5745 3.597 0 0 0
1355 5 23.3805 28.776 30.5745 0 0 0
1369 5 25.179 32.373 7.194 0 0 0
1371 5 23.3805 32.373 8.9925 0 0 0
1393 5 25.179 32.373 28.776 0 0 0
1398 5 25.179 34.1715 34.1715 0 0 0
1407 5 19.7835 0.0 5.3955 0 0 0
1415 5 19.7835 0.0 12.5895 0 0 0
1424 5 19.7835 1.7985 17.985 0 0 0
1434 5 21.582 1.7985 30.5745 0 0 0
1446 5 21.582 5.3955 5.3955 0 0 0
1449 5 21.582 3.597 7.194 0 0 0
1452 5 19.7835 5.3955 7.194 0 0 0
1466 5 21.582 5.3955 23.3805 0 0 0
1473 5 21.582 3.597 28.776 0 0 0
1499 5 19.7835 7.194 16.1865 0 0 0
1532 5 19.7835 12.5895 7.194 0 0 0
1537 5 21.582 10.791 14.388 0 0 0
1561 5 21.582 14.388 0.0 0 0 0
1563 5 19.7835 14.388 1.7985 0 0 0
1571 5 19.7835 14.388 8.9925 0 0 0
1614 5 21.582 19.7835 12.5895 0 0 0
1617 5 21.582 17.985 14.388 0 0 0
1619 5 19.7835 17.985 16.1865 0 0 0
1622 5 21.582 19.7835 19.7835 0 0 0
1639 5 19.7835 17.985 34.1715 0 0 0
1662 5 21.582 23.3805 19.7835 0 0 0
1686 5 21.582 26.9775 5.3955 0 0 0
1692 5 19.7835 26.9775 7.194 0 0 0
1711 5 19.7835 25.179 26.9775 0 0 0
1714 5 21.582 26.9775 30.5745 0 0 0
1719 5 19.7835 25.179 34.1715 0 0 0
1738 5 21.582 30.5745 16.1865 0 0 0
1747 5 19.7835 28.776 23.3805 0 0 0
1756 5 19.7835 30.5745 28.776 0 0 0
1758 5 21.582 30.5745 34.1715 0 0 0
1760 5 19.7835 30.5745 32.373 0 0 0
1761 5 21.582 32.373 0.0 0 0 0
1762 5 21.582 34.1715 1.7985 0 0 0
1764 5 19.7835 34.1715 0.0 0 0 0
1769 5 21.582 32.373 7.194 0 0 0
1776 5 19.7835 34.1715 10.791 0 0 0
1777 5 21.582 32.373 14.388 0 0 0
1778 5 21.582 34.1715 16.1865 0 0 0
1792 5 19.7835 34.1715 25.179 0 0 0
1802 5 17.985 1.7985 1.7985 0 0 0
1804 5 16.1865 1.7985 0.0 0 0 0
1814 5 17.985 1.7985 12.5895 0 0 0
1816 5 16.1865 1.7985 10.791 0 0 0
1826 5 17.985 1.7985 23.3805 0 0 0
1855 5 16.1865 3.597 12.5895 0 0 0
1857 5 17.985 3.597 14.388 0 0 0
1874 5 17.985 5.3955 30.5745 0 0 0
1881 5 17.985 7.194 0.0 0 0 0
1887 5 16.1865 7.194 5.3955 0 0 0
1897 5 17.985 7.194 14.388 0 0 0
1903 5 16.1865 7.194 19.7835 0 0 0
1907 5 16.1865 7.194 23.3805 0 0 0
1910 5 17.985 8.9925 26.9775 0 0 0
1917 5 17.985 7.194 32.373 0 0 0
1921 5 17.985 10.791 0.0 0 0 0
1928 5 16.1865 12.5895 3.597 0 0 0
1942 5 17.985 12.5895 19.7835 0 0 0
1951 5 16.1865 10.791 26.9775 0 0 0
1966 5 17.985 16.1865 5.3955 0 0 0
1972 5 16.1865 16.1865 7.194 0 0 0
1975 5 16.1865 14.388 12.5895 0 0 0
1976 5 16.1865 16.1865 10.791 0 0 0
1980 5 16.1865 16.1865 14.388 0 0 0
1989 5 17.985 14.388 25.179 0 0 0
1990 5 17.985 16.1865 26.9775 0 0 0
1992 5 16.1865 16.1865 25.179 0 0 0
2009 5 17.985 17.985 7.194 0 0 0
2020 5 16.1865 19.7835 14.388 0 0 0
2024 5 16.1865 19.7835 17.985 0 0 0
2052 5 16.1865 23.3805 7.194 0 0 0
2058 5 17.985 23.3805 16.1865 0 0 0
2070 5 17.985 23.3805 26.9775 0 0 0
2075 5 16.1865 21.582 30.5745 0 0 0
2083 5 16.1865 25.179 1.7985 0 0 0
2098 5 17.985 26.9775 16.1865 0 0 0
2102 5 17.985 26.9775 19.7835 0 0 0
2107 5 16.1865 25.179 23.3805 0 0 0
2111 5 16.1865 25.179 26.9775 0 0 0
2113 5 17.985 25.179 28.776 0 0 0
2116 5 16.1865 26.9775 28.776 0 0 0
2124 5 16.1865 30.5745 0.0 0 0 0
2147 5 16.1865 28.776 23.3805 0 0 0
2171 5 16.1865 32.373 8.9925 0 0 0
2182 5 17.985 34.1715 19.7835 0 0 0
2186 5 17.985 34.1715 23.3805 0 0 0
2222 5 14.388 1.7985 19.7835 0 0 0
2233 5 14.388 0.0 28.776 0 0 0
2239 5 12.5895 0.0 34.1715 0 0 0
2254 5 14.388 5.3955 12.5895 0 0 0
2262 5 14.388 5.3955 19.7835 0 0 0
2270 5 14.388 5.3955 26.9775 0 0 0
2279 5 12.5895 3.597 34.1715 0 0 0
2288 5 12.5895 8.9925 3.597 0 0 0
2313 5 14.388 7.194 28.776 0 0 0
2331 5 12.5895 10.791 8.9925 0 0 0
2349 5 14.388 10.791 25.179 0 0 0
2351 5 12.5895 10.791 26.9775 0 0 0
2354 5 14.388 12.5895 30.5745 0 0 0
2358 5 14.388 12.5895 34.1715 0 0 0
2362 5 14.388 16.1865 1.7985 0 0 0
2366 5 14.388 16.1865 5.3955 0 0 0
2377 5 14.388 14.388 14.388 0 0 0
2379 5 12.5895 14.388 16.1865 0 0 0
2383 5 12.5895 14.388 19.7835 0 0 0
2384 5 12.5895 16.1865 17.985 0 0 0
2388 5 12.5895 16.1865 21.582 0 0 0
2395 5 12.5895 14.388 30.5745 0 0 0
2401 5 14.388 17.985 0.0 0 0 0
2404 5 12.5895 19.7835 0.0 0 0 0
2410 5 14.388 19.7835 8.9925 0 0 0
2413 5 14.388 17.985 10.791 0 0 0
2430 5 14.388 19.7835 26.9775 0 0 0
2435 5 12.5895 17.985 30.5745 0 0 0
2446 5 14.388 23.3805 5.3955 0 0 0
2449 5 14.388 21.582 7.194 0 0 0
2468 5 12.5895 23.3805 21.582 0 0 0
2488 5 12.5895 26.9775 3.597 0 0 0
2497 5 14.388 25.179 14.388 0 0 0
2501 5 14.388 25.179 17.985 0 0 0
2509 5 14.388 25.179 25.179 0 0 0
2511 5 12.5895 25.179 26.9775 0 0 0
2517 5 14.388 25.179 32.373 0 0 0
2521 5 14.388 28.776 0.0 0 0 0
2532 5 12.5895 30.5745 7.194 0 0 0
2540 5 12.5895 30.5745 14.388 0 0 0
2548 5 12.5895 30.5745 21.582 0 0 0
2553 5 14.388 28.776 28.776 0 0 0
2561 5 14.388 32.373 0.0 0 0 0
2564 5 12.5895 34.1715 0.0 0 0 0
2567 5 12.5895 32.373 5.3955 0 0 0
2599 5 12.5895 32.373 34.1715 0 0 0
2609 5 10.791 0.0 7.194 0 0 0
2631 5 8.9925 0.0 26.9775 0 0 0
2646 5 10.791 5.3955 5.3955 0 0 0
2652 5 8.9925 5.3955 7.194 0 0 0
2669 5 10.791 3.597 25.179 0 0 0
2673 5 10.791 3.597 28.776 0 0 0
2681 5 10.791 7.194 0.0 0 0 0
2683 5 8.9925 7.194 1.7985 0 0 0
2685 5 10.791 7.194 3.597 0 0 0
2691 5 8.9925 7.194 8.9925 0 0 0
2696 5 8.9925 8.9925 10.791 0 0 0
2713 5 10.791 7.194 28.776 0 0 0
2718 5 10.791 8.9925 34.1715 0 0 0
2719 5 8.9925 7.194 34.1715 0 0 0
2725 5 10.791 10.791 3.597 0 0 0
2737 5 10.791 10.791 14.388 0 0 0
2742 5 10.791 12.5895 19.7835 0 0 0
2757 5 10.791 10.791 32.373 0 0 0
2767 5 8.9925 14.388 5.3955 0 0 0
2768 5 8.9925 16.1865 3.597 0 0 0
2771 5 8.9925 14.388 8.9925 0 0 0
2777 5 10.791 14.388 14.388 0 0 0
2789 5 10.791 14.388 25.179 0 0 0
2792 5 8.9925 16.1865 25.179 0 0 0
2798 5 10.791 16.1865 34.1715 0 0 0
2801 5 10.791 17.985 0.0 0 0 0
2811 5 8.9925 17.985 8.9925 0 0 0
2821 5 10.791 17.985 17.985 0 0 0
2829 5 10.791 17.985 25.179 0 0 0
2845 5 10.791 21.582 3.597 0 0 0
2855 5 8.9925 21.582 12.5895 0 0 0
2860 5 8.9925 23.3805 14.388 0 0 0
2880 5 8.9925 23.3805 32.373 0 0 0
2923 5 8.9925 28.776 1.7985 0 0 0
2924 5 8.9925 30.5745 0.0 0 0 0
2946 5 10.791 30.5745 23.3805 0 0 0
2960 5 8.9925 30.5745 32.373 0 0 0
2964 5 8.9925 34.1715 0.0 0 0 0
2983 5 8.9925 32.373 19.7835 0 0 0
2984 5 8.9925 34.1715 17.985 0 0 0
2990 5 10.791 34.1715 26.9775 0 0 0
2996 5 8.9925 34.1715 28.776 0 0 0
2998 5 10.791 34.1715 34.1715 0 0 0
3000 5 8.9925 34.1715 32.373 0 0 0
3005 5 7.194 0.0 3.597 0 0 0
3010 5 7.194 1.7985 8.9925 0 0 0
3032 5 5.3955 1.7985 25.179 0 0 0
3042 5 7.194 5.3955 1.7985 0 0 0
3054 5 7.194 5.3955 12.5895 0 0 0
3060 5 5.3955 5.3955 14.388 0 0 0
3098 5 7.194 8.9925 16.1865 0 0 0
3104 5 5.3955 8.9925 17.985 0 0 0
3105 5 7.194 7.194 21.582 0 0 0
3116 5 5.3955 8.9925 28.776 0 0 0
3118 5 7.194 8.9925 34.1715 0 0 0
3136 5 5.3955 12.5895 10.791 0 0 0
3138 5 7.194 12.5895 16.1865 0 0 0
3140 5 5.3955 12.5895 14.388 0 0 0
3143 5 5.3955 10.791 19.7835 0 0 0
3158 5 7.194 12.5895 34.1715 0 0 0
3181 5 7.194 14.388 17.985 0 0 0
3183 5 5.3955 14.388 19.7835 0 0 0
3184 5 5.3955 16.1865 17.985 0 0 0
3211 5 5.3955 17.985 8.9925 0 0 0
3213 5 7.194 17.985 10.791 0 0 0
3215 5 5.3955 17.985 12.5895 0 0 0
3218 5 7.194 19.7835 16.1865 0 0 0
3231 5 5.3955 17.985 26.9775 0 0 0
3237 5 7.194 17.985 32.373 0 0 0
3241 5 7.194 21.582 0.0 0 0 0
3269 5 7.194 21.582 25.179 0 0 0
3275 5 5.3955 21.582 30.5745 0 0 0
3283 5 5.3955 25.179 1.7985 0 0 0
3292 5 5.3955 26.9775 7.194 0 0 0
3296 5 5.3955 26.9775 10.791 0 0 0
3312 5 5.3955 26.9775 25.179 0 0 0
3333 5 7.194 28.776 10.791 0 0 0
3334 5 7.194 30.5745 12.5895 0 0 0
3345 5 7.194 28.776 21.582 0 0 0
3356 5 5.3955 30.5745 28.776 0 0 0
3357 5 7.194 28.776 32.373 0 0 0
3371 5 5.3955 32.373 8.9925 0 0 0
3381 5 7.194 32.373 17.985 0 0 0
3402 5 3.597 1.7985 1.7985 0 0 0
3415 5 1.7985 0.0 12.5895 0 0 0
3432 5 1.7985 1.7985 25.179 0 0 0
3479 5 1.7985 3.597 34.1715 0 0 0
3492 5 1.7985 8.9925 7.194 0 0 0
3510 5 3.597 8.9925 26.9775 0 0 0
3517 5 3.597 7.194 32.373 0 0 0
3522 5 3.597 12.5895 1.7985 0 0 0
3523 5 1.7985 10.791 1.7985 0 0 0
3531 5 1.7985 10.791 8.9925 0 0 0
3535 5 1.7985 10.791 12.5895 0 0 0
3562 5 3.597 16.1865 1.7985 0 0 0
3568 5 1.7985 16.1865 3.597 0 0 0
3571 5 1.7985 14.388 8.9925 0 0 0
3605 5 3.597 17.985 3.597 0 0 0
3631 5 1.7985 17.985 26.9775 0 0 0
3634 5 3.597 19.7835 30.5745 0 0 0
3636 5 1.7985 19.7835 28.776 0 0 0
3649 5 3.597 21.582 7.194 0 0 0
3687 5 1.7985 25.179 5.3955 0 0 0
3716 5 1.7985 26.9775 28.776 0 0 0
3722 5 3.597 30.5745 1.7985 0 0 0
3727 5 1.7985 28.776 5.3955 0 0 0
3730 5 3.597 30.5745 8.9925 0 0 0
3735 5 1.7985 28.776 12.5895 0 0 0
3741 5 3.597 28.776 17.985 0 0 0
3743 5 1.7985 28.776 19.7835 0 0 0
3745 5 3.597 28.776 21.582 0 0 0
3746 5 3.597 30.5745 23.3805 0 0 0
3777 5 3.597 32.373 14.388 0 0 0
3813 5 0.0 0.0 21.582 0 0 0
3829 5 0.0 3.597 14.388 0 0 0
3862 5 0.0 12.5895 1.7985 0 0 0
3881 5 0.0 14.388 0.0 0 0 0
3883 5 0.0 14.388 3.597 0 0 0
3907 5 0.0 17.985 10.791 0 0 0
3908 5 0.0 19.7835 12.5895 0 0 0
3912 5 0.0 19.7835 19.7835 0 0 0
3914 5 0.0 19.7835 23.3805 0 0 0
3922 5 0.0 23.3805 1.7985 0 0 0
3936 5 0.0 23.3805 26.9775 0 0 0
3938 5 0.0 23.3805 30.5745 0 0 0
3939 5 0.0 21.582 32.373 0 0 0
3956 5 0.0 26.9775 26.9775 0 0 0
3970 5 0.0 30.5745 16.1865 0 0 0
3986 5 0.0 34.1715 8.9925 0 0 0
3995 5 0.0 32.373 25.179 0 0 0
3999 5 0.0 32.373 32.373 0 0 0
