LAMMPS data file via write_data version 30 Jul 2021 timestep = 0
4000 atoms
5 atom types
0 35.97 xlo xhi
0 35.97 ylo yhi
0 35.97 zlo zhi
0.0 0.0 0.0 xy xz yz
 
Masses
 
1 1.0
2 2.0
3 3.0
4 4.0
5 5.0
 
Atoms  # atomic
 
2084 1 16.1865 26.9775 0.0 0 0 0
2212 1 12.5895 1.7985 7.194 0 0 0
1092 1 23.3805 8.9925 7.194 0 0 0
3159 1 5.3955 10.791 34.1715 0 0 0
3349 1 7.194 28.776 25.179 0 0 0
1361 1 25.179 32.373 0.0 0 0 0
1061 1 25.179 3.597 17.985 0 0 0
2792 1 8.9925 16.1865 25.179 0 0 0
2788 1 8.9925 16.1865 21.582 0 0 0
2671 1 8.9925 3.597 26.9775 0 0 0
631 1 26.9775 0.0 26.9775 0 0 0
1001 1 25.179 0.0 0.0 0 0 0
1878 1 17.985 5.3955 34.1715 0 0 0
2310 1 14.388 8.9925 26.9775 0 0 0
249 1 32.373 3.597 7.194 0 0 0
2274 1 14.388 5.3955 30.5745 0 0 0
2275 1 12.5895 3.597 30.5745 0 0 0
1849 1 17.985 3.597 7.194 0 0 0
3734 1 3.597 30.5745 12.5895 0 0 0
292 1 30.5745 8.9925 7.194 0 0 0
1627 1 19.7835 17.985 23.3805 0 0 0
317 1 32.373 7.194 32.373 0 0 0
1409 1 21.582 0.0 7.194 0 0 0
2579 1 12.5895 32.373 16.1865 0 0 0
1175 1 23.3805 14.388 12.5895 0 0 0
1721 1 21.582 28.776 0.0 0 0 0
2249 1 14.388 3.597 7.194 0 0 0
2431 1 12.5895 17.985 26.9775 0 0 0
3759 1 1.7985 28.776 34.1715 0 0 0
3956 1 0.0 26.9775 26.9775 0 0 0
3456 1 1.7985 5.3955 10.791 0 0 0
831 1 26.9775 17.985 26.9775 0 0 0
522 1 32.373 30.5745 1.7985 0 0 0
1957 1 17.985 10.791 32.373 0 0 0
1725 1 21.582 28.776 3.597 0 0 0
2559 1 12.5895 28.776 34.1715 0 0 0
3795 1 1.7985 32.373 30.5745 0 0 0
3531 1 1.7985 10.791 8.9925 0 0 0
2662 1 10.791 5.3955 19.7835 0 0 0
1580 1 19.7835 16.1865 14.388 0 0 0
3664 1 1.7985 23.3805 17.985 0 0 0
2368 1 12.5895 16.1865 3.597 0 0 0
466 1 32.373 23.3805 23.3805 0 0 0
1863 1 16.1865 3.597 19.7835 0 0 0
3627 1 1.7985 17.985 23.3805 0 0 0
1867 1 16.1865 3.597 23.3805 0 0 0
199 1 34.1715 32.373 34.1715 0 0 0
1762 1 21.582 34.1715 1.7985 0 0 0
3848 1 0.0 8.9925 12.5895 0 0 0
2349 1 14.388 10.791 25.179 0 0 0
1913 1 17.985 7.194 28.776 0 0 0
3223 1 5.3955 17.985 19.7835 0 0 0
2611 1 8.9925 0.0 8.9925 0 0 0
2235 1 12.5895 0.0 30.5745 0 0 0
2115 1 16.1865 25.179 30.5745 0 0 0
1743 1 19.7835 28.776 19.7835 0 0 0
2451 1 12.5895 21.582 8.9925 0 0 0
1548 1 19.7835 12.5895 21.582 0 0 0
3031 1 5.3955 0.0 26.9775 0 0 0
1164 1 23.3805 16.1865 0.0 0 0 0
3426 1 3.597 1.7985 23.3805 0 0 0
276 1 30.5745 5.3955 28.776 0 0 0
1490 1 21.582 8.9925 8.9925 0 0 0
1075 1 23.3805 3.597 30.5745 0 0 0
1204 1 23.3805 19.7835 0.0 0 0 0
1197 1 25.179 14.388 32.373 0 0 0
1894 1 17.985 8.9925 12.5895 0 0 0
676 1 26.9775 5.3955 28.776 0 0 0
321 1 32.373 10.791 0.0 0 0 0
3570 1 3.597 16.1865 8.9925 0 0 0
1216 1 23.3805 19.7835 10.791 0 0 0
3278 1 7.194 23.3805 34.1715 0 0 0
3121 1 7.194 10.791 0.0 0 0 0
1006 1 25.179 1.7985 5.3955 0 0 0
1581 1 21.582 14.388 17.985 0 0 0
2411 1 12.5895 17.985 8.9925 0 0 0
610 1 28.776 1.7985 8.9925 0 0 0
739 1 26.9775 10.791 16.1865 0 0 0
414 1 32.373 19.7835 12.5895 0 0 0
3681 1 3.597 25.179 0.0 0 0 0
2307 1 12.5895 7.194 23.3805 0 0 0
95 1 34.1715 14.388 26.9775 0 0 0
2167 1 16.1865 32.373 5.3955 0 0 0
941 1 28.776 28.776 17.985 0 0 0
1926 1 17.985 12.5895 5.3955 0 0 0
2546 1 14.388 30.5745 23.3805 0 0 0
3094 1 7.194 8.9925 12.5895 0 0 0
662 1 28.776 5.3955 19.7835 0 0 0
871 1 26.9775 21.582 26.9775 0 0 0
2302 1 14.388 8.9925 19.7835 0 0 0
1423 1 19.7835 0.0 19.7835 0 0 0
2883 1 8.9925 25.179 1.7985 0 0 0
491 1 30.5745 25.179 8.9925 0 0 0
3609 1 3.597 17.985 7.194 0 0 0
3715 1 1.7985 25.179 30.5745 0 0 0
2381 1 14.388 14.388 17.985 0 0 0
879 1 26.9775 21.582 34.1715 0 0 0
3249 1 7.194 21.582 7.194 0 0 0
58 1 34.1715 8.9925 28.776 0 0 0
2831 1 8.9925 17.985 26.9775 0 0 0
3969 1 0.0 28.776 14.388 0 0 0
3959 1 0.0 25.179 32.373 0 0 0
3797 1 3.597 32.373 32.373 0 0 0
258 1 32.373 5.3955 16.1865 0 0 0
1596 1 19.7835 16.1865 28.776 0 0 0
984 1 26.9775 34.1715 17.985 0 0 0
2169 1 17.985 32.373 7.194 0 0 0
3269 1 7.194 21.582 25.179 0 0 0
2092 1 16.1865 26.9775 7.194 0 0 0
1659 1 19.7835 21.582 16.1865 0 0 0
888 1 26.9775 26.9775 3.597 0 0 0
1996 1 16.1865 16.1865 28.776 0 0 0
429 1 32.373 17.985 25.179 0 0 0
2735 1 8.9925 10.791 12.5895 0 0 0
1960 1 16.1865 12.5895 32.373 0 0 0
1201 1 25.179 17.985 0.0 0 0 0
1720 1 19.7835 26.9775 32.373 0 0 0
3065 1 7.194 3.597 21.582 0 0 0
1077 1 25.179 3.597 32.373 0 0 0
1125 1 25.179 10.791 3.597 0 0 0
3804 1 0.0 1.7985 5.3955 0 0 0
3919 1 0.0 17.985 32.373 0 0 0
1295 1 23.3805 25.179 12.5895 0 0 0
2059 1 16.1865 21.582 16.1865 0 0 0
3129 1 7.194 10.791 7.194 0 0 0
1750 1 21.582 30.5745 26.9775 0 0 0
2412 1 12.5895 19.7835 7.194 0 0 0
1260 1 23.3805 23.3805 14.388 0 0 0
3686 1 3.597 26.9775 5.3955 0 0 0
3521 1 3.597 10.791 0.0 0 0 0
1208 1 23.3805 19.7835 3.597 0 0 0
3663 1 1.7985 21.582 19.7835 0 0 0
3162 1 7.194 16.1865 1.7985 0 0 0
1684 1 19.7835 26.9775 0.0 0 0 0
3160 1 5.3955 12.5895 32.373 0 0 0
2557 1 14.388 28.776 32.373 0 0 0
1812 1 16.1865 1.7985 7.194 0 0 0
1132 1 23.3805 12.5895 7.194 0 0 0
3363 1 5.3955 32.373 1.7985 0 0 0
325 1 32.373 10.791 3.597 0 0 0
3192 1 5.3955 16.1865 25.179 0 0 0
222 1 32.373 1.7985 19.7835 0 0 0
1351 1 23.3805 28.776 26.9775 0 0 0
3221 1 7.194 17.985 17.985 0 0 0
348 1 30.5745 12.5895 21.582 0 0 0
1235 1 23.3805 17.985 30.5745 0 0 0
1489 1 21.582 7.194 7.194 0 0 0
204 1 30.5745 1.7985 0.0 0 0 0
3994 1 0.0 34.1715 23.3805 0 0 0
2328 1 12.5895 12.5895 3.597 0 0 0
412 1 30.5745 19.7835 7.194 0 0 0
3253 1 7.194 21.582 10.791 0 0 0
883 1 26.9775 25.179 1.7985 0 0 0
3721 1 3.597 28.776 0.0 0 0 0
3815 1 0.0 0.0 25.179 0 0 0
1230 1 25.179 19.7835 26.9775 0 0 0
3772 1 1.7985 34.1715 7.194 0 0 0
112 1 34.1715 19.7835 17.985 0 0 0
3359 1 5.3955 28.776 34.1715 0 0 0
2538 1 14.388 30.5745 16.1865 0 0 0
1289 1 25.179 25.179 7.194 0 0 0
1553 1 21.582 10.791 28.776 0 0 0
285 1 32.373 7.194 3.597 0 0 0
1277 1 25.179 21.582 32.373 0 0 0
3280 1 5.3955 23.3805 32.373 0 0 0
1783 1 19.7835 32.373 19.7835 0 0 0
3893 1 0.0 14.388 21.582 0 0 0
2224 1 12.5895 1.7985 17.985 0 0 0
2132 1 16.1865 30.5745 7.194 0 0 0
1307 1 23.3805 25.179 23.3805 0 0 0
277 1 32.373 3.597 32.373 0 0 0
3196 1 5.3955 16.1865 28.776 0 0 0
2032 1 16.1865 19.7835 25.179 0 0 0
2062 1 17.985 23.3805 19.7835 0 0 0
3976 1 0.0 30.5745 26.9775 0 0 0
2668 1 8.9925 5.3955 21.582 0 0 0
3662 1 3.597 23.3805 19.7835 0 0 0
2969 1 10.791 32.373 7.194 0 0 0
329 1 32.373 10.791 7.194 0 0 0
1917 1 17.985 7.194 32.373 0 0 0
2701 1 10.791 7.194 17.985 0 0 0
422 1 32.373 19.7835 19.7835 0 0 0
2319 1 12.5895 7.194 34.1715 0 0 0
316 1 30.5745 8.9925 28.776 0 0 0
2999 1 8.9925 32.373 34.1715 0 0 0
336 1 30.5745 12.5895 10.791 0 0 0
1226 1 25.179 19.7835 23.3805 0 0 0
468 1 30.5745 23.3805 21.582 0 0 0
864 1 26.9775 23.3805 17.985 0 0 0
2963 1 8.9925 32.373 1.7985 0 0 0
1269 1 25.179 21.582 25.179 0 0 0
1982 1 17.985 16.1865 19.7835 0 0 0
3199 1 5.3955 14.388 34.1715 0 0 0
624 1 26.9775 1.7985 17.985 0 0 0
2663 1 8.9925 3.597 19.7835 0 0 0
2874 1 10.791 23.3805 30.5745 0 0 0
255 1 30.5745 3.597 12.5895 0 0 0
2478 1 14.388 23.3805 34.1715 0 0 0
1939 1 16.1865 10.791 16.1865 0 0 0
1008 1 23.3805 1.7985 3.597 0 0 0
2562 1 14.388 34.1715 1.7985 0 0 0
1200 1 23.3805 16.1865 32.373 0 0 0
826 1 28.776 19.7835 23.3805 0 0 0
1988 1 16.1865 16.1865 21.582 0 0 0
913 1 28.776 25.179 28.776 0 0 0
231 1 30.5745 0.0 26.9775 0 0 0
196 1 34.1715 34.1715 25.179 0 0 0
675 1 26.9775 3.597 30.5745 0 0 0
1026 1 25.179 1.7985 23.3805 0 0 0
1751 1 19.7835 28.776 26.9775 0 0 0
3078 1 7.194 5.3955 34.1715 0 0 0
2755 1 8.9925 10.791 30.5745 0 0 0
3247 1 5.3955 21.582 5.3955 0 0 0
3571 1 1.7985 14.388 8.9925 0 0 0
3401 1 3.597 0.0 0.0 0 0 0
1661 1 21.582 21.582 17.985 0 0 0
2344 1 12.5895 12.5895 17.985 0 0 0
2665 1 10.791 3.597 21.582 0 0 0
1656 1 19.7835 23.3805 10.791 0 0 0
1069 1 25.179 3.597 25.179 0 0 0
2544 1 12.5895 30.5745 17.985 0 0 0
1454 1 21.582 5.3955 12.5895 0 0 0
3497 1 3.597 7.194 14.388 0 0 0
2543 1 12.5895 28.776 19.7835 0 0 0
3267 1 5.3955 21.582 23.3805 0 0 0
2095 1 16.1865 25.179 12.5895 0 0 0
1041 1 25.179 3.597 0.0 0 0 0
3033 1 7.194 0.0 28.776 0 0 0
176 1 34.1715 30.5745 25.179 0 0 0
3519 1 1.7985 7.194 34.1715 0 0 0
768 1 26.9775 16.1865 3.597 0 0 0
1136 1 23.3805 12.5895 10.791 0 0 0
3417 1 3.597 0.0 14.388 0 0 0
1244 1 23.3805 23.3805 0.0 0 0 0
2426 1 14.388 19.7835 23.3805 0 0 0
3737 1 3.597 28.776 14.388 0 0 0
2309 1 14.388 7.194 25.179 0 0 0
13 1 34.1715 0.0 23.3805 0 0 0
987 1 26.9775 32.373 23.3805 0 0 0
3222 1 7.194 19.7835 19.7835 0 0 0
2054 1 17.985 23.3805 12.5895 0 0 0
3975 1 0.0 28.776 25.179 0 0 0
527 1 30.5745 28.776 5.3955 0 0 0
2240 1 12.5895 1.7985 32.373 0 0 0
1408 1 19.7835 1.7985 3.597 0 0 0
1404 1 19.7835 1.7985 0.0 0 0 0
1220 1 23.3805 19.7835 14.388 0 0 0
635 1 26.9775 0.0 30.5745 0 0 0
802 1 28.776 19.7835 1.7985 0 0 0
2025 1 17.985 17.985 21.582 0 0 0
386 1 32.373 16.1865 23.3805 0 0 0
2837 1 10.791 17.985 32.373 0 0 0
1825 1 17.985 0.0 21.582 0 0 0
565 1 32.373 32.373 3.597 0 0 0
273 1 32.373 3.597 28.776 0 0 0
3755 1 1.7985 28.776 30.5745 0 0 0
1300 1 23.3805 26.9775 14.388 0 0 0
1910 1 17.985 8.9925 26.9775 0 0 0
544 1 30.5745 30.5745 17.985 0 0 0
1747 1 19.7835 28.776 23.3805 0 0 0
100 1 34.1715 16.1865 32.373 0 0 0
3350 1 7.194 30.5745 26.9775 0 0 0
1928 1 16.1865 12.5895 3.597 0 0 0
3879 1 0.0 10.791 32.373 0 0 0
914 1 28.776 26.9775 30.5745 0 0 0
3373 1 7.194 32.373 10.791 0 0 0
1018 1 25.179 1.7985 16.1865 0 0 0
2339 1 12.5895 10.791 16.1865 0 0 0
1933 1 17.985 10.791 10.791 0 0 0
1564 1 19.7835 16.1865 0.0 0 0 0
1095 1 23.3805 7.194 12.5895 0 0 0
1067 1 23.3805 3.597 23.3805 0 0 0
1980 1 16.1865 16.1865 14.388 0 0 0
2986 1 10.791 34.1715 23.3805 0 0 0
891 1 26.9775 25.179 8.9925 0 0 0
137 1 34.1715 21.582 30.5745 0 0 0
1119 1 23.3805 7.194 34.1715 0 0 0
2584 1 12.5895 34.1715 17.985 0 0 0
3806 2 0.0 1.7985 8.9925 0 0 0
3610 2 3.597 19.7835 8.9925 0 0 0
1010 2 25.179 1.7985 8.9925 0 0 0
29 2 34.1715 3.597 16.1865 0 0 0
943 2 26.9775 28.776 19.7835 0 0 0
1847 2 16.1865 3.597 5.3955 0 0 0
2608 2 8.9925 1.7985 3.597 0 0 0
564 2 30.5745 34.1715 0.0 0 0 0
1775 2 19.7835 32.373 12.5895 0 0 0
270 2 32.373 5.3955 26.9775 0 0 0
1162 2 25.179 16.1865 1.7985 0 0 0
2296 2 12.5895 8.9925 10.791 0 0 0
402 2 32.373 19.7835 1.7985 0 0 0
1975 2 16.1865 14.388 12.5895 0 0 0
1664 2 19.7835 23.3805 17.985 0 0 0
52 2 34.1715 8.9925 17.985 0 0 0
126 2 34.1715 23.3805 7.194 0 0 0
2461 2 14.388 21.582 17.985 0 0 0
17 2 34.1715 0.0 30.5745 0 0 0
1279 2 23.3805 21.582 34.1715 0 0 0
2621 2 10.791 0.0 17.985 0 0 0
2247 2 12.5895 3.597 5.3955 0 0 0
2119 2 16.1865 25.179 34.1715 0 0 0
605 2 28.776 0.0 3.597 0 0 0
533 2 32.373 28.776 10.791 0 0 0
3615 2 1.7985 17.985 12.5895 0 0 0
64 2 34.1715 12.5895 3.597 0 0 0
314 2 32.373 8.9925 30.5745 0 0 0
1057 2 25.179 3.597 14.388 0 0 0
3421 2 3.597 0.0 17.985 0 0 0
1209 2 25.179 17.985 7.194 0 0 0
3243 2 5.3955 21.582 1.7985 0 0 0
340 2 30.5745 12.5895 14.388 0 0 0
3829 2 0.0 3.597 14.388 0 0 0
1180 2 23.3805 16.1865 14.388 0 0 0
177 2 34.1715 28.776 30.5745 0 0 0
378 2 32.373 16.1865 16.1865 0 0 0
2982 2 10.791 34.1715 19.7835 0 0 0
532 2 30.5745 30.5745 7.194 0 0 0
810 2 28.776 19.7835 8.9925 0 0 0
1796 2 19.7835 34.1715 28.776 0 0 0
308 2 30.5745 8.9925 21.582 0 0 0
1034 2 25.179 1.7985 30.5745 0 0 0
2040 2 16.1865 19.7835 32.373 0 0 0
312 2 30.5745 8.9925 25.179 0 0 0
2878 2 10.791 23.3805 34.1715 0 0 0
3825 2 0.0 3.597 7.194 0 0 0
1528 2 19.7835 12.5895 3.597 0 0 0
1929 2 17.985 10.791 7.194 0 0 0
3988 2 0.0 34.1715 12.5895 0 0 0
3258 2 7.194 23.3805 16.1865 0 0 0
1971 2 16.1865 14.388 8.9925 0 0 0
798 2 28.776 16.1865 34.1715 0 0 0
552 2 30.5745 30.5745 25.179 0 0 0
1760 2 19.7835 30.5745 32.373 0 0 0
3313 2 7.194 25.179 28.776 0 0 0
1146 2 25.179 12.5895 23.3805 0 0 0
3084 2 5.3955 8.9925 0.0 0 0 0
94 2 34.1715 16.1865 21.582 0 0 0
432 2 30.5745 19.7835 25.179 0 0 0
627 2 26.9775 0.0 23.3805 0 0 0
1892 2 16.1865 8.9925 7.194 0 0 0
2636 2 8.9925 1.7985 28.776 0 0 0
1364 2 23.3805 34.1715 0.0 0 0 0
2232 2 12.5895 1.7985 25.179 0 0 0
3881 2 0.0 14.388 0.0 0 0 0
822 2 28.776 19.7835 19.7835 0 0 0
2605 2 10.791 0.0 3.597 0 0 0
846 2 28.776 23.3805 5.3955 0 0 0
1624 2 19.7835 19.7835 17.985 0 0 0
30 2 34.1715 5.3955 14.388 0 0 0
2252 2 12.5895 5.3955 7.194 0 0 0
3093 2 7.194 7.194 10.791 0 0 0
2853 2 10.791 21.582 10.791 0 0 0
1635 2 19.7835 17.985 30.5745 0 0 0
2718 2 10.791 8.9925 34.1715 0 0 0
855 2 26.9775 21.582 12.5895 0 0 0
3395 2 5.3955 32.373 30.5745 0 0 0
3920 2 0.0 19.7835 34.1715 0 0 0
2256 2 12.5895 5.3955 10.791 0 0 0
2405 2 14.388 17.985 3.597 0 0 0
2423 2 12.5895 17.985 19.7835 0 0 0
2507 2 12.5895 25.179 23.3805 0 0 0
878 2 28.776 23.3805 34.1715 0 0 0
1626 2 21.582 19.7835 23.3805 0 0 0
14 2 34.1715 1.7985 21.582 0 0 0
1054 2 25.179 5.3955 12.5895 0 0 0
1471 2 19.7835 3.597 26.9775 0 0 0
2618 2 10.791 1.7985 16.1865 0 0 0
483 2 30.5745 25.179 1.7985 0 0 0
3060 2 5.3955 5.3955 14.388 0 0 0
3740 2 1.7985 30.5745 14.388 0 0 0
1320 2 23.3805 26.9775 32.373 0 0 0
3837 2 0.0 3.597 28.776 0 0 0
2001 2 17.985 17.985 0.0 0 0 0
3097 2 7.194 7.194 14.388 0 0 0
1861 2 17.985 3.597 17.985 0 0 0
1288 2 23.3805 26.9775 3.597 0 0 0
762 2 28.776 16.1865 1.7985 0 0 0
2649 2 10.791 3.597 7.194 0 0 0
2979 2 8.9925 32.373 16.1865 0 0 0
3819 2 0.0 0.0 32.373 0 0 0
1027 2 23.3805 0.0 23.3805 0 0 0
1839 2 16.1865 0.0 34.1715 0 0 0
898 2 28.776 26.9775 16.1865 0 0 0
2938 2 10.791 30.5745 16.1865 0 0 0
840 2 26.9775 19.7835 32.373 0 0 0
733 2 28.776 10.791 10.791 0 0 0
2395 2 12.5895 14.388 30.5745 0 0 0
1151 2 23.3805 10.791 26.9775 0 0 0
265 2 32.373 3.597 21.582 0 0 0
1113 2 25.179 7.194 28.776 0 0 0
488 2 30.5745 26.9775 3.597 0 0 0
2301 2 14.388 7.194 17.985 0 0 0
113 2 34.1715 17.985 23.3805 0 0 0
3054 2 7.194 5.3955 12.5895 0 0 0
3700 2 1.7985 26.9775 14.388 0 0 0
3607 2 1.7985 17.985 5.3955 0 0 0
3473 2 3.597 3.597 28.776 0 0 0
3477 2 3.597 3.597 32.373 0 0 0
435 2 30.5745 17.985 30.5745 0 0 0
3217 2 7.194 17.985 14.388 0 0 0
3063 2 5.3955 3.597 19.7835 0 0 0
950 2 28.776 30.5745 26.9775 0 0 0
3622 2 3.597 19.7835 19.7835 0 0 0
3131 2 5.3955 10.791 8.9925 0 0 0
3809 2 0.0 0.0 14.388 0 0 0
2632 2 8.9925 1.7985 25.179 0 0 0
819 2 26.9775 17.985 16.1865 0 0 0
2707 2 8.9925 7.194 23.3805 0 0 0
1437 2 21.582 0.0 32.373 0 0 0
2171 2 16.1865 32.373 8.9925 0 0 0
3921 2 0.0 21.582 0.0 0 0 0
2900 2 8.9925 26.9775 14.388 0 0 0
2304 2 12.5895 8.9925 17.985 0 0 0
2578 2 14.388 34.1715 16.1865 0 0 0
2484 2 12.5895 26.9775 0.0 0 0 0
2947 2 8.9925 28.776 23.3805 0 0 0
633 2 28.776 0.0 28.776 0 0 0
939 2 26.9775 28.776 16.1865 0 0 0
1570 2 21.582 16.1865 8.9925 0 0 0
3354 2 7.194 30.5745 30.5745 0 0 0
2468 2 12.5895 23.3805 21.582 0 0 0
68 2 34.1715 12.5895 10.791 0 0 0
2184 2 16.1865 34.1715 17.985 0 0 0
3554 2 3.597 12.5895 30.5745 0 0 0
3712 2 1.7985 26.9775 25.179 0 0 0
3704 2 1.7985 26.9775 17.985 0 0 0
1769 2 21.582 32.373 7.194 0 0 0
3792 2 1.7985 34.1715 25.179 0 0 0
583 2 30.5745 32.373 19.7835 0 0 0
1250 2 25.179 23.3805 8.9925 0 0 0
1922 2 17.985 12.5895 1.7985 0 0 0
2142 2 17.985 30.5745 19.7835 0 0 0
1921 2 17.985 10.791 0.0 0 0 0
3583 2 1.7985 14.388 19.7835 0 0 0
594 2 32.373 34.1715 30.5745 0 0 0
2678 2 10.791 5.3955 34.1715 0 0 0
1038 2 25.179 1.7985 34.1715 0 0 0
1109 2 25.179 7.194 25.179 0 0 0
2953 2 10.791 28.776 28.776 0 0 0
426 2 32.373 19.7835 23.3805 0 0 0
3760 2 1.7985 30.5745 32.373 0 0 0
2317 2 14.388 7.194 32.373 0 0 0
3808 2 0.0 1.7985 12.5895 0 0 0
1714 2 21.582 26.9775 30.5745 0 0 0
266 2 32.373 5.3955 23.3805 0 0 0
745 2 28.776 10.791 21.582 0 0 0
1039 2 23.3805 0.0 34.1715 0 0 0
3260 2 5.3955 23.3805 14.388 0 0 0
1478 2 21.582 5.3955 34.1715 0 0 0
50 2 34.1715 8.9925 14.388 0 0 0
3211 2 5.3955 17.985 8.9925 0 0 0
3637 2 3.597 17.985 32.373 0 0 0
3588 2 1.7985 16.1865 21.582 0 0 0
158 2 34.1715 26.9775 28.776 0 0 0
1792 2 19.7835 34.1715 25.179 0 0 0
3489 2 3.597 7.194 7.194 0 0 0
2162 2 17.985 34.1715 1.7985 0 0 0
2090 2 17.985 26.9775 8.9925 0 0 0
2407 2 12.5895 17.985 5.3955 0 0 0
3594 2 3.597 16.1865 30.5745 0 0 0
3012 2 5.3955 1.7985 7.194 0 0 0
1958 2 17.985 12.5895 34.1715 0 0 0
2170 2 17.985 34.1715 8.9925 0 0 0
2333 2 14.388 10.791 10.791 0 0 0
1335 2 23.3805 28.776 12.5895 0 0 0
513 2 32.373 25.179 28.776 0 0 0
2023 2 16.1865 17.985 19.7835 0 0 0
814 2 28.776 19.7835 12.5895 0 0 0
71 2 34.1715 10.791 19.7835 0 0 0
3346 2 7.194 30.5745 23.3805 0 0 0
2185 2 17.985 32.373 21.582 0 0 0
1112 2 23.3805 8.9925 25.179 0 0 0
498 2 32.373 26.9775 16.1865 0 0 0
1491 2 19.7835 7.194 8.9925 0 0 0
3897 2 0.0 14.388 28.776 0 0 0
2732 2 8.9925 12.5895 7.194 0 0 0
3411 2 1.7985 0.0 8.9925 0 0 0
3009 2 7.194 0.0 7.194 0 0 0
2374 2 14.388 16.1865 12.5895 0 0 0
703 2 26.9775 7.194 19.7835 0 0 0
1356 2 23.3805 30.5745 28.776 0 0 0
250 2 32.373 5.3955 8.9925 0 0 0
2452 2 12.5895 23.3805 7.194 0 0 0
460 2 30.5745 23.3805 14.388 0 0 0
1972 2 16.1865 16.1865 7.194 0 0 0
2367 2 12.5895 14.388 5.3955 0 0 0
479 2 30.5745 21.582 34.1715 0 0 0
1821 2 17.985 0.0 17.985 0 0 0
3427 2 1.7985 0.0 23.3805 0 0 0
2858 2 10.791 23.3805 16.1865 0 0 0
217 2 32.373 0.0 14.388 0 0 0
57 2 34.1715 7.194 30.5745 0 0 0
741 2 28.776 10.791 17.985 0 0 0
2972 2 8.9925 34.1715 7.194 0 0 0
45 2 34.1715 7.194 8.9925 0 0 0
3992 2 0.0 34.1715 19.7835 0 0 0
2867 2 8.9925 21.582 23.3805 0 0 0
214 2 32.373 1.7985 12.5895 0 0 0
1193 2 25.179 14.388 28.776 0 0 0
1617 2 21.582 17.985 14.388 0 0 0
1255 2 23.3805 21.582 12.5895 0 0 0
3984 2 0.0 34.1715 5.3955 0 0 0
994 2 28.776 34.1715 30.5745 0 0 0
1085 2 25.179 7.194 3.597 0 0 0
2751 2 8.9925 10.791 26.9775 0 0 0
3701 2 3.597 25.179 17.985 0 0 0
2807 2 8.9925 17.985 5.3955 0 0 0
3598 2 3.597 16.1865 34.1715 0 0 0
726 2 28.776 12.5895 5.3955 0 0 0
1188 2 23.3805 16.1865 21.582 0 0 0
1190 2 25.179 16.1865 26.9775 0 0 0
3277 2 7.194 21.582 32.373 0 0 0
2210 2 14.388 1.7985 8.9925 0 0 0
3224 2 5.3955 19.7835 17.985 0 0 0
463 2 30.5745 21.582 19.7835 0 0 0
3469 2 3.597 3.597 25.179 0 0 0
3070 2 7.194 5.3955 26.9775 0 0 0
2469 2 14.388 21.582 25.179 0 0 0
1309 2 25.179 25.179 25.179 0 0 0
2389 2 14.388 14.388 25.179 0 0 0
3782 2 3.597 34.1715 19.7835 0 0 0
2336 2 12.5895 12.5895 10.791 0 0 0
212 2 30.5745 1.7985 7.194 0 0 0
1530 2 21.582 12.5895 8.9925 0 0 0
2504 2 12.5895 26.9775 17.985 0 0 0
3860 2 0.0 8.9925 34.1715 0 0 0
1346 2 25.179 30.5745 23.3805 0 0 0
3818 2 0.0 1.7985 30.5745 0 0 0
3728 2 1.7985 30.5745 3.597 0 0 0
2021 2 17.985 17.985 17.985 0 0 0
1782 2 21.582 34.1715 19.7835 0 0 0
2332 2 12.5895 12.5895 7.194 0 0 0
1205 2 25.179 17.985 3.597 0 0 0
1535 2 19.7835 10.791 12.5895 0 0 0
1485 2 21.582 7.194 3.597 0 0 0
940 2 26.9775 30.5745 14.388 0 0 0
3320 2 5.3955 26.9775 32.373 0 0 0
3925 2 0.0 21.582 7.194 0 0 0
224 2 30.5745 1.7985 17.985 0 0 0
2565 2 14.388 32.373 3.597 0 0 0
2300 2 12.5895 8.9925 14.388 0 0 0
1297 2 25.179 25.179 14.388 0 0 0
3563 2 1.7985 14.388 1.7985 0 0 0
2661 2 10.791 3.597 17.985 0 0 0
1776 2 19.7835 34.1715 10.791 0 0 0
65 2 34.1715 10.791 8.9925 0 0 0
443 2 30.5745 21.582 1.7985 0 0 0
1282 2 25.179 26.9775 1.7985 0 0 0
835 2 26.9775 17.985 30.5745 0 0 0
1818 2 17.985 1.7985 16.1865 0 0 0
3420 2 1.7985 1.7985 14.388 0 0 0
3776 2 1.7985 34.1715 10.791 0 0 0
622 2 28.776 1.7985 19.7835 0 0 0
1870 2 17.985 5.3955 26.9775 0 0 0
2133 2 17.985 28.776 10.791 0 0 0
971 2 26.9775 32.373 8.9925 0 0 0
647 2 26.9775 3.597 5.3955 0 0 0
3928 2 0.0 23.3805 12.5895 0 0 0
3587 2 1.7985 14.388 23.3805 0 0 0
644 2 26.9775 5.3955 0.0 0 0 0
2042 2 17.985 23.3805 1.7985 0 0 0
2992 2 8.9925 34.1715 25.179 0 0 0
3623 2 1.7985 17.985 19.7835 0 0 0
3539 2 1.7985 10.791 16.1865 0 0 0
2239 2 12.5895 0.0 34.1715 0 0 0
2540 2 12.5895 30.5745 14.388 0 0 0
1458 2 21.582 5.3955 16.1865 0 0 0
1202 2 25.179 19.7835 1.7985 0 0 0
2595 2 12.5895 32.373 30.5745 0 0 0
1578 2 21.582 16.1865 16.1865 0 0 0
3337 2 7.194 28.776 14.388 0 0 0
1157 2 25.179 10.791 32.373 0 0 0
3942 2 0.0 26.9775 1.7985 0 0 0
1666 2 21.582 23.3805 23.3805 0 0 0
376 2 30.5745 16.1865 10.791 0 0 0
2364 2 12.5895 16.1865 0.0 0 0 0
3106 2 7.194 8.9925 23.3805 0 0 0
1359 2 23.3805 28.776 34.1715 0 0 0
2730 2 10.791 12.5895 8.9925 0 0 0
1766 2 21.582 34.1715 5.3955 0 0 0
3270 2 7.194 23.3805 26.9775 0 0 0
1558 2 21.582 12.5895 34.1715 0 0 0
3667 2 1.7985 21.582 23.3805 0 0 0
1555 2 19.7835 10.791 30.5745 0 0 0
2113 2 17.985 25.179 28.776 0 0 0
493 2 32.373 25.179 10.791 0 0 0
1906 2 17.985 8.9925 23.3805 0 0 0
1640 2 19.7835 19.7835 32.373 0 0 0
3152 2 5.3955 12.5895 25.179 0 0 0
1292 2 23.3805 26.9775 7.194 0 0 0
392 2 30.5745 16.1865 25.179 0 0 0
3004 2 5.3955 1.7985 0.0 0 0 0
1509 2 21.582 7.194 25.179 0 0 0
2180 2 16.1865 34.1715 14.388 0 0 0
3846 2 0.0 8.9925 8.9925 0 0 0
592 2 30.5745 34.1715 25.179 0 0 0
895 2 26.9775 25.179 12.5895 0 0 0
524 2 30.5745 30.5745 0.0 0 0 0
2413 2 14.388 17.985 10.791 0 0 0
490 2 32.373 26.9775 8.9925 0 0 0
72 2 34.1715 12.5895 17.985 0 0 0
1037 2 25.179 0.0 32.373 0 0 0
1422 2 21.582 1.7985 19.7835 0 0 0
2939 2 8.9925 28.776 16.1865 0 0 0
87 2 34.1715 14.388 12.5895 0 0 0
3836 2 0.0 5.3955 26.9775 0 0 0
1529 2 21.582 10.791 7.194 0 0 0
3069 2 7.194 3.597 25.179 0 0 0
458 2 32.373 23.3805 16.1865 0 0 0
657 2 28.776 3.597 14.388 0 0 0
448 2 30.5745 23.3805 3.597 0 0 0
2394 2 14.388 16.1865 30.5745 0 0 0
645 2 28.776 3.597 3.597 0 0 0
3952 2 0.0 26.9775 19.7835 0 0 0
374 2 32.373 16.1865 12.5895 0 0 0
1534 2 21.582 12.5895 12.5895 0 0 0
3495 2 1.7985 7.194 12.5895 0 0 0
12 2 34.1715 1.7985 17.985 0 0 0
1995 2 16.1865 14.388 30.5745 0 0 0
2417 2 14.388 17.985 14.388 0 0 0
2397 2 14.388 14.388 32.373 0 0 0
1768 2 19.7835 34.1715 3.597 0 0 0
3408 2 1.7985 1.7985 3.597 0 0 0
2308 2 12.5895 8.9925 21.582 0 0 0
2268 2 12.5895 5.3955 21.582 0 0 0
3512 2 1.7985 8.9925 25.179 0 0 0
2346 2 14.388 12.5895 23.3805 0 0 0
149 2 34.1715 25.179 16.1865 0 0 0
2313 2 14.388 7.194 28.776 0 0 0
1947 2 16.1865 10.791 23.3805 0 0 0
795 2 26.9775 14.388 30.5745 0 0 0
2983 2 8.9925 32.373 19.7835 0 0 0
2997 2 10.791 32.373 32.373 0 0 0
1358 2 25.179 30.5745 34.1715 0 0 0
3821 2 0.0 3.597 0.0 0 0 0
116 2 34.1715 19.7835 25.179 0 0 0
540 2 30.5745 30.5745 14.388 0 0 0
2624 2 8.9925 1.7985 17.985 0 0 0
728 2 26.9775 12.5895 3.597 0 0 0
1774 2 21.582 34.1715 12.5895 0 0 0
3095 2 5.3955 7.194 12.5895 0 0 0
2045 2 17.985 21.582 3.597 0 0 0
2122 2 17.985 30.5745 1.7985 0 0 0
228 2 30.5745 1.7985 21.582 0 0 0
1011 2 23.3805 0.0 8.9925 0 0 0
3586 2 3.597 16.1865 23.3805 0 0 0
1734 2 21.582 30.5745 12.5895 0 0 0
2598 2 14.388 34.1715 34.1715 0 0 0
2281 2 14.388 7.194 0.0 0 0 0
1090 2 25.179 8.9925 8.9925 0 0 0
420 2 30.5745 19.7835 14.388 0 0 0
2449 2 14.388 21.582 7.194 0 0 0
820 2 26.9775 19.7835 14.388 0 0 0
465 2 32.373 21.582 21.582 0 0 0
1461 2 21.582 3.597 17.985 0 0 0
200 2 34.1715 34.1715 32.373 0 0 0
3006 2 7.194 1.7985 5.3955 0 0 0
767 2 26.9775 14.388 5.3955 0 0 0
2553 2 14.388 28.776 28.776 0 0 0
114 2 34.1715 19.7835 21.582 0 0 0
1616 2 19.7835 19.7835 10.791 0 0 0
3501 2 3.597 7.194 17.985 0 0 0
974 2 28.776 34.1715 12.5895 0 0 0
931 2 26.9775 28.776 8.9925 0 0 0
3957 2 0.0 25.179 28.776 0 0 0
1170 2 25.179 16.1865 8.9925 0 0 0
1522 2 21.582 12.5895 1.7985 0 0 0
954 2 28.776 30.5745 30.5745 0 0 0
405 2 32.373 17.985 3.597 0 0 0
969 2 28.776 32.373 7.194 0 0 0
3781 2 3.597 32.373 17.985 0 0 0
3007 2 5.3955 0.0 5.3955 0 0 0
3189 2 7.194 14.388 25.179 0 0 0
3680 2 1.7985 23.3805 32.373 0 0 0
1884 2 16.1865 8.9925 0.0 0 0 0
1457 2 21.582 3.597 14.388 0 0 0
3580 2 1.7985 16.1865 14.388 0 0 0
2641 2 10.791 3.597 0.0 0 0 0
1118 2 25.179 8.9925 34.1715 0 0 0
269 2 32.373 3.597 25.179 0 0 0
195 2 34.1715 32.373 26.9775 0 0 0
1062 2 25.179 5.3955 19.7835 0 0 0
2010 2 17.985 19.7835 8.9925 0 0 0
2102 2 17.985 26.9775 19.7835 0 0 0
738 2 28.776 12.5895 16.1865 0 0 0
2535 2 12.5895 28.776 12.5895 0 0 0
1430 2 21.582 1.7985 26.9775 0 0 0
1049 2 25.179 3.597 7.194 0 0 0
3542 2 3.597 12.5895 19.7835 0 0 0
915 2 26.9775 25.179 30.5745 0 0 0
1887 2 16.1865 7.194 5.3955 0 0 0
1048 2 23.3805 5.3955 3.597 0 0 0
521 2 32.373 28.776 0.0 0 0 0
1547 2 19.7835 10.791 23.3805 0 0 0
3169 2 7.194 14.388 7.194 0 0 0
120 2 34.1715 19.7835 32.373 0 0 0
494 2 32.373 26.9775 12.5895 0 0 0
389 2 32.373 14.388 25.179 0 0 0
2804 2 8.9925 19.7835 0.0 0 0 0
2335 2 12.5895 10.791 12.5895 0 0 0
3326 2 7.194 30.5745 5.3955 0 0 0
53 2 34.1715 7.194 23.3805 0 0 0
363 2 30.5745 14.388 1.7985 0 0 0
171 2 34.1715 28.776 19.7835 0 0 0
535 2 30.5745 28.776 12.5895 0 0 0
3548 2 1.7985 12.5895 21.582 0 0 0
3416 2 1.7985 1.7985 10.791 0 0 0
2238 2 14.388 1.7985 34.1715 0 0 0
229 2 32.373 0.0 25.179 0 0 0
3460 2 1.7985 5.3955 14.388 0 0 0
2774 2 10.791 16.1865 12.5895 0 0 0
107 2 34.1715 17.985 12.5895 0 0 0
3227 2 5.3955 17.985 23.3805 0 0 0
2954 2 10.791 30.5745 30.5745 0 0 0
2542 2 14.388 30.5745 19.7835 0 0 0
2795 2 8.9925 14.388 30.5745 0 0 0
1206 2 25.179 19.7835 5.3955 0 0 0
205 2 32.373 0.0 3.597 0 0 0
2519 2 12.5895 25.179 34.1715 0 0 0
1316 2 23.3805 26.9775 28.776 0 0 0
31 2 34.1715 3.597 19.7835 0 0 0
3188 2 5.3955 16.1865 21.582 0 0 0
1198 2 25.179 16.1865 34.1715 0 0 0
3525 2 3.597 10.791 3.597 0 0 0
2944 2 8.9925 30.5745 17.985 0 0 0
3062 2 7.194 5.3955 19.7835 0 0 0
860 2 26.9775 23.3805 14.388 0 0 0
2836 2 8.9925 19.7835 28.776 0 0 0
3266 2 7.194 23.3805 23.3805 0 0 0
519 2 30.5745 25.179 34.1715 0 0 0
1451 2 19.7835 3.597 8.9925 0 0 0
1538 2 21.582 12.5895 16.1865 0 0 0
1293 2 25.179 25.179 10.791 0 0 0
3902 2 0.0 19.7835 1.7985 0 0 0
2022 2 17.985 19.7835 19.7835 0 0 0
1441 2 21.582 3.597 0.0 0 0 0
2186 2 17.985 34.1715 23.3805 0 0 0
923 2 26.9775 28.776 1.7985 0 0 0
3682 2 3.597 26.9775 1.7985 0 0 0
2545 2 14.388 28.776 21.582 0 0 0
3303 2 5.3955 25.179 19.7835 0 0 0
2773 2 10.791 14.388 10.791 0 0 0
2348 2 12.5895 12.5895 21.582 0 0 0
127 2 34.1715 21.582 12.5895 0 0 0
2378 2 14.388 16.1865 16.1865 0 0 0
660 2 26.9775 5.3955 14.388 0 0 0
1045 2 25.179 3.597 3.597 0 0 0
1196 2 23.3805 16.1865 28.776 0 0 0
85 2 34.1715 14.388 8.9925 0 0 0
3444 2 1.7985 5.3955 0.0 0 0 0
1321 2 25.179 28.776 0.0 0 0 0
500 2 30.5745 26.9775 14.388 0 0 0
449 2 32.373 21.582 7.194 0 0 0
3876 2 0.0 12.5895 26.9775 0 0 0
3596 2 1.7985 16.1865 28.776 0 0 0
1256 2 23.3805 23.3805 10.791 0 0 0
3123 2 5.3955 10.791 1.7985 0 0 0
303 2 30.5745 7.194 19.7835 0 0 0
4000 2 0.0 34.1715 34.1715 0 0 0
3710 2 3.597 26.9775 26.9775 0 0 0
3718 2 3.597 26.9775 34.1715 0 0 0
3839 2 0.0 3.597 32.373 0 0 0
2439 2 12.5895 17.985 34.1715 0 0 0
3963 2 0.0 28.776 3.597 0 0 0
2604 2 8.9925 1.7985 0.0 0 0 0
26 2 34.1715 5.3955 7.194 0 0 0
2940 2 8.9925 30.5745 14.388 0 0 0
3845 2 0.0 7.194 7.194 0 0 0
577 2 32.373 32.373 14.388 0 0 0
156 2 34.1715 26.9775 25.179 0 0 0
1569 2 21.582 14.388 7.194 0 0 0
1084 2 23.3805 8.9925 0.0 0 0 0
705 2 28.776 7.194 21.582 0 0 0
759 2 26.9775 10.791 34.1715 0 0 0
3658 2 3.597 23.3805 16.1865 0 0 0
760 2 26.9775 12.5895 32.373 0 0 0
3698 2 3.597 26.9775 16.1865 0 0 0
2829 2 10.791 17.985 25.179 0 0 0
1732 2 19.7835 30.5745 7.194 0 0 0
707 2 26.9775 7.194 23.3805 0 0 0
2216 2 12.5895 1.7985 10.791 0 0 0
3917 2 0.0 17.985 28.776 0 0 0
372 2 30.5745 16.1865 7.194 0 0 0
145 2 34.1715 25.179 8.9925 0 0 0
1134 2 25.179 12.5895 12.5895 0 0 0
175 2 34.1715 28.776 26.9775 0 0 0
3161 2 7.194 14.388 0.0 0 0 0
988 2 26.9775 34.1715 21.582 0 0 0
304 2 30.5745 8.9925 17.985 0 0 0
1268 2 23.3805 23.3805 21.582 0 0 0
415 2 30.5745 17.985 12.5895 0 0 0
928 2 26.9775 30.5745 3.597 0 0 0
3288 2 5.3955 26.9775 3.597 0 0 0
38 2 34.1715 5.3955 28.776 0 0 0
3115 2 5.3955 7.194 30.5745 0 0 0
3 2 34.1715 0.0 5.3955 0 0 0
3262 2 7.194 23.3805 19.7835 0 0 0
3479 2 1.7985 3.597 34.1715 0 0 0
2134 2 17.985 30.5745 12.5895 0 0 0
1035 2 23.3805 0.0 30.5745 0 0 0
1899 2 16.1865 7.194 16.1865 0 0 0
3017 2 7.194 0.0 14.388 0 0 0
3342 2 7.194 30.5745 19.7835 0 0 0
3030 2 7.194 1.7985 26.9775 0 0 0
558 2 32.373 30.5745 34.1715 0 0 0
427 2 30.5745 17.985 23.3805 0 0 0
2816 2 8.9925 19.7835 10.791 0 0 0
2620 2 8.9925 1.7985 14.388 0 0 0
917 2 28.776 25.179 32.373 0 0 0
3378 2 7.194 34.1715 16.1865 0 0 0
1813 2 17.985 0.0 10.791 0 0 0
2750 2 10.791 12.5895 26.9775 0 0 0
2460 2 12.5895 23.3805 14.388 0 0 0
3091 2 5.3955 7.194 8.9925 0 0 0
3061 2 7.194 3.597 17.985 0 0 0
2550 2 14.388 30.5745 26.9775 0 0 0
2952 2 8.9925 30.5745 25.179 0 0 0
121 2 34.1715 21.582 1.7985 0 0 0
3083 2 5.3955 7.194 1.7985 0 0 0
2603 2 8.9925 0.0 1.7985 0 0 0
2784 2 8.9925 16.1865 17.985 0 0 0
1800 2 19.7835 34.1715 32.373 0 0 0
416 2 30.5745 19.7835 10.791 0 0 0
124 2 34.1715 23.3805 3.597 0 0 0
409 2 32.373 17.985 7.194 0 0 0
2177 2 17.985 32.373 14.388 0 0 0
3213 2 7.194 17.985 10.791 0 0 0
2896 2 8.9925 26.9775 10.791 0 0 0
3317 2 7.194 25.179 32.373 0 0 0
2403 2 12.5895 17.985 1.7985 0 0 0
446 2 32.373 23.3805 5.3955 0 0 0
551 2 30.5745 28.776 26.9775 0 0 0
300 2 30.5745 8.9925 14.388 0 0 0
2263 2 12.5895 3.597 19.7835 0 0 0
168 2 34.1715 30.5745 10.791 0 0 0
747 2 26.9775 10.791 23.3805 0 0 0
2404 2 12.5895 19.7835 0.0 0 0 0
3695 2 1.7985 25.179 12.5895 0 0 0
1587 2 19.7835 14.388 23.3805 0 0 0
428 2 30.5745 19.7835 21.582 0 0 0
1161 2 25.179 14.388 0.0 0 0 0
2886 2 10.791 26.9775 5.3955 0 0 0
3758 2 3.597 30.5745 34.1715 0 0 0
2704 2 8.9925 8.9925 17.985 0 0 0
2687 2 8.9925 7.194 5.3955 0 0 0
2223 2 12.5895 0.0 19.7835 0 0 0
3503 2 1.7985 7.194 19.7835 0 0 0
3185 2 7.194 14.388 21.582 0 0 0
81 2 34.1715 14.388 1.7985 0 0 0
1396 2 23.3805 34.1715 28.776 0 0 0
430 2 32.373 19.7835 26.9775 0 0 0
2861 2 10.791 21.582 17.985 0 0 0
2766 2 10.791 16.1865 5.3955 0 0 0
685 2 28.776 7.194 3.597 0 0 0
1392 2 23.3805 34.1715 25.179 0 0 0
3218 2 7.194 19.7835 16.1865 0 0 0
3239 2 5.3955 17.985 34.1715 0 0 0
3384 2 5.3955 34.1715 17.985 0 0 0
2524 2 12.5895 30.5745 0.0 0 0 0
1148 2 23.3805 12.5895 21.582 0 0 0
1606 2 21.582 19.7835 5.3955 0 0 0
1174 2 25.179 16.1865 12.5895 0 0 0
394 2 32.373 16.1865 30.5745 0 0 0
3311 2 5.3955 25.179 26.9775 0 0 0
3553 2 3.597 10.791 28.776 0 0 0
2004 2 16.1865 19.7835 0.0 0 0 0
263 2 30.5745 3.597 19.7835 0 0 0
453 2 32.373 21.582 10.791 0 0 0
3024 2 5.3955 1.7985 17.985 0 0 0
786 2 28.776 16.1865 23.3805 0 0 0
1639 2 19.7835 17.985 34.1715 0 0 0
232 2 30.5745 1.7985 25.179 0 0 0
975 2 26.9775 32.373 12.5895 0 0 0
1141 2 25.179 10.791 17.985 0 0 0
480 2 30.5745 23.3805 32.373 0 0 0
1967 2 16.1865 14.388 5.3955 0 0 0
1594 2 21.582 16.1865 30.5745 0 0 0
280 2 30.5745 5.3955 32.373 0 0 0
3822 2 0.0 5.3955 1.7985 0 0 0
1931 2 16.1865 10.791 8.9925 0 0 0
3636 2 1.7985 19.7835 28.776 0 0 0
2331 2 12.5895 10.791 8.9925 0 0 0
3238 2 7.194 19.7835 34.1715 0 0 0
1177 2 25.179 14.388 14.388 0 0 0
977 2 28.776 32.373 14.388 0 0 0
2388 2 12.5895 16.1865 21.582 0 0 0
2325 2 14.388 10.791 3.597 0 0 0
2733 2 10.791 10.791 10.791 0 0 0
2445 2 14.388 21.582 3.597 0 0 0
2485 2 14.388 25.179 3.597 0 0 0
1883 2 16.1865 7.194 1.7985 0 0 0
1398 2 25.179 34.1715 34.1715 0 0 0
1934 2 17.985 12.5895 12.5895 0 0 0
2408 2 12.5895 19.7835 3.597 0 0 0
3048 2 5.3955 5.3955 3.597 0 0 0
1848 2 16.1865 5.3955 3.597 0 0 0
1881 2 17.985 7.194 0.0 0 0 0
722 2 28.776 12.5895 1.7985 0 0 0
3114 2 7.194 8.9925 30.5745 0 0 0
63 2 34.1715 10.791 5.3955 0 0 0
574 2 32.373 34.1715 12.5895 0 0 0
2503 2 12.5895 25.179 19.7835 0 0 0
3360 2 5.3955 30.5745 32.373 0 0 0
596 2 30.5745 34.1715 28.776 0 0 0
3937 2 0.0 21.582 28.776 0 0 0
2737 2 10.791 10.791 14.388 0 0 0
2995 2 8.9925 32.373 30.5745 0 0 0
2050 2 17.985 23.3805 8.9925 0 0 0
3632 2 1.7985 19.7835 25.179 0 0 0
1514 2 21.582 8.9925 30.5745 0 0 0
407 2 30.5745 17.985 5.3955 0 0 0
2580 2 12.5895 34.1715 14.388 0 0 0
3134 2 7.194 12.5895 12.5895 0 0 0
1709 2 21.582 25.179 25.179 0 0 0
406 2 32.373 19.7835 5.3955 0 0 0
539 2 30.5745 28.776 16.1865 0 0 0
2990 2 10.791 34.1715 26.9775 0 0 0
302 2 32.373 8.9925 19.7835 0 0 0
2217 2 14.388 0.0 14.388 0 0 0
3911 2 0.0 17.985 17.985 0 0 0
190 2 34.1715 34.1715 14.388 0 0 0
309 2 32.373 7.194 25.179 0 0 0
1274 2 25.179 23.3805 30.5745 0 0 0
1507 2 19.7835 7.194 23.3805 0 0 0
698 2 28.776 8.9925 16.1865 0 0 0
2100 2 16.1865 26.9775 14.388 0 0 0
2148 2 16.1865 30.5745 21.582 0 0 0
2822 2 10.791 19.7835 19.7835 0 0 0
2257 2 14.388 3.597 14.388 0 0 0
1058 2 25.179 5.3955 16.1865 0 0 0
1589 2 21.582 14.388 25.179 0 0 0
673 2 28.776 3.597 28.776 0 0 0
485 2 32.373 25.179 3.597 0 0 0
1240 2 23.3805 19.7835 32.373 0 0 0
1036 2 23.3805 1.7985 28.776 0 0 0
2783 2 8.9925 14.388 19.7835 0 0 0
1391 2 23.3805 32.373 26.9775 0 0 0
2189 2 17.985 32.373 25.179 0 0 0
1431 2 19.7835 0.0 26.9775 0 0 0
3687 2 1.7985 25.179 5.3955 0 0 0
3736 2 1.7985 30.5745 10.791 0 0 0
628 2 26.9775 1.7985 21.582 0 0 0
3635 2 1.7985 17.985 30.5745 0 0 0
2069 2 17.985 21.582 25.179 0 0 0
1207 2 23.3805 17.985 5.3955 0 0 0
2375 2 12.5895 14.388 12.5895 0 0 0
1093 2 25.179 7.194 10.791 0 0 0
379 2 30.5745 14.388 16.1865 0 0 0
515 2 30.5745 25.179 30.5745 0 0 0
772 2 26.9775 16.1865 7.194 0 0 0
219 2 30.5745 0.0 16.1865 0 0 0
3702 2 3.597 26.9775 19.7835 0 0 0
2219 2 12.5895 0.0 16.1865 0 0 0
509 2 32.373 25.179 25.179 0 0 0
1716 2 19.7835 26.9775 28.776 0 0 0
3014 2 7.194 1.7985 12.5895 0 0 0
1963 2 16.1865 14.388 1.7985 0 0 0
1384 2 23.3805 34.1715 17.985 0 0 0
2916 2 8.9925 26.9775 28.776 0 0 0
3750 2 3.597 30.5745 26.9775 0 0 0
3631 2 1.7985 17.985 26.9775 0 0 0
3612 2 1.7985 19.7835 7.194 0 0 0
834 2 28.776 19.7835 30.5745 0 0 0
111 2 34.1715 17.985 19.7835 0 0 0
3699 2 1.7985 25.179 16.1865 0 0 0
1662 2 21.582 23.3805 19.7835 0 0 0
1290 2 25.179 26.9775 8.9925 0 0 0
973 2 28.776 32.373 10.791 0 0 0
848 2 26.9775 23.3805 3.597 0 0 0
3774 2 3.597 34.1715 12.5895 0 0 0
3174 2 7.194 16.1865 12.5895 0 0 0
1029 2 25.179 0.0 25.179 0 0 0
134 2 34.1715 23.3805 21.582 0 0 0
3191 2 5.3955 14.388 26.9775 0 0 0
2463 2 12.5895 21.582 19.7835 0 0 0
1665 2 21.582 21.582 21.582 0 0 0
1703 2 19.7835 25.179 19.7835 0 0 0
1789 2 21.582 32.373 25.179 0 0 0
3204 2 5.3955 19.7835 0.0 0 0 0
3338 2 7.194 30.5745 16.1865 0 0 0
3167 2 5.3955 14.388 5.3955 0 0 0
3245 2 7.194 21.582 3.597 0 0 0
1672 2 19.7835 23.3805 25.179 0 0 0
825 2 28.776 17.985 21.582 0 0 0
2267 2 12.5895 3.597 23.3805 0 0 0
3214 2 7.194 19.7835 12.5895 0 0 0
318 2 32.373 8.9925 34.1715 0 0 0
373 2 32.373 14.388 10.791 0 0 0
347 2 30.5745 10.791 23.3805 0 0 0
2048 2 16.1865 23.3805 3.597 0 0 0
3642 2 3.597 23.3805 1.7985 0 0 0
3537 2 3.597 10.791 14.388 0 0 0
1418 2 21.582 1.7985 16.1865 0 0 0
904 2 26.9775 26.9775 17.985 0 0 0
2622 2 10.791 1.7985 19.7835 0 0 0
2769 2 10.791 14.388 7.194 0 0 0
1239 2 23.3805 17.985 34.1715 0 0 0
3816 2 0.0 1.7985 26.9775 0 0 0
512 2 30.5745 26.9775 25.179 0 0 0
1828 2 16.1865 1.7985 21.582 0 0 0
2205 2 14.388 0.0 3.597 0 0 0
573 2 32.373 32.373 10.791 0 0 0
2509 2 14.388 25.179 25.179 0 0 0
959 2 26.9775 28.776 34.1715 0 0 0
2564 2 12.5895 34.1715 0.0 0 0 0
3037 2 7.194 0.0 32.373 0 0 0
3799 2 1.7985 32.373 34.1715 0 0 0
3813 2 0.0 0.0 21.582 0 0 0
423 2 30.5745 17.985 19.7835 0 0 0
2491 2 12.5895 25.179 8.9925 0 0 0
1318 2 25.179 26.9775 34.1715 0 0 0
3100 2 5.3955 8.9925 14.388 0 0 0
1930 2 17.985 12.5895 8.9925 0 0 0
3465 2 3.597 3.597 21.582 0 0 0
2475 2 12.5895 21.582 30.5745 0 0 0
1585 2 21.582 14.388 21.582 0 0 0
2457 2 14.388 21.582 14.388 0 0 0
2214 2 14.388 1.7985 12.5895 0 0 0
2376 2 12.5895 16.1865 10.791 0 0 0
3527 2 1.7985 10.791 5.3955 0 0 0
777 2 28.776 14.388 14.388 0 0 0
2719 2 8.9925 7.194 34.1715 0 0 0
3817 2 0.0 0.0 28.776 0 0 0
1969 2 17.985 14.388 7.194 0 0 0
3200 2 5.3955 16.1865 32.373 0 0 0
569 2 32.373 32.373 7.194 0 0 0
3745 2 3.597 28.776 21.582 0 0 0
2288 2 12.5895 8.9925 3.597 0 0 0
3295 2 5.3955 25.179 12.5895 0 0 0
1990 2 17.985 16.1865 26.9775 0 0 0
2492 2 12.5895 26.9775 7.194 0 0 0
823 2 26.9775 17.985 19.7835 0 0 0
133 2 34.1715 21.582 23.3805 0 0 0
1834 2 17.985 1.7985 30.5745 0 0 0
3889 2 0.0 14.388 14.388 0 0 0
1014 2 25.179 1.7985 12.5895 0 0 0
804 2 26.9775 19.7835 0.0 0 0 0
2650 2 10.791 5.3955 8.9925 0 0 0
245 2 32.373 3.597 3.597 0 0 0
3935 2 0.0 21.582 25.179 0 0 0
251 2 30.5745 3.597 8.9925 0 0 0
523 2 30.5745 28.776 1.7985 0 0 0
2293 2 14.388 7.194 10.791 0 0 0
1869 2 17.985 3.597 25.179 0 0 0
3022 2 7.194 1.7985 19.7835 0 0 0
275 2 30.5745 3.597 30.5745 0 0 0
3977 2 0.0 28.776 28.776 0 0 0
2446 2 14.388 23.3805 5.3955 0 0 0
553 2 32.373 28.776 28.776 0 0 0
2613 2 10.791 0.0 10.791 0 0 0
1695 2 19.7835 25.179 12.5895 0 0 0
621 2 28.776 0.0 17.985 0 0 0
2355 2 12.5895 10.791 30.5745 0 0 0
582 2 32.373 34.1715 19.7835 0 0 0
3109 2 7.194 7.194 25.179 0 0 0
2623 2 8.9925 0.0 19.7835 0 0 0
339 2 30.5745 10.791 16.1865 0 0 0
2471 2 12.5895 21.582 26.9775 0 0 0
2038 2 17.985 19.7835 34.1715 0 0 0
431 2 30.5745 17.985 26.9775 0 0 0
1445 2 21.582 3.597 3.597 0 0 0
2444 2 12.5895 23.3805 0.0 0 0 0
1523 2 19.7835 10.791 1.7985 0 0 0
3178 2 7.194 16.1865 16.1865 0 0 0
1225 2 25.179 17.985 21.582 0 0 0
2777 2 10.791 14.388 14.388 0 0 0
1278 2 25.179 23.3805 34.1715 0 0 0
1977 2 17.985 14.388 14.388 0 0 0
3148 2 5.3955 12.5895 21.582 0 0 0
2696 2 8.9925 8.9925 10.791 0 0 0
2246 2 14.388 5.3955 5.3955 0 0 0
1736 2 19.7835 30.5745 10.791 0 0 0
1954 2 17.985 12.5895 30.5745 0 0 0
2847 2 8.9925 21.582 5.3955 0 0 0
3244 2 5.3955 23.3805 0.0 0 0 0
2399 2 12.5895 14.388 34.1715 0 0 0
1959 2 16.1865 10.791 34.1715 0 0 0
3040 2 5.3955 1.7985 32.373 0 0 0
3008 2 5.3955 1.7985 3.597 0 0 0
2955 2 8.9925 28.776 30.5745 0 0 0
132 2 34.1715 23.3805 17.985 0 0 0
20 2 34.1715 1.7985 32.373 0 0 0
2724 2 8.9925 12.5895 0.0 0 0 0
1560 2 19.7835 12.5895 32.373 0 0 0
3628 2 1.7985 19.7835 21.582 0 0 0
1421 2 21.582 0.0 17.985 0 0 0
3866 2 0.0 12.5895 8.9925 0 0 0
853 2 28.776 21.582 10.791 0 0 0
2483 2 12.5895 25.179 1.7985 0 0 0
3413 2 3.597 0.0 10.791 0 0 0
3991 2 0.0 32.373 17.985 0 0 0
3341 2 7.194 28.776 17.985 0 0 0
2922 2 10.791 30.5745 1.7985 0 0 0
3762 2 3.597 34.1715 1.7985 0 0 0
1898 2 17.985 8.9925 16.1865 0 0 0
2039 2 16.1865 17.985 34.1715 0 0 0
456 2 30.5745 23.3805 10.791 0 0 0
2354 2 14.388 12.5895 30.5745 0 0 0
33 2 34.1715 3.597 23.3805 0 0 0
2197 2 17.985 32.373 32.373 0 0 0
654 2 28.776 5.3955 12.5895 0 0 0
2762 2 10.791 16.1865 1.7985 0 0 0
2291 2 12.5895 7.194 8.9925 0 0 0
765 2 28.776 14.388 3.597 0 0 0
2926 2 10.791 30.5745 5.3955 0 0 0
3793 2 3.597 32.373 28.776 0 0 0
3955 2 0.0 25.179 25.179 0 0 0
3506 2 3.597 8.9925 23.3805 0 0 0
294 2 32.373 8.9925 12.5895 0 0 0
593 2 32.373 32.373 28.776 0 0 0
364 2 30.5745 16.1865 0.0 0 0 0
3366 2 7.194 34.1715 5.3955 0 0 0
1673 2 21.582 21.582 28.776 0 0 0
1082 2 25.179 8.9925 1.7985 0 0 0
2165 2 17.985 32.373 3.597 0 0 0
3671 2 1.7985 21.582 26.9775 0 0 0
3723 2 1.7985 28.776 1.7985 0 0 0
3490 2 3.597 8.9925 8.9925 0 0 0
1680 2 19.7835 23.3805 32.373 0 0 0
19 2 34.1715 0.0 34.1715 0 0 0
2739 2 8.9925 10.791 16.1865 0 0 0
3909 2 0.0 17.985 14.388 0 0 0
744 2 26.9775 12.5895 17.985 0 0 0
2155 2 16.1865 28.776 30.5745 0 0 0
2725 2 10.791 10.791 3.597 0 0 0
2841 2 10.791 21.582 0.0 0 0 0
2627 2 8.9925 0.0 23.3805 0 0 0
1962 2 17.985 16.1865 1.7985 0 0 0
371 2 30.5745 14.388 8.9925 0 0 0
1374 2 25.179 34.1715 12.5895 0 0 0
3234 2 7.194 19.7835 30.5745 0 0 0
1907 2 16.1865 7.194 23.3805 0 0 0
1938 2 17.985 12.5895 16.1865 0 0 0
980 2 26.9775 34.1715 14.388 0 0 0
3882 2 0.0 16.1865 1.7985 0 0 0
1217 2 25.179 17.985 14.388 0 0 0
2028 2 16.1865 19.7835 21.582 0 0 0
1654 2 21.582 23.3805 12.5895 0 0 0
139 2 34.1715 21.582 34.1715 0 0 0
1689 2 21.582 25.179 7.194 0 0 0
2330 2 14.388 12.5895 8.9925 0 0 0
99 2 34.1715 14.388 34.1715 0 0 0
3480 2 1.7985 5.3955 32.373 0 0 0
2450 2 14.388 23.3805 8.9925 0 0 0
2585 2 14.388 32.373 21.582 0 0 0
2960 2 8.9925 30.5745 32.373 0 0 0
1505 2 21.582 7.194 21.582 0 0 0
1614 2 21.582 19.7835 12.5895 0 0 0
3853 2 0.0 7.194 21.582 0 0 0
477 2 32.373 21.582 32.373 0 0 0
2074 2 17.985 23.3805 30.5745 0 0 0
3396 2 5.3955 34.1715 28.776 0 0 0
2255 2 12.5895 3.597 12.5895 0 0 0
3312 2 5.3955 26.9775 25.179 0 0 0
2856 2 8.9925 23.3805 10.791 0 0 0
3430 2 3.597 1.7985 26.9775 0 0 0
2759 2 8.9925 10.791 34.1715 0 0 0
1284 2 23.3805 26.9775 0.0 0 0 0
706 2 28.776 8.9925 23.3805 0 0 0
1604 2 19.7835 19.7835 0.0 0 0 0
1024 2 23.3805 1.7985 17.985 0 0 0
101 2 34.1715 17.985 1.7985 0 0 0
1902 2 17.985 8.9925 19.7835 0 0 0
2266 2 14.388 5.3955 23.3805 0 0 0
3316 2 5.3955 26.9775 28.776 0 0 0
2844 2 8.9925 23.3805 0.0 0 0 0
526 2 32.373 30.5745 5.3955 0 0 0
1561 2 21.582 14.388 0.0 0 0 0
3487 2 1.7985 7.194 5.3955 0 0 0
3073 2 7.194 3.597 28.776 0 0 0
1107 2 23.3805 7.194 23.3805 0 0 0
1712 2 19.7835 26.9775 25.179 0 0 0
3336 2 5.3955 30.5745 10.791 0 0 0
3175 2 5.3955 14.388 12.5895 0 0 0
2913 2 10.791 25.179 28.776 0 0 0
1711 2 19.7835 25.179 26.9775 0 0 0
815 2 26.9775 17.985 12.5895 0 0 0
138 2 34.1715 23.3805 28.776 0 0 0
3459 2 1.7985 3.597 16.1865 0 0 0
3886 2 0.0 16.1865 8.9925 0 0 0
2277 2 14.388 3.597 32.373 0 0 0
2832 2 8.9925 19.7835 25.179 0 0 0
689 2 28.776 7.194 7.194 0 0 0
2895 2 8.9925 25.179 12.5895 0 0 0
3047 2 5.3955 3.597 5.3955 0 0 0
1754 2 21.582 30.5745 30.5745 0 0 0
238 2 32.373 1.7985 34.1715 0 0 0
2272 2 12.5895 5.3955 25.179 0 0 0
1138 2 25.179 12.5895 16.1865 0 0 0
3113 2 7.194 7.194 28.776 0 0 0
785 2 28.776 14.388 21.582 0 0 0
618 2 28.776 1.7985 16.1865 0 0 0
323 2 30.5745 10.791 1.7985 0 0 0
1121 2 25.179 10.791 0.0 0 0 0
421 2 32.373 17.985 17.985 0 0 0
425 2 32.373 17.985 21.582 0 0 0
1301 2 25.179 25.179 17.985 0 0 0
1192 2 23.3805 16.1865 25.179 0 0 0
956 2 26.9775 30.5745 28.776 0 0 0
2569 2 14.388 32.373 7.194 0 0 0
1363 2 23.3805 32.373 1.7985 0 0 0
2753 2 10.791 10.791 28.776 0 0 0
2516 2 12.5895 26.9775 28.776 0 0 0
1130 2 25.179 12.5895 8.9925 0 0 0
2876 2 8.9925 23.3805 28.776 0 0 0
153 2 34.1715 25.179 23.3805 0 0 0
809 2 28.776 17.985 7.194 0 0 0
2251 3 12.5895 3.597 8.9925 0 0 0
2009 3 17.985 17.985 7.194 0 0 0
1786 3 21.582 34.1715 23.3805 0 0 0
1660 3 19.7835 23.3805 14.388 0 0 0
1698 3 21.582 26.9775 16.1865 0 0 0
3966 3 0.0 30.5745 8.9925 0 0 0
3630 3 3.597 19.7835 26.9775 0 0 0
1098 3 25.179 8.9925 16.1865 0 0 0
897 3 28.776 25.179 14.388 0 0 0
3713 3 3.597 25.179 28.776 0 0 0
3232 3 5.3955 19.7835 25.179 0 0 0
2147 3 16.1865 28.776 23.3805 0 0 0
326 3 32.373 12.5895 5.3955 0 0 0
1804 3 16.1865 1.7985 0.0 0 0 0
3157 3 7.194 10.791 32.373 0 0 0
1702 3 21.582 26.9775 19.7835 0 0 0
3505 3 3.597 7.194 21.582 0 0 0
3043 3 5.3955 3.597 1.7985 0 0 0
3088 3 5.3955 8.9925 3.597 0 0 0
2158 3 17.985 30.5745 34.1715 0 0 0
1563 3 19.7835 14.388 1.7985 0 0 0
2523 3 12.5895 28.776 1.7985 0 0 0
732 3 26.9775 12.5895 7.194 0 0 0
863 3 26.9775 21.582 19.7835 0 0 0
2689 3 10.791 7.194 7.194 0 0 0
2570 3 14.388 34.1715 8.9925 0 0 0
3296 3 5.3955 26.9775 10.791 0 0 0
2228 3 12.5895 1.7985 21.582 0 0 0
3789 3 3.597 32.373 25.179 0 0 0
3290 3 7.194 26.9775 8.9925 0 0 0
2823 3 8.9925 17.985 19.7835 0 0 0
1142 3 25.179 12.5895 19.7835 0 0 0
877 3 28.776 21.582 32.373 0 0 0
3765 3 3.597 32.373 3.597 0 0 0
668 3 26.9775 5.3955 21.582 0 0 0
813 3 28.776 17.985 10.791 0 0 0
359 3 30.5745 10.791 34.1715 0 0 0
3514 3 3.597 8.9925 30.5745 0 0 0
1927 3 16.1865 10.791 5.3955 0 0 0
924 3 26.9775 30.5745 0.0 0 0 0
778 3 28.776 16.1865 16.1865 0 0 0
3868 3 0.0 12.5895 12.5895 0 0 0
955 3 26.9775 28.776 30.5745 0 0 0
2819 3 8.9925 17.985 16.1865 0 0 0
2284 3 12.5895 8.9925 0.0 0 0 0
2967 3 8.9925 32.373 5.3955 0 0 0
2156 3 16.1865 30.5745 28.776 0 0 0
3371 3 5.3955 32.373 8.9925 0 0 0
3550 3 3.597 12.5895 26.9775 0 0 0
1506 3 21.582 8.9925 23.3805 0 0 0
1532 3 19.7835 12.5895 7.194 0 0 0
2948 3 8.9925 30.5745 21.582 0 0 0
2639 3 8.9925 0.0 34.1715 0 0 0
1503 3 19.7835 7.194 19.7835 0 0 0
1475 3 19.7835 3.597 30.5745 0 0 0
2818 3 10.791 19.7835 16.1865 0 0 0
2709 3 10.791 7.194 25.179 0 0 0
3661 3 3.597 21.582 17.985 0 0 0
3547 3 1.7985 10.791 23.3805 0 0 0
2351 3 12.5895 10.791 26.9775 0 0 0
1219 3 23.3805 17.985 16.1865 0 0 0
1876 3 16.1865 5.3955 28.776 0 0 0
559 3 30.5745 28.776 34.1715 0 0 0
1919 3 16.1865 7.194 34.1715 0 0 0
3135 3 5.3955 10.791 12.5895 0 0 0
361 3 32.373 14.388 0.0 0 0 0
3735 3 1.7985 28.776 12.5895 0 0 0
880 3 26.9775 23.3805 32.373 0 0 0
3970 3 0.0 30.5745 16.1865 0 0 0
3787 3 1.7985 32.373 23.3805 0 0 0
2968 3 8.9925 34.1715 3.597 0 0 0
2802 3 10.791 19.7835 1.7985 0 0 0
2929 3 10.791 28.776 7.194 0 0 0
472 3 30.5745 23.3805 25.179 0 0 0
2472 3 12.5895 23.3805 25.179 0 0 0
358 3 32.373 12.5895 34.1715 0 0 0
805 3 28.776 17.985 3.597 0 0 0
571 3 30.5745 32.373 8.9925 0 0 0
2981 3 10.791 32.373 17.985 0 0 0
3447 3 1.7985 3.597 5.3955 0 0 0
2925 3 10.791 28.776 3.597 0 0 0
1880 3 16.1865 5.3955 32.373 0 0 0
3433 3 3.597 0.0 28.776 0 0 0
832 3 26.9775 19.7835 25.179 0 0 0
3783 3 1.7985 32.373 19.7835 0 0 0
341 3 32.373 10.791 17.985 0 0 0
1350 3 25.179 30.5745 26.9775 0 0 0
2908 3 8.9925 26.9775 21.582 0 0 0
1836 3 16.1865 1.7985 28.776 0 0 0
557 3 32.373 28.776 32.373 0 0 0
1227 3 23.3805 17.985 23.3805 0 0 0
2637 3 10.791 0.0 32.373 0 0 0
724 3 26.9775 12.5895 0.0 0 0 0
75 3 34.1715 10.791 26.9775 0 0 0
3979 3 0.0 28.776 32.373 0 0 0
1731 3 19.7835 28.776 8.9925 0 0 0
1169 3 25.179 14.388 7.194 0 0 0
935 3 26.9775 28.776 12.5895 0 0 0
27 3 34.1715 3.597 12.5895 0 0 0
1808 3 16.1865 1.7985 3.597 0 0 0
3768 3 1.7985 34.1715 3.597 0 0 0
3285 3 7.194 25.179 3.597 0 0 0
619 3 26.9775 0.0 16.1865 0 0 0
2396 3 12.5895 16.1865 28.776 0 0 0
3470 3 3.597 5.3955 26.9775 0 0 0
388 3 30.5745 16.1865 21.582 0 0 0
2864 3 8.9925 23.3805 17.985 0 0 0
3749 3 3.597 28.776 25.179 0 0 0
1331 3 23.3805 28.776 8.9925 0 0 0
2848 3 8.9925 23.3805 3.597 0 0 0
3998 3 0.0 34.1715 30.5745 0 0 0
2786 3 10.791 16.1865 23.3805 0 0 0
411 3 30.5745 17.985 8.9925 0 0 0
2200 3 16.1865 34.1715 32.373 0 0 0
1814 3 17.985 1.7985 12.5895 0 0 0
495 3 30.5745 25.179 12.5895 0 0 0
2055 3 16.1865 21.582 12.5895 0 0 0
2592 3 12.5895 34.1715 25.179 0 0 0
2820 3 8.9925 19.7835 14.388 0 0 0
3856 3 0.0 8.9925 26.9775 0 0 0
3025 3 7.194 0.0 21.582 0 0 0
588 3 30.5745 34.1715 21.582 0 0 0
1394 3 25.179 34.1715 30.5745 0 0 0
2363 3 12.5895 14.388 1.7985 0 0 0
1512 3 19.7835 8.9925 25.179 0 0 0
1694 3 21.582 26.9775 12.5895 0 0 0
194 3 34.1715 34.1715 21.582 0 0 0
688 3 26.9775 8.9925 3.597 0 0 0
1936 3 16.1865 12.5895 10.791 0 0 0
150 3 34.1715 26.9775 14.388 0 0 0
868 3 26.9775 23.3805 21.582 0 0 0
3402 3 3.597 1.7985 1.7985 0 0 0
2555 3 12.5895 28.776 30.5745 0 0 0
1851 3 16.1865 3.597 8.9925 0 0 0
2814 3 10.791 19.7835 12.5895 0 0 0
3757 3 3.597 28.776 32.373 0 0 0
3168 3 5.3955 16.1865 3.597 0 0 0
3649 3 3.597 21.582 7.194 0 0 0
49 3 34.1715 7.194 16.1865 0 0 0
1416 3 19.7835 1.7985 10.791 0 0 0
3137 3 7.194 10.791 14.388 0 0 0
3880 3 0.0 12.5895 34.1715 0 0 0
3752 3 1.7985 30.5745 25.179 0 0 0
2827 3 8.9925 17.985 23.3805 0 0 0
2703 3 8.9925 7.194 19.7835 0 0 0
3618 3 3.597 19.7835 16.1865 0 0 0
2500 3 12.5895 26.9775 14.388 0 0 0
3717 3 3.597 25.179 32.373 0 0 0
3953 3 0.0 25.179 21.582 0 0 0
2522 3 14.388 30.5745 1.7985 0 0 0
174 3 34.1715 30.5745 21.582 0 0 0
2932 3 8.9925 30.5745 7.194 0 0 0
3654 3 3.597 23.3805 12.5895 0 0 0
503 3 30.5745 25.179 19.7835 0 0 0
3924 3 0.0 23.3805 5.3955 0 0 0
912 3 26.9775 26.9775 25.179 0 0 0
77 3 34.1715 10.791 30.5745 0 0 0
1668 3 19.7835 23.3805 21.582 0 0 0
2527 3 12.5895 28.776 5.3955 0 0 0
2495 3 12.5895 25.179 12.5895 0 0 0
437 3 32.373 17.985 32.373 0 0 0
2729 3 10.791 10.791 7.194 0 0 0
2642 3 10.791 5.3955 1.7985 0 0 0
349 3 32.373 10.791 25.179 0 0 0
632 3 26.9775 1.7985 25.179 0 0 0
1064 3 23.3805 5.3955 17.985 0 0 0
541 3 32.373 28.776 17.985 0 0 0
661 3 28.776 3.597 17.985 0 0 0
1370 3 25.179 34.1715 8.9925 0 0 0
433 3 32.373 17.985 28.776 0 0 0
2144 3 16.1865 30.5745 17.985 0 0 0
3726 3 3.597 30.5745 5.3955 0 0 0
3968 3 0.0 30.5745 12.5895 0 0 0
28 3 34.1715 5.3955 10.791 0 0 0
3611 3 1.7985 17.985 8.9925 0 0 0
1163 3 23.3805 14.388 1.7985 0 0 0
2066 3 17.985 23.3805 23.3805 0 0 0
3141 3 7.194 10.791 17.985 0 0 0
2175 3 16.1865 32.373 12.5895 0 0 0
2698 3 10.791 8.9925 16.1865 0 0 0
2941 3 10.791 28.776 17.985 0 0 0
2318 3 14.388 8.9925 34.1715 0 0 0
451 3 30.5745 21.582 8.9925 0 0 0
2658 3 10.791 5.3955 16.1865 0 0 0
3241 3 7.194 21.582 0.0 0 0 0
3377 3 7.194 32.373 14.388 0 0 0
1272 3 23.3805 23.3805 25.179 0 0 0
756 3 26.9775 12.5895 28.776 0 0 0
3741 3 3.597 28.776 17.985 0 0 0
2821 3 10.791 17.985 17.985 0 0 0
2051 3 16.1865 21.582 8.9925 0 0 0
608 3 26.9775 1.7985 3.597 0 0 0
1773 3 21.582 32.373 10.791 0 0 0
1705 3 21.582 25.179 21.582 0 0 0
806 3 28.776 19.7835 5.3955 0 0 0
1023 3 23.3805 0.0 19.7835 0 0 0
2193 3 17.985 32.373 28.776 0 0 0
3929 3 0.0 21.582 14.388 0 0 0
381 3 32.373 14.388 17.985 0 0 0
2722 3 10.791 12.5895 1.7985 0 0 0
1213 3 25.179 17.985 10.791 0 0 0
2989 3 10.791 32.373 25.179 0 0 0
215 3 30.5745 0.0 12.5895 0 0 0
3812 3 0.0 1.7985 19.7835 0 0 0
3089 3 7.194 7.194 7.194 0 0 0
3719 3 1.7985 25.179 34.1715 0 0 0
2430 3 14.388 19.7835 26.9775 0 0 0
1583 3 19.7835 14.388 19.7835 0 0 0
220 3 30.5745 1.7985 14.388 0 0 0
1218 3 25.179 19.7835 16.1865 0 0 0
32 3 34.1715 5.3955 17.985 0 0 0
2305 3 14.388 7.194 21.582 0 0 0
1484 3 19.7835 8.9925 0.0 0 0 0
3827 3 0.0 3.597 10.791 0 0 0
3536 3 1.7985 12.5895 10.791 0 0 0
3754 3 3.597 30.5745 30.5745 0 0 0
2005 3 17.985 17.985 3.597 0 0 0
601 3 28.776 0.0 0.0 0 0 0
15 3 34.1715 0.0 26.9775 0 0 0
963 3 26.9775 32.373 1.7985 0 0 0
872 3 26.9775 23.3805 25.179 0 0 0
3500 3 1.7985 8.9925 14.388 0 0 0
3901 3 0.0 17.985 0.0 0 0 0
1565 3 21.582 14.388 3.597 0 0 0
2865 3 10.791 21.582 21.582 0 0 0
563 3 30.5745 32.373 1.7985 0 0 0
1981 3 17.985 14.388 17.985 0 0 0
3638 3 3.597 19.7835 34.1715 0 0 0
1369 3 25.179 32.373 7.194 0 0 0
3071 3 5.3955 3.597 26.9775 0 0 0
2619 3 8.9925 0.0 16.1865 0 0 0
3388 3 5.3955 34.1715 21.582 0 0 0
3184 3 5.3955 16.1865 17.985 0 0 0
1832 3 16.1865 1.7985 25.179 0 0 0
2789 3 10.791 14.388 25.179 0 0 0
3694 3 3.597 26.9775 12.5895 0 0 0
1911 3 16.1865 7.194 26.9775 0 0 0
334 3 32.373 12.5895 12.5895 0 0 0
2254 3 14.388 5.3955 12.5895 0 0 0
2030 3 17.985 19.7835 26.9775 0 0 0
2656 3 8.9925 5.3955 10.791 0 0 0
2474 3 14.388 23.3805 30.5745 0 0 0
259 3 30.5745 3.597 16.1865 0 0 0
1826 3 17.985 1.7985 23.3805 0 0 0
797 3 28.776 14.388 32.373 0 0 0
1785 3 21.582 32.373 21.582 0 0 0
3578 3 3.597 16.1865 16.1865 0 0 0
2410 3 14.388 19.7835 8.9925 0 0 0
2082 3 17.985 26.9775 1.7985 0 0 0
1302 3 25.179 26.9775 19.7835 0 0 0
2369 3 14.388 14.388 7.194 0 0 0
3383 3 5.3955 32.373 19.7835 0 0 0
2091 3 16.1865 25.179 8.9925 0 0 0
3978 3 0.0 30.5745 30.5745 0 0 0
183 3 34.1715 32.373 5.3955 0 0 0
62 3 34.1715 12.5895 0.0 0 0 0
2008 3 16.1865 19.7835 3.597 0 0 0
3883 3 0.0 14.388 3.597 0 0 0
3504 3 1.7985 8.9925 17.985 0 0 0
576 3 30.5745 34.1715 10.791 0 0 0
2261 3 14.388 3.597 17.985 0 0 0
2076 3 16.1865 23.3805 28.776 0 0 0
730 3 28.776 12.5895 8.9925 0 0 0
1322 3 25.179 30.5745 1.7985 0 0 0
989 3 28.776 32.373 25.179 0 0 0
735 3 26.9775 10.791 12.5895 0 0 0
2387 3 12.5895 14.388 23.3805 0 0 0
3419 3 1.7985 0.0 16.1865 0 0 0
1228 3 23.3805 19.7835 21.582 0 0 0
2453 3 14.388 21.582 10.791 0 0 0
595 3 30.5745 32.373 30.5745 0 0 0
517 3 32.373 25.179 32.373 0 0 0
2780 3 8.9925 16.1865 14.388 0 0 0
1046 3 25.179 5.3955 5.3955 0 0 0
560 3 30.5745 30.5745 32.373 0 0 0
1992 3 16.1865 16.1865 25.179 0 0 0
3508 3 1.7985 8.9925 21.582 0 0 0
1470 3 21.582 5.3955 26.9775 0 0 0
3720 3 1.7985 26.9775 32.373 0 0 0
2601 3 10.791 0.0 0.0 0 0 0
1615 3 19.7835 17.985 12.5895 0 0 0
629 3 28.776 0.0 25.179 0 0 0
1905 3 17.985 7.194 21.582 0 0 0
1298 3 25.179 26.9775 16.1865 0 0 0
305 3 32.373 7.194 21.582 0 0 0
2194 3 17.985 34.1715 30.5745 0 0 0
1259 3 23.3805 21.582 16.1865 0 0 0
1447 3 19.7835 3.597 5.3955 0 0 0
1631 3 19.7835 17.985 26.9775 0 0 0
3180 3 5.3955 16.1865 14.388 0 0 0
3574 3 3.597 16.1865 12.5895 0 0 0
1866 3 17.985 5.3955 23.3805 0 0 0
3483 3 1.7985 7.194 1.7985 0 0 0
2669 3 10.791 3.597 25.179 0 0 0
2372 3 12.5895 16.1865 7.194 0 0 0
1287 3 23.3805 25.179 5.3955 0 0 0
2833 3 10.791 17.985 28.776 0 0 0
993 3 28.776 32.373 28.776 0 0 0
1805 3 17.985 0.0 3.597 0 0 0
2912 3 8.9925 26.9775 25.179 0 0 0
34 3 34.1715 5.3955 21.582 0 0 0
1900 3 16.1865 8.9925 14.388 0 0 0
3730 3 3.597 30.5745 8.9925 0 0 0
2657 3 10.791 3.597 14.388 0 0 0
2486 3 14.388 26.9775 5.3955 0 0 0
3422 3 3.597 1.7985 19.7835 0 0 0
1896 3 16.1865 8.9925 10.791 0 0 0
2029 3 17.985 17.985 25.179 0 0 0
869 3 28.776 21.582 25.179 0 0 0
2199 3 16.1865 32.373 34.1715 0 0 0
1412 3 19.7835 1.7985 7.194 0 0 0
7 3 34.1715 0.0 12.5895 0 0 0
1525 3 21.582 10.791 3.597 0 0 0
1973 3 17.985 14.388 10.791 0 0 0
2679 3 8.9925 3.597 34.1715 0 0 0
1515 3 19.7835 7.194 30.5745 0 0 0
3179 3 5.3955 14.388 16.1865 0 0 0
2287 3 12.5895 7.194 5.3955 0 0 0
467 3 30.5745 21.582 23.3805 0 0 0
1000 3 26.9775 34.1715 32.373 0 0 0
1030 3 25.179 1.7985 26.9775 0 0 0
3544 3 1.7985 12.5895 17.985 0 0 0
1897 3 17.985 7.194 14.388 0 0 0
962 3 28.776 34.1715 1.7985 0 0 0
1189 3 25.179 14.388 25.179 0 0 0
2800 3 8.9925 16.1865 32.373 0 0 0
1329 3 25.179 28.776 7.194 0 0 0
366 3 32.373 16.1865 5.3955 0 0 0
3082 3 7.194 8.9925 1.7985 0 0 0
3108 3 5.3955 8.9925 21.582 0 0 0
1013 3 25.179 0.0 10.791 0 0 0
1429 3 21.582 0.0 25.179 0 0 0
1345 3 25.179 28.776 21.582 0 0 0
1435 3 19.7835 0.0 30.5745 0 0 0
2902 3 10.791 26.9775 19.7835 0 0 0
3619 3 1.7985 17.985 16.1865 0 0 0
1822 3 17.985 1.7985 19.7835 0 0 0
854 3 28.776 23.3805 12.5895 0 0 0
3676 3 1.7985 23.3805 28.776 0 0 0
1211 3 23.3805 17.985 8.9925 0 0 0
2166 3 17.985 34.1715 5.3955 0 0 0
3528 3 1.7985 12.5895 3.597 0 0 0
884 3 26.9775 26.9775 0.0 0 0 0
899 3 26.9775 25.179 16.1865 0 0 0
1413 3 21.582 0.0 10.791 0 0 0
508 3 30.5745 26.9775 21.582 0 0 0
693 3 28.776 7.194 10.791 0 0 0
2984 3 8.9925 34.1715 17.985 0 0 0
761 3 28.776 14.388 0.0 0 0 0
18 3 34.1715 1.7985 28.776 0 0 0
1903 3 16.1865 7.194 19.7835 0 0 0
3098 3 7.194 8.9925 16.1865 0 0 0
3101 3 7.194 7.194 17.985 0 0 0
3344 3 5.3955 30.5745 17.985 0 0 0
3064 3 5.3955 5.3955 17.985 0 0 0
3960 3 0.0 26.9775 34.1715 0 0 0
1999 3 16.1865 14.388 34.1715 0 0 0
784 3 26.9775 16.1865 17.985 0 0 0
211 3 30.5745 0.0 8.9925 0 0 0
3414 3 3.597 1.7985 12.5895 0 0 0
1696 3 19.7835 26.9775 10.791 0 0 0
812 3 26.9775 19.7835 7.194 0 0 0
408 3 30.5745 19.7835 3.597 0 0 0
3309 3 7.194 25.179 25.179 0 0 0
2365 3 14.388 14.388 3.597 0 0 0
1068 3 23.3805 5.3955 21.582 0 0 0
626 3 28.776 1.7985 23.3805 0 0 0
2652 3 8.9925 5.3955 7.194 0 0 0
2289 3 14.388 7.194 7.194 0 0 0
3656 3 1.7985 23.3805 10.791 0 0 0
2146 3 17.985 30.5745 23.3805 0 0 0
3651 3 1.7985 21.582 8.9925 0 0 0
2734 3 10.791 12.5895 12.5895 0 0 0
1186 3 25.179 16.1865 23.3805 0 0 0
3810 3 0.0 1.7985 16.1865 0 0 0
2909 3 10.791 25.179 25.179 0 0 0
1124 3 23.3805 12.5895 0.0 0 0 0
589 3 32.373 32.373 25.179 0 0 0
658 3 28.776 5.3955 16.1865 0 0 0
1706 3 21.582 26.9775 23.3805 0 0 0
667 3 26.9775 3.597 23.3805 0 0 0
154 3 34.1715 26.9775 21.582 0 0 0
2924 3 8.9925 30.5745 0.0 0 0 0
575 3 30.5745 32.373 12.5895 0 0 0
1126 3 25.179 12.5895 5.3955 0 0 0
3647 3 1.7985 21.582 5.3955 0 0 0
3235 3 5.3955 17.985 30.5745 0 0 0
1028 3 23.3805 1.7985 21.582 0 0 0
2322 3 14.388 12.5895 1.7985 0 0 0
3050 3 7.194 5.3955 8.9925 0 0 0
1593 3 21.582 14.388 28.776 0 0 0
3913 3 0.0 17.985 21.582 0 0 0
3996 3 0.0 34.1715 26.9775 0 0 0
856 3 26.9775 23.3805 10.791 0 0 0
3576 3 1.7985 16.1865 10.791 0 0 0
3689 3 3.597 25.179 7.194 0 0 0
1328 3 23.3805 30.5745 3.597 0 0 0
2791 3 8.9925 14.388 26.9775 0 0 0
964 3 26.9775 34.1715 0.0 0 0 0
2159 3 16.1865 28.776 34.1715 0 0 0
2448 3 12.5895 23.3805 3.597 0 0 0
2209 3 14.388 0.0 7.194 0 0 0
1102 3 25.179 8.9925 19.7835 0 0 0
1945 3 17.985 10.791 21.582 0 0 0
748 3 26.9775 12.5895 21.582 0 0 0
3648 3 1.7985 23.3805 3.597 0 0 0
1625 3 21.582 17.985 21.582 0 0 0
1066 3 25.179 5.3955 23.3805 0 0 0
1598 3 21.582 16.1865 34.1715 0 0 0
3538 3 3.597 12.5895 16.1865 0 0 0
845 3 28.776 21.582 3.597 0 0 0
1642 3 21.582 23.3805 1.7985 0 0 0
3858 3 0.0 8.9925 30.5745 0 0 0
982 3 28.776 34.1715 19.7835 0 0 0
2617 3 10.791 0.0 14.388 0 0 0
481 3 32.373 25.179 0.0 0 0 0
3355 3 5.3955 28.776 30.5745 0 0 0
2828 3 8.9925 19.7835 21.582 0 0 0
2749 3 10.791 10.791 25.179 0 0 0
79 3 34.1715 10.791 34.1715 0 0 0
584 3 30.5745 34.1715 17.985 0 0 0
1088 3 23.3805 8.9925 3.597 0 0 0
3485 3 3.597 7.194 3.597 0 0 0
781 3 28.776 14.388 17.985 0 0 0
225 3 32.373 0.0 21.582 0 0 0
960 3 26.9775 30.5745 32.373 0 0 0
3442 3 3.597 5.3955 1.7985 0 0 0
2183 3 16.1865 32.373 19.7835 0 0 0
3219 3 5.3955 17.985 16.1865 0 0 0
886 3 28.776 26.9775 5.3955 0 0 0
3307 3 5.3955 25.179 23.3805 0 0 0
3236 3 5.3955 19.7835 28.776 0 0 0
670 3 28.776 5.3955 26.9775 0 0 0
3225 3 7.194 17.985 21.582 0 0 0
901 3 28.776 25.179 17.985 0 0 0
102 3 34.1715 19.7835 0.0 0 0 0
2329 3 14.388 10.791 7.194 0 0 0
2651 3 8.9925 3.597 8.9925 0 0 0
482 3 32.373 26.9775 1.7985 0 0 0
501 3 32.373 25.179 17.985 0 0 0
3105 3 7.194 7.194 21.582 0 0 0
1237 3 25.179 17.985 32.373 0 0 0
457 3 32.373 21.582 14.388 0 0 0
1043 3 23.3805 3.597 1.7985 0 0 0
3122 3 7.194 12.5895 1.7985 0 0 0
2887 3 8.9925 25.179 5.3955 0 0 0
547 3 30.5745 28.776 23.3805 0 0 0
2961 3 10.791 32.373 0.0 0 0 0
3791 3 1.7985 32.373 26.9775 0 0 0
383 3 30.5745 14.388 19.7835 0 0 0
236 3 30.5745 1.7985 28.776 0 0 0
2231 3 12.5895 0.0 26.9775 0 0 0
3890 3 0.0 16.1865 16.1865 0 0 0
2674 3 10.791 5.3955 30.5745 0 0 0
118 3 34.1715 19.7835 28.776 0 0 0
1140 3 23.3805 12.5895 14.388 0 0 0
2920 3 8.9925 26.9775 32.373 0 0 0
1780 3 19.7835 34.1715 14.388 0 0 0
3027 3 5.3955 0.0 23.3805 0 0 0
562 3 32.373 34.1715 1.7985 0 0 0
3769 3 3.597 32.373 7.194 0 0 0
3099 3 5.3955 7.194 16.1865 0 0 0
3605 3 3.597 17.985 3.597 0 0 0
3230 3 7.194 19.7835 26.9775 0 0 0
2548 3 12.5895 30.5745 21.582 0 0 0
1856 3 16.1865 5.3955 10.791 0 0 0
3785 3 3.597 32.373 21.582 0 0 0
170 3 34.1715 30.5745 14.388 0 0 0
2653 3 10.791 3.597 10.791 0 0 0
2126 3 17.985 30.5745 5.3955 0 0 0
1031 3 23.3805 0.0 26.9775 0 0 0
2566 3 14.388 34.1715 5.3955 0 0 0
3867 3 0.0 10.791 10.791 0 0 0
3028 3 5.3955 1.7985 21.582 0 0 0
3507 3 1.7985 7.194 23.3805 0 0 0
1388 3 23.3805 34.1715 21.582 0 0 0
2660 3 8.9925 5.3955 14.388 0 0 0
1592 3 19.7835 16.1865 25.179 0 0 0
2477 3 14.388 21.582 32.373 0 0 0
1944 3 16.1865 12.5895 17.985 0 0 0
2525 3 14.388 28.776 3.597 0 0 0
3833 3 0.0 3.597 21.582 0 0 0
2951 3 8.9925 28.776 26.9775 0 0 0
117 3 34.1715 17.985 30.5745 0 0 0
3493 3 3.597 7.194 10.791 0 0 0
2497 3 14.388 25.179 14.388 0 0 0
3375 3 5.3955 32.373 12.5895 0 0 0
1741 3 21.582 28.776 17.985 0 0 0
3691 3 1.7985 25.179 8.9925 0 0 0
3448 3 1.7985 5.3955 3.597 0 0 0
1263 3 23.3805 21.582 19.7835 0 0 0
384 3 30.5745 16.1865 17.985 0 0 0
185 3 34.1715 32.373 8.9925 0 0 0
572 3 30.5745 34.1715 7.194 0 0 0
755 3 26.9775 10.791 30.5745 0 0 0
226 3 32.373 1.7985 23.3805 0 0 0
377 3 32.373 14.388 14.388 0 0 0
3616 3 1.7985 19.7835 10.791 0 0 0
1984 3 16.1865 16.1865 17.985 0 0 0
757 3 28.776 10.791 32.373 0 0 0
681 3 28.776 7.194 0.0 0 0 0
450 3 32.373 23.3805 8.9925 0 0 0
3948 3 0.0 26.9775 12.5895 0 0 0
1120 3 23.3805 8.9925 32.373 0 0 0
1047 3 23.3805 3.597 5.3955 0 0 0
948 3 26.9775 30.5745 21.582 0 0 0
391 3 30.5745 14.388 26.9775 0 0 0
3208 3 5.3955 19.7835 3.597 0 0 0
2949 3 10.791 28.776 25.179 0 0 0
711 3 26.9775 7.194 26.9775 0 0 0
1763 3 19.7835 32.373 1.7985 0 0 0
1362 3 25.179 34.1715 1.7985 0 0 0
2418 3 14.388 19.7835 16.1865 0 0 0
1330 3 25.179 30.5745 8.9925 0 0 0
1401 3 21.582 0.0 0.0 0 0 0
3124 3 5.3955 12.5895 0.0 0 0 0
2139 3 16.1865 28.776 16.1865 0 0 0
641 3 28.776 3.597 0.0 0 0 0
1081 3 25.179 7.194 0.0 0 0 0
2787 3 8.9925 14.388 23.3805 0 0 0
2899 3 8.9925 25.179 16.1865 0 0 0
1133 3 25.179 10.791 10.791 0 0 0
208 3 30.5745 1.7985 3.597 0 0 0
1655 3 19.7835 21.582 12.5895 0 0 0
104 3 34.1715 19.7835 3.597 0 0 0
2035 3 16.1865 17.985 30.5745 0 0 0
2058 3 17.985 23.3805 16.1865 0 0 0
1645 3 21.582 21.582 3.597 0 0 0
2742 3 10.791 12.5895 19.7835 0 0 0
3773 3 3.597 32.373 10.791 0 0 0
2114 3 17.985 26.9775 30.5745 0 0 0
2534 3 14.388 30.5745 12.5895 0 0 0
1864 3 16.1865 5.3955 17.985 0 0 0
2053 3 17.985 21.582 10.791 0 0 0
1236 3 23.3805 19.7835 28.776 0 0 0
919 3 26.9775 25.179 34.1715 0 0 0
3085 3 7.194 7.194 3.597 0 0 0
550 3 32.373 30.5745 26.9775 0 0 0
821 3 28.776 17.985 17.985 0 0 0
3039 3 5.3955 0.0 34.1715 0 0 0
3087 3 5.3955 7.194 5.3955 0 0 0
1941 3 17.985 10.791 17.985 0 0 0
3333 3 7.194 28.776 10.791 0 0 0
2713 3 10.791 7.194 28.776 0 0 0
3634 3 3.597 19.7835 30.5745 0 0 0
811 3 26.9775 17.985 8.9925 0 0 0
3665 3 3.597 21.582 21.582 0 0 0
2781 3 10.791 14.388 17.985 0 0 0
2634 3 10.791 1.7985 30.5745 0 0 0
3334 3 7.194 30.5745 12.5895 0 0 0
2528 3 12.5895 30.5745 3.597 0 0 0
3593 3 3.597 14.388 28.776 0 0 0
537 3 32.373 28.776 14.388 0 0 0
3794 3 3.597 34.1715 30.5745 0 0 0
1682 3 21.582 26.9775 1.7985 0 0 0
1103 3 23.3805 7.194 19.7835 0 0 0
55 3 34.1715 7.194 26.9775 0 0 0
751 3 26.9775 10.791 26.9775 0 0 0
2230 3 14.388 1.7985 26.9775 0 0 0
1337 3 25.179 28.776 14.388 0 0 0
3733 3 3.597 28.776 10.791 0 0 0
1167 3 23.3805 14.388 5.3955 0 0 0
486 3 32.373 26.9775 5.3955 0 0 0
23 3 34.1715 3.597 5.3955 0 0 0
471 3 30.5745 21.582 26.9775 0 0 0
3302 3 7.194 26.9775 19.7835 0 0 0
2846 3 10.791 23.3805 5.3955 0 0 0
849 3 28.776 21.582 7.194 0 0 0
1657 3 21.582 21.582 14.388 0 0 0
1979 3 16.1865 14.388 16.1865 0 0 0
1946 3 17.985 12.5895 23.3805 0 0 0
1838 3 17.985 1.7985 34.1715 0 0 0
643 3 26.9775 3.597 1.7985 0 0 0
283 3 30.5745 7.194 1.7985 0 0 0
3080 3 5.3955 5.3955 32.373 0 0 0
2610 3 10.791 1.7985 8.9925 0 0 0
708 3 26.9775 8.9925 21.582 0 0 0
203 3 30.5745 0.0 1.7985 0 0 0
179 3 34.1715 28.776 34.1715 0 0 0
184 3 34.1715 34.1715 3.597 0 0 0
1718 3 21.582 26.9775 34.1715 0 0 0
3873 3 0.0 10.791 21.582 0 0 0
3096 3 5.3955 8.9925 10.791 0 0 0
3325 3 7.194 28.776 3.597 0 0 0
2892 3 8.9925 26.9775 7.194 0 0 0
3351 3 5.3955 28.776 26.9775 0 0 0
1686 3 21.582 26.9775 5.3955 0 0 0
2427 3 12.5895 17.985 23.3805 0 0 0
1510 3 21.582 8.9925 26.9775 0 0 0
3385 3 7.194 32.373 21.582 0 0 0
1791 3 19.7835 32.373 26.9775 0 0 0
1355 3 23.3805 28.776 30.5745 0 0 0
2299 3 12.5895 7.194 16.1865 0 0 0
2877 3 10.791 21.582 32.373 0 0 0
41 3 34.1715 7.194 1.7985 0 0 0
3811 3 0.0 0.0 17.985 0 0 0
894 3 28.776 26.9775 12.5895 0 0 0
243 3 30.5745 3.597 1.7985 0 0 0
2065 3 17.985 21.582 21.582 0 0 0
2616 3 8.9925 1.7985 10.791 0 0 0
2866 3 10.791 23.3805 23.3805 0 0 0
2764 3 8.9925 16.1865 0.0 0 0 0
2710 3 10.791 8.9925 26.9775 0 0 0
1152 3 23.3805 12.5895 25.179 0 0 0
598 3 32.373 34.1715 34.1715 0 0 0
1761 3 21.582 32.373 0.0 0 0 0
2386 3 14.388 16.1865 23.3805 0 0 0
2552 3 12.5895 30.5745 25.179 0 0 0
3690 3 3.597 26.9775 8.9925 0 0 0
1056 3 23.3805 5.3955 10.791 0 0 0
3823 3 0.0 3.597 3.597 0 0 0
949 3 28.776 28.776 25.179 0 0 0
2631 3 8.9925 0.0 26.9775 0 0 0
3237 3 7.194 17.985 32.373 0 0 0
2078 3 17.985 23.3805 34.1715 0 0 0
1685 3 21.582 25.179 3.597 0 0 0
1399 3 23.3805 32.373 34.1715 0 0 0
248 3 30.5745 5.3955 3.597 0 0 0
3546 3 3.597 12.5895 23.3805 0 0 0
1347 3 23.3805 28.776 23.3805 0 0 0
2470 3 14.388 23.3805 26.9775 0 0 0
2758 3 10.791 12.5895 34.1715 0 0 0
1439 3 19.7835 0.0 34.1715 0 0 0
2143 3 16.1865 28.776 19.7835 0 0 0
639 3 26.9775 0.0 34.1715 0 0 0
2081 3 17.985 25.179 0.0 0 0 0
677 3 28.776 3.597 32.373 0 0 0
2571 3 12.5895 32.373 8.9925 0 0 0
2568 3 12.5895 34.1715 3.597 0 0 0
758 3 28.776 12.5895 34.1715 0 0 0
3861 3 0.0 10.791 0.0 0 0 0
3945 3 0.0 25.179 7.194 0 0 0
2655 3 8.9925 3.597 12.5895 0 0 0
2852 3 8.9925 23.3805 7.194 0 0 0
331 3 30.5745 10.791 8.9925 0 0 0
2768 3 8.9925 16.1865 3.597 0 0 0
3780 3 1.7985 34.1715 14.388 0 0 0
3530 3 3.597 12.5895 8.9925 0 0 0
355 3 30.5745 10.791 30.5745 0 0 0
344 3 30.5745 12.5895 17.985 0 0 0
679 3 26.9775 3.597 34.1715 0 0 0
3246 3 7.194 23.3805 5.3955 0 0 0
3407 3 1.7985 0.0 5.3955 0 0 0
1790 3 21.582 34.1715 26.9775 0 0 0
2233 3 14.388 0.0 28.776 0 0 0
3077 3 7.194 3.597 32.373 0 0 0
2366 3 14.388 16.1865 5.3955 0 0 0
2708 3 8.9925 8.9925 21.582 0 0 0
2888 3 8.9925 26.9775 3.597 0 0 0
1382 3 25.179 34.1715 19.7835 0 0 0
1233 3 25.179 17.985 28.776 0 0 0
3862 3 0.0 12.5895 1.7985 0 0 0
3620 3 1.7985 19.7835 14.388 0 0 0
736 3 26.9775 12.5895 10.791 0 0 0
875 3 26.9775 21.582 30.5745 0 0 0
43 3 34.1715 7.194 5.3955 0 0 0
2586 3 14.388 34.1715 23.3805 0 0 0
393 3 32.373 14.388 28.776 0 0 0
538 3 32.373 30.5745 16.1865 0 0 0
56 3 34.1715 8.9925 25.179 0 0 0
419 3 30.5745 17.985 16.1865 0 0 0
3753 3 3.597 28.776 28.776 0 0 0
44 3 34.1715 8.9925 3.597 0 0 0
3716 3 1.7985 26.9775 28.776 0 0 0
2683 3 8.9925 7.194 1.7985 0 0 0
3450 3 3.597 5.3955 8.9925 0 0 0
3874 3 0.0 12.5895 23.3805 0 0 0
2070 3 17.985 23.3805 26.9775 0 0 0
1143 3 23.3805 10.791 19.7835 0 0 0
1100 3 23.3805 8.9925 14.388 0 0 0
2873 3 10.791 21.582 28.776 0 0 0
1443 3 19.7835 3.597 1.7985 0 0 0
2490 3 14.388 26.9775 8.9925 0 0 0
2073 3 17.985 21.582 28.776 0 0 0
1139 3 23.3805 10.791 16.1865 0 0 0
790 3 28.776 16.1865 26.9775 0 0 0
2455 3 12.5895 21.582 12.5895 0 0 0
2720 3 8.9925 8.9925 32.373 0 0 0
2465 3 14.388 21.582 21.582 0 0 0
1403 3 19.7835 0.0 1.7985 0 0 0
330 3 32.373 12.5895 8.9925 0 0 0
2964 3 8.9925 34.1715 0.0 0 0 0
867 3 26.9775 21.582 23.3805 0 0 0
531 3 30.5745 28.776 8.9925 0 0 0
3136 3 5.3955 12.5895 10.791 0 0 0
3606 3 3.597 19.7835 5.3955 0 0 0
2727 3 8.9925 10.791 5.3955 0 0 0
2771 3 8.9925 14.388 8.9925 0 0 0
3059 3 5.3955 3.597 16.1865 0 0 0
2137 3 17.985 28.776 14.388 0 0 0
2026 3 17.985 19.7835 23.3805 0 0 0
985 3 28.776 32.373 21.582 0 0 0
1187 3 23.3805 14.388 23.3805 0 0 0
3151 3 5.3955 10.791 26.9775 0 0 0
1411 3 19.7835 0.0 8.9925 0 0 0
3932 3 0.0 23.3805 19.7835 0 0 0
2195 3 16.1865 32.373 30.5745 0 0 0
1444 3 19.7835 5.3955 0.0 0 0 0
1131 3 23.3805 10.791 8.9925 0 0 0
3640 3 1.7985 19.7835 32.373 0 0 0
235 3 30.5745 0.0 30.5745 0 0 0
1052 3 23.3805 5.3955 7.194 0 0 0
1074 3 25.179 5.3955 30.5745 0 0 0
2805 3 10.791 17.985 3.597 0 0 0
3475 3 1.7985 3.597 30.5745 0 0 0
873 3 28.776 21.582 28.776 0 0 0
3440 3 1.7985 1.7985 32.373 0 0 0
1407 3 19.7835 0.0 5.3955 0 0 0
885 3 28.776 25.179 3.597 0 0 0
2061 3 17.985 21.582 17.985 0 0 0
2959 3 8.9925 28.776 34.1715 0 0 0
3274 3 7.194 23.3805 30.5745 0 0 0
3286 3 7.194 26.9775 5.3955 0 0 0
2323 3 12.5895 10.791 1.7985 0 0 0
900 3 26.9775 26.9775 14.388 0 0 0
2923 3 8.9925 28.776 1.7985 0 0 0
3950 3 0.0 26.9775 16.1865 0 0 0
2680 3 8.9925 5.3955 32.373 0 0 0
3261 3 7.194 21.582 17.985 0 0 0
792 3 26.9775 16.1865 25.179 0 0 0
1964 3 16.1865 16.1865 0.0 0 0 0
3443 3 1.7985 3.597 1.7985 0 0 0
1448 3 19.7835 5.3955 3.597 0 0 0
3534 3 3.597 12.5895 12.5895 0 0 0
1799 3 19.7835 32.373 34.1715 0 0 0
2767 3 8.9925 14.388 5.3955 0 0 0
2803 3 8.9925 17.985 1.7985 0 0 0
2000 3 16.1865 16.1865 32.373 0 0 0
952 3 26.9775 30.5745 25.179 0 0 0
2945 3 10.791 28.776 21.582 0 0 0
697 3 28.776 7.194 14.388 0 0 0
2151 3 16.1865 28.776 26.9775 0 0 0
674 3 28.776 5.3955 30.5745 0 0 0
2049 3 17.985 21.582 7.194 0 0 0
749 3 28.776 10.791 25.179 0 0 0
1050 3 25.179 5.3955 8.9925 0 0 0
2489 3 14.388 25.179 7.194 0 0 0
862 3 28.776 23.3805 19.7835 0 0 0
1072 3 23.3805 5.3955 25.179 0 0 0
961 3 28.776 32.373 0.0 0 0 0
646 3 28.776 5.3955 5.3955 0 0 0
1373 3 25.179 32.373 10.791 0 0 0
1015 3 23.3805 0.0 12.5895 0 0 0
3851 3 0.0 7.194 17.985 0 0 0
561 3 32.373 32.373 0.0 0 0 0
247 3 30.5745 3.597 5.3955 0 0 0
2192 3 16.1865 34.1715 25.179 0 0 0
3116 3 5.3955 8.9925 28.776 0 0 0
1797 3 21.582 32.373 32.373 0 0 0
1852 3 16.1865 5.3955 7.194 0 0 0
782 3 28.776 16.1865 19.7835 0 0 0
824 3 26.9775 19.7835 17.985 0 0 0
3938 3 0.0 23.3805 30.5745 0 0 0
382 3 32.373 16.1865 19.7835 0 0 0
2466 3 14.388 23.3805 23.3805 0 0 0
21 3 34.1715 3.597 1.7985 0 0 0
1794 3 21.582 34.1715 30.5745 0 0 0
441 3 32.373 21.582 0.0 0 0 0
2721 3 10.791 10.791 0.0 0 0 0
2715 3 8.9925 7.194 30.5745 0 0 0
3641 3 3.597 21.582 0.0 0 0 0
3461 3 3.597 3.597 17.985 0 0 0
1539 3 19.7835 10.791 16.1865 0 0 0
37 3 34.1715 3.597 30.5745 0 0 0
1605 3 21.582 17.985 3.597 0 0 0
1462 3 21.582 5.3955 19.7835 0 0 0
2736 3 8.9925 12.5895 10.791 0 0 0
599 3 30.5745 32.373 34.1715 0 0 0
1803 3 16.1865 0.0 1.7985 0 0 0
230 3 32.373 1.7985 26.9775 0 0 0
161 3 34.1715 28.776 1.7985 0 0 0
1584 3 19.7835 16.1865 17.985 0 0 0
2019 3 16.1865 17.985 16.1865 0 0 0
2258 3 14.388 5.3955 16.1865 0 0 0
3453 3 3.597 3.597 10.791 0 0 0
2714 3 10.791 8.9925 30.5745 0 0 0
3847 3 0.0 7.194 10.791 0 0 0
3668 3 1.7985 23.3805 21.582 0 0 0
1602 3 21.582 19.7835 1.7985 0 0 0
3599 3 1.7985 14.388 34.1715 0 0 0
2383 3 12.5895 14.388 19.7835 0 0 0
2033 3 17.985 17.985 28.776 0 0 0
1212 3 23.3805 19.7835 7.194 0 0 0
2459 3 12.5895 21.582 16.1865 0 0 0
2279 3 12.5895 3.597 34.1715 0 0 0
946 3 28.776 30.5745 23.3805 0 0 0
3491 3 1.7985 7.194 8.9925 0 0 0
2790 3 10.791 16.1865 26.9775 0 0 0
272 3 30.5745 5.3955 25.179 0 0 0
807 3 26.9775 17.985 5.3955 0 0 0
1707 3 19.7835 25.179 23.3805 0 0 0
3869 3 0.0 10.791 14.388 0 0 0
6 3 34.1715 1.7985 7.194 0 0 0
3478 3 3.597 5.3955 34.1715 0 0 0
2207 3 12.5895 0.0 5.3955 0 0 0
2890 3 10.791 26.9775 8.9925 0 0 0
1643 3 19.7835 21.582 1.7985 0 0 0
2129 3 17.985 28.776 7.194 0 0 0
3927 3 0.0 21.582 10.791 0 0 0
369 3 32.373 14.388 7.194 0 0 0
3655 3 1.7985 21.582 12.5895 0 0 0
1545 3 21.582 10.791 21.582 0 0 0
2015 3 16.1865 17.985 12.5895 0 0 0
1477 3 21.582 3.597 32.373 0 0 0
1622 3 21.582 19.7835 19.7835 0 0 0
3173 3 7.194 14.388 10.791 0 0 0
2316 3 12.5895 8.9925 28.776 0 0 0
227 3 30.5745 0.0 23.3805 0 0 0
1334 3 25.179 30.5745 12.5895 0 0 0
1076 3 23.3805 5.3955 28.776 0 0 0
3814 3 0.0 1.7985 23.3805 0 0 0
1843 3 16.1865 3.597 1.7985 0 0 0
2644 3 8.9925 5.3955 0.0 0 0 0
1779 3 19.7835 32.373 16.1865 0 0 0
345 3 32.373 10.791 21.582 0 0 0
3291 3 5.3955 25.179 8.9925 0 0 0
1531 3 19.7835 10.791 8.9925 0 0 0
3357 3 7.194 28.776 32.373 0 0 0
2488 3 12.5895 26.9775 3.597 0 0 0
1275 3 23.3805 21.582 30.5745 0 0 0
3987 3 0.0 32.373 10.791 0 0 0
1603 3 19.7835 17.985 1.7985 0 0 0
2588 3 12.5895 34.1715 21.582 0 0 0
144 3 34.1715 26.9775 3.597 0 0 0
1343 3 23.3805 28.776 19.7835 0 0 0
3595 3 1.7985 14.388 30.5745 0 0 0
1303 3 23.3805 25.179 19.7835 0 0 0
3838 3 0.0 5.3955 30.5745 0 0 0
2915 3 8.9925 25.179 30.5745 0 0 0
1172 3 23.3805 16.1865 7.194 0 0 0
3016 3 5.3955 1.7985 10.791 0 0 0
2993 3 10.791 32.373 28.776 0 0 0
1210 3 25.179 19.7835 8.9925 0 0 0
1144 3 23.3805 12.5895 17.985 0 0 0
1498 3 21.582 8.9925 16.1865 0 0 0
926 3 28.776 30.5745 5.3955 0 0 0
1425 3 21.582 0.0 21.582 0 0 0
2164 3 16.1865 34.1715 0.0 0 0 0
504 3 30.5745 26.9775 17.985 0 0 0
665 3 28.776 3.597 21.582 0 0 0
2654 3 10.791 5.3955 12.5895 0 0 0
78 3 34.1715 12.5895 28.776 0 0 0
1637 3 21.582 17.985 32.373 0 0 0
2628 3 8.9925 1.7985 21.582 0 0 0
696 3 26.9775 8.9925 10.791 0 0 0
2607 3 8.9925 0.0 5.3955 0 0 0
2591 3 12.5895 32.373 26.9775 0 0 0
3997 3 0.0 32.373 28.776 0 0 0
268 3 30.5745 5.3955 21.582 0 0 0
1577 3 21.582 14.388 14.388 0 0 0
395 3 30.5745 14.388 30.5745 0 0 0
1467 3 19.7835 3.597 23.3805 0 0 0
1229 3 25.179 17.985 25.179 0 0 0
1819 3 16.1865 0.0 16.1865 0 0 0
1354 3 25.179 30.5745 30.5745 0 0 0
470 3 32.373 23.3805 26.9775 0 0 0
3138 3 7.194 12.5895 16.1865 0 0 0
965 3 28.776 32.373 3.597 0 0 0
69 3 34.1715 10.791 16.1865 0 0 0
817 3 28.776 17.985 14.388 0 0 0
1442 3 21.582 5.3955 1.7985 0 0 0
1519 3 19.7835 7.194 34.1715 0 0 0
1273 3 25.179 21.582 28.776 0 0 0
1575 3 19.7835 14.388 12.5895 0 0 0
267 3 30.5745 3.597 23.3805 0 0 0
936 3 26.9775 30.5745 10.791 0 0 0
3275 3 5.3955 21.582 30.5745 0 0 0
3331 3 5.3955 28.776 8.9925 0 0 0
2931 3 8.9925 28.776 8.9925 0 0 0
2380 3 12.5895 16.1865 14.388 0 0 0
3572 3 1.7985 16.1865 7.194 0 0 0
2869 3 10.791 21.582 25.179 0 0 0
3194 3 7.194 16.1865 30.5745 0 0 0
3015 3 5.3955 0.0 12.5895 0 0 0
3142 3 7.194 12.5895 19.7835 0 0 0
2537 3 14.388 28.776 14.388 0 0 0
2097 3 17.985 25.179 14.388 0 0 0
1542 3 21.582 12.5895 19.7835 0 0 0
672 3 26.9775 5.3955 25.179 0 0 0
3170 3 7.194 16.1865 8.9925 0 0 0
3279 3 5.3955 21.582 34.1715 0 0 0
2013 3 17.985 17.985 10.791 0 0 0
1895 3 16.1865 7.194 12.5895 0 0 0
752 3 26.9775 12.5895 25.179 0 0 0
803 3 26.9775 17.985 1.7985 0 0 0
3850 3 0.0 8.9925 16.1865 0 0 0
979 3 26.9775 32.373 16.1865 0 0 0
2648 3 8.9925 5.3955 3.597 0 0 0
3985 3 0.0 32.373 7.194 0 0 0
2885 3 10.791 25.179 3.597 0 0 0
3923 3 0.0 21.582 3.597 0 0 0
2907 3 8.9925 25.179 23.3805 0 0 0
3608 3 1.7985 19.7835 3.597 0 0 0
3660 3 1.7985 23.3805 14.388 0 0 0
1464 3 19.7835 5.3955 17.985 0 0 0
1194 3 25.179 16.1865 30.5745 0 0 0
1952 3 16.1865 12.5895 25.179 0 0 0
1420 3 19.7835 1.7985 14.388 0 0 0
96 3 34.1715 16.1865 25.179 0 0 0
1837 3 17.985 0.0 32.373 0 0 0
1017 3 25.179 0.0 14.388 0 0 0
1460 3 19.7835 5.3955 14.388 0 0 0
3727 3 1.7985 28.776 5.3955 0 0 0
2502 3 14.388 26.9775 19.7835 0 0 0
3803 3 0.0 0.0 3.597 0 0 0
1552 3 19.7835 12.5895 25.179 0 0 0
2770 3 10.791 16.1865 8.9925 0 0 0
678 3 28.776 5.3955 34.1715 0 0 0
3146 3 7.194 12.5895 23.3805 0 0 0
2067 3 16.1865 21.582 23.3805 0 0 0
1393 3 25.179 32.373 28.776 0 0 0
1128 3 23.3805 12.5895 3.597 0 0 0
3933 3 0.0 21.582 21.582 0 0 0
1671 3 19.7835 21.582 26.9775 0 0 0
2290 3 14.388 8.9925 8.9925 0 0 0
543 3 30.5745 28.776 19.7835 0 0 0
1195 3 23.3805 14.388 30.5745 0 0 0
189 3 34.1715 32.373 16.1865 0 0 0
1241 3 25.179 21.582 0.0 0 0 0
3150 3 7.194 12.5895 26.9775 0 0 0
636 3 26.9775 1.7985 28.776 0 0 0
1071 3 23.3805 3.597 26.9775 0 0 0
2590 3 14.388 34.1715 26.9775 0 0 0
691 3 26.9775 7.194 8.9925 0 0 0
3183 3 5.3955 14.388 19.7835 0 0 0
2746 3 10.791 12.5895 23.3805 0 0 0
417 3 32.373 17.985 14.388 0 0 0
2345 3 14.388 10.791 21.582 0 0 0
155 3 34.1715 25.179 26.9775 0 0 0
3796 3 1.7985 34.1715 28.776 0 0 0
764 3 26.9775 16.1865 0.0 0 0 0
2810 3 10.791 19.7835 8.9925 0 0 0
889 3 28.776 25.179 7.194 0 0 0
1004 3 23.3805 1.7985 0.0 0 0 0
1285 3 25.179 25.179 3.597 0 0 0
1389 3 25.179 32.373 25.179 0 0 0
1155 3 23.3805 10.791 30.5745 0 0 0
2612 3 8.9925 1.7985 7.194 0 0 0
2361 3 14.388 14.388 0.0 0 0 0
590 3 32.373 34.1715 26.9775 0 0 0
3859 3 0.0 7.194 32.373 0 0 0
2161 3 17.985 32.373 0.0 0 0 0
865 3 28.776 21.582 21.582 0 0 0
2031 3 16.1865 17.985 26.9775 0 0 0
2541 3 14.388 28.776 17.985 0 0 0
3751 3 1.7985 28.776 26.9775 0 0 0
3739 3 1.7985 28.776 16.1865 0 0 0
2400 3 12.5895 16.1865 32.373 0 0 0
536 3 30.5745 30.5745 10.791 0 0 0
2946 3 10.791 30.5745 23.3805 0 0 0
3999 3 0.0 32.373 32.373 0 0 0
1590 3 21.582 16.1865 26.9775 0 0 0
794 3 28.776 16.1865 30.5745 0 0 0
375 3 30.5745 14.388 12.5895 0 0 0
3165 3 7.194 14.388 3.597 0 0 0
2350 3 14.388 12.5895 26.9775 0 0 0
3250 3 7.194 23.3805 8.9925 0 0 0
2099 3 16.1865 25.179 16.1865 0 0 0
3488 3 1.7985 8.9925 3.597 0 0 0
3345 3 7.194 28.776 21.582 0 0 0
1824 3 16.1865 1.7985 17.985 0 0 0
3045 3 7.194 3.597 3.597 0 0 0
3104 3 5.3955 8.9925 17.985 0 0 0
1551 3 19.7835 10.791 26.9775 0 0 0
2973 3 10.791 32.373 10.791 0 0 0
2154 3 17.985 30.5745 30.5745 0 0 0
1044 3 23.3805 5.3955 0.0 0 0 0
2157 3 17.985 28.776 32.373 0 0 0
3914 3 0.0 19.7835 23.3805 0 0 0
3575 3 1.7985 14.388 12.5895 0 0 0
3128 3 5.3955 12.5895 3.597 0 0 0
1715 3 19.7835 25.179 30.5745 0 0 0
2872 3 8.9925 23.3805 25.179 0 0 0
2918 3 10.791 26.9775 34.1715 0 0 0
2985 3 10.791 32.373 21.582 0 0 0
3438 3 3.597 1.7985 34.1715 0 0 0
3910 3 0.0 19.7835 16.1865 0 0 0
148 3 34.1715 26.9775 10.791 0 0 0
2529 3 14.388 28.776 7.194 0 0 0
690 3 28.776 8.9925 8.9925 0 0 0
2432 3 12.5895 19.7835 25.179 0 0 0
2560 3 12.5895 30.5745 32.373 0 0 0
365 3 32.373 14.388 3.597 0 0 0
753 3 28.776 10.791 28.776 0 0 0
2917 3 10.791 25.179 32.373 0 0 0
3415 3 1.7985 0.0 12.5895 0 0 0
172 3 34.1715 30.5745 17.985 0 0 0
3229 3 7.194 17.985 25.179 0 0 0
1332 3 23.3805 30.5745 7.194 0 0 0
2666 3 10.791 5.3955 23.3805 0 0 0
2292 3 12.5895 8.9925 7.194 0 0 0
3645 3 3.597 21.582 3.597 0 0 0
86 3 34.1715 16.1865 7.194 0 0 0
3565 3 3.597 14.388 3.597 0 0 0
2793 3 10.791 14.388 28.776 0 0 0
3551 3 1.7985 10.791 26.9775 0 0 0
2390 3 14.388 16.1865 26.9775 0 0 0
328 3 30.5745 12.5895 3.597 0 0 0
1063 3 23.3805 3.597 19.7835 0 0 0
3767 3 1.7985 32.373 5.3955 0 0 0
3205 3 7.194 17.985 3.597 0 0 0
3934 3 0.0 23.3805 23.3805 0 0 0
254 3 32.373 5.3955 12.5895 0 0 0
3190 3 7.194 16.1865 26.9775 0 0 0
3446 3 3.597 5.3955 5.3955 0 0 0
3111 3 5.3955 7.194 26.9775 0 0 0
2694 3 10.791 8.9925 12.5895 0 0 0
1305 3 25.179 25.179 21.582 0 0 0
3903 3 0.0 17.985 3.597 0 0 0
3356 3 5.3955 30.5745 28.776 0 0 0
3471 3 1.7985 3.597 26.9775 0 0 0
61 3 34.1715 10.791 1.7985 0 0 0
3268 3 5.3955 23.3805 21.582 0 0 0
2530 3 14.388 30.5745 8.9925 0 0 0
2027 3 16.1865 17.985 23.3805 0 0 0
2312 3 12.5895 8.9925 25.179 0 0 0
1918 3 17.985 8.9925 34.1715 0 0 0
1571 3 19.7835 14.388 8.9925 0 0 0
2845 3 10.791 21.582 3.597 0 0 0
896 3 26.9775 26.9775 10.791 0 0 0
136 3 34.1715 23.3805 25.179 0 0 0
1829 3 17.985 0.0 25.179 0 0 0
1688 3 19.7835 26.9775 3.597 0 0 0
927 3 26.9775 28.776 5.3955 0 0 0
2234 3 14.388 1.7985 30.5745 0 0 0
1816 3 16.1865 1.7985 10.791 0 0 0
3756 3 1.7985 30.5745 28.776 0 0 0
3517 3 3.597 7.194 32.373 0 0 0
3041 3 7.194 3.597 0.0 0 0 0
3738 3 3.597 30.5745 16.1865 0 0 0
2693 3 10.791 7.194 10.791 0 0 0
2875 3 8.9925 21.582 30.5745 0 0 0
2145 3 17.985 28.776 21.582 0 0 0
3437 3 3.597 0.0 32.373 0 0 0
669 3 28.776 3.597 25.179 0 0 0
354 3 32.373 12.5895 30.5745 0 0 0
3949 3 0.0 25.179 14.388 0 0 0
2884 3 8.9925 26.9775 0.0 0 0 0
3172 3 5.3955 16.1865 7.194 0 0 0
1323 3 23.3805 28.776 1.7985 0 0 0
2956 3 8.9925 30.5745 28.776 0 0 0
2077 3 17.985 21.582 32.373 0 0 0
1159 3 23.3805 10.791 34.1715 0 0 0
3597 3 3.597 14.388 32.373 0 0 0
1807 3 16.1865 0.0 5.3955 0 0 0
1764 3 19.7835 34.1715 0.0 0 0 0
2891 3 8.9925 25.179 8.9925 0 0 0
3156 3 5.3955 12.5895 28.776 0 0 0
787 3 26.9775 14.388 23.3805 0 0 0
140 3 34.1715 23.3805 32.373 0 0 0
3301 3 7.194 25.179 17.985 0 0 0
3233 3 7.194 17.985 28.776 0 0 0
659 3 26.9775 3.597 16.1865 0 0 0
1306 3 25.179 26.9775 23.3805 0 0 0
2462 3 14.388 23.3805 19.7835 0 0 0
2014 3 17.985 19.7835 12.5895 0 0 0
1012 3 23.3805 1.7985 7.194 0 0 0
2181 3 17.985 32.373 17.985 0 0 0
2434 3 14.388 19.7835 30.5745 0 0 0
3248 3 5.3955 23.3805 3.597 0 0 0
2950 3 10.791 30.5745 26.9775 0 0 0
3905 3 0.0 17.985 7.194 0 0 0
2688 3 8.9925 8.9925 3.597 0 0 0
1817 3 17.985 0.0 14.388 0 0 0
1246 3 25.179 23.3805 5.3955 0 0 0
1909 3 17.985 7.194 25.179 0 0 0
1541 3 21.582 10.791 17.985 0 0 0
1842 3 17.985 5.3955 1.7985 0 0 0
727 3 26.9775 10.791 5.3955 0 0 0
2965 3 10.791 32.373 3.597 0 0 0
2594 3 14.388 34.1715 30.5745 0 0 0
3002 3 7.194 1.7985 1.7985 0 0 0
2303 3 12.5895 7.194 19.7835 0 0 0
1978 3 17.985 16.1865 16.1865 0 0 0
135 3 34.1715 21.582 26.9775 0 0 0
2518 3 14.388 26.9775 34.1715 0 0 0
4 3 34.1715 1.7985 3.597 0 0 0
476 3 30.5745 23.3805 28.776 0 0 0
925 3 28.776 28.776 3.597 0 0 0
1524 3 19.7835 12.5895 0.0 0 0 0
88 3 34.1715 16.1865 10.791 0 0 0
173 3 34.1715 28.776 23.3805 0 0 0
3171 3 5.3955 14.388 8.9925 0 0 0
1191 3 23.3805 14.388 26.9775 0 0 0
299 3 30.5745 7.194 16.1865 0 0 0
3251 3 5.3955 21.582 8.9925 0 0 0
603 3 26.9775 0.0 1.7985 0 0 0
244 3 30.5745 5.3955 0.0 0 0 0
297 3 32.373 7.194 14.388 0 0 0
2282 3 14.388 8.9925 1.7985 0 0 0
3466 3 3.597 5.3955 23.3805 0 0 0
3139 3 5.3955 10.791 16.1865 0 0 0
687 3 26.9775 7.194 5.3955 0 0 0
274 3 32.373 5.3955 30.5745 0 0 0
843 3 26.9775 21.582 1.7985 0 0 0
3582 3 3.597 16.1865 19.7835 0 0 0
1916 3 16.1865 8.9925 28.776 0 0 0
907 3 26.9775 25.179 23.3805 0 0 0
2980 3 8.9925 34.1715 14.388 0 0 0
3887 3 0.0 14.388 10.791 0 0 0
833 3 28.776 17.985 28.776 0 0 0
2347 3 12.5895 10.791 23.3805 0 0 0
2106 3 17.985 26.9775 23.3805 0 0 0
1985 3 17.985 14.388 21.582 0 0 0
1325 3 25.179 28.776 3.597 0 0 0
1327 3 23.3805 28.776 5.3955 0 0 0
2756 3 8.9925 12.5895 28.776 0 0 0
2675 3 8.9925 3.597 30.5745 0 0 0
1574 3 21.582 16.1865 12.5895 0 0 0
3540 3 1.7985 12.5895 14.388 0 0 0
3900 3 0.0 16.1865 34.1715 0 0 0
3228 3 5.3955 19.7835 21.582 0 0 0
2738 3 10.791 12.5895 16.1865 0 0 0
606 3 28.776 1.7985 5.3955 0 0 0
1544 3 19.7835 12.5895 17.985 0 0 0
930 3 28.776 30.5745 8.9925 0 0 0
1904 3 16.1865 8.9925 17.985 0 0 0
3777 3 3.597 32.373 14.388 0 0 0
2583 3 12.5895 32.373 19.7835 0 0 0
36 3 34.1715 5.3955 25.179 0 0 0
436 3 30.5745 19.7835 28.776 0 0 0
2868 3 8.9925 23.3805 21.582 0 0 0
829 3 28.776 17.985 25.179 0 0 0
289 3 32.373 7.194 7.194 0 0 0
3731 3 1.7985 28.776 8.9925 0 0 0
3319 3 5.3955 25.179 34.1715 0 0 0
3435 3 1.7985 0.0 30.5745 0 0 0
2493 3 14.388 25.179 10.791 0 0 0
2422 3 14.388 19.7835 19.7835 0 0 0
1449 3 21.582 3.597 7.194 0 0 0
288 3 30.5745 8.9925 3.597 0 0 0
237 3 32.373 0.0 32.373 0 0 0
2479 3 12.5895 21.582 34.1715 0 0 0
3429 3 3.597 0.0 25.179 0 0 0
1998 3 17.985 16.1865 34.1715 0 0 0
3560 3 1.7985 12.5895 32.373 0 0 0
3761 3 3.597 32.373 0.0 0 0 0
3300 3 5.3955 26.9775 14.388 0 0 0
1820 3 16.1865 1.7985 14.388 0 0 0
1693 3 21.582 25.179 10.791 0 0 0
686 3 28.776 8.9925 5.3955 0 0 0
1667 3 19.7835 21.582 23.3805 0 0 0
1989 3 17.985 14.388 25.179 0 0 0
147 3 34.1715 25.179 12.5895 0 0 0
3046 3 7.194 5.3955 5.3955 0 0 0
1479 3 19.7835 3.597 34.1715 0 0 0
3524 3 1.7985 12.5895 0.0 0 0 0
1032 3 23.3805 1.7985 25.179 0 0 0
3709 3 3.597 25.179 25.179 0 0 0
1986 3 17.985 16.1865 23.3805 0 0 0
2840 3 8.9925 19.7835 32.373 0 0 0
692 3 26.9775 8.9925 7.194 0 0 0
404 3 30.5745 19.7835 0.0 0 0 0
2532 3 12.5895 30.5745 7.194 0 0 0
2745 3 10.791 10.791 21.582 0 0 0
3807 4 0.0 0.0 10.791 0 0 0
3032 4 5.3955 1.7985 25.179 0 0 0
271 4 30.5745 3.597 26.9775 0 0 0
3855 4 0.0 7.194 25.179 0 0 0
836 4 26.9775 19.7835 28.776 0 0 0
746 4 28.776 12.5895 23.3805 0 0 0
3386 4 7.194 34.1715 23.3805 0 0 0
3389 4 7.194 32.373 25.179 0 0 0
1527 4 19.7835 10.791 5.3955 0 0 0
3824 4 0.0 5.3955 5.3955 0 0 0
1434 4 21.582 1.7985 30.5745 0 0 0
3989 4 0.0 32.373 14.388 0 0 0
2353 4 14.388 10.791 28.776 0 0 0
2278 4 14.388 5.3955 34.1715 0 0 0
3878 4 0.0 12.5895 30.5745 0 0 0
3335 4 5.3955 28.776 12.5895 0 0 0
1873 4 17.985 3.597 28.776 0 0 0
1129 4 25.179 10.791 7.194 0 0 0
2826 4 10.791 19.7835 23.3805 0 0 0
319 4 30.5745 7.194 34.1715 0 0 0
1914 4 17.985 8.9925 30.5745 0 0 0
1158 4 25.179 12.5895 34.1715 0 0 0
2684 4 8.9925 8.9925 0.0 0 0 0
3256 4 5.3955 23.3805 10.791 0 0 0
74 4 34.1715 12.5895 21.582 0 0 0
2018 4 17.985 19.7835 16.1865 0 0 0
1291 4 23.3805 25.179 8.9925 0 0 0
444 4 30.5745 23.3805 0.0 0 0 0
2188 4 16.1865 34.1715 21.582 0 0 0
1326 4 25.179 30.5745 5.3955 0 0 0
1501 4 21.582 7.194 17.985 0 0 0
3965 4 0.0 28.776 7.194 0 0 0
3075 4 5.3955 3.597 30.5745 0 0 0
791 4 26.9775 14.388 26.9775 0 0 0
3653 4 3.597 21.582 10.791 0 0 0
3318 4 7.194 26.9775 34.1715 0 0 0
3394 4 7.194 34.1715 30.5745 0 0 0
1815 4 16.1865 0.0 12.5895 0 0 0
1114 4 25.179 8.9925 30.5745 0 0 0
2799 4 8.9925 14.388 34.1715 0 0 0
332 4 30.5745 12.5895 7.194 0 0 0
1483 4 19.7835 7.194 1.7985 0 0 0
3003 4 5.3955 0.0 1.7985 0 0 0
1378 4 25.179 34.1715 16.1865 0 0 0
788 4 26.9775 16.1865 21.582 0 0 0
2402 4 14.388 19.7835 1.7985 0 0 0
1304 4 23.3805 26.9775 17.985 0 0 0
3899 4 0.0 14.388 32.373 0 0 0
3315 4 5.3955 25.179 30.5745 0 0 0
2079 4 16.1865 21.582 34.1715 0 0 0
142 4 34.1715 26.9775 0.0 0 0 0
151 4 34.1715 25.179 19.7835 0 0 0
3943 4 0.0 25.179 3.597 0 0 0
2487 4 12.5895 25.179 5.3955 0 0 0
3117 4 7.194 7.194 32.373 0 0 0
2152 4 16.1865 30.5745 25.179 0 0 0
3182 4 7.194 16.1865 19.7835 0 0 0
3798 4 3.597 34.1715 34.1715 0 0 0
2870 4 10.791 23.3805 26.9775 0 0 0
84 4 34.1715 16.1865 3.597 0 0 0
779 4 26.9775 14.388 16.1865 0 0 0
1599 4 19.7835 14.388 34.1715 0 0 0
333 4 32.373 10.791 10.791 0 0 0
1249 4 25.179 21.582 7.194 0 0 0
2315 4 12.5895 7.194 30.5745 0 0 0
2879 4 8.9925 21.582 34.1715 0 0 0
3452 4 1.7985 5.3955 7.194 0 0 0
2327 4 12.5895 10.791 5.3955 0 0 0
2830 4 10.791 19.7835 26.9775 0 0 0
2320 4 12.5895 8.9925 32.373 0 0 0
996 4 26.9775 34.1715 28.776 0 0 0
206 4 32.373 1.7985 5.3955 0 0 0
1713 4 21.582 25.179 28.776 0 0 0
356 4 30.5745 12.5895 28.776 0 0 0
1795 4 19.7835 32.373 30.5745 0 0 0
1949 4 17.985 10.791 25.179 0 0 0
2794 4 10.791 16.1865 30.5745 0 0 0
1387 4 23.3805 32.373 23.3805 0 0 0
2098 4 17.985 26.9775 16.1865 0 0 0
3404 4 1.7985 1.7985 0.0 0 0 0
3176 4 5.3955 16.1865 10.791 0 0 0
1223 4 23.3805 17.985 19.7835 0 0 0
3020 4 5.3955 1.7985 14.388 0 0 0
1115 4 23.3805 7.194 30.5745 0 0 0
3423 4 1.7985 0.0 19.7835 0 0 0
1997 4 17.985 14.388 32.373 0 0 0
186 4 34.1715 34.1715 7.194 0 0 0
1154 4 25.179 12.5895 30.5745 0 0 0
3884 4 0.0 16.1865 5.3955 0 0 0
1652 4 19.7835 23.3805 7.194 0 0 0
3252 4 5.3955 23.3805 7.194 0 0 0
2236 4 12.5895 1.7985 28.776 0 0 0
438 4 32.373 19.7835 34.1715 0 0 0
3877 4 0.0 10.791 28.776 0 0 0
2270 4 14.388 5.3955 26.9775 0 0 0
3110 4 7.194 8.9925 26.9775 0 0 0
2894 4 10.791 26.9775 12.5895 0 0 0
1956 4 16.1865 12.5895 28.776 0 0 0
3675 4 1.7985 21.582 30.5745 0 0 0
3367 4 5.3955 32.373 5.3955 0 0 0
3624 4 1.7985 19.7835 17.985 0 0 0
3436 4 1.7985 1.7985 28.776 0 0 0
2179 4 16.1865 32.373 16.1865 0 0 0
710 4 28.776 8.9925 26.9775 0 0 0
579 4 30.5745 32.373 16.1865 0 0 0
2815 4 8.9925 17.985 12.5895 0 0 0
1002 4 25.179 1.7985 1.7985 0 0 0
3072 4 5.3955 5.3955 25.179 0 0 0
2572 4 12.5895 34.1715 7.194 0 0 0
2127 4 16.1865 28.776 5.3955 0 0 0
424 4 30.5745 19.7835 17.985 0 0 0
2673 4 10.791 3.597 28.776 0 0 0
223 4 30.5745 0.0 19.7835 0 0 0
1759 4 19.7835 28.776 34.1715 0 0 0
1833 4 17.985 0.0 28.776 0 0 0
520 4 30.5745 26.9775 32.373 0 0 0
2630 4 10.791 1.7985 26.9775 0 0 0
2201 4 14.388 0.0 0.0 0 0 0
2862 4 10.791 23.3805 19.7835 0 0 0
713 4 28.776 7.194 28.776 0 0 0
2957 4 10.791 28.776 32.373 0 0 0
1810 4 17.985 1.7985 8.9925 0 0 0
2716 4 8.9925 8.9925 28.776 0 0 0
3896 4 0.0 16.1865 26.9775 0 0 0
1991 4 16.1865 14.388 26.9775 0 0 0
440 4 30.5745 19.7835 32.373 0 0 0
1137 4 25.179 10.791 14.388 0 0 0
3231 4 5.3955 17.985 26.9775 0 0 0
2834 4 10.791 19.7835 30.5745 0 0 0
3362 4 7.194 34.1715 1.7985 0 0 0
3343 4 5.3955 28.776 19.7835 0 0 0
1267 4 23.3805 21.582 23.3805 0 0 0
2881 4 10.791 25.179 0.0 0 0 0
1314 4 25.179 26.9775 30.5745 0 0 0
2505 4 14.388 25.179 21.582 0 0 0
1677 4 21.582 21.582 32.373 0 0 0
2558 4 14.388 30.5745 34.1715 0 0 0
3323 4 5.3955 28.776 1.7985 0 0 0
3685 4 3.597 25.179 3.597 0 0 0
1556 4 19.7835 12.5895 28.776 0 0 0
2670 4 10.791 5.3955 26.9775 0 0 0
944 4 26.9775 30.5745 17.985 0 0 0
2283 4 12.5895 7.194 1.7985 0 0 0
2763 4 8.9925 14.388 1.7985 0 0 0
1466 4 21.582 5.3955 23.3805 0 0 0
2513 4 14.388 25.179 28.776 0 0 0
2779 4 8.9925 14.388 16.1865 0 0 0
3212 4 5.3955 19.7835 7.194 0 0 0
774 4 28.776 16.1865 12.5895 0 0 0
298 4 32.373 8.9925 16.1865 0 0 0
3206 4 7.194 19.7835 5.3955 0 0 0
704 4 26.9775 8.9925 17.985 0 0 0
2089 4 17.985 25.179 7.194 0 0 0
5 4 34.1715 0.0 8.9925 0 0 0
3562 4 3.597 16.1865 1.7985 0 0 0
2340 4 12.5895 12.5895 14.388 0 0 0
2036 4 16.1865 19.7835 28.776 0 0 0
3263 4 5.3955 21.582 19.7835 0 0 0
1540 4 19.7835 12.5895 14.388 0 0 0
3018 4 7.194 1.7985 16.1865 0 0 0
3626 4 3.597 19.7835 23.3805 0 0 0
252 4 30.5745 5.3955 7.194 0 0 0
445 4 32.373 21.582 3.597 0 0 0
1634 4 21.582 19.7835 30.5745 0 0 0
3652 4 1.7985 23.3805 7.194 0 0 0
2686 4 10.791 8.9925 5.3955 0 0 0
2871 4 8.9925 21.582 26.9775 0 0 0
2723 4 8.9925 10.791 1.7985 0 0 0
2761 4 10.791 14.388 0.0 0 0 0
362 4 32.373 16.1865 1.7985 0 0 0
2198 4 17.985 34.1715 34.1715 0 0 0
719 4 26.9775 7.194 34.1715 0 0 0
3515 4 1.7985 7.194 30.5745 0 0 0
1432 4 19.7835 1.7985 25.179 0 0 0
1397 4 25.179 32.373 32.373 0 0 0
3284 4 5.3955 26.9775 0.0 0 0 0
995 4 26.9775 32.373 30.5745 0 0 0
286 4 32.373 8.9925 5.3955 0 0 0
3339 4 5.3955 28.776 16.1865 0 0 0
2850 4 10.791 23.3805 8.9925 0 0 0
3143 4 5.3955 10.791 19.7835 0 0 0
3340 4 5.3955 30.5745 14.388 0 0 0
1889 4 17.985 7.194 7.194 0 0 0
1961 4 17.985 14.388 0.0 0 0 0
771 4 26.9775 14.388 8.9925 0 0 0
3954 4 0.0 26.9775 23.3805 0 0 0
25 4 34.1715 3.597 8.9925 0 0 0
3930 4 0.0 23.3805 16.1865 0 0 0
2006 4 17.985 19.7835 5.3955 0 0 0
3294 4 7.194 26.9775 12.5895 0 0 0
2454 4 14.388 23.3805 12.5895 0 0 0
282 4 32.373 8.9925 1.7985 0 0 0
11 4 34.1715 0.0 19.7835 0 0 0
1778 4 21.582 34.1715 16.1865 0 0 0
578 4 32.373 34.1715 16.1865 0 0 0
903 4 26.9775 25.179 19.7835 0 0 0
3800 4 1.7985 34.1715 32.373 0 0 0
2690 4 10.791 8.9925 8.9925 0 0 0
3922 4 0.0 23.3805 1.7985 0 0 0
2221 4 14.388 0.0 17.985 0 0 0
3842 4 0.0 8.9925 1.7985 0 0 0
1611 4 19.7835 17.985 8.9925 0 0 0
1827 4 16.1865 0.0 23.3805 0 0 0
360 4 30.5745 12.5895 32.373 0 0 0
1621 4 21.582 17.985 17.985 0 0 0
2609 4 10.791 0.0 7.194 0 0 0
1224 4 23.3805 19.7835 17.985 0 0 0
3372 4 5.3955 34.1715 7.194 0 0 0
1007 4 23.3805 0.0 5.3955 0 0 0
3347 4 5.3955 28.776 23.3805 0 0 0
2226 4 14.388 1.7985 23.3805 0 0 0
666 4 28.776 5.3955 23.3805 0 0 0
2889 4 10.791 25.179 7.194 0 0 0
2835 4 8.9925 17.985 30.5745 0 0 0
1494 4 21.582 8.9925 12.5895 0 0 0
3310 4 7.194 26.9775 26.9775 0 0 0
434 4 32.373 19.7835 30.5745 0 0 0
2581 4 14.388 32.373 17.985 0 0 0
2573 4 14.388 32.373 10.791 0 0 0
352 4 30.5745 12.5895 25.179 0 0 0
1472 4 19.7835 5.3955 25.179 0 0 0
2244 4 12.5895 5.3955 0.0 0 0 0
1853 4 17.985 3.597 10.791 0 0 0
2295 4 12.5895 7.194 12.5895 0 0 0
3892 4 0.0 16.1865 19.7835 0 0 0
1638 4 21.582 19.7835 34.1715 0 0 0
2817 4 10.791 17.985 14.388 0 0 0
554 4 32.373 30.5745 30.5745 0 0 0
841 4 28.776 21.582 0.0 0 0 0
3474 4 3.597 5.3955 30.5745 0 0 0
1700 4 19.7835 26.9775 14.388 0 0 0
2659 4 8.9925 3.597 16.1865 0 0 0
2392 4 12.5895 16.1865 25.179 0 0 0
3441 4 3.597 3.597 0.0 0 0 0
1993 4 17.985 14.388 28.776 0 0 0
1262 4 25.179 23.3805 19.7835 0 0 0
1777 4 21.582 32.373 14.388 0 0 0
3013 4 7.194 0.0 10.791 0 0 0
766 4 28.776 16.1865 5.3955 0 0 0
3973 4 0.0 28.776 21.582 0 0 0
3908 4 0.0 19.7835 12.5895 0 0 0
838 4 28.776 19.7835 34.1715 0 0 0
585 4 32.373 32.373 21.582 0 0 0
3321 4 7.194 28.776 0.0 0 0 0
2927 4 8.9925 28.776 5.3955 0 0 0
1610 4 21.582 19.7835 8.9925 0 0 0
2808 4 8.9925 19.7835 3.597 0 0 0
1446 4 21.582 5.3955 5.3955 0 0 0
909 4 28.776 25.179 25.179 0 0 0
3126 4 7.194 12.5895 5.3955 0 0 0
2614 4 10.791 1.7985 12.5895 0 0 0
921 4 28.776 28.776 0.0 0 0 0
3455 4 1.7985 3.597 12.5895 0 0 0
3677 4 3.597 21.582 32.373 0 0 0
3584 4 1.7985 16.1865 17.985 0 0 0
2168 4 16.1865 34.1715 3.597 0 0 0
1487 4 19.7835 7.194 5.3955 0 0 0
3775 4 1.7985 32.373 12.5895 0 0 0
3369 4 7.194 32.373 7.194 0 0 0
335 4 30.5745 10.791 12.5895 0 0 0
3644 4 1.7985 23.3805 0.0 0 0 0
22 4 34.1715 5.3955 0.0 0 0 0
1339 4 23.3805 28.776 16.1865 0 0 0
2473 4 14.388 21.582 28.776 0 0 0
3573 4 3.597 14.388 10.791 0 0 0
1648 4 19.7835 23.3805 3.597 0 0 0
1871 4 16.1865 3.597 26.9775 0 0 0
70 4 34.1715 12.5895 14.388 0 0 0
115 4 34.1715 17.985 26.9775 0 0 0
1609 4 21.582 17.985 7.194 0 0 0
3625 4 3.597 17.985 21.582 0 0 0
2936 4 8.9925 30.5745 10.791 0 0 0
3494 4 3.597 8.9925 12.5895 0 0 0
478 4 32.373 23.3805 34.1715 0 0 0
370 4 32.373 16.1865 8.9925 0 0 0
1591 4 19.7835 14.388 26.9775 0 0 0
3898 4 0.0 16.1865 30.5745 0 0 0
3370 4 7.194 34.1715 8.9925 0 0 0
2086 4 17.985 26.9775 5.3955 0 0 0
1153 4 25.179 10.791 28.776 0 0 0
2401 4 14.388 17.985 0.0 0 0 0
2825 4 10.791 17.985 21.582 0 0 0
1324 4 23.3805 30.5745 0.0 0 0 0
796 4 26.9775 16.1865 28.776 0 0 0
1729 4 21.582 28.776 7.194 0 0 0
2415 4 12.5895 17.985 12.5895 0 0 0
2778 4 10.791 16.1865 16.1865 0 0 0
2515 4 12.5895 25.179 30.5745 0 0 0
776 4 26.9775 16.1865 10.791 0 0 0
2859 4 8.9925 21.582 16.1865 0 0 0
2409 4 14.388 17.985 7.194 0 0 0
447 4 30.5745 21.582 5.3955 0 0 0
3398 4 7.194 34.1715 34.1715 0 0 0
256 4 30.5745 5.3955 10.791 0 0 0
2905 4 10.791 25.179 21.582 0 0 0
2060 4 16.1865 23.3805 14.388 0 0 0
2514 4 14.388 26.9775 30.5745 0 0 0
129 4 34.1715 21.582 16.1865 0 0 0
3779 4 1.7985 32.373 16.1865 0 0 0
3400 4 5.3955 34.1715 32.373 0 0 0
3784 4 1.7985 34.1715 17.985 0 0 0
2903 4 8.9925 25.179 19.7835 0 0 0
3577 4 3.597 14.388 14.388 0 0 0
2797 4 10.791 14.388 32.373 0 0 0
972 4 26.9775 34.1715 7.194 0 0 0
3127 4 5.3955 10.791 5.3955 0 0 0
125 4 34.1715 21.582 8.9925 0 0 0
2640 4 8.9925 1.7985 32.373 0 0 0
93 4 34.1715 14.388 23.3805 0 0 0
3863 4 0.0 10.791 3.597 0 0 0
1582 4 21.582 16.1865 19.7835 0 0 0
233 4 32.373 0.0 28.776 0 0 0
1160 4 23.3805 12.5895 32.373 0 0 0
620 4 26.9775 1.7985 14.388 0 0 0
2937 4 10.791 28.776 14.388 0 0 0
2824 4 8.9925 19.7835 17.985 0 0 0
642 4 28.776 5.3955 1.7985 0 0 0
567 4 30.5745 32.373 5.3955 0 0 0
651 4 26.9775 3.597 8.9925 0 0 0
3425 4 3.597 0.0 21.582 0 0 0
2977 4 10.791 32.373 14.388 0 0 0
2702 4 10.791 8.9925 19.7835 0 0 0
3972 4 0.0 30.5745 19.7835 0 0 0
743 4 26.9775 10.791 19.7835 0 0 0
2356 4 12.5895 12.5895 28.776 0 0 0
1701 4 21.582 25.179 17.985 0 0 0
1806 4 17.985 1.7985 5.3955 0 0 0
403 4 30.5745 17.985 1.7985 0 0 0
3019 4 5.3955 0.0 16.1865 0 0 0
110 4 34.1715 19.7835 14.388 0 0 0
3051 4 5.3955 3.597 8.9925 0 0 0
92 4 34.1715 16.1865 17.985 0 0 0
773 4 28.776 14.388 10.791 0 0 0
1811 4 16.1865 0.0 8.9925 0 0 0
529 4 32.373 28.776 7.194 0 0 0
3683 4 1.7985 25.179 1.7985 0 0 0
1651 4 19.7835 21.582 8.9925 0 0 0
3259 4 5.3955 21.582 16.1865 0 0 0
108 4 34.1715 19.7835 10.791 0 0 0
418 4 32.373 19.7835 16.1865 0 0 0
3643 4 1.7985 21.582 1.7985 0 0 0
1737 4 21.582 28.776 14.388 0 0 0
505 4 32.373 25.179 21.582 0 0 0
1669 4 21.582 21.582 25.179 0 0 0
3304 4 5.3955 26.9775 17.985 0 0 0
953 4 28.776 28.776 28.776 0 0 0
1243 4 23.3805 21.582 1.7985 0 0 0
1033 4 25.179 0.0 28.776 0 0 0
1704 4 19.7835 26.9775 17.985 0 0 0
957 4 28.776 28.776 32.373 0 0 0
1908 4 16.1865 8.9925 21.582 0 0 0
699 4 26.9775 7.194 16.1865 0 0 0
2037 4 17.985 17.985 32.373 0 0 0
2901 4 10.791 25.179 17.985 0 0 0
24 4 34.1715 5.3955 3.597 0 0 0
2458 4 14.388 23.3805 16.1865 0 0 0
2135 4 16.1865 28.776 12.5895 0 0 0
3552 4 1.7985 12.5895 25.179 0 0 0
682 4 28.776 8.9925 1.7985 0 0 0
1679 4 19.7835 21.582 34.1715 0 0 0
1987 4 16.1865 14.388 23.3805 0 0 0
2384 4 12.5895 16.1865 17.985 0 0 0
1459 4 19.7835 3.597 16.1865 0 0 0
718 4 28.776 8.9925 34.1715 0 0 0
3602 4 3.597 19.7835 1.7985 0 0 0
1 4 34.1715 0.0 1.7985 0 0 0
1567 4 19.7835 14.388 5.3955 0 0 0
1381 4 25.179 32.373 17.985 0 0 0
3265 4 7.194 21.582 21.582 0 0 0
2211 4 12.5895 0.0 8.9925 0 0 0
1629 4 21.582 17.985 25.179 0 0 0
40 4 34.1715 5.3955 32.373 0 0 0
731 4 26.9775 10.791 8.9925 0 0 0
3891 4 0.0 14.388 17.985 0 0 0
2215 4 12.5895 0.0 12.5895 0 0 0
1516 4 19.7835 8.9925 28.776 0 0 0
634 4 28.776 1.7985 30.5745 0 0 0
3358 4 7.194 30.5745 34.1715 0 0 0
650 4 28.776 5.3955 8.9925 0 0 0
3418 4 3.597 1.7985 16.1865 0 0 0
3463 4 1.7985 3.597 19.7835 0 0 0
2118 4 17.985 26.9775 34.1715 0 0 0
978 4 28.776 34.1715 16.1865 0 0 0
902 4 28.776 26.9775 19.7835 0 0 0
3348 4 5.3955 30.5745 21.582 0 0 0
1257 4 25.179 21.582 14.388 0 0 0
3272 4 5.3955 23.3805 25.179 0 0 0
3044 4 5.3955 5.3955 0.0 0 0 0
3566 4 3.597 16.1865 5.3955 0 0 0
1065 4 25.179 3.597 21.582 0 0 0
3011 4 5.3955 0.0 8.9925 0 0 0
1550 4 21.582 12.5895 26.9775 0 0 0
1312 4 23.3805 26.9775 25.179 0 0 0
197 4 34.1715 32.373 30.5745 0 0 0
1854 4 17.985 5.3955 12.5895 0 0 0
2443 4 12.5895 21.582 1.7985 0 0 0
1179 4 23.3805 14.388 16.1865 0 0 0
918 4 28.776 26.9775 34.1715 0 0 0
2520 4 12.5895 26.9775 32.373 0 0 0
2467 4 12.5895 21.582 23.3805 0 0 0
3729 4 3.597 28.776 7.194 0 0 0
2681 4 10.791 7.194 0.0 0 0 0
1469 4 21.582 3.597 25.179 0 0 0
2754 4 10.791 12.5895 30.5745 0 0 0
279 4 30.5745 3.597 34.1715 0 0 0
2935 4 8.9925 28.776 12.5895 0 0 0
241 4 32.373 3.597 0.0 0 0 0
169 4 34.1715 28.776 16.1865 0 0 0
1089 4 25.179 7.194 7.194 0 0 0
2260 4 12.5895 5.3955 14.388 0 0 0
1386 4 25.179 34.1715 23.3805 0 0 0
1663 4 19.7835 21.582 19.7835 0 0 0
981 4 28.776 32.373 17.985 0 0 0
3888 4 0.0 16.1865 12.5895 0 0 0
1176 4 23.3805 16.1865 10.791 0 0 0
3066 4 7.194 5.3955 23.3805 0 0 0
2839 4 8.9925 17.985 34.1715 0 0 0
750 4 28.776 12.5895 26.9775 0 0 0
2531 4 12.5895 28.776 8.9925 0 0 0
475 4 30.5745 21.582 30.5745 0 0 0
1184 4 23.3805 16.1865 17.985 0 0 0
2096 4 16.1865 26.9775 10.791 0 0 0
2731 4 8.9925 10.791 8.9925 0 0 0
1232 4 23.3805 19.7835 25.179 0 0 0
1383 4 23.3805 32.373 19.7835 0 0 0
2717 4 10.791 7.194 32.373 0 0 0
1891 4 16.1865 7.194 8.9925 0 0 0
2116 4 16.1865 26.9775 28.776 0 0 0
1801 4 17.985 0.0 0.0 0 0 0
2506 4 14.388 26.9775 23.3805 0 0 0
1253 4 25.179 21.582 10.791 0 0 0
2111 4 16.1865 25.179 26.9775 0 0 0
3696 4 1.7985 26.9775 10.791 0 0 0
1740 4 19.7835 30.5745 14.388 0 0 0
1858 4 17.985 5.3955 16.1865 0 0 0
3397 4 7.194 32.373 32.373 0 0 0
2245 4 14.388 3.597 3.597 0 0 0
1647 4 19.7835 21.582 5.3955 0 0 0
3076 4 5.3955 5.3955 28.776 0 0 0
1168 4 23.3805 16.1865 3.597 0 0 0
3915 4 0.0 17.985 25.179 0 0 0
3352 4 5.3955 30.5745 25.179 0 0 0
1245 4 25.179 21.582 3.597 0 0 0
90 4 34.1715 16.1865 14.388 0 0 0
2140 4 16.1865 30.5745 14.388 0 0 0
1456 4 19.7835 5.3955 10.791 0 0 0
2521 4 14.388 28.776 0.0 0 0 0
1722 4 21.582 30.5745 1.7985 0 0 0
1888 4 16.1865 8.9925 3.597 0 0 0
799 4 26.9775 14.388 34.1715 0 0 0
180 4 34.1715 30.5745 32.373 0 0 0
1433 4 21.582 0.0 28.776 0 0 0
3589 4 3.597 14.388 25.179 0 0 0
1070 4 25.179 5.3955 26.9775 0 0 0
1476 4 19.7835 5.3955 28.776 0 0 0
3614 4 3.597 19.7835 12.5895 0 0 0
967 4 26.9775 32.373 5.3955 0 0 0
2190 4 17.985 34.1715 26.9775 0 0 0
3511 4 1.7985 7.194 26.9775 0 0 0
2893 4 10.791 25.179 10.791 0 0 0
754 4 28.776 12.5895 30.5745 0 0 0
3907 4 0.0 17.985 10.791 0 0 0
2391 4 12.5895 14.388 26.9775 0 0 0
3058 4 7.194 5.3955 16.1865 0 0 0
2064 4 16.1865 23.3805 17.985 0 0 0
2447 4 12.5895 21.582 5.3955 0 0 0
1600 4 19.7835 16.1865 32.373 0 0 0
827 4 26.9775 17.985 23.3805 0 0 0
3308 4 5.3955 26.9775 21.582 0 0 0
1965 4 17.985 14.388 3.597 0 0 0
1517 4 21.582 7.194 32.373 0 0 0
3567 4 1.7985 14.388 5.3955 0 0 0
3052 4 5.3955 5.3955 7.194 0 0 0
1752 4 19.7835 30.5745 25.179 0 0 0
2204 4 12.5895 1.7985 0.0 0 0 0
1885 4 17.985 7.194 3.597 0 0 0
2511 4 12.5895 25.179 26.9775 0 0 0
2298 4 14.388 8.9925 16.1865 0 0 0
920 4 26.9775 26.9775 32.373 0 0 0
67 4 34.1715 10.791 12.5895 0 0 0
3742 4 3.597 30.5745 19.7835 0 0 0
3541 4 3.597 10.791 17.985 0 0 0
2843 4 8.9925 21.582 1.7985 0 0 0
73 4 34.1715 10.791 23.3805 0 0 0
2664 4 8.9925 5.3955 17.985 0 0 0
2842 4 10.791 23.3805 1.7985 0 0 0
1521 4 21.582 10.791 0.0 0 0 0
2041 4 17.985 21.582 0.0 0 0 0
3672 4 1.7985 23.3805 25.179 0 0 0
1733 4 21.582 28.776 10.791 0 0 0
808 4 26.9775 19.7835 3.597 0 0 0
2398 4 14.388 16.1865 34.1715 0 0 0
2083 4 16.1865 25.179 1.7985 0 0 0
3518 4 3.597 8.9925 34.1715 0 0 0
1620 4 19.7835 19.7835 14.388 0 0 0
2173 4 17.985 32.373 10.791 0 0 0
2337 4 14.388 10.791 14.388 0 0 0
1572 4 19.7835 16.1865 7.194 0 0 0
1496 4 19.7835 8.9925 10.791 0 0 0
2324 4 12.5895 12.5895 0.0 0 0 0
2646 4 10.791 5.3955 5.3955 0 0 0
664 4 26.9775 5.3955 17.985 0 0 0
3464 4 1.7985 5.3955 17.985 0 0 0
2970 4 10.791 34.1715 8.9925 0 0 0
942 4 28.776 30.5745 19.7835 0 0 0
3476 4 1.7985 5.3955 28.776 0 0 0
103 4 34.1715 17.985 5.3955 0 0 0
2667 4 8.9925 3.597 23.3805 0 0 0
3434 4 3.597 1.7985 30.5745 0 0 0
997 4 28.776 32.373 32.373 0 0 0
3944 4 0.0 26.9775 5.3955 0 0 0
3403 4 1.7985 0.0 1.7985 0 0 0
1455 4 19.7835 3.597 12.5895 0 0 0
489 4 32.373 25.179 7.194 0 0 0
3145 4 7.194 10.791 21.582 0 0 0
1675 4 19.7835 21.582 30.5745 0 0 0
2752 4 8.9925 12.5895 25.179 0 0 0
260 4 30.5745 5.3955 14.388 0 0 0
2987 4 8.9925 32.373 23.3805 0 0 0
3995 4 0.0 32.373 25.179 0 0 0
1101 4 25.179 7.194 17.985 0 0 0
715 4 26.9775 7.194 30.5745 0 0 0
3513 4 3.597 7.194 28.776 0 0 0
2110 4 17.985 26.9775 26.9775 0 0 0
1753 4 21.582 28.776 28.776 0 0 0
951 4 26.9775 28.776 26.9775 0 0 0
3684 4 1.7985 26.9775 0.0 0 0 0
3600 4 1.7985 16.1865 32.373 0 0 0
828 4 26.9775 19.7835 21.582 0 0 0
852 4 26.9775 23.3805 7.194 0 0 0
1149 4 25.179 10.791 25.179 0 0 0
3074 4 7.194 5.3955 30.5745 0 0 0
2838 4 10.791 19.7835 34.1715 0 0 0
2633 4 10.791 0.0 28.776 0 0 0
1108 4 23.3805 8.9925 21.582 0 0 0
2174 4 17.985 34.1715 12.5895 0 0 0
2421 4 14.388 17.985 17.985 0 0 0
3828 4 0.0 5.3955 12.5895 0 0 0
2420 4 12.5895 19.7835 14.388 0 0 0
3324 4 5.3955 30.5745 0.0 0 0 0
2692 4 8.9925 8.9925 7.194 0 0 0
2229 4 14.388 0.0 25.179 0 0 0
684 4 26.9775 8.9925 0.0 0 0 0
2108 4 16.1865 26.9775 21.582 0 0 0
3526 4 3.597 12.5895 5.3955 0 0 0
1966 4 17.985 16.1865 5.3955 0 0 0
2798 4 10.791 16.1865 34.1715 0 0 0
3516 4 1.7985 8.9925 28.776 0 0 0
2976 4 8.9925 34.1715 10.791 0 0 0
1440 4 19.7835 1.7985 32.373 0 0 0
2898 4 10.791 26.9775 16.1865 0 0 0
1166 4 25.179 16.1865 5.3955 0 0 0
2809 4 10.791 17.985 7.194 0 0 0
3306 4 7.194 26.9775 23.3805 0 0 0
3581 4 3.597 14.388 17.985 0 0 0
2178 4 17.985 34.1715 16.1865 0 0 0
3439 4 1.7985 0.0 34.1715 0 0 0
1352 4 23.3805 30.5745 25.179 0 0 0
1156 4 23.3805 12.5895 28.776 0 0 0
882 4 28.776 26.9775 1.7985 0 0 0
2615 4 8.9925 0.0 12.5895 0 0 0
1405 4 21.582 0.0 3.597 0 0 0
48 4 34.1715 8.9925 10.791 0 0 0
2094 4 17.985 26.9775 12.5895 0 0 0
3424 4 1.7985 1.7985 17.985 0 0 0
2203 4 12.5895 0.0 1.7985 0 0 0
1488 4 19.7835 8.9925 3.597 0 0 0
922 4 28.776 30.5745 1.7985 0 0 0
1623 4 19.7835 17.985 19.7835 0 0 0
54 4 34.1715 8.9925 21.582 0 0 0
2647 4 8.9925 3.597 5.3955 0 0 0
2676 4 8.9925 5.3955 28.776 0 0 0
3832 4 0.0 5.3955 19.7835 0 0 0
1745 4 21.582 28.776 21.582 0 0 0
783 4 26.9775 14.388 19.7835 0 0 0
1482 4 21.582 8.9925 1.7985 0 0 0
152 4 34.1715 26.9775 17.985 0 0 0
3543 4 1.7985 10.791 19.7835 0 0 0
2526 4 14.388 30.5745 5.3955 0 0 0
3826 4 0.0 5.3955 8.9925 0 0 0
1632 4 19.7835 19.7835 25.179 0 0 0
301 4 32.373 7.194 17.985 0 0 0
1608 4 19.7835 19.7835 3.597 0 0 0
3669 4 3.597 21.582 25.179 0 0 0
3298 4 7.194 26.9775 16.1865 0 0 0
2012 4 16.1865 19.7835 7.194 0 0 0
3561 4 3.597 14.388 0.0 0 0 0
3763 4 1.7985 32.373 1.7985 0 0 0
1784 4 19.7835 34.1715 17.985 0 0 0
3472 4 1.7985 5.3955 25.179 0 0 0
1005 4 25.179 0.0 3.597 0 0 0
2377 4 14.388 14.388 14.388 0 0 0
844 4 26.9775 23.3805 0.0 0 0 0
3036 4 5.3955 1.7985 28.776 0 0 0
1915 4 16.1865 7.194 30.5745 0 0 0
1410 4 21.582 1.7985 8.9925 0 0 0
1372 4 23.3805 34.1715 7.194 0 0 0
3559 4 1.7985 10.791 34.1715 0 0 0
2093 4 17.985 25.179 10.791 0 0 0
1222 4 25.179 19.7835 19.7835 0 0 0
1850 4 17.985 5.3955 8.9925 0 0 0
187 4 34.1715 32.373 12.5895 0 0 0
2757 4 10.791 10.791 32.373 0 0 0
209 4 32.373 0.0 7.194 0 0 0
700 4 26.9775 8.9925 14.388 0 0 0
1406 4 21.582 1.7985 5.3955 0 0 0
1886 4 17.985 8.9925 5.3955 0 0 0
2928 4 8.9925 30.5745 3.597 0 0 0
1925 4 17.985 10.791 3.597 0 0 0
2551 4 12.5895 28.776 26.9775 0 0 0
1078 4 25.179 5.3955 34.1715 0 0 0
2743 4 8.9925 10.791 19.7835 0 0 0
637 4 28.776 0.0 32.373 0 0 0
1767 4 19.7835 32.373 5.3955 0 0 0
1338 4 25.179 30.5745 16.1865 0 0 0
3207 4 5.3955 17.985 5.3955 0 0 0
3125 4 7.194 10.791 3.597 0 0 0
510 4 32.373 26.9775 26.9775 0 0 0
1576 4 19.7835 16.1865 10.791 0 0 0
3844 4 0.0 8.9925 5.3955 0 0 0
2241 4 14.388 3.597 0.0 0 0 0
609 4 28.776 0.0 7.194 0 0 0
3766 4 3.597 34.1715 5.3955 0 0 0
3484 4 1.7985 8.9925 0.0 0 0 0
3055 4 5.3955 3.597 12.5895 0 0 0
916 4 26.9775 26.9775 28.776 0 0 0
2441 4 14.388 21.582 0.0 0 0 0
2677 4 10.791 3.597 32.373 0 0 0
3962 4 0.0 30.5745 1.7985 0 0 0
1502 4 21.582 8.9925 19.7835 0 0 0
1618 4 21.582 19.7835 16.1865 0 0 0
1619 4 19.7835 17.985 16.1865 0 0 0
525 4 32.373 28.776 3.597 0 0 0
3144 4 5.3955 12.5895 17.985 0 0 0
3449 4 3.597 3.597 7.194 0 0 0
2442 4 14.388 23.3805 1.7985 0 0 0
2057 4 17.985 21.582 14.388 0 0 0
3102 4 7.194 8.9925 19.7835 0 0 0
109 4 34.1715 17.985 16.1865 0 0 0
1135 4 23.3805 10.791 12.5895 0 0 0
3255 4 5.3955 21.582 12.5895 0 0 0
122 4 34.1715 23.3805 0.0 0 0 0
3522 4 3.597 12.5895 1.7985 0 0 0
1003 4 23.3805 0.0 1.7985 0 0 0
3021 4 7.194 0.0 17.985 0 0 0
3056 4 5.3955 5.3955 10.791 0 0 0
353 4 32.373 10.791 28.776 0 0 0
1020 4 23.3805 1.7985 14.388 0 0 0
2416 4 12.5895 19.7835 10.791 0 0 0
1756 4 19.7835 30.5745 28.776 0 0 0
1341 4 25.179 28.776 17.985 0 0 0
3520 4 1.7985 8.9925 32.373 0 0 0
3153 4 7.194 10.791 28.776 0 0 0
1857 4 17.985 3.597 14.388 0 0 0
1271 4 23.3805 21.582 26.9775 0 0 0
2494 4 14.388 26.9775 12.5895 0 0 0
2436 4 12.5895 19.7835 28.776 0 0 0
130 4 34.1715 23.3805 14.388 0 0 0
3714 4 3.597 26.9775 30.5745 0 0 0
3770 4 3.597 34.1715 8.9925 0 0 0
2087 4 16.1865 25.179 5.3955 0 0 0
2740 4 8.9925 12.5895 14.388 0 0 0
3220 4 5.3955 19.7835 14.388 0 0 0
2512 4 12.5895 26.9775 25.179 0 0 0
2271 4 12.5895 3.597 26.9775 0 0 0
1016 4 23.3805 1.7985 10.791 0 0 0
2362 4 14.388 16.1865 1.7985 0 0 0
3529 4 3.597 10.791 7.194 0 0 0
2760 4 8.9925 12.5895 32.373 0 0 0
3379 4 5.3955 32.373 16.1865 0 0 0
2812 4 8.9925 19.7835 7.194 0 0 0
542 4 32.373 30.5745 19.7835 0 0 0
1844 4 16.1865 5.3955 0.0 0 0 0
1270 4 25.179 23.3805 26.9775 0 0 0
1094 4 25.179 8.9925 12.5895 0 0 0
3834 4 0.0 5.3955 23.3805 0 0 0
1367 4 23.3805 32.373 5.3955 0 0 0
1757 4 21.582 28.776 32.373 0 0 0
1111 4 23.3805 7.194 26.9775 0 0 0
859 4 26.9775 21.582 16.1865 0 0 0
2024 4 16.1865 19.7835 17.985 0 0 0
1379 4 23.3805 32.373 16.1865 0 0 0
2697 4 10.791 7.194 14.388 0 0 0
649 4 28.776 3.597 7.194 0 0 0
3202 4 7.194 19.7835 1.7985 0 0 0
3670 4 3.597 23.3805 26.9775 0 0 0
2222 4 14.388 1.7985 19.7835 0 0 0
1787 4 19.7835 32.373 23.3805 0 0 0
397 4 32.373 14.388 32.373 0 0 0
695 4 26.9775 7.194 12.5895 0 0 0
3771 4 1.7985 32.373 8.9925 0 0 0
2589 4 14.388 32.373 25.179 0 0 0
462 4 32.373 23.3805 19.7835 0 0 0
119 4 34.1715 17.985 34.1715 0 0 0
1417 4 21.582 0.0 14.388 0 0 0
2047 4 16.1865 21.582 5.3955 0 0 0
2539 4 12.5895 28.776 16.1865 0 0 0
3119 4 5.3955 7.194 34.1715 0 0 0
3242 4 7.194 23.3805 1.7985 0 0 0
1691 4 19.7835 25.179 8.9925 0 0 0
82 4 34.1715 16.1865 0.0 0 0 0
1463 4 19.7835 3.597 19.7835 0 0 0
385 4 32.373 14.388 21.582 0 0 0
413 4 32.373 17.985 10.791 0 0 0
1276 4 23.3805 23.3805 28.776 0 0 0
2406 4 14.388 19.7835 5.3955 0 0 0
1181 4 25.179 14.388 17.985 0 0 0
1079 4 23.3805 3.597 34.1715 0 0 0
1765 4 21.582 32.373 3.597 0 0 0
201 4 32.373 0.0 0.0 0 0 0
1051 4 23.3805 3.597 8.9925 0 0 0
2921 4 10.791 28.776 0.0 0 0 0
3926 4 0.0 23.3805 8.9925 0 0 0
2991 4 8.9925 32.373 26.9775 0 0 0
1781 4 21.582 32.373 17.985 0 0 0
3688 4 1.7985 26.9775 3.597 0 0 0
518 4 32.373 26.9775 34.1715 0 0 0
2265 4 14.388 3.597 21.582 0 0 0
3703 4 1.7985 25.179 19.7835 0 0 0
740 4 26.9775 12.5895 14.388 0 0 0
597 4 32.373 32.373 32.373 0 0 0
10 4 34.1715 1.7985 14.388 0 0 0
3149 4 7.194 10.791 25.179 0 0 0
1221 4 25.179 17.985 17.985 0 0 0
3722 4 3.597 30.5745 1.7985 0 0 0
3457 4 3.597 3.597 14.388 0 0 0
2225 4 14.388 0.0 21.582 0 0 0
945 4 28.776 28.776 21.582 0 0 0
1739 4 19.7835 28.776 16.1865 0 0 0
887 4 26.9775 25.179 5.3955 0 0 0
1252 4 23.3805 23.3805 7.194 0 0 0
1533 4 21.582 10.791 10.791 0 0 0
816 4 26.9775 19.7835 10.791 0 0 0
1738 4 21.582 30.5745 16.1865 0 0 0
2220 4 12.5895 1.7985 14.388 0 0 0
2499 4 12.5895 25.179 16.1865 0 0 0
1371 4 23.3805 32.373 8.9925 0 0 0
1793 4 21.582 32.373 28.776 0 0 0
507 4 30.5745 25.179 23.3805 0 0 0
966 4 28.776 34.1715 5.3955 0 0 0
3314 4 7.194 26.9775 30.5745 0 0 0
1247 4 23.3805 21.582 5.3955 0 0 0
2574 4 14.388 34.1715 12.5895 0 0 0
2533 4 14.388 28.776 10.791 0 0 0
1117 4 25.179 7.194 32.373 0 0 0
1368 4 23.3805 34.1715 3.597 0 0 0
3857 4 0.0 7.194 28.776 0 0 0
198 4 34.1715 34.1715 28.776 0 0 0
3964 4 0.0 30.5745 5.3955 0 0 0
3297 4 7.194 25.179 14.388 0 0 0
1874 4 17.985 5.3955 30.5745 0 0 0
105 4 34.1715 17.985 8.9925 0 0 0
1348 4 23.3805 30.5745 21.582 0 0 0
3693 4 3.597 25.179 10.791 0 0 0
1127 4 23.3805 10.791 5.3955 0 0 0
3744 4 1.7985 30.5745 17.985 0 0 0
3049 4 7.194 3.597 7.194 0 0 0
3564 4 1.7985 16.1865 0.0 0 0 0
3428 4 1.7985 1.7985 21.582 0 0 0
3353 4 7.194 28.776 28.776 0 0 0
207 4 30.5745 0.0 5.3955 0 0 0
717 4 28.776 7.194 32.373 0 0 0
905 4 28.776 25.179 21.582 0 0 0
3035 4 5.3955 0.0 30.5745 0 0 0
958 4 28.776 30.5745 34.1715 0 0 0
2600 4 12.5895 34.1715 32.373 0 0 0
1182 4 25.179 16.1865 19.7835 0 0 0
2934 4 10.791 30.5745 12.5895 0 0 0
3209 4 7.194 17.985 7.194 0 0 0
1087 4 23.3805 7.194 5.3955 0 0 0
566 4 32.373 34.1715 5.3955 0 0 0
2424 4 12.5895 19.7835 17.985 0 0 0
1097 4 25.179 7.194 14.388 0 0 0
2393 4 14.388 14.388 28.776 0 0 0
2153 4 17.985 28.776 28.776 0 0 0
3951 4 0.0 25.179 17.985 0 0 0
680 4 26.9775 5.3955 32.373 0 0 0
2172 4 16.1865 34.1715 7.194 0 0 0
857 4 28.776 21.582 14.388 0 0 0
3086 4 7.194 8.9925 5.3955 0 0 0
216 4 30.5745 1.7985 10.791 0 0 0
2682 4 10.791 8.9925 1.7985 0 0 0
3451 4 1.7985 3.597 8.9925 0 0 0
2088 4 16.1865 26.9775 3.597 0 0 0
400 4 30.5745 16.1865 32.373 0 0 0
3875 4 0.0 10.791 25.179 0 0 0
399 4 30.5745 14.388 34.1715 0 0 0
607 4 26.9775 0.0 5.3955 0 0 0
3569 4 3.597 14.388 7.194 0 0 0
2227 4 12.5895 0.0 23.3805 0 0 0
2482 4 14.388 26.9775 1.7985 0 0 0
1261 4 25.179 21.582 17.985 0 0 0
188 4 34.1715 34.1715 10.791 0 0 0
1994 4 17.985 16.1865 30.5745 0 0 0
1099 4 23.3805 7.194 16.1865 0 0 0
938 4 28.776 30.5745 16.1865 0 0 0
2811 4 8.9925 17.985 8.9925 0 0 0
181 4 34.1715 32.373 1.7985 0 0 0
3895 4 0.0 14.388 25.179 0 0 0
1690 4 21.582 26.9775 8.9925 0 0 0
3533 4 3.597 10.791 10.791 0 0 0
2602 4 10.791 1.7985 1.7985 0 0 0
1882 4 17.985 8.9925 1.7985 0 0 0
1554 4 21.582 12.5895 30.5745 0 0 0
307 4 30.5745 7.194 23.3805 0 0 0
398 4 32.373 16.1865 34.1715 0 0 0
1021 4 25.179 0.0 17.985 0 0 0
1717 4 21.582 25.179 32.373 0 0 0
1040 4 23.3805 1.7985 32.373 0 0 0
3678 4 3.597 23.3805 34.1715 0 0 0
2182 4 17.985 34.1715 19.7835 0 0 0
338 4 32.373 12.5895 16.1865 0 0 0
2813 4 10.791 17.985 10.791 0 0 0
1453 4 21.582 3.597 10.791 0 0 0
3939 4 0.0 21.582 32.373 0 0 0
455 4 30.5745 21.582 12.5895 0 0 0
2435 4 12.5895 17.985 30.5745 0 0 0
801 4 28.776 17.985 0.0 0 0 0
1105 4 25.179 7.194 21.582 0 0 0
858 4 28.776 23.3805 16.1865 0 0 0
3332 4 5.3955 30.5745 7.194 0 0 0
1912 4 16.1865 8.9925 25.179 0 0 0
3322 4 7.194 30.5745 1.7985 0 0 0
3947 4 0.0 25.179 10.791 0 0 0
2440 4 12.5895 19.7835 32.373 0 0 0
42 4 34.1715 8.9925 0.0 0 0 0
970 4 28.776 34.1715 8.9925 0 0 0
1976 4 16.1865 16.1865 10.791 0 0 0
3790 4 3.597 34.1715 26.9775 0 0 0
3380 4 5.3955 34.1715 14.388 0 0 0
2112 4 16.1865 26.9775 25.179 0 0 0
800 4 26.9775 16.1865 32.373 0 0 0
1336 4 23.3805 30.5745 10.791 0 0 0
2806 4 10.791 19.7835 5.3955 0 0 0
842 4 28.776 23.3805 1.7985 0 0 0
1758 4 21.582 30.5745 34.1715 0 0 0
3666 4 3.597 23.3805 23.3805 0 0 0
496 4 30.5745 26.9775 10.791 0 0 0
2419 4 12.5895 17.985 16.1865 0 0 0
2321 4 14.388 10.791 0.0 0 0 0
2237 4 14.388 0.0 32.373 0 0 0
1923 4 16.1865 10.791 1.7985 0 0 0
439 4 30.5745 17.985 34.1715 0 0 0
1474 4 21.582 5.3955 30.5745 0 0 0
1633 4 21.582 17.985 28.776 0 0 0
2563 4 12.5895 32.373 1.7985 0 0 0
2625 4 10.791 0.0 21.582 0 0 0
80 4 34.1715 12.5895 32.373 0 0 0
499 4 30.5745 25.179 16.1865 0 0 0
2554 4 14.388 30.5745 30.5745 0 0 0
1178 4 25.179 16.1865 16.1865 0 0 0
1258 4 25.179 23.3805 16.1865 0 0 0
3980 4 0.0 30.5745 34.1715 0 0 0
1357 4 25.179 28.776 32.373 0 0 0
3193 4 7.194 14.388 28.776 0 0 0
1601 4 21.582 17.985 0.0 0 0 0
2280 4 12.5895 5.3955 32.373 0 0 0
3509 4 3.597 7.194 25.179 0 0 0
1940 4 16.1865 12.5895 14.388 0 0 0
3412 4 1.7985 1.7985 7.194 0 0 0
464 4 30.5745 23.3805 17.985 0 0 0
442 4 32.373 23.3805 1.7985 0 0 0
2218 4 14.388 1.7985 16.1865 0 0 0
3679 4 1.7985 21.582 34.1715 0 0 0
3941 4 0.0 25.179 0.0 0 0 0
262 4 32.373 5.3955 19.7835 0 0 0
1415 4 19.7835 0.0 12.5895 0 0 0
2882 4 10.791 26.9775 1.7985 0 0 0
2942 4 10.791 30.5745 19.7835 0 0 0
167 4 34.1715 28.776 12.5895 0 0 0
1380 4 23.3805 34.1715 14.388 0 0 0
1595 4 19.7835 14.388 30.5745 0 0 0
2433 4 14.388 17.985 28.776 0 0 0
473 4 32.373 21.582 28.776 0 0 0
3198 4 7.194 16.1865 34.1715 0 0 0
2988 4 8.9925 34.1715 21.582 0 0 0
1493 4 21.582 7.194 10.791 0 0 0
1559 4 19.7835 10.791 34.1715 0 0 0
721 4 28.776 10.791 0.0 0 0 0
2121 4 17.985 28.776 0.0 0 0 0
1199 4 23.3805 14.388 34.1715 0 0 0
1317 4 25.179 25.179 32.373 0 0 0
892 4 26.9775 26.9775 7.194 0 0 0
3406 4 3.597 1.7985 5.3955 0 0 0
528 4 30.5745 30.5745 3.597 0 0 0
3154 4 7.194 12.5895 30.5745 0 0 0
3026 4 7.194 1.7985 23.3805 0 0 0
648 4 26.9775 5.3955 3.597 0 0 0
3786 4 3.597 34.1715 23.3805 0 0 0
1724 4 19.7835 30.5745 0.0 0 0 0
556 4 30.5745 30.5745 28.776 0 0 0
1676 4 19.7835 23.3805 28.776 0 0 0
484 4 30.5745 26.9775 0.0 0 0 0
3374 4 7.194 34.1715 12.5895 0 0 0
3000 4 8.9925 34.1715 32.373 0 0 0
1579 4 19.7835 14.388 16.1865 0 0 0
2629 4 10.791 0.0 25.179 0 0 0
1974 4 17.985 16.1865 12.5895 0 0 0
1872 4 16.1865 5.3955 25.179 0 0 0
1708 4 19.7835 26.9775 21.582 0 0 0
3591 4 1.7985 14.388 26.9775 0 0 0
1937 4 17.985 10.791 14.388 0 0 0
893 4 28.776 25.179 10.791 0 0 0
3393 4 7.194 32.373 28.776 0 0 0
3399 4 5.3955 32.373 34.1715 0 0 0
1315 4 23.3805 25.179 30.5745 0 0 0
3053 4 7.194 3.597 10.791 0 0 0
3365 4 7.194 32.373 3.597 0 0 0
1096 4 23.3805 8.9925 10.791 0 0 0
3458 4 3.597 5.3955 16.1865 0 0 0
2101 4 17.985 25.179 17.985 0 0 0
2428 4 12.5895 19.7835 21.582 0 0 0
1953 4 17.985 10.791 28.776 0 0 0
818 4 28.776 19.7835 16.1865 0 0 0
287 4 30.5745 7.194 5.3955 0 0 0
163 4 34.1715 28.776 5.3955 0 0 0
2242 4 14.388 5.3955 1.7985 0 0 0
1495 4 19.7835 7.194 12.5895 0 0 0
1452 4 19.7835 5.3955 7.194 0 0 0
1644 4 19.7835 23.3805 0.0 0 0 0
2202 4 14.388 1.7985 1.7985 0 0 0
1955 4 16.1865 10.791 30.5745 0 0 0
3001 4 7.194 0.0 0.0 0 0 0
1831 4 16.1865 0.0 26.9775 0 0 0
3361 4 7.194 32.373 0.0 0 0 0
2593 4 14.388 32.373 28.776 0 0 0
46 4 34.1715 8.9925 7.194 0 0 0
390 4 32.373 16.1865 26.9775 0 0 0
3283 4 5.3955 25.179 1.7985 0 0 0
98 4 34.1715 16.1865 28.776 0 0 0
193 4 34.1715 32.373 23.3805 0 0 0
2480 4 12.5895 23.3805 32.373 0 0 0
2476 4 12.5895 23.3805 28.776 0 0 0
530 4 32.373 30.5745 8.9925 0 0 0
3364 4 5.3955 34.1715 0.0 0 0 0
2425 4 14.388 17.985 21.582 0 0 0
881 4 28.776 25.179 0.0 0 0 0
1104 4 23.3805 8.9925 17.985 0 0 0
3707 4 1.7985 25.179 23.3805 0 0 0
3993 4 0.0 32.373 21.582 0 0 0
2017 4 17.985 17.985 14.388 0 0 0
2213 4 14.388 0.0 10.791 0 0 0
2341 4 14.388 10.791 17.985 0 0 0
1414 4 21.582 1.7985 12.5895 0 0 0
2782 4 10.791 16.1865 19.7835 0 0 0
1742 4 21.582 30.5745 19.7835 0 0 0
160 4 34.1715 26.9775 32.373 0 0 0
2437 4 14.388 17.985 32.373 0 0 0
623 4 26.9775 0.0 19.7835 0 0 0
2575 4 12.5895 32.373 12.5895 0 0 0
313 4 32.373 7.194 28.776 0 0 0
261 4 32.373 3.597 17.985 0 0 0
2975 4 8.9925 32.373 12.5895 0 0 0
1771 4 19.7835 32.373 8.9925 0 0 0
322 4 32.373 12.5895 1.7985 0 0 0
866 4 28.776 23.3805 23.3805 0 0 0
2700 4 8.9925 8.9925 14.388 0 0 0
2 5 34.1715 1.7985 0.0 0 0 0
8 5 34.1715 1.7985 10.791 0 0 0
9 5 34.1715 0.0 16.1865 0 0 0
16 5 34.1715 1.7985 25.179 0 0 0
35 5 34.1715 3.597 26.9775 0 0 0
39 5 34.1715 3.597 34.1715 0 0 0
47 5 34.1715 7.194 12.5895 0 0 0
51 5 34.1715 7.194 19.7835 0 0 0
59 5 34.1715 7.194 34.1715 0 0 0
60 5 34.1715 8.9925 32.373 0 0 0
66 5 34.1715 12.5895 7.194 0 0 0
76 5 34.1715 12.5895 25.179 0 0 0
83 5 34.1715 14.388 5.3955 0 0 0
89 5 34.1715 14.388 16.1865 0 0 0
91 5 34.1715 14.388 19.7835 0 0 0
97 5 34.1715 14.388 30.5745 0 0 0
106 5 34.1715 19.7835 7.194 0 0 0
123 5 34.1715 21.582 5.3955 0 0 0
128 5 34.1715 23.3805 10.791 0 0 0
131 5 34.1715 21.582 19.7835 0 0 0
141 5 34.1715 25.179 1.7985 0 0 0
143 5 34.1715 25.179 5.3955 0 0 0
146 5 34.1715 26.9775 7.194 0 0 0
157 5 34.1715 25.179 30.5745 0 0 0
159 5 34.1715 25.179 34.1715 0 0 0
162 5 34.1715 30.5745 0.0 0 0 0
164 5 34.1715 30.5745 3.597 0 0 0
165 5 34.1715 28.776 8.9925 0 0 0
166 5 34.1715 30.5745 7.194 0 0 0
178 5 34.1715 30.5745 28.776 0 0 0
182 5 34.1715 34.1715 0.0 0 0 0
191 5 34.1715 32.373 19.7835 0 0 0
192 5 34.1715 34.1715 17.985 0 0 0
202 5 32.373 1.7985 1.7985 0 0 0
210 5 32.373 1.7985 8.9925 0 0 0
213 5 32.373 0.0 10.791 0 0 0
218 5 32.373 1.7985 16.1865 0 0 0
221 5 32.373 0.0 17.985 0 0 0
234 5 32.373 1.7985 30.5745 0 0 0
239 5 30.5745 0.0 34.1715 0 0 0
240 5 30.5745 1.7985 32.373 0 0 0
242 5 32.373 5.3955 1.7985 0 0 0
246 5 32.373 5.3955 5.3955 0 0 0
253 5 32.373 3.597 10.791 0 0 0
257 5 32.373 3.597 14.388 0 0 0
264 5 30.5745 5.3955 17.985 0 0 0
278 5 32.373 5.3955 34.1715 0 0 0
281 5 32.373 7.194 0.0 0 0 0
284 5 30.5745 8.9925 0.0 0 0 0
290 5 32.373 8.9925 8.9925 0 0 0
291 5 30.5745 7.194 8.9925 0 0 0
293 5 32.373 7.194 10.791 0 0 0
295 5 30.5745 7.194 12.5895 0 0 0
296 5 30.5745 8.9925 10.791 0 0 0
306 5 32.373 8.9925 23.3805 0 0 0
310 5 32.373 8.9925 26.9775 0 0 0
311 5 30.5745 7.194 26.9775 0 0 0
315 5 30.5745 7.194 30.5745 0 0 0
320 5 30.5745 8.9925 32.373 0 0 0
324 5 30.5745 12.5895 0.0 0 0 0
327 5 30.5745 10.791 5.3955 0 0 0
337 5 32.373 10.791 14.388 0 0 0
342 5 32.373 12.5895 19.7835 0 0 0
343 5 30.5745 10.791 19.7835 0 0 0
346 5 32.373 12.5895 23.3805 0 0 0
350 5 32.373 12.5895 26.9775 0 0 0
351 5 30.5745 10.791 26.9775 0 0 0
357 5 32.373 10.791 32.373 0 0 0
367 5 30.5745 14.388 5.3955 0 0 0
368 5 30.5745 16.1865 3.597 0 0 0
380 5 30.5745 16.1865 14.388 0 0 0
387 5 30.5745 14.388 23.3805 0 0 0
396 5 30.5745 16.1865 28.776 0 0 0
401 5 32.373 17.985 0.0 0 0 0
410 5 32.373 19.7835 8.9925 0 0 0
452 5 30.5745 23.3805 7.194 0 0 0
454 5 32.373 23.3805 12.5895 0 0 0
459 5 30.5745 21.582 16.1865 0 0 0
461 5 32.373 21.582 17.985 0 0 0
469 5 32.373 21.582 25.179 0 0 0
474 5 32.373 23.3805 30.5745 0 0 0
487 5 30.5745 25.179 5.3955 0 0 0
492 5 30.5745 26.9775 7.194 0 0 0
497 5 32.373 25.179 14.388 0 0 0
502 5 32.373 26.9775 19.7835 0 0 0
506 5 32.373 26.9775 23.3805 0 0 0
511 5 30.5745 25.179 26.9775 0 0 0
514 5 32.373 26.9775 30.5745 0 0 0
516 5 30.5745 26.9775 28.776 0 0 0
534 5 32.373 30.5745 12.5895 0 0 0
545 5 32.373 28.776 21.582 0 0 0
546 5 32.373 30.5745 23.3805 0 0 0
548 5 30.5745 30.5745 21.582 0 0 0
549 5 32.373 28.776 25.179 0 0 0
555 5 30.5745 28.776 30.5745 0 0 0
568 5 30.5745 34.1715 3.597 0 0 0
570 5 32.373 34.1715 8.9925 0 0 0
580 5 30.5745 34.1715 14.388 0 0 0
581 5 32.373 32.373 17.985 0 0 0
586 5 32.373 34.1715 23.3805 0 0 0
587 5 30.5745 32.373 23.3805 0 0 0
591 5 30.5745 32.373 26.9775 0 0 0
600 5 30.5745 34.1715 32.373 0 0 0
602 5 28.776 1.7985 1.7985 0 0 0
604 5 26.9775 1.7985 0.0 0 0 0
611 5 26.9775 0.0 8.9925 0 0 0
612 5 26.9775 1.7985 7.194 0 0 0
613 5 28.776 0.0 10.791 0 0 0
614 5 28.776 1.7985 12.5895 0 0 0
615 5 26.9775 0.0 12.5895 0 0 0
616 5 26.9775 1.7985 10.791 0 0 0
617 5 28.776 0.0 14.388 0 0 0
625 5 28.776 0.0 21.582 0 0 0
630 5 28.776 1.7985 26.9775 0 0 0
638 5 28.776 1.7985 34.1715 0 0 0
640 5 26.9775 1.7985 32.373 0 0 0
652 5 26.9775 5.3955 7.194 0 0 0
653 5 28.776 3.597 10.791 0 0 0
655 5 26.9775 3.597 12.5895 0 0 0
656 5 26.9775 5.3955 10.791 0 0 0
663 5 26.9775 3.597 19.7835 0 0 0
671 5 26.9775 3.597 26.9775 0 0 0
683 5 26.9775 7.194 1.7985 0 0 0
694 5 28.776 8.9925 12.5895 0 0 0
701 5 28.776 7.194 17.985 0 0 0
702 5 28.776 8.9925 19.7835 0 0 0
709 5 28.776 7.194 25.179 0 0 0
712 5 26.9775 8.9925 25.179 0 0 0
714 5 28.776 8.9925 30.5745 0 0 0
716 5 26.9775 8.9925 28.776 0 0 0
720 5 26.9775 8.9925 32.373 0 0 0
723 5 26.9775 10.791 1.7985 0 0 0
725 5 28.776 10.791 3.597 0 0 0
729 5 28.776 10.791 7.194 0 0 0
734 5 28.776 12.5895 12.5895 0 0 0
737 5 28.776 10.791 14.388 0 0 0
742 5 28.776 12.5895 19.7835 0 0 0
763 5 26.9775 14.388 1.7985 0 0 0
769 5 28.776 14.388 7.194 0 0 0
770 5 28.776 16.1865 8.9925 0 0 0
775 5 26.9775 14.388 12.5895 0 0 0
780 5 26.9775 16.1865 14.388 0 0 0
789 5 28.776 14.388 25.179 0 0 0
793 5 28.776 14.388 28.776 0 0 0
830 5 28.776 19.7835 26.9775 0 0 0
837 5 28.776 17.985 32.373 0 0 0
839 5 26.9775 17.985 34.1715 0 0 0
847 5 26.9775 21.582 5.3955 0 0 0
850 5 28.776 23.3805 8.9925 0 0 0
851 5 26.9775 21.582 8.9925 0 0 0
861 5 28.776 21.582 17.985 0 0 0
870 5 28.776 23.3805 26.9775 0 0 0
874 5 28.776 23.3805 30.5745 0 0 0
876 5 26.9775 23.3805 28.776 0 0 0
890 5 28.776 26.9775 8.9925 0 0 0
906 5 28.776 26.9775 23.3805 0 0 0
908 5 26.9775 26.9775 21.582 0 0 0
910 5 28.776 26.9775 26.9775 0 0 0
911 5 26.9775 25.179 26.9775 0 0 0
929 5 28.776 28.776 7.194 0 0 0
932 5 26.9775 30.5745 7.194 0 0 0
933 5 28.776 28.776 10.791 0 0 0
934 5 28.776 30.5745 12.5895 0 0 0
937 5 28.776 28.776 14.388 0 0 0
947 5 26.9775 28.776 23.3805 0 0 0
968 5 26.9775 34.1715 3.597 0 0 0
976 5 26.9775 34.1715 10.791 0 0 0
983 5 26.9775 32.373 19.7835 0 0 0
986 5 28.776 34.1715 23.3805 0 0 0
990 5 28.776 34.1715 26.9775 0 0 0
991 5 26.9775 32.373 26.9775 0 0 0
992 5 26.9775 34.1715 25.179 0 0 0
998 5 28.776 34.1715 34.1715 0 0 0
999 5 26.9775 32.373 34.1715 0 0 0
1009 5 25.179 0.0 7.194 0 0 0
1019 5 23.3805 0.0 16.1865 0 0 0
1022 5 25.179 1.7985 19.7835 0 0 0
1025 5 25.179 0.0 21.582 0 0 0
1042 5 25.179 5.3955 1.7985 0 0 0
1053 5 25.179 3.597 10.791 0 0 0
1055 5 23.3805 3.597 12.5895 0 0 0
1059 5 23.3805 3.597 16.1865 0 0 0
1060 5 23.3805 5.3955 14.388 0 0 0
1073 5 25.179 3.597 28.776 0 0 0
1080 5 23.3805 5.3955 32.373 0 0 0
1083 5 23.3805 7.194 1.7985 0 0 0
1086 5 25.179 8.9925 5.3955 0 0 0
1091 5 23.3805 7.194 8.9925 0 0 0
1106 5 25.179 8.9925 23.3805 0 0 0
1110 5 25.179 8.9925 26.9775 0 0 0
1116 5 23.3805 8.9925 28.776 0 0 0
1122 5 25.179 12.5895 1.7985 0 0 0
1123 5 23.3805 10.791 1.7985 0 0 0
1145 5 25.179 10.791 21.582 0 0 0
1147 5 23.3805 10.791 23.3805 0 0 0
1150 5 25.179 12.5895 26.9775 0 0 0
1165 5 25.179 14.388 3.597 0 0 0
1171 5 23.3805 14.388 8.9925 0 0 0
1173 5 25.179 14.388 10.791 0 0 0
1183 5 23.3805 14.388 19.7835 0 0 0
1185 5 25.179 14.388 21.582 0 0 0
1203 5 23.3805 17.985 1.7985 0 0 0
1214 5 25.179 19.7835 12.5895 0 0 0
1215 5 23.3805 17.985 12.5895 0 0 0
1231 5 23.3805 17.985 26.9775 0 0 0
1234 5 25.179 19.7835 30.5745 0 0 0
1238 5 25.179 19.7835 34.1715 0 0 0
1242 5 25.179 23.3805 1.7985 0 0 0
1248 5 23.3805 23.3805 3.597 0 0 0
1251 5 23.3805 21.582 8.9925 0 0 0
1254 5 25.179 23.3805 12.5895 0 0 0
1264 5 23.3805 23.3805 17.985 0 0 0
1265 5 25.179 21.582 21.582 0 0 0
1266 5 25.179 23.3805 23.3805 0 0 0
1280 5 23.3805 23.3805 32.373 0 0 0
1281 5 25.179 25.179 0.0 0 0 0
1283 5 23.3805 25.179 1.7985 0 0 0
1286 5 25.179 26.9775 5.3955 0 0 0
1294 5 25.179 26.9775 12.5895 0 0 0
1296 5 23.3805 26.9775 10.791 0 0 0
1299 5 23.3805 25.179 16.1865 0 0 0
1308 5 23.3805 26.9775 21.582 0 0 0
1310 5 25.179 26.9775 26.9775 0 0 0
1311 5 23.3805 25.179 26.9775 0 0 0
1313 5 25.179 25.179 28.776 0 0 0
1319 5 23.3805 25.179 34.1715 0 0 0
1333 5 25.179 28.776 10.791 0 0 0
1340 5 23.3805 30.5745 14.388 0 0 0
1342 5 25.179 30.5745 19.7835 0 0 0
1344 5 23.3805 30.5745 17.985 0 0 0
1349 5 25.179 28.776 25.179 0 0 0
1353 5 25.179 28.776 28.776 0 0 0
1360 5 23.3805 30.5745 32.373 0 0 0
1365 5 25.179 32.373 3.597 0 0 0
1366 5 25.179 34.1715 5.3955 0 0 0
1375 5 23.3805 32.373 12.5895 0 0 0
1376 5 23.3805 34.1715 10.791 0 0 0
1377 5 25.179 32.373 14.388 0 0 0
1385 5 25.179 32.373 21.582 0 0 0
1390 5 25.179 34.1715 26.9775 0 0 0
1395 5 23.3805 32.373 30.5745 0 0 0
1400 5 23.3805 34.1715 32.373 0 0 0
1402 5 21.582 1.7985 1.7985 0 0 0
1419 5 19.7835 0.0 16.1865 0 0 0
1424 5 19.7835 1.7985 17.985 0 0 0
1426 5 21.582 1.7985 23.3805 0 0 0
1427 5 19.7835 0.0 23.3805 0 0 0
1428 5 19.7835 1.7985 21.582 0 0 0
1436 5 19.7835 1.7985 28.776 0 0 0
1438 5 21.582 1.7985 34.1715 0 0 0
1450 5 21.582 5.3955 8.9925 0 0 0
1465 5 21.582 3.597 21.582 0 0 0
1468 5 19.7835 5.3955 21.582 0 0 0
1473 5 21.582 3.597 28.776 0 0 0
1480 5 19.7835 5.3955 32.373 0 0 0
1481 5 21.582 7.194 0.0 0 0 0
1486 5 21.582 8.9925 5.3955 0 0 0
1492 5 19.7835 8.9925 7.194 0 0 0
1497 5 21.582 7.194 14.388 0 0 0
1499 5 19.7835 7.194 16.1865 0 0 0
1500 5 19.7835 8.9925 14.388 0 0 0
1504 5 19.7835 8.9925 17.985 0 0 0
1508 5 19.7835 8.9925 21.582 0 0 0
1511 5 19.7835 7.194 26.9775 0 0 0
1513 5 21.582 7.194 28.776 0 0 0
1518 5 21.582 8.9925 34.1715 0 0 0
1520 5 19.7835 8.9925 32.373 0 0 0
1526 5 21.582 12.5895 5.3955 0 0 0
1536 5 19.7835 12.5895 10.791 0 0 0
1537 5 21.582 10.791 14.388 0 0 0
1543 5 19.7835 10.791 19.7835 0 0 0
1546 5 21.582 12.5895 23.3805 0 0 0
1549 5 21.582 10.791 25.179 0 0 0
1557 5 21.582 10.791 32.373 0 0 0
1562 5 21.582 16.1865 1.7985 0 0 0
1566 5 21.582 16.1865 5.3955 0 0 0
1568 5 19.7835 16.1865 3.597 0 0 0
1573 5 21.582 14.388 10.791 0 0 0
1586 5 21.582 16.1865 23.3805 0 0 0
1588 5 19.7835 16.1865 21.582 0 0 0
1597 5 21.582 14.388 32.373 0 0 0
1607 5 19.7835 17.985 5.3955 0 0 0
1612 5 19.7835 19.7835 7.194 0 0 0
1613 5 21.582 17.985 10.791 0 0 0
1628 5 19.7835 19.7835 21.582 0 0 0
1630 5 21.582 19.7835 26.9775 0 0 0
1636 5 19.7835 19.7835 28.776 0 0 0
1641 5 21.582 21.582 0.0 0 0 0
1646 5 21.582 23.3805 5.3955 0 0 0
1649 5 21.582 21.582 7.194 0 0 0
1650 5 21.582 23.3805 8.9925 0 0 0
1653 5 21.582 21.582 10.791 0 0 0
1658 5 21.582 23.3805 16.1865 0 0 0
1670 5 21.582 23.3805 26.9775 0 0 0
1674 5 21.582 23.3805 30.5745 0 0 0
1678 5 21.582 23.3805 34.1715 0 0 0
1681 5 21.582 25.179 0.0 0 0 0
1683 5 19.7835 25.179 1.7985 0 0 0
1687 5 19.7835 25.179 5.3955 0 0 0
1692 5 19.7835 26.9775 7.194 0 0 0
1697 5 21.582 25.179 14.388 0 0 0
1699 5 19.7835 25.179 16.1865 0 0 0
1710 5 21.582 26.9775 26.9775 0 0 0
1719 5 19.7835 25.179 34.1715 0 0 0
1723 5 19.7835 28.776 1.7985 0 0 0
1726 5 21.582 30.5745 5.3955 0 0 0
1727 5 19.7835 28.776 5.3955 0 0 0
1728 5 19.7835 30.5745 3.597 0 0 0
1730 5 21.582 30.5745 8.9925 0 0 0
1735 5 19.7835 28.776 12.5895 0 0 0
1744 5 19.7835 30.5745 17.985 0 0 0
1746 5 21.582 30.5745 23.3805 0 0 0
1748 5 19.7835 30.5745 21.582 0 0 0
1749 5 21.582 28.776 25.179 0 0 0
1755 5 19.7835 28.776 30.5745 0 0 0
1770 5 21.582 34.1715 8.9925 0 0 0
1772 5 19.7835 34.1715 7.194 0 0 0
1788 5 19.7835 34.1715 21.582 0 0 0
1798 5 21.582 34.1715 34.1715 0 0 0
1802 5 17.985 1.7985 1.7985 0 0 0
1809 5 17.985 0.0 7.194 0 0 0
1823 5 16.1865 0.0 19.7835 0 0 0
1830 5 17.985 1.7985 26.9775 0 0 0
1835 5 16.1865 0.0 30.5745 0 0 0
1840 5 16.1865 1.7985 32.373 0 0 0
1841 5 17.985 3.597 0.0 0 0 0
1845 5 17.985 3.597 3.597 0 0 0
1846 5 17.985 5.3955 5.3955 0 0 0
1855 5 16.1865 3.597 12.5895 0 0 0
1859 5 16.1865 3.597 16.1865 0 0 0
1860 5 16.1865 5.3955 14.388 0 0 0
1862 5 17.985 5.3955 19.7835 0 0 0
1865 5 17.985 3.597 21.582 0 0 0
1868 5 16.1865 5.3955 21.582 0 0 0
1875 5 16.1865 3.597 30.5745 0 0 0
1877 5 17.985 3.597 32.373 0 0 0
1879 5 16.1865 3.597 34.1715 0 0 0
1890 5 17.985 8.9925 8.9925 0 0 0
1893 5 17.985 7.194 10.791 0 0 0
1901 5 17.985 7.194 17.985 0 0 0
1920 5 16.1865 8.9925 32.373 0 0 0
1924 5 16.1865 12.5895 0.0 0 0 0
1932 5 16.1865 12.5895 7.194 0 0 0
1935 5 16.1865 10.791 12.5895 0 0 0
1942 5 17.985 12.5895 19.7835 0 0 0
1943 5 16.1865 10.791 19.7835 0 0 0
1948 5 16.1865 12.5895 21.582 0 0 0
1950 5 17.985 12.5895 26.9775 0 0 0
1951 5 16.1865 10.791 26.9775 0 0 0
1968 5 16.1865 16.1865 3.597 0 0 0
1970 5 17.985 16.1865 8.9925 0 0 0
1983 5 16.1865 14.388 19.7835 0 0 0
2002 5 17.985 19.7835 1.7985 0 0 0
2003 5 16.1865 17.985 1.7985 0 0 0
2007 5 16.1865 17.985 5.3955 0 0 0
2011 5 16.1865 17.985 8.9925 0 0 0
2016 5 16.1865 19.7835 10.791 0 0 0
2020 5 16.1865 19.7835 14.388 0 0 0
2034 5 17.985 19.7835 30.5745 0 0 0
2043 5 16.1865 21.582 1.7985 0 0 0
2044 5 16.1865 23.3805 0.0 0 0 0
2046 5 17.985 23.3805 5.3955 0 0 0
2052 5 16.1865 23.3805 7.194 0 0 0
2056 5 16.1865 23.3805 10.791 0 0 0
2063 5 16.1865 21.582 19.7835 0 0 0
2068 5 16.1865 23.3805 21.582 0 0 0
2071 5 16.1865 21.582 26.9775 0 0 0
2072 5 16.1865 23.3805 25.179 0 0 0
2075 5 16.1865 21.582 30.5745 0 0 0
2080 5 16.1865 23.3805 32.373 0 0 0
2085 5 17.985 25.179 3.597 0 0 0
2103 5 16.1865 25.179 19.7835 0 0 0
2104 5 16.1865 26.9775 17.985 0 0 0
2105 5 17.985 25.179 21.582 0 0 0
2107 5 16.1865 25.179 23.3805 0 0 0
2109 5 17.985 25.179 25.179 0 0 0
2117 5 17.985 25.179 32.373 0 0 0
2120 5 16.1865 26.9775 32.373 0 0 0
2123 5 16.1865 28.776 1.7985 0 0 0
2124 5 16.1865 30.5745 0.0 0 0 0
2125 5 17.985 28.776 3.597 0 0 0
2128 5 16.1865 30.5745 3.597 0 0 0
2130 5 17.985 30.5745 8.9925 0 0 0
2131 5 16.1865 28.776 8.9925 0 0 0
2136 5 16.1865 30.5745 10.791 0 0 0
2138 5 17.985 30.5745 16.1865 0 0 0
2141 5 17.985 28.776 17.985 0 0 0
2149 5 17.985 28.776 25.179 0 0 0
2150 5 17.985 30.5745 26.9775 0 0 0
2160 5 16.1865 30.5745 32.373 0 0 0
2163 5 16.1865 32.373 1.7985 0 0 0
2176 5 16.1865 34.1715 10.791 0 0 0
2187 5 16.1865 32.373 23.3805 0 0 0
2191 5 16.1865 32.373 26.9775 0 0 0
2196 5 16.1865 34.1715 28.776 0 0 0
2206 5 14.388 1.7985 5.3955 0 0 0
2208 5 12.5895 1.7985 3.597 0 0 0
2243 5 12.5895 3.597 1.7985 0 0 0
2248 5 12.5895 5.3955 3.597 0 0 0
2250 5 14.388 5.3955 8.9925 0 0 0
2253 5 14.388 3.597 10.791 0 0 0
2259 5 12.5895 3.597 16.1865 0 0 0
2262 5 14.388 5.3955 19.7835 0 0 0
2264 5 12.5895 5.3955 17.985 0 0 0
2269 5 14.388 3.597 25.179 0 0 0
2273 5 14.388 3.597 28.776 0 0 0
2276 5 12.5895 5.3955 28.776 0 0 0
2285 5 14.388 7.194 3.597 0 0 0
2286 5 14.388 8.9925 5.3955 0 0 0
2294 5 14.388 8.9925 12.5895 0 0 0
2297 5 14.388 7.194 14.388 0 0 0
2306 5 14.388 8.9925 23.3805 0 0 0
2311 5 12.5895 7.194 26.9775 0 0 0
2314 5 14.388 8.9925 30.5745 0 0 0
2326 5 14.388 12.5895 5.3955 0 0 0
2334 5 14.388 12.5895 12.5895 0 0 0
2338 5 14.388 12.5895 16.1865 0 0 0
2342 5 14.388 12.5895 19.7835 0 0 0
2343 5 12.5895 10.791 19.7835 0 0 0
2352 5 12.5895 12.5895 25.179 0 0 0
2357 5 14.388 10.791 32.373 0 0 0
2358 5 14.388 12.5895 34.1715 0 0 0
2359 5 12.5895 10.791 34.1715 0 0 0
2360 5 12.5895 12.5895 32.373 0 0 0
2370 5 14.388 16.1865 8.9925 0 0 0
2371 5 12.5895 14.388 8.9925 0 0 0
2373 5 14.388 14.388 10.791 0 0 0
2379 5 12.5895 14.388 16.1865 0 0 0
2382 5 14.388 16.1865 19.7835 0 0 0
2385 5 14.388 14.388 21.582 0 0 0
2414 5 14.388 19.7835 12.5895 0 0 0
2429 5 14.388 17.985 25.179 0 0 0
2438 5 14.388 19.7835 34.1715 0 0 0
2456 5 12.5895 23.3805 10.791 0 0 0
2464 5 12.5895 23.3805 17.985 0 0 0
2481 5 14.388 25.179 0.0 0 0 0
2496 5 12.5895 26.9775 10.791 0 0 0
2498 5 14.388 26.9775 16.1865 0 0 0
2501 5 14.388 25.179 17.985 0 0 0
2508 5 12.5895 26.9775 21.582 0 0 0
2510 5 14.388 26.9775 26.9775 0 0 0
2517 5 14.388 25.179 32.373 0 0 0
2536 5 12.5895 30.5745 10.791 0 0 0
2547 5 12.5895 28.776 23.3805 0 0 0
2549 5 14.388 28.776 25.179 0 0 0
2556 5 12.5895 30.5745 28.776 0 0 0
2561 5 14.388 32.373 0.0 0 0 0
2567 5 12.5895 32.373 5.3955 0 0 0
2576 5 12.5895 34.1715 10.791 0 0 0
2577 5 14.388 32.373 14.388 0 0 0
2582 5 14.388 34.1715 19.7835 0 0 0
2587 5 12.5895 32.373 23.3805 0 0 0
2596 5 12.5895 34.1715 28.776 0 0 0
2597 5 14.388 32.373 32.373 0 0 0
2599 5 12.5895 32.373 34.1715 0 0 0
2606 5 10.791 1.7985 5.3955 0 0 0
2626 5 10.791 1.7985 23.3805 0 0 0
2635 5 8.9925 0.0 30.5745 0 0 0
2638 5 10.791 1.7985 34.1715 0 0 0
2643 5 8.9925 3.597 1.7985 0 0 0
2645 5 10.791 3.597 3.597 0 0 0
2672 5 8.9925 5.3955 25.179 0 0 0
2685 5 10.791 7.194 3.597 0 0 0
2691 5 8.9925 7.194 8.9925 0 0 0
2695 5 8.9925 7.194 12.5895 0 0 0
2699 5 8.9925 7.194 16.1865 0 0 0
2705 5 10.791 7.194 21.582 0 0 0
2706 5 10.791 8.9925 23.3805 0 0 0
2711 5 8.9925 7.194 26.9775 0 0 0
2712 5 8.9925 8.9925 25.179 0 0 0
2726 5 10.791 12.5895 5.3955 0 0 0
2728 5 8.9925 12.5895 3.597 0 0 0
2741 5 10.791 10.791 17.985 0 0 0
2744 5 8.9925 12.5895 17.985 0 0 0
2747 5 8.9925 10.791 23.3805 0 0 0
2748 5 8.9925 12.5895 21.582 0 0 0
2765 5 10.791 14.388 3.597 0 0 0
2772 5 8.9925 16.1865 7.194 0 0 0
2775 5 8.9925 14.388 12.5895 0 0 0
2776 5 8.9925 16.1865 10.791 0 0 0
2785 5 10.791 14.388 21.582 0 0 0
2796 5 8.9925 16.1865 28.776 0 0 0
2801 5 10.791 17.985 0.0 0 0 0
2849 5 10.791 21.582 7.194 0 0 0
2851 5 8.9925 21.582 8.9925 0 0 0
2854 5 10.791 23.3805 12.5895 0 0 0
2855 5 8.9925 21.582 12.5895 0 0 0
2857 5 10.791 21.582 14.388 0 0 0
2860 5 8.9925 23.3805 14.388 0 0 0
2863 5 8.9925 21.582 19.7835 0 0 0
2880 5 8.9925 23.3805 32.373 0 0 0
2897 5 10.791 25.179 14.388 0 0 0
2904 5 8.9925 26.9775 17.985 0 0 0
2906 5 10.791 26.9775 23.3805 0 0 0
2910 5 10.791 26.9775 26.9775 0 0 0
2911 5 8.9925 25.179 26.9775 0 0 0
2914 5 10.791 26.9775 30.5745 0 0 0
2919 5 8.9925 25.179 34.1715 0 0 0
2930 5 10.791 30.5745 8.9925 0 0 0
2933 5 10.791 28.776 10.791 0 0 0
2943 5 8.9925 28.776 19.7835 0 0 0
2958 5 10.791 30.5745 34.1715 0 0 0
2962 5 10.791 34.1715 1.7985 0 0 0
2966 5 10.791 34.1715 5.3955 0 0 0
2971 5 8.9925 32.373 8.9925 0 0 0
2974 5 10.791 34.1715 12.5895 0 0 0
2978 5 10.791 34.1715 16.1865 0 0 0
2994 5 10.791 34.1715 30.5745 0 0 0
2996 5 8.9925 34.1715 28.776 0 0 0
2998 5 10.791 34.1715 34.1715 0 0 0
3005 5 7.194 0.0 3.597 0 0 0
3010 5 7.194 1.7985 8.9925 0 0 0
3023 5 5.3955 0.0 19.7835 0 0 0
3029 5 7.194 0.0 25.179 0 0 0
3034 5 7.194 1.7985 30.5745 0 0 0
3038 5 7.194 1.7985 34.1715 0 0 0
3042 5 7.194 5.3955 1.7985 0 0 0
3057 5 7.194 3.597 14.388 0 0 0
3067 5 5.3955 3.597 23.3805 0 0 0
3068 5 5.3955 5.3955 21.582 0 0 0
3079 5 5.3955 3.597 34.1715 0 0 0
3081 5 7.194 7.194 0.0 0 0 0
3090 5 7.194 8.9925 8.9925 0 0 0
3092 5 5.3955 8.9925 7.194 0 0 0
3103 5 5.3955 7.194 19.7835 0 0 0
3107 5 5.3955 7.194 23.3805 0 0 0
3112 5 5.3955 8.9925 25.179 0 0 0
3118 5 7.194 8.9925 34.1715 0 0 0
3120 5 5.3955 8.9925 32.373 0 0 0
3130 5 7.194 12.5895 8.9925 0 0 0
3132 5 5.3955 12.5895 7.194 0 0 0
3133 5 7.194 10.791 10.791 0 0 0
3140 5 5.3955 12.5895 14.388 0 0 0
3147 5 5.3955 10.791 23.3805 0 0 0
3155 5 5.3955 10.791 30.5745 0 0 0
3158 5 7.194 12.5895 34.1715 0 0 0
3163 5 5.3955 14.388 1.7985 0 0 0
3164 5 5.3955 16.1865 0.0 0 0 0
3166 5 7.194 16.1865 5.3955 0 0 0
3177 5 7.194 14.388 14.388 0 0 0
3181 5 7.194 14.388 17.985 0 0 0
3186 5 7.194 16.1865 23.3805 0 0 0
3187 5 5.3955 14.388 23.3805 0 0 0
3195 5 5.3955 14.388 30.5745 0 0 0
3197 5 7.194 14.388 32.373 0 0 0
3201 5 7.194 17.985 0.0 0 0 0
3203 5 5.3955 17.985 1.7985 0 0 0
3210 5 7.194 19.7835 8.9925 0 0 0
3215 5 5.3955 17.985 12.5895 0 0 0
3216 5 5.3955 19.7835 10.791 0 0 0
3226 5 7.194 19.7835 23.3805 0 0 0
3240 5 5.3955 19.7835 32.373 0 0 0
3254 5 7.194 23.3805 12.5895 0 0 0
3257 5 7.194 21.582 14.388 0 0 0
3264 5 5.3955 23.3805 17.985 0 0 0
3271 5 5.3955 21.582 26.9775 0 0 0
3273 5 7.194 21.582 28.776 0 0 0
3276 5 5.3955 23.3805 28.776 0 0 0
3281 5 7.194 25.179 0.0 0 0 0
3282 5 7.194 26.9775 1.7985 0 0 0
3287 5 5.3955 25.179 5.3955 0 0 0
3289 5 7.194 25.179 7.194 0 0 0
3292 5 5.3955 26.9775 7.194 0 0 0
3293 5 7.194 25.179 10.791 0 0 0
3299 5 5.3955 25.179 16.1865 0 0 0
3305 5 7.194 25.179 21.582 0 0 0
3327 5 5.3955 28.776 5.3955 0 0 0
3328 5 5.3955 30.5745 3.597 0 0 0
3329 5 7.194 28.776 7.194 0 0 0
3330 5 7.194 30.5745 8.9925 0 0 0
3368 5 5.3955 34.1715 3.597 0 0 0
3376 5 5.3955 34.1715 10.791 0 0 0
3381 5 7.194 32.373 17.985 0 0 0
3382 5 7.194 34.1715 19.7835 0 0 0
3387 5 5.3955 32.373 23.3805 0 0 0
3390 5 7.194 34.1715 26.9775 0 0 0
3391 5 5.3955 32.373 26.9775 0 0 0
3392 5 5.3955 34.1715 25.179 0 0 0
3405 5 3.597 0.0 3.597 0 0 0
3409 5 3.597 0.0 7.194 0 0 0
3410 5 3.597 1.7985 8.9925 0 0 0
3431 5 1.7985 0.0 26.9775 0 0 0
3432 5 1.7985 1.7985 25.179 0 0 0
3445 5 3.597 3.597 3.597 0 0 0
3454 5 3.597 5.3955 12.5895 0 0 0
3462 5 3.597 5.3955 19.7835 0 0 0
3467 5 1.7985 3.597 23.3805 0 0 0
3468 5 1.7985 5.3955 21.582 0 0 0
3481 5 3.597 7.194 0.0 0 0 0
3482 5 3.597 8.9925 1.7985 0 0 0
3486 5 3.597 8.9925 5.3955 0 0 0
3492 5 1.7985 8.9925 7.194 0 0 0
3496 5 1.7985 8.9925 10.791 0 0 0
3498 5 3.597 8.9925 16.1865 0 0 0
3499 5 1.7985 7.194 16.1865 0 0 0
3502 5 3.597 8.9925 19.7835 0 0 0
3510 5 3.597 8.9925 26.9775 0 0 0
3523 5 1.7985 10.791 1.7985 0 0 0
3532 5 1.7985 12.5895 7.194 0 0 0
3535 5 1.7985 10.791 12.5895 0 0 0
3545 5 3.597 10.791 21.582 0 0 0
3549 5 3.597 10.791 25.179 0 0 0
3555 5 1.7985 10.791 30.5745 0 0 0
3556 5 1.7985 12.5895 28.776 0 0 0
3557 5 3.597 10.791 32.373 0 0 0
3558 5 3.597 12.5895 34.1715 0 0 0
3568 5 1.7985 16.1865 3.597 0 0 0
3579 5 1.7985 14.388 16.1865 0 0 0
3585 5 3.597 14.388 21.582 0 0 0
3590 5 3.597 16.1865 26.9775 0 0 0
3592 5 1.7985 16.1865 25.179 0 0 0
3601 5 3.597 17.985 0.0 0 0 0
3603 5 1.7985 17.985 1.7985 0 0 0
3604 5 1.7985 19.7835 0.0 0 0 0
3613 5 3.597 17.985 10.791 0 0 0
3617 5 3.597 17.985 14.388 0 0 0
3621 5 3.597 17.985 17.985 0 0 0
3629 5 3.597 17.985 25.179 0 0 0
3633 5 3.597 17.985 28.776 0 0 0
3639 5 1.7985 17.985 34.1715 0 0 0
3646 5 3.597 23.3805 5.3955 0 0 0
3650 5 3.597 23.3805 8.9925 0 0 0
3657 5 3.597 21.582 14.388 0 0 0
3659 5 1.7985 21.582 16.1865 0 0 0
3673 5 3.597 21.582 28.776 0 0 0
3674 5 3.597 23.3805 30.5745 0 0 0
3692 5 1.7985 26.9775 7.194 0 0 0
3697 5 3.597 25.179 14.388 0 0 0
3705 5 3.597 25.179 21.582 0 0 0
3706 5 3.597 26.9775 23.3805 0 0 0
3708 5 1.7985 26.9775 21.582 0 0 0
3711 5 1.7985 25.179 26.9775 0 0 0
3724 5 1.7985 30.5745 0.0 0 0 0
3725 5 3.597 28.776 3.597 0 0 0
3732 5 1.7985 30.5745 7.194 0 0 0
3743 5 1.7985 28.776 19.7835 0 0 0
3746 5 3.597 30.5745 23.3805 0 0 0
3747 5 1.7985 28.776 23.3805 0 0 0
3748 5 1.7985 30.5745 21.582 0 0 0
3764 5 1.7985 34.1715 0.0 0 0 0
3778 5 3.597 34.1715 16.1865 0 0 0
3788 5 1.7985 34.1715 21.582 0 0 0
3801 5 0.0 0.0 0.0 0 0 0
3802 5 0.0 1.7985 1.7985 0 0 0
3805 5 0.0 0.0 7.194 0 0 0
3820 5 0.0 1.7985 34.1715 0 0 0
3830 5 0.0 5.3955 16.1865 0 0 0
3831 5 0.0 3.597 17.985 0 0 0
3835 5 0.0 3.597 25.179 0 0 0
3840 5 0.0 5.3955 34.1715 0 0 0
3841 5 0.0 7.194 0.0 0 0 0
3843 5 0.0 7.194 3.597 0 0 0
3849 5 0.0 7.194 14.388 0 0 0
3852 5 0.0 8.9925 19.7835 0 0 0
3854 5 0.0 8.9925 23.3805 0 0 0
3864 5 0.0 12.5895 5.3955 0 0 0
3865 5 0.0 10.791 7.194 0 0 0
3870 5 0.0 12.5895 16.1865 0 0 0
3871 5 0.0 10.791 17.985 0 0 0
3872 5 0.0 12.5895 19.7835 0 0 0
3885 5 0.0 14.388 7.194 0 0 0
3894 5 0.0 16.1865 23.3805 0 0 0
3904 5 0.0 19.7835 5.3955 0 0 0
3906 5 0.0 19.7835 8.9925 0 0 0
3912 5 0.0 19.7835 19.7835 0 0 0
3916 5 0.0 19.7835 26.9775 0 0 0
3918 5 0.0 19.7835 30.5745 0 0 0
3931 5 0.0 21.582 17.985 0 0 0
3936 5 0.0 23.3805 26.9775 0 0 0
3940 5 0.0 23.3805 34.1715 0 0 0
3946 5 0.0 26.9775 8.9925 0 0 0
3958 5 0.0 26.9775 30.5745 0 0 0
3961 5 0.0 28.776 0.0 0 0 0
3967 5 0.0 28.776 10.791 0 0 0
3971 5 0.0 28.776 17.985 0 0 0
3974 5 0.0 30.5745 23.3805 0 0 0
3981 5 0.0 32.373 0.0 0 0 0
3982 5 0.0 34.1715 1.7985 0 0 0
3983 5 0.0 32.373 3.597 0 0 0
3986 5 0.0 34.1715 8.9925 0 0 0
3990 5 0.0 34.1715 16.1865 0 0 0
