LAMMPS data file via write_data version 30 Jul 2021 timestep = 0
4000 atoms
5 atom types
0 35.97 xlo xhi
0 35.97 ylo yhi
0 35.97 zlo zhi
0.0 0.0 0.0 xy xz yz
 
Masses
 
1 1.0
2 2.0
3 3.0
4 4.0
5 5.0
 
Atoms  # atomic
 
1737 1 21.582 28.776 14.388 0 0 0
3586 1 3.597 16.1865 23.3805 0 0 0
3094 1 7.194 8.9925 12.5895 0 0 0
3487 1 1.7985 7.194 5.3955 0 0 0
2719 1 8.9925 7.194 34.1715 0 0 0
1890 1 17.985 8.9925 8.9925 0 0 0
1816 1 16.1865 1.7985 10.791 0 0 0
2516 1 12.5895 26.9775 28.776 0 0 0
2307 1 12.5895 7.194 23.3805 0 0 0
1662 1 21.582 23.3805 19.7835 0 0 0
2698 1 10.791 8.9925 16.1865 0 0 0
616 1 26.9775 1.7985 10.791 0 0 0
3280 1 5.3955 23.3805 32.373 0 0 0
3391 1 5.3955 32.373 26.9775 0 0 0
1898 1 17.985 8.9925 16.1865 0 0 0
3704 1 1.7985 26.9775 17.985 0 0 0
482 1 32.373 26.9775 1.7985 0 0 0
1325 1 25.179 28.776 3.597 0 0 0
1591 1 19.7835 14.388 26.9775 0 0 0
48 1 34.1715 8.9925 10.791 0 0 0
3975 1 0.0 28.776 25.179 0 0 0
3036 1 5.3955 1.7985 28.776 0 0 0
991 1 26.9775 32.373 26.9775 0 0 0
3314 1 7.194 26.9775 30.5745 0 0 0
3811 1 0.0 0.0 17.985 0 0 0
3346 1 7.194 30.5745 23.3805 0 0 0
2633 1 10.791 0.0 28.776 0 0 0
1694 1 21.582 26.9775 12.5895 0 0 0
130 1 34.1715 23.3805 14.388 0 0 0
2914 1 10.791 26.9775 30.5745 0 0 0
1073 1 25.179 3.597 28.776 0 0 0
1868 1 16.1865 5.3955 21.582 0 0 0
1182 1 25.179 16.1865 19.7835 0 0 0
1919 1 16.1865 7.194 34.1715 0 0 0
15 1 34.1715 0.0 26.9775 0 0 0
1197 1 25.179 14.388 32.373 0 0 0
3051 1 5.3955 3.597 8.9925 0 0 0
3478 1 3.597 5.3955 34.1715 0 0 0
845 1 28.776 21.582 3.597 0 0 0
2127 1 16.1865 28.776 5.3955 0 0 0
1092 1 23.3805 8.9925 7.194 0 0 0
1612 1 19.7835 19.7835 7.194 0 0 0
3581 1 3.597 14.388 17.985 0 0 0
1764 1 19.7835 34.1715 0.0 0 0 0
2448 1 12.5895 23.3805 3.597 0 0 0
3645 1 3.597 21.582 3.597 0 0 0
1814 1 17.985 1.7985 12.5895 0 0 0
61 1 34.1715 10.791 1.7985 0 0 0
2670 1 10.791 5.3955 26.9775 0 0 0
2690 1 10.791 8.9925 8.9925 0 0 0
1543 1 19.7835 10.791 19.7835 0 0 0
142 1 34.1715 26.9775 0.0 0 0 0
1336 1 23.3805 30.5745 10.791 0 0 0
1094 1 25.179 8.9925 12.5895 0 0 0
3494 1 3.597 8.9925 12.5895 0 0 0
3252 1 5.3955 23.3805 7.194 0 0 0
1079 1 23.3805 3.597 34.1715 0 0 0
365 1 32.373 14.388 3.597 0 0 0
3842 1 0.0 8.9925 1.7985 0 0 0
36 1 34.1715 5.3955 25.179 0 0 0
376 1 30.5745 16.1865 10.791 0 0 0
2500 1 12.5895 26.9775 14.388 0 0 0
3447 1 1.7985 3.597 5.3955 0 0 0
3847 1 0.0 7.194 10.791 0 0 0
2147 1 16.1865 28.776 23.3805 0 0 0
3797 1 3.597 32.373 32.373 0 0 0
2299 1 12.5895 7.194 16.1865 0 0 0
1244 1 23.3805 23.3805 0.0 0 0 0
3763 1 1.7985 32.373 1.7985 0 0 0
3263 1 5.3955 21.582 19.7835 0 0 0
792 1 26.9775 16.1865 25.179 0 0 0
1505 1 21.582 7.194 21.582 0 0 0
986 1 28.776 34.1715 23.3805 0 0 0
2373 1 14.388 14.388 10.791 0 0 0
2048 1 16.1865 23.3805 3.597 0 0 0
492 1 30.5745 26.9775 7.194 0 0 0
3642 1 3.597 23.3805 1.7985 0 0 0
3794 1 3.597 34.1715 30.5745 0 0 0
2950 1 10.791 30.5745 26.9775 0 0 0
732 1 26.9775 12.5895 7.194 0 0 0
311 1 30.5745 7.194 26.9775 0 0 0
1929 1 17.985 10.791 7.194 0 0 0
1781 1 21.582 32.373 17.985 0 0 0
3163 1 5.3955 14.388 1.7985 0 0 0
3980 1 0.0 30.5745 34.1715 0 0 0
279 1 30.5745 3.597 34.1715 0 0 0
2044 1 16.1865 23.3805 0.0 0 0 0
1307 1 23.3805 25.179 23.3805 0 0 0
2414 1 14.388 19.7835 12.5895 0 0 0
2153 1 17.985 28.776 28.776 0 0 0
3055 1 5.3955 3.597 12.5895 0 0 0
28 1 34.1715 5.3955 10.791 0 0 0
695 1 26.9775 7.194 12.5895 0 0 0
794 1 28.776 16.1865 30.5745 0 0 0
3734 1 3.597 30.5745 12.5895 0 0 0
3282 1 7.194 26.9775 1.7985 0 0 0
3662 1 3.597 23.3805 19.7835 0 0 0
3385 1 7.194 32.373 21.582 0 0 0
1391 1 23.3805 32.373 26.9775 0 0 0
768 1 26.9775 16.1865 3.597 0 0 0
1665 1 21.582 21.582 21.582 0 0 0
3758 1 3.597 30.5745 34.1715 0 0 0
3499 1 1.7985 7.194 16.1865 0 0 0
2385 1 14.388 14.388 21.582 0 0 0
473 1 32.373 21.582 28.776 0 0 0
1093 1 25.179 7.194 10.791 0 0 0
3199 1 5.3955 14.388 34.1715 0 0 0
2902 1 10.791 26.9775 19.7835 0 0 0
2754 1 10.791 12.5895 30.5745 0 0 0
1445 1 21.582 3.597 3.597 0 0 0
2811 1 8.9925 17.985 8.9925 0 0 0
3650 1 3.597 23.3805 8.9925 0 0 0
3082 1 7.194 8.9925 1.7985 0 0 0
1005 1 25.179 0.0 3.597 0 0 0
2061 1 17.985 21.582 17.985 0 0 0
2171 1 16.1865 32.373 8.9925 0 0 0
3476 1 1.7985 5.3955 28.776 0 0 0
3110 1 7.194 8.9925 26.9775 0 0 0
3008 1 5.3955 1.7985 3.597 0 0 0
1878 1 17.985 5.3955 34.1715 0 0 0
3006 1 7.194 1.7985 5.3955 0 0 0
1373 1 25.179 32.373 10.791 0 0 0
756 1 26.9775 12.5895 28.776 0 0 0
412 1 30.5745 19.7835 7.194 0 0 0
1483 1 19.7835 7.194 1.7985 0 0 0
807 1 26.9775 17.985 5.3955 0 0 0
678 1 28.776 5.3955 34.1715 0 0 0
2513 1 14.388 25.179 28.776 0 0 0
3563 1 1.7985 14.388 1.7985 0 0 0
2291 1 12.5895 7.194 8.9925 0 0 0
1438 1 21.582 1.7985 34.1715 0 0 0
3264 1 5.3955 23.3805 17.985 0 0 0
3428 1 1.7985 1.7985 21.582 0 0 0
2735 1 8.9925 10.791 12.5895 0 0 0
1392 1 23.3805 34.1715 25.179 0 0 0
923 1 26.9775 28.776 1.7985 0 0 0
153 1 34.1715 25.179 23.3805 0 0 0
2186 1 17.985 34.1715 23.3805 0 0 0
252 1 30.5745 5.3955 7.194 0 0 0
2008 1 16.1865 19.7835 3.597 0 0 0
3034 1 7.194 1.7985 30.5745 0 0 0
2981 1 10.791 32.373 17.985 0 0 0
773 1 28.776 14.388 10.791 0 0 0
2546 1 14.388 30.5745 23.3805 0 0 0
2672 1 8.9925 5.3955 25.179 0 0 0
1039 1 23.3805 0.0 34.1715 0 0 0
1873 1 17.985 3.597 28.776 0 0 0
3143 1 5.3955 10.791 19.7835 0 0 0
1530 1 21.582 12.5895 8.9925 0 0 0
921 1 28.776 28.776 0.0 0 0 0
2243 1 12.5895 3.597 1.7985 0 0 0
3929 1 0.0 21.582 14.388 0 0 0
2604 1 8.9925 1.7985 0.0 0 0 0
2815 1 8.9925 17.985 12.5895 0 0 0
2687 1 8.9925 7.194 5.3955 0 0 0
3903 1 0.0 17.985 3.597 0 0 0
846 1 28.776 23.3805 5.3955 0 0 0
2393 1 14.388 14.388 28.776 0 0 0
743 1 26.9775 10.791 19.7835 0 0 0
1225 1 25.179 17.985 21.582 0 0 0
2772 1 8.9925 16.1865 7.194 0 0 0
213 1 32.373 0.0 10.791 0 0 0
1629 1 21.582 17.985 25.179 0 0 0
246 1 32.373 5.3955 5.3955 0 0 0
1250 1 25.179 23.3805 8.9925 0 0 0
340 1 30.5745 12.5895 14.388 0 0 0
888 1 26.9775 26.9775 3.597 0 0 0
23 1 34.1715 3.597 5.3955 0 0 0
2755 1 8.9925 10.791 30.5745 0 0 0
3643 1 1.7985 21.582 1.7985 0 0 0
708 1 26.9775 8.9925 21.582 0 0 0
495 1 30.5745 25.179 12.5895 0 0 0
536 1 30.5745 30.5745 10.791 0 0 0
2468 1 12.5895 23.3805 21.582 0 0 0
254 1 32.373 5.3955 12.5895 0 0 0
2870 1 10.791 23.3805 26.9775 0 0 0
3375 1 5.3955 32.373 12.5895 0 0 0
1101 1 25.179 7.194 17.985 0 0 0
498 1 32.373 26.9775 16.1865 0 0 0
2041 1 17.985 21.582 0.0 0 0 0
2199 1 16.1865 32.373 34.1715 0 0 0
3851 1 0.0 7.194 17.985 0 0 0
1462 1 21.582 5.3955 19.7835 0 0 0
3911 1 0.0 17.985 17.985 0 0 0
1203 1 23.3805 17.985 1.7985 0 0 0
2891 1 8.9925 25.179 8.9925 0 0 0
1414 1 21.582 1.7985 12.5895 0 0 0
3063 1 5.3955 3.597 19.7835 0 0 0
3194 1 7.194 16.1865 30.5745 0 0 0
835 1 26.9775 17.985 30.5745 0 0 0
2647 1 8.9925 3.597 5.3955 0 0 0
1704 1 19.7835 26.9775 17.985 0 0 0
3331 1 5.3955 28.776 8.9925 0 0 0
2528 1 12.5895 30.5745 3.597 0 0 0
3947 1 0.0 25.179 10.791 0 0 0
119 1 34.1715 17.985 34.1715 0 0 0
701 1 28.776 7.194 17.985 0 0 0
1625 1 21.582 17.985 21.582 0 0 0
2956 1 8.9925 30.5745 28.776 0 0 0
1126 1 25.179 12.5895 5.3955 0 0 0
3533 1 3.597 10.791 10.791 0 0 0
8 1 34.1715 1.7985 10.791 0 0 0
1206 1 25.179 19.7835 5.3955 0 0 0
2887 1 8.9925 25.179 5.3955 0 0 0
2135 1 16.1865 28.776 12.5895 0 0 0
3945 1 0.0 25.179 7.194 0 0 0
2578 1 14.388 34.1715 16.1865 0 0 0
2529 1 14.388 28.776 7.194 0 0 0
326 1 32.373 12.5895 5.3955 0 0 0
93 1 34.1715 14.388 23.3805 0 0 0
889 1 28.776 25.179 7.194 0 0 0
3335 1 5.3955 28.776 12.5895 0 0 0
2010 1 17.985 19.7835 8.9925 0 0 0
887 1 26.9775 25.179 5.3955 0 0 0
783 1 26.9775 14.388 19.7835 0 0 0
589 1 32.373 32.373 25.179 0 0 0
1080 1 23.3805 5.3955 32.373 0 0 0
3644 1 1.7985 23.3805 0.0 0 0 0
1648 1 19.7835 23.3805 3.597 0 0 0
3181 1 7.194 14.388 17.985 0 0 0
1894 1 17.985 8.9925 12.5895 0 0 0
1267 1 23.3805 21.582 23.3805 0 0 0
1045 1 25.179 3.597 3.597 0 0 0
1279 1 23.3805 21.582 34.1715 0 0 0
2425 1 14.388 17.985 21.582 0 0 0
1678 1 21.582 23.3805 34.1715 0 0 0
2555 1 12.5895 28.776 30.5745 0 0 0
499 1 30.5745 25.179 16.1865 0 0 0
1422 1 21.582 1.7985 19.7835 0 0 0
1707 1 19.7835 25.179 23.3805 0 0 0
1316 1 23.3805 26.9775 28.776 0 0 0
2295 1 12.5895 7.194 12.5895 0 0 0
2539 1 12.5895 28.776 16.1865 0 0 0
1881 1 17.985 7.194 0.0 0 0 0
545 1 32.373 28.776 21.582 0 0 0
3792 1 1.7985 34.1715 25.179 0 0 0
3706 1 3.597 26.9775 23.3805 0 0 0
444 1 30.5745 23.3805 0.0 0 0 0
1517 1 21.582 7.194 32.373 0 0 0
368 1 30.5745 16.1865 3.597 0 0 0
125 1 34.1715 21.582 8.9925 0 0 0
2832 1 8.9925 19.7835 25.179 0 0 0
257 1 32.373 3.597 14.388 0 0 0
1856 1 16.1865 5.3955 10.791 0 0 0
1577 1 21.582 14.388 14.388 0 0 0
3382 1 7.194 34.1715 19.7835 0 0 0
327 1 30.5745 10.791 5.3955 0 0 0
1378 1 25.179 34.1715 16.1865 0 0 0
907 1 26.9775 25.179 23.3805 0 0 0
2202 1 14.388 1.7985 1.7985 0 0 0
2641 1 10.791 3.597 0.0 0 0 0
3909 1 0.0 17.985 14.388 0 0 0
2506 1 14.388 26.9775 23.3805 0 0 0
1948 1 16.1865 12.5895 21.582 0 0 0
2087 1 16.1865 25.179 5.3955 0 0 0
2857 1 10.791 21.582 14.388 0 0 0
3961 1 0.0 28.776 0.0 0 0 0
2957 1 10.791 28.776 32.373 0 0 0
251 1 30.5745 3.597 8.9925 0 0 0
3588 1 1.7985 16.1865 21.582 0 0 0
2047 1 16.1865 21.582 5.3955 0 0 0
1036 1 23.3805 1.7985 28.776 0 0 0
115 1 34.1715 17.985 26.9775 0 0 0
3367 1 5.3955 32.373 5.3955 0 0 0
1934 1 17.985 12.5895 12.5895 0 0 0
3933 1 0.0 21.582 21.582 0 0 0
1482 1 21.582 8.9925 1.7985 0 0 0
222 1 32.373 1.7985 19.7835 0 0 0
2493 1 14.388 25.179 10.791 0 0 0
2507 1 12.5895 25.179 23.3805 0 0 0
2527 1 12.5895 28.776 5.3955 0 0 0
1899 1 16.1865 7.194 16.1865 0 0 0
3276 1 5.3955 23.3805 28.776 0 0 0
2795 1 8.9925 14.388 30.5745 0 0 0
2935 1 8.9925 28.776 12.5895 0 0 0
520 1 30.5745 26.9775 32.373 0 0 0
3116 1 5.3955 8.9925 28.776 0 0 0
84 1 34.1715 16.1865 3.597 0 0 0
298 1 32.373 8.9925 16.1865 0 0 0
3308 1 5.3955 26.9775 21.582 0 0 0
2420 1 12.5895 19.7835 14.388 0 0 0
1440 1 19.7835 1.7985 32.373 0 0 0
3455 1 1.7985 3.597 12.5895 0 0 0
1636 1 19.7835 19.7835 28.776 0 0 0
2196 1 16.1865 34.1715 28.776 0 0 0
1851 1 16.1865 3.597 8.9925 0 0 0
642 1 28.776 5.3955 1.7985 0 0 0
1520 1 19.7835 8.9925 32.373 0 0 0
2321 1 14.388 10.791 0.0 0 0 0
694 1 28.776 8.9925 12.5895 0 0 0
3313 1 7.194 25.179 28.776 0 0 0
573 1 32.373 32.373 10.791 0 0 0
2661 1 10.791 3.597 17.985 0 0 0
949 1 28.776 28.776 25.179 0 0 0
103 1 34.1715 17.985 5.3955 0 0 0
2418 1 14.388 19.7835 16.1865 0 0 0
2621 1 10.791 0.0 17.985 0 0 0
734 1 28.776 12.5895 12.5895 0 0 0
3144 1 5.3955 12.5895 17.985 0 0 0
2197 1 17.985 32.373 32.373 0 0 0
40 1 34.1715 5.3955 32.373 0 0 0
351 1 30.5745 10.791 26.9775 0 0 0
3076 1 5.3955 5.3955 28.776 0 0 0
1350 1 25.179 30.5745 26.9775 0 0 0
263 1 30.5745 3.597 19.7835 0 0 0
1343 1 23.3805 28.776 19.7835 0 0 0
1610 1 21.582 19.7835 8.9925 0 0 0
2162 1 17.985 34.1715 1.7985 0 0 0
2874 1 10.791 23.3805 30.5745 0 0 0
1058 1 25.179 5.3955 16.1865 0 0 0
1265 1 25.179 21.582 21.582 0 0 0
2799 1 8.9925 14.388 34.1715 0 0 0
1189 1 25.179 14.388 25.179 0 0 0
544 1 30.5745 30.5745 17.985 0 0 0
872 1 26.9775 23.3805 25.179 0 0 0
623 1 26.9775 0.0 19.7835 0 0 0
549 1 32.373 28.776 25.179 0 0 0
542 1 32.373 30.5745 19.7835 0 0 0
2523 1 12.5895 28.776 1.7985 0 0 0
809 1 28.776 17.985 7.194 0 0 0
3883 1 0.0 14.388 3.597 0 0 0
858 1 28.776 23.3805 16.1865 0 0 0
3740 1 1.7985 30.5745 14.388 0 0 0
1157 1 25.179 10.791 32.373 0 0 0
6 1 34.1715 1.7985 7.194 0 0 0
3001 1 7.194 0.0 0.0 0 0 0
3559 1 1.7985 10.791 34.1715 0 0 0
704 1 26.9775 8.9925 17.985 0 0 0
823 1 26.9775 17.985 19.7835 0 0 0
24 1 34.1715 5.3955 3.597 0 0 0
1386 1 25.179 34.1715 23.3805 0 0 0
3456 1 1.7985 5.3955 10.791 0 0 0
627 1 26.9775 0.0 23.3805 0 0 0
3582 1 3.597 16.1865 19.7835 0 0 0
3542 1 3.597 12.5895 19.7835 0 0 0
961 1 28.776 32.373 0.0 0 0 0
337 1 32.373 10.791 14.388 0 0 0
3800 1 1.7985 34.1715 32.373 0 0 0
3450 1 3.597 5.3955 8.9925 0 0 0
1366 1 25.179 34.1715 5.3955 0 0 0
2581 1 14.388 32.373 17.985 0 0 0
3053 1 7.194 3.597 10.791 0 0 0
3358 1 7.194 30.5745 34.1715 0 0 0
2618 1 10.791 1.7985 16.1865 0 0 0
3942 1 0.0 26.9775 1.7985 0 0 0
2878 1 10.791 23.3805 34.1715 0 0 0
3041 1 7.194 3.597 0.0 0 0 0
3150 1 7.194 12.5895 26.9775 0 0 0
1257 1 25.179 21.582 14.388 0 0 0
2726 1 10.791 12.5895 5.3955 0 0 0
3660 1 1.7985 23.3805 14.388 0 0 0
530 1 32.373 30.5745 8.9925 0 0 0
3131 1 5.3955 10.791 8.9925 0 0 0
2009 1 17.985 17.985 7.194 0 0 0
3633 1 3.597 17.985 28.776 0 0 0
2865 1 10.791 21.582 21.582 0 0 0
3689 1 3.597 25.179 7.194 0 0 0
2758 1 10.791 12.5895 34.1715 0 0 0
2144 1 16.1865 30.5745 17.985 0 0 0
811 1 26.9775 17.985 8.9925 0 0 0
2042 1 17.985 23.3805 1.7985 0 0 0
841 1 28.776 21.582 0.0 0 0 0
2605 1 10.791 0.0 3.597 0 0 0
1597 1 21.582 14.388 32.373 0 0 0
2470 1 14.388 23.3805 26.9775 0 0 0
265 1 32.373 3.597 21.582 0 0 0
1938 1 17.985 12.5895 16.1865 0 0 0
3330 1 7.194 30.5745 8.9925 0 0 0
3904 1 0.0 19.7835 5.3955 0 0 0
3119 1 5.3955 7.194 34.1715 0 0 0
1021 1 25.179 0.0 17.985 0 0 0
1371 1 23.3805 32.373 8.9925 0 0 0
703 1 26.9775 7.194 19.7835 0 0 0
2423 1 12.5895 17.985 19.7835 0 0 0
1996 1 16.1865 16.1865 28.776 0 0 0
3505 1 3.597 7.194 21.582 0 0 0
2256 1 12.5895 5.3955 10.791 0 0 0
2833 1 10.791 17.985 28.776 0 0 0
269 1 32.373 3.597 25.179 0 0 0
1718 1 21.582 26.9775 34.1715 0 0 0
1403 1 19.7835 0.0 1.7985 0 0 0
2634 1 10.791 1.7985 30.5745 0 0 0
2624 1 8.9925 1.7985 17.985 0 0 0
2601 1 10.791 0.0 0.0 0 0 0
3971 1 0.0 28.776 17.985 0 0 0
3749 1 3.597 28.776 25.179 0 0 0
1 1 34.1715 0.0 1.7985 0 0 0
829 1 28.776 17.985 25.179 0 0 0
1236 1 23.3805 19.7835 28.776 0 0 0
20 1 34.1715 1.7985 32.373 0 0 0
1466 1 21.582 5.3955 23.3805 0 0 0
2702 1 10.791 8.9925 19.7835 0 0 0
1361 1 25.179 32.373 0.0 0 0 0
2787 1 8.9925 14.388 23.3805 0 0 0
1025 1 25.179 0.0 21.582 0 0 0
336 1 30.5745 12.5895 10.791 0 0 0
1070 1 25.179 5.3955 26.9775 0 0 0
1043 1 23.3805 3.597 1.7985 0 0 0
2867 1 8.9925 21.582 23.3805 0 0 0
2353 1 14.388 10.791 28.776 0 0 0
1295 1 23.3805 25.179 12.5895 0 0 0
798 1 28.776 16.1865 34.1715 0 0 0
51 1 34.1715 7.194 19.7835 0 0 0
2203 1 12.5895 0.0 1.7985 0 0 0
684 1 26.9775 8.9925 0.0 0 0 0
1308 1 23.3805 26.9775 21.582 0 0 0
1735 1 19.7835 28.776 12.5895 0 0 0
2406 1 14.388 19.7835 5.3955 0 0 0
1172 1 23.3805 16.1865 7.194 0 0 0
2561 1 14.388 32.373 0.0 0 0 0
2894 1 10.791 26.9775 12.5895 0 0 0
347 1 30.5745 10.791 23.3805 0 0 0
2899 1 8.9925 25.179 16.1865 0 0 0
622 1 28.776 1.7985 19.7835 0 0 0
2315 1 12.5895 7.194 30.5745 0 0 0
2785 1 10.791 14.388 21.582 0 0 0
1460 1 19.7835 5.3955 14.388 0 0 0
906 1 28.776 26.9775 23.3805 0 0 0
3698 1 3.597 26.9775 16.1865 0 0 0
2745 1 10.791 10.791 21.582 0 0 0
3273 1 7.194 21.582 28.776 0 0 0
218 1 32.373 1.7985 16.1865 0 0 0
3211 1 5.3955 17.985 8.9925 0 0 0
1437 1 21.582 0.0 32.373 0 0 0
2029 1 17.985 17.985 25.179 0 0 0
286 1 32.373 8.9925 5.3955 0 0 0
538 1 32.373 30.5745 16.1865 0 0 0
2241 1 14.388 3.597 0.0 0 0 0
3826 1 0.0 5.3955 8.9925 0 0 0
2845 1 10.791 21.582 3.597 0 0 0
539 1 30.5745 28.776 16.1865 0 0 0
1339 2 23.3805 28.776 16.1865 0 0 0
951 2 26.9775 28.776 26.9775 0 0 0
342 2 32.373 12.5895 19.7835 0 0 0
1980 2 16.1865 16.1865 14.388 0 0 0
716 2 26.9775 8.9925 28.776 0 0 0
3324 2 5.3955 30.5745 0.0 0 0 0
1913 2 17.985 7.194 28.776 0 0 0
217 2 32.373 0.0 14.388 0 0 0
3789 2 3.597 32.373 25.179 0 0 0
2923 2 8.9925 28.776 1.7985 0 0 0
1528 2 19.7835 12.5895 3.597 0 0 0
2187 2 16.1865 32.373 23.3805 0 0 0
2091 2 16.1865 25.179 8.9925 0 0 0
812 2 26.9775 19.7835 7.194 0 0 0
3820 2 0.0 1.7985 34.1715 0 0 0
2155 2 16.1865 28.776 30.5745 0 0 0
3232 2 5.3955 19.7835 25.179 0 0 0
177 2 34.1715 28.776 30.5745 0 0 0
3302 2 7.194 26.9775 19.7835 0 0 0
1362 2 25.179 34.1715 1.7985 0 0 0
855 2 26.9775 21.582 12.5895 0 0 0
880 2 26.9775 23.3805 32.373 0 0 0
165 2 34.1715 28.776 8.9925 0 0 0
3999 2 0.0 32.373 32.373 0 0 0
2632 2 8.9925 1.7985 25.179 0 0 0
2298 2 14.388 8.9925 16.1865 0 0 0
3091 2 5.3955 7.194 8.9925 0 0 0
1646 2 21.582 23.3805 5.3955 0 0 0
2023 2 16.1865 17.985 19.7835 0 0 0
3481 2 3.597 7.194 0.0 0 0 0
628 2 26.9775 1.7985 21.582 0 0 0
1616 2 19.7835 19.7835 10.791 0 0 0
789 2 28.776 14.388 25.179 0 0 0
3429 2 3.597 0.0 25.179 0 0 0
268 2 30.5745 5.3955 21.582 0 0 0
75 2 34.1715 10.791 26.9775 0 0 0
2738 2 10.791 12.5895 16.1865 0 0 0
1253 2 25.179 21.582 10.791 0 0 0
2684 2 8.9925 8.9925 0.0 0 0 0
1895 2 16.1865 7.194 12.5895 0 0 0
1958 2 17.985 12.5895 34.1715 0 0 0
2007 2 16.1865 17.985 5.3955 0 0 0
3454 2 3.597 5.3955 12.5895 0 0 0
253 2 32.373 3.597 10.791 0 0 0
207 2 30.5745 0.0 5.3955 0 0 0
1811 2 16.1865 0.0 8.9925 0 0 0
668 2 26.9775 5.3955 21.582 0 0 0
3229 2 7.194 17.985 25.179 0 0 0
3206 2 7.194 19.7835 5.3955 0 0 0
284 2 30.5745 8.9925 0.0 0 0 0
1586 2 21.582 16.1865 23.3805 0 0 0
3897 2 0.0 14.388 28.776 0 0 0
3962 2 0.0 30.5745 1.7985 0 0 0
1461 2 21.582 3.597 17.985 0 0 0
2059 2 16.1865 21.582 16.1865 0 0 0
3874 2 0.0 12.5895 23.3805 0 0 0
2285 2 14.388 7.194 3.597 0 0 0
774 2 28.776 16.1865 12.5895 0 0 0
2946 2 10.791 30.5745 23.3805 0 0 0
308 2 30.5745 8.9925 21.582 0 0 0
3050 2 7.194 5.3955 8.9925 0 0 0
1202 2 25.179 19.7835 1.7985 0 0 0
2826 2 10.791 19.7835 23.3805 0 0 0
2078 2 17.985 23.3805 34.1715 0 0 0
3106 2 7.194 8.9925 23.3805 0 0 0
591 2 30.5745 32.373 26.9775 0 0 0
1485 2 21.582 7.194 3.597 0 0 0
18 2 34.1715 1.7985 28.776 0 0 0
932 2 26.9775 30.5745 7.194 0 0 0
2530 2 14.388 30.5745 8.9925 0 0 0
3009 2 7.194 0.0 7.194 0 0 0
661 2 28.776 3.597 17.985 0 0 0
1355 2 23.3805 28.776 30.5745 0 0 0
1825 2 17.985 0.0 21.582 0 0 0
435 2 30.5745 17.985 30.5745 0 0 0
619 2 26.9775 0.0 16.1865 0 0 0
191 2 34.1715 32.373 19.7835 0 0 0
1598 2 21.582 16.1865 34.1715 0 0 0
2892 2 8.9925 26.9775 7.194 0 0 0
2417 2 14.388 17.985 14.388 0 0 0
1481 2 21.582 7.194 0.0 0 0 0
391 2 30.5745 14.388 26.9775 0 0 0
533 2 32.373 28.776 10.791 0 0 0
939 2 26.9775 28.776 16.1865 0 0 0
2205 2 14.388 0.0 3.597 0 0 0
117 2 34.1715 17.985 30.5745 0 0 0
2600 2 12.5895 34.1715 32.373 0 0 0
1216 2 23.3805 19.7835 10.791 0 0 0
899 2 26.9775 25.179 16.1865 0 0 0
70 2 34.1715 12.5895 14.388 0 0 0
2445 2 14.388 21.582 3.597 0 0 0
2947 2 8.9925 28.776 23.3805 0 0 0
2563 2 12.5895 32.373 1.7985 0 0 0
2036 2 16.1865 19.7835 28.776 0 0 0
3192 2 5.3955 16.1865 25.179 0 0 0
1082 2 25.179 8.9925 1.7985 0 0 0
1012 2 23.3805 1.7985 7.194 0 0 0
2602 2 10.791 1.7985 1.7985 0 0 0
397 2 32.373 14.388 32.373 0 0 0
626 2 28.776 1.7985 23.3805 0 0 0
2252 2 12.5895 5.3955 7.194 0 0 0
842 2 28.776 23.3805 1.7985 0 0 0
2481 2 14.388 25.179 0.0 0 0 0
459 2 30.5745 21.582 16.1865 0 0 0
2788 2 8.9925 16.1865 21.582 0 0 0
693 2 28.776 7.194 10.791 0 0 0
2909 2 10.791 25.179 25.179 0 0 0
3949 2 0.0 25.179 14.388 0 0 0
2552 2 12.5895 30.5745 25.179 0 0 0
2140 2 16.1865 30.5745 14.388 0 0 0
3059 2 5.3955 3.597 16.1865 0 0 0
2851 2 8.9925 21.582 8.9925 0 0 0
2336 2 12.5895 12.5895 10.791 0 0 0
2013 2 17.985 17.985 10.791 0 0 0
3219 2 5.3955 17.985 16.1865 0 0 0
1081 2 25.179 7.194 0.0 0 0 0
1545 2 21.582 10.791 21.582 0 0 0
2098 2 17.985 26.9775 16.1865 0 0 0
3141 2 7.194 10.791 17.985 0 0 0
2959 2 8.9925 28.776 34.1715 0 0 0
2284 2 12.5895 8.9925 0.0 0 0 0
993 2 28.776 32.373 28.776 0 0 0
3285 2 7.194 25.179 3.597 0 0 0
3667 2 1.7985 21.582 23.3805 0 0 0
158 2 34.1715 26.9775 28.776 0 0 0
617 2 28.776 0.0 14.388 0 0 0
3230 2 7.194 19.7835 26.9775 0 0 0
1790 2 21.582 34.1715 26.9775 0 0 0
851 2 26.9775 21.582 8.9925 0 0 0
1418 2 21.582 1.7985 16.1865 0 0 0
1867 2 16.1865 3.597 23.3805 0 0 0
3250 2 7.194 23.3805 8.9925 0 0 0
3713 2 3.597 25.179 28.776 0 0 0
2288 2 12.5895 8.9925 3.597 0 0 0
3269 2 7.194 21.582 25.179 0 0 0
3162 2 7.194 16.1865 1.7985 0 0 0
1807 2 16.1865 0.0 5.3955 0 0 0
2154 2 17.985 30.5745 30.5745 0 0 0
1060 2 23.3805 5.3955 14.388 0 0 0
3647 2 1.7985 21.582 5.3955 0 0 0
2242 2 14.388 5.3955 1.7985 0 0 0
38 2 34.1715 5.3955 28.776 0 0 0
922 2 28.776 30.5745 1.7985 0 0 0
1231 2 23.3805 17.985 26.9775 0 0 0
170 2 34.1715 30.5745 14.388 0 0 0
1624 2 19.7835 19.7835 17.985 0 0 0
1999 2 16.1865 14.388 34.1715 0 0 0
1342 2 25.179 30.5745 19.7835 0 0 0
886 2 28.776 26.9775 5.3955 0 0 0
2928 2 8.9925 30.5745 3.597 0 0 0
519 2 30.5745 25.179 34.1715 0 0 0
3496 2 1.7985 8.9925 10.791 0 0 0
2823 2 8.9925 17.985 19.7835 0 0 0
1858 2 17.985 5.3955 16.1865 0 0 0
465 2 32.373 21.582 21.582 0 0 0
524 2 30.5745 30.5745 0.0 0 0 0
2650 2 10.791 5.3955 8.9925 0 0 0
3364 2 5.3955 34.1715 0.0 0 0 0
3035 2 5.3955 0.0 30.5745 0 0 0
3077 2 7.194 3.597 32.373 0 0 0
892 2 26.9775 26.9775 7.194 0 0 0
344 2 30.5745 12.5895 17.985 0 0 0
2370 2 14.388 16.1865 8.9925 0 0 0
974 2 28.776 34.1715 12.5895 0 0 0
3691 2 1.7985 25.179 8.9925 0 0 0
1991 2 16.1865 14.388 26.9775 0 0 0
1850 2 17.985 5.3955 8.9925 0 0 0
322 2 32.373 12.5895 1.7985 0 0 0
2728 2 8.9925 12.5895 3.597 0 0 0
3983 2 0.0 32.373 3.597 0 0 0
3217 2 7.194 17.985 14.388 0 0 0
350 2 32.373 12.5895 26.9775 0 0 0
3212 2 5.3955 19.7835 7.194 0 0 0
17 2 34.1715 0.0 30.5745 0 0 0
1875 2 16.1865 3.597 30.5745 0 0 0
3086 2 7.194 8.9925 5.3955 0 0 0
1987 2 16.1865 14.388 23.3805 0 0 0
2156 2 16.1865 30.5745 28.776 0 0 0
440 2 30.5745 19.7835 32.373 0 0 0
1035 2 23.3805 0.0 30.5745 0 0 0
3547 2 1.7985 10.791 23.3805 0 0 0
3413 2 3.597 0.0 10.791 0 0 0
2930 2 10.791 30.5745 8.9925 0 0 0
2234 2 14.388 1.7985 30.5745 0 0 0
3939 2 0.0 21.582 32.373 0 0 0
1840 2 16.1865 1.7985 32.373 0 0 0
3095 2 5.3955 7.194 12.5895 0 0 0
1266 2 25.179 23.3805 23.3805 0 0 0
2837 2 10.791 17.985 32.373 0 0 0
2005 2 17.985 17.985 3.597 0 0 0
1871 2 16.1865 3.597 26.9775 0 0 0
3495 2 1.7985 7.194 12.5895 0 0 0
315 2 30.5745 7.194 30.5745 0 0 0
3809 2 0.0 0.0 14.388 0 0 0
3184 2 5.3955 16.1865 17.985 0 0 0
1614 2 21.582 19.7835 12.5895 0 0 0
2724 2 8.9925 12.5895 0.0 0 0 0
1428 2 19.7835 1.7985 21.582 0 0 0
3572 2 1.7985 16.1865 7.194 0 0 0
2617 2 10.791 0.0 14.388 0 0 0
1785 2 21.582 32.373 21.582 0 0 0
1511 2 19.7835 7.194 26.9775 0 0 0
1926 2 17.985 12.5895 5.3955 0 0 0
210 2 32.373 1.7985 8.9925 0 0 0
1855 2 16.1865 3.597 12.5895 0 0 0
1560 2 19.7835 12.5895 32.373 0 0 0
2106 2 17.985 26.9775 23.3805 0 0 0
289 2 32.373 7.194 7.194 0 0 0
3405 2 3.597 0.0 3.597 0 0 0
3653 2 3.597 21.582 10.791 0 0 0
1721 2 21.582 28.776 0.0 0 0 0
1967 2 16.1865 14.388 5.3955 0 0 0
3155 2 5.3955 10.791 30.5745 0 0 0
2971 2 8.9925 32.373 8.9925 0 0 0
3398 2 7.194 34.1715 34.1715 0 0 0
3725 2 3.597 28.776 3.597 0 0 0
3400 2 5.3955 34.1715 32.373 0 0 0
3288 2 5.3955 26.9775 3.597 0 0 0
635 2 26.9775 0.0 30.5745 0 0 0
1633 2 21.582 17.985 28.776 0 0 0
1234 2 25.179 19.7835 30.5745 0 0 0
175 2 34.1715 28.776 26.9775 0 0 0
3744 2 1.7985 30.5745 17.985 0 0 0
699 2 26.9775 7.194 16.1865 0 0 0
198 2 34.1715 34.1715 28.776 0 0 0
2693 2 10.791 7.194 10.791 0 0 0
1038 2 25.179 1.7985 34.1715 0 0 0
1739 2 19.7835 28.776 16.1865 0 0 0
1287 2 23.3805 25.179 5.3955 0 0 0
645 2 28.776 3.597 3.597 0 0 0
2830 2 10.791 19.7835 26.9775 0 0 0
2235 2 12.5895 0.0 30.5745 0 0 0
613 2 28.776 0.0 10.791 0 0 0
1552 2 19.7835 12.5895 25.179 0 0 0
1668 2 19.7835 23.3805 21.582 0 0 0
2974 2 10.791 34.1715 12.5895 0 0 0
281 2 32.373 7.194 0.0 0 0 0
945 2 28.776 28.776 21.582 0 0 0
3875 2 0.0 10.791 25.179 0 0 0
2637 2 10.791 0.0 32.373 0 0 0
1264 2 23.3805 23.3805 17.985 0 0 0
2062 2 17.985 23.3805 19.7835 0 0 0
2248 2 12.5895 5.3955 3.597 0 0 0
2707 2 8.9925 7.194 23.3805 0 0 0
3295 2 5.3955 25.179 12.5895 0 0 0
3278 2 7.194 23.3805 34.1715 0 0 0
2050 2 17.985 23.3805 8.9925 0 0 0
3884 2 0.0 16.1865 5.3955 0 0 0
3360 2 5.3955 30.5745 32.373 0 0 0
593 2 32.373 32.373 28.776 0 0 0
3223 2 5.3955 17.985 19.7835 0 0 0
3451 2 1.7985 3.597 8.9925 0 0 0
1375 2 23.3805 32.373 12.5895 0 0 0
2350 2 14.388 12.5895 26.9775 0 0 0
2570 2 14.388 34.1715 8.9925 0 0 0
2210 2 14.388 1.7985 8.9925 0 0 0
3793 2 3.597 32.373 28.776 0 0 0
3990 2 0.0 34.1715 16.1865 0 0 0
3172 2 5.3955 16.1865 7.194 0 0 0
1711 2 19.7835 25.179 26.9775 0 0 0
3418 2 3.597 1.7985 16.1865 0 0 0
2015 2 16.1865 17.985 12.5895 0 0 0
1973 2 17.985 14.388 10.791 0 0 0
1153 2 25.179 10.791 28.776 0 0 0
3852 2 0.0 8.9925 19.7835 0 0 0
3543 2 1.7985 10.791 19.7835 0 0 0
1832 2 16.1865 1.7985 25.179 0 0 0
2838 2 10.791 19.7835 34.1715 0 0 0
2020 2 16.1865 19.7835 14.388 0 0 0
3067 2 5.3955 3.597 23.3805 0 0 0
3277 2 7.194 21.582 32.373 0 0 0
3890 2 0.0 16.1865 16.1865 0 0 0
2068 2 16.1865 23.3805 21.582 0 0 0
3807 2 0.0 0.0 10.791 0 0 0
1110 2 25.179 8.9925 26.9775 0 0 0
3924 2 0.0 23.3805 5.3955 0 0 0
567 2 30.5745 32.373 5.3955 0 0 0
564 2 30.5745 34.1715 0.0 0 0 0
215 2 30.5745 0.0 12.5895 0 0 0
2579 2 12.5895 32.373 16.1865 0 0 0
980 2 26.9775 34.1715 14.388 0 0 0
360 2 30.5745 12.5895 32.373 0 0 0
2597 2 14.388 32.373 32.373 0 0 0
3833 2 0.0 3.597 21.582 0 0 0
987 2 26.9775 32.373 23.3805 0 0 0
1794 2 21.582 34.1715 30.5745 0 0 0
2939 2 8.9925 28.776 16.1865 0 0 0
3048 2 5.3955 5.3955 3.597 0 0 0
3578 2 3.597 16.1865 16.1865 0 0 0
1170 2 25.179 16.1865 8.9925 0 0 0
1479 2 19.7835 3.597 34.1715 0 0 0
2337 2 14.388 10.791 14.388 0 0 0
3580 2 1.7985 16.1865 14.388 0 0 0
111 2 34.1715 17.985 19.7835 0 0 0
31 2 34.1715 3.597 19.7835 0 0 0
108 2 34.1715 19.7835 10.791 0 0 0
1280 2 23.3805 23.3805 32.373 0 0 0
3305 2 7.194 25.179 21.582 0 0 0
3524 2 1.7985 12.5895 0.0 0 0 0
3657 2 3.597 21.582 14.388 0 0 0
1555 2 19.7835 10.791 30.5745 0 0 0
1766 2 21.582 34.1715 5.3955 0 0 0
2925 2 10.791 28.776 3.597 0 0 0
1652 2 19.7835 23.3805 7.194 0 0 0
1789 2 21.582 32.373 25.179 0 0 0
2216 2 12.5895 1.7985 10.791 0 0 0
785 2 28.776 14.388 21.582 0 0 0
1514 2 21.582 8.9925 30.5745 0 0 0
2565 2 14.388 32.373 3.597 0 0 0
2501 2 14.388 25.179 17.985 0 0 0
2759 2 8.9925 10.791 34.1715 0 0 0
1930 2 17.985 12.5895 8.9925 0 0 0
3670 2 3.597 23.3805 26.9775 0 0 0
1407 2 19.7835 0.0 5.3955 0 0 0
1144 2 23.3805 12.5895 17.985 0 0 0
343 2 30.5745 10.791 19.7835 0 0 0
1802 2 17.985 1.7985 1.7985 0 0 0
1002 2 25.179 1.7985 1.7985 0 0 0
1118 2 25.179 8.9925 34.1715 0 0 0
583 2 30.5745 32.373 19.7835 0 0 0
1515 2 19.7835 7.194 30.5745 0 0 0
2274 2 14.388 5.3955 30.5745 0 0 0
131 2 34.1715 21.582 19.7835 0 0 0
1917 2 17.985 7.194 32.373 0 0 0
1256 2 23.3805 23.3805 10.791 0 0 0
1425 2 21.582 0.0 21.582 0 0 0
2383 2 12.5895 14.388 19.7835 0 0 0
3220 2 5.3955 19.7835 14.388 0 0 0
3085 2 7.194 7.194 3.597 0 0 0
200 2 34.1715 34.1715 32.373 0 0 0
2426 2 14.388 19.7835 23.3805 0 0 0
2740 2 8.9925 12.5895 14.388 0 0 0
3002 2 7.194 1.7985 1.7985 0 0 0
652 2 26.9775 5.3955 7.194 0 0 0
971 2 26.9775 32.373 8.9925 0 0 0
3987 2 0.0 32.373 10.791 0 0 0
2436 2 12.5895 19.7835 28.776 0 0 0
1902 2 17.985 8.9925 19.7835 0 0 0
285 2 32.373 7.194 3.597 0 0 0
680 2 26.9775 5.3955 32.373 0 0 0
982 2 28.776 34.1715 19.7835 0 0 0
614 2 28.776 1.7985 12.5895 0 0 0
1173 2 25.179 14.388 10.791 0 0 0
3796 2 1.7985 34.1715 28.776 0 0 0
878 2 28.776 23.3805 34.1715 0 0 0
1041 2 25.179 3.597 0.0 0 0 0
2272 2 12.5895 5.3955 25.179 0 0 0
226 2 32.373 1.7985 23.3805 0 0 0
950 2 28.776 30.5745 26.9775 0 0 0
3078 2 7.194 5.3955 34.1715 0 0 0
3062 2 7.194 5.3955 19.7835 0 0 0
935 2 26.9775 28.776 12.5895 0 0 0
958 2 28.776 30.5745 34.1715 0 0 0
2096 2 16.1865 26.9775 10.791 0 0 0
2753 2 10.791 10.791 28.776 0 0 0
744 2 26.9775 12.5895 17.985 0 0 0
3372 2 5.3955 34.1715 7.194 0 0 0
3993 2 0.0 32.373 21.582 0 0 0
3148 2 5.3955 12.5895 21.582 0 0 0
2766 2 10.791 16.1865 5.3955 0 0 0
1583 2 19.7835 14.388 19.7835 0 0 0
3678 2 3.597 23.3805 34.1715 0 0 0
236 2 30.5745 1.7985 28.776 0 0 0
3639 2 1.7985 17.985 34.1715 0 0 0
677 2 28.776 3.597 32.373 0 0 0
2554 2 14.388 30.5745 30.5745 0 0 0
1605 2 21.582 17.985 3.597 0 0 0
2477 2 14.388 21.582 32.373 0 0 0
3625 2 3.597 17.985 21.582 0 0 0
466 2 32.373 23.3805 23.3805 0 0 0
1730 2 21.582 30.5745 8.9925 0 0 0
54 2 34.1715 8.9925 21.582 0 0 0
1496 2 19.7835 8.9925 10.791 0 0 0
2486 2 14.388 26.9775 5.3955 0 0 0
2273 2 14.388 3.597 28.776 0 0 0
2737 2 10.791 10.791 14.388 0 0 0
592 2 30.5745 34.1715 25.179 0 0 0
3985 2 0.0 32.373 7.194 0 0 0
102 2 34.1715 19.7835 0.0 0 0 0
3228 2 5.3955 19.7835 21.582 0 0 0
2824 2 8.9925 19.7835 17.985 0 0 0
3233 2 7.194 17.985 28.776 0 0 0
3236 2 5.3955 19.7835 28.776 0 0 0
2361 2 14.388 14.388 0.0 0 0 0
2992 2 8.9925 34.1715 25.179 0 0 0
608 2 26.9775 1.7985 3.597 0 0 0
1228 2 23.3805 19.7835 21.582 0 0 0
2883 2 8.9925 25.179 1.7985 0 0 0
3153 2 7.194 10.791 28.776 0 0 0
502 2 32.373 26.9775 19.7835 0 0 0
1294 2 25.179 26.9775 12.5895 0 0 0
1254 2 25.179 23.3805 12.5895 0 0 0
3877 2 0.0 10.791 28.776 0 0 0
1977 2 17.985 14.388 14.388 0 0 0
2322 2 14.388 12.5895 1.7985 0 0 0
366 2 32.373 16.1865 5.3955 0 0 0
2093 2 17.985 25.179 10.791 0 0 0
3878 2 0.0 12.5895 30.5745 0 0 0
527 2 30.5745 28.776 5.3955 0 0 0
1710 2 21.582 26.9775 26.9775 0 0 0
3190 2 7.194 16.1865 26.9775 0 0 0
867 2 26.9775 21.582 23.3805 0 0 0
3441 2 3.597 3.597 0.0 0 0 0
1424 2 19.7835 1.7985 17.985 0 0 0
1854 2 17.985 5.3955 12.5895 0 0 0
3359 2 5.3955 28.776 34.1715 0 0 0
3817 2 0.0 0.0 28.776 0 0 0
740 2 26.9775 12.5895 14.388 0 0 0
3570 2 3.597 16.1865 8.9925 0 0 0
3799 2 1.7985 32.373 34.1715 0 0 0
1016 2 23.3805 1.7985 10.791 0 0 0
989 2 28.776 32.373 25.179 0 0 0
1578 2 21.582 16.1865 16.1865 0 0 0
3327 2 5.3955 28.776 5.3955 0 0 0
76 2 34.1715 12.5895 25.179 0 0 0
3013 2 7.194 0.0 10.791 0 0 0
3038 2 7.194 1.7985 34.1715 0 0 0
3879 2 0.0 10.791 32.373 0 0 0
833 2 28.776 17.985 28.776 0 0 0
2986 2 10.791 34.1715 23.3805 0 0 0
2712 2 8.9925 8.9925 25.179 0 0 0
3655 2 1.7985 21.582 12.5895 0 0 0
3107 2 5.3955 7.194 23.3805 0 0 0
2706 2 10.791 8.9925 23.3805 0 0 0
1084 2 23.3805 8.9925 0.0 0 0 0
802 2 28.776 19.7835 1.7985 0 0 0
2374 2 14.388 16.1865 12.5895 0 0 0
3538 2 3.597 12.5895 16.1865 0 0 0
3953 2 0.0 25.179 21.582 0 0 0
486 2 32.373 26.9775 5.3955 0 0 0
2562 2 14.388 34.1715 1.7985 0 0 0
3802 2 0.0 1.7985 1.7985 0 0 0
2118 2 17.985 26.9775 34.1715 0 0 0
2598 2 14.388 34.1715 34.1715 0 0 0
2611 2 8.9925 0.0 8.9925 0 0 0
830 2 28.776 19.7835 26.9775 0 0 0
3135 2 5.3955 10.791 12.5895 0 0 0
1334 2 25.179 30.5745 12.5895 0 0 0
3665 2 3.597 21.582 21.582 0 0 0
280 2 30.5745 5.3955 32.373 0 0 0
1412 2 19.7835 1.7985 7.194 0 0 0
1584 2 19.7835 16.1865 17.985 0 0 0
1337 2 25.179 28.776 14.388 0 0 0
290 2 32.373 8.9925 8.9925 0 0 0
624 2 26.9775 1.7985 17.985 0 0 0
1246 2 25.179 23.3805 5.3955 0 0 0
721 2 28.776 10.791 0.0 0 0 0
1356 2 23.3805 30.5745 28.776 0 0 0
3771 2 1.7985 32.373 8.9925 0 0 0
3780 2 1.7985 34.1715 14.388 0 0 0
3870 2 0.0 12.5895 16.1865 0 0 0
587 2 30.5745 32.373 23.3805 0 0 0
936 2 26.9775 30.5745 10.791 0 0 0
3339 2 5.3955 28.776 16.1865 0 0 0
374 2 32.373 16.1865 12.5895 0 0 0
3160 2 5.3955 12.5895 32.373 0 0 0
457 2 32.373 21.582 14.388 0 0 0
2129 2 17.985 28.776 7.194 0 0 0
3541 2 3.597 10.791 17.985 0 0 0
3958 2 0.0 26.9775 30.5745 0 0 0
2026 2 17.985 19.7835 23.3805 0 0 0
580 2 30.5745 34.1715 14.388 0 0 0
1535 2 19.7835 10.791 12.5895 0 0 0
3493 2 3.597 7.194 10.791 0 0 0
3379 2 5.3955 32.373 16.1865 0 0 0
490 2 32.373 26.9775 8.9925 0 0 0
1756 2 19.7835 30.5745 28.776 0 0 0
3738 2 3.597 30.5745 16.1865 0 0 0
2942 2 10.791 30.5745 19.7835 0 0 0
2848 2 8.9925 23.3805 3.597 0 0 0
3577 2 3.597 14.388 14.388 0 0 0
2003 2 16.1865 17.985 1.7985 0 0 0
2099 2 16.1865 25.179 16.1865 0 0 0
174 2 34.1715 30.5745 21.582 0 0 0
1674 2 21.582 23.3805 30.5745 0 0 0
2430 2 14.388 19.7835 26.9775 0 0 0
1335 2 23.3805 28.776 12.5895 0 0 0
3899 2 0.0 14.388 32.373 0 0 0
2644 2 8.9925 5.3955 0.0 0 0 0
185 2 34.1715 32.373 8.9925 0 0 0
814 2 28.776 19.7835 12.5895 0 0 0
1396 2 23.3805 34.1715 28.776 0 0 0
1666 2 21.582 23.3805 23.3805 0 0 0
2619 2 8.9925 0.0 16.1865 0 0 0
874 2 28.776 23.3805 30.5745 0 0 0
570 2 32.373 34.1715 8.9925 0 0 0
1272 2 23.3805 23.3805 25.179 0 0 0
332 2 30.5745 12.5895 7.194 0 0 0
3057 2 7.194 3.597 14.388 0 0 0
763 2 26.9775 14.388 1.7985 0 0 0
3457 2 3.597 3.597 14.388 0 0 0
914 2 28.776 26.9775 30.5745 0 0 0
1196 2 23.3805 16.1865 28.776 0 0 0
2467 2 12.5895 21.582 23.3805 0 0 0
3338 2 7.194 30.5745 16.1865 0 0 0
127 2 34.1715 21.582 12.5895 0 0 0
53 2 34.1715 7.194 23.3805 0 0 0
3783 2 1.7985 32.373 19.7835 0 0 0
1077 2 25.179 3.597 32.373 0 0 0
1982 2 17.985 16.1865 19.7835 0 0 0
3171 2 5.3955 14.388 8.9925 0 0 0
610 2 28.776 1.7985 8.9925 0 0 0
2762 2 10.791 16.1865 1.7985 0 0 0
282 2 32.373 8.9925 1.7985 0 0 0
3468 2 1.7985 5.3955 21.582 0 0 0
1876 2 16.1865 5.3955 28.776 0 0 0
2958 2 10.791 30.5745 34.1715 0 0 0
2861 2 10.791 21.582 17.985 0 0 0
3174 2 7.194 16.1865 12.5895 0 0 0
1138 2 25.179 12.5895 16.1865 0 0 0
2040 2 16.1865 19.7835 32.373 0 0 0
2534 2 14.388 30.5745 12.5895 0 0 0
2482 2 14.388 26.9775 1.7985 0 0 0
3170 2 7.194 16.1865 8.9925 0 0 0
711 2 26.9775 7.194 26.9775 0 0 0
122 2 34.1715 23.3805 0.0 0 0 0
2122 2 17.985 30.5745 1.7985 0 0 0
3989 2 0.0 32.373 14.388 0 0 0
1928 2 16.1865 12.5895 3.597 0 0 0
1324 2 23.3805 30.5745 0.0 0 0 0
689 2 28.776 7.194 7.194 0 0 0
3843 2 0.0 7.194 3.597 0 0 0
2413 2 14.388 17.985 10.791 0 0 0
3894 2 0.0 16.1865 23.3805 0 0 0
3352 2 5.3955 30.5745 25.179 0 0 0
2060 2 16.1865 23.3805 14.388 0 0 0
2666 2 10.791 5.3955 23.3805 0 0 0
598 2 32.373 34.1715 34.1715 0 0 0
3490 2 3.597 8.9925 8.9925 0 0 0
1114 2 25.179 8.9925 30.5745 0 0 0
2134 2 17.985 30.5745 12.5895 0 0 0
1864 2 16.1865 5.3955 17.985 0 0 0
104 2 34.1715 19.7835 3.597 0 0 0
2945 2 10.791 28.776 21.582 0 0 0
3788 2 1.7985 34.1715 21.582 0 0 0
196 2 34.1715 34.1715 25.179 0 0 0
2340 2 12.5895 12.5895 14.388 0 0 0
3753 2 3.597 28.776 28.776 0 0 0
2071 2 16.1865 21.582 26.9775 0 0 0
1230 2 25.179 19.7835 26.9775 0 0 0
1746 2 21.582 30.5745 23.3805 0 0 0
1208 2 23.3805 19.7835 3.597 0 0 0
1382 2 25.179 34.1715 19.7835 0 0 0
3785 2 3.597 32.373 21.582 0 0 0
901 2 28.776 25.179 17.985 0 0 0
283 2 30.5745 7.194 1.7985 0 0 0
272 2 30.5745 5.3955 25.179 0 0 0
2073 2 17.985 21.582 28.776 0 0 0
1588 2 19.7835 16.1865 21.582 0 0 0
2189 2 17.985 32.373 25.179 0 0 0
2583 2 12.5895 32.373 19.7835 0 0 0
729 2 28.776 10.791 7.194 0 0 0
2109 2 17.985 25.179 25.179 0 0 0
3154 2 7.194 12.5895 30.5745 0 0 0
132 2 34.1715 23.3805 17.985 0 0 0
3674 2 3.597 23.3805 30.5745 0 0 0
2453 2 14.388 21.582 10.791 0 0 0
301 2 32.373 7.194 17.985 0 0 0
2377 2 14.388 14.388 14.388 0 0 0
3858 2 0.0 8.9925 30.5745 0 0 0
1630 2 21.582 19.7835 26.9775 0 0 0
1390 2 25.179 34.1715 26.9775 0 0 0
1952 2 16.1865 12.5895 25.179 0 0 0
3414 2 3.597 1.7985 12.5895 0 0 0
940 2 26.9775 30.5745 14.388 0 0 0
2623 2 8.9925 0.0 19.7835 0 0 0
1402 2 21.582 1.7985 1.7985 0 0 0
941 2 28.776 28.776 17.985 0 0 0
2997 2 10.791 32.373 32.373 0 0 0
361 2 32.373 14.388 0.0 0 0 0
3393 2 7.194 32.373 28.776 0 0 0
849 2 28.776 21.582 7.194 0 0 0
349 2 32.373 10.791 25.179 0 0 0
735 2 26.9775 10.791 12.5895 0 0 0
3669 2 3.597 21.582 25.179 0 0 0
2793 2 10.791 14.388 28.776 0 0 0
2873 2 10.791 21.582 28.776 0 0 0
2472 2 12.5895 23.3805 25.179 0 0 0
3552 2 1.7985 12.5895 25.179 0 0 0
1249 2 25.179 21.582 7.194 0 0 0
2893 2 10.791 25.179 10.791 0 0 0
221 2 32.373 0.0 17.985 0 0 0
782 2 28.776 16.1865 19.7835 0 0 0
1675 2 19.7835 21.582 30.5745 0 0 0
11 2 34.1715 0.0 19.7835 0 0 0
2532 2 12.5895 30.5745 7.194 0 0 0
2343 2 12.5895 10.791 19.7835 0 0 0
788 2 26.9775 16.1865 21.582 0 0 0
260 2 30.5745 5.3955 14.388 0 0 0
728 2 26.9775 12.5895 3.597 0 0 0
424 2 30.5745 19.7835 17.985 0 0 0
1571 2 19.7835 14.388 8.9925 0 0 0
2119 2 16.1865 25.179 34.1715 0 0 0
2652 2 8.9925 5.3955 7.194 0 0 0
101 2 34.1715 17.985 1.7985 0 0 0
3425 2 3.597 0.0 21.582 0 0 0
2379 2 12.5895 14.388 16.1865 0 0 0
2710 2 10.791 8.9925 26.9775 0 0 0
3513 2 3.597 7.194 28.776 0 0 0
438 2 32.373 19.7835 34.1715 0 0 0
2886 2 10.791 26.9775 5.3955 0 0 0
3259 2 5.3955 21.582 16.1865 0 0 0
1408 2 19.7835 1.7985 3.597 0 0 0
2330 2 14.388 12.5895 8.9925 0 0 0
2120 2 16.1865 26.9775 32.373 0 0 0
113 2 34.1715 17.985 23.3805 0 0 0
1135 2 23.3805 10.791 12.5895 0 0 0
758 2 28.776 12.5895 34.1715 0 0 0
190 2 34.1715 34.1715 14.388 0 0 0
631 2 26.9775 0.0 26.9775 0 0 0
3606 2 3.597 19.7835 5.3955 0 0 0
3120 2 5.3955 8.9925 32.373 0 0 0
2771 2 8.9925 14.388 8.9925 0 0 0
3634 2 3.597 19.7835 30.5745 0 0 0
1158 2 25.179 12.5895 34.1715 0 0 0
3960 2 0.0 26.9775 34.1715 0 0 0
2818 2 10.791 19.7835 16.1865 0 0 0
413 2 32.373 17.985 10.791 0 0 0
1154 2 25.179 12.5895 30.5745 0 0 0
3109 2 7.194 7.194 25.179 0 0 0
3319 2 5.3955 25.179 34.1715 0 0 0
19 2 34.1715 0.0 34.1715 0 0 0
1726 2 21.582 30.5745 5.3955 0 0 0
2163 2 16.1865 32.373 1.7985 0 0 0
1815 2 16.1865 0.0 12.5895 0 0 0
339 2 30.5745 10.791 16.1865 0 0 0
1879 2 16.1865 3.597 34.1715 0 0 0
195 2 34.1715 32.373 26.9775 0 0 0
903 2 26.9775 25.179 19.7835 0 0 0
2133 2 17.985 28.776 10.791 0 0 0
2781 2 10.791 14.388 17.985 0 0 0
3216 2 5.3955 19.7835 10.791 0 0 0
2842 2 10.791 23.3805 1.7985 0 0 0
2828 2 8.9925 19.7835 21.582 0 0 0
2701 2 10.791 7.194 17.985 0 0 0
2839 2 8.9925 17.985 34.1715 0 0 0
1405 2 21.582 0.0 3.597 0 0 0
3523 2 1.7985 10.791 1.7985 0 0 0
1558 2 21.582 12.5895 34.1715 0 0 0
2254 2 14.388 5.3955 12.5895 0 0 0
733 2 28.776 10.791 10.791 0 0 0
3849 2 0.0 7.194 14.388 0 0 0
1034 2 25.179 1.7985 30.5745 0 0 0
3208 2 5.3955 19.7835 3.597 0 0 0
2746 2 10.791 12.5895 23.3805 0 0 0
1650 2 21.582 23.3805 8.9925 0 0 0
2549 2 14.388 28.776 25.179 0 0 0
3604 2 1.7985 19.7835 0.0 0 0 0
2114 2 17.985 26.9775 30.5745 0 0 0
3775 2 1.7985 32.373 12.5895 0 0 0
3548 2 1.7985 12.5895 21.582 0 0 0
1137 2 25.179 10.791 14.388 0 0 0
1523 2 19.7835 10.791 1.7985 0 0 0
316 2 30.5745 8.9925 28.776 0 0 0
3397 2 7.194 32.373 32.373 0 0 0
3054 2 7.194 5.3955 12.5895 0 0 0
558 2 32.373 30.5745 34.1715 0 0 0
862 2 28.776 23.3805 19.7835 0 0 0
3776 2 1.7985 34.1715 10.791 0 0 0
471 2 30.5745 21.582 26.9775 0 0 0
3608 2 1.7985 19.7835 3.597 0 0 0
3663 2 1.7985 21.582 19.7835 0 0 0
3089 2 7.194 7.194 7.194 0 0 0
522 2 32.373 30.5745 1.7985 0 0 0
3779 2 1.7985 32.373 16.1865 0 0 0
1830 2 17.985 1.7985 26.9775 0 0 0
1853 2 17.985 3.597 10.791 0 0 0
1377 2 25.179 32.373 14.388 0 0 0
1237 2 25.179 17.985 32.373 0 0 0
3803 2 0.0 0.0 3.597 0 0 0
860 2 26.9775 23.3805 14.388 0 0 0
1327 2 23.3805 28.776 5.3955 0 0 0
3754 2 3.597 30.5745 30.5745 0 0 0
436 2 30.5745 19.7835 28.776 0 0 0
1947 2 16.1865 10.791 23.3805 0 0 0
3618 2 3.597 19.7835 16.1865 0 0 0
3774 2 3.597 34.1715 12.5895 0 0 0
730 2 28.776 12.5895 8.9925 0 0 0
2474 2 14.388 23.3805 30.5745 0 0 0
3128 2 5.3955 12.5895 3.597 0 0 0
1470 2 21.582 5.3955 26.9775 0 0 0
3509 2 3.597 7.194 25.179 0 0 0
2293 2 14.388 7.194 10.791 0 0 0
3138 2 7.194 12.5895 16.1865 0 0 0
330 2 32.373 12.5895 8.9925 0 0 0
588 2 30.5745 34.1715 21.582 0 0 0
3968 2 0.0 30.5745 12.5895 0 0 0
1452 2 19.7835 5.3955 7.194 0 0 0
1078 2 25.179 5.3955 34.1715 0 0 0
2231 2 12.5895 0.0 26.9775 0 0 0
1723 2 19.7835 28.776 1.7985 0 0 0
3189 2 7.194 14.388 25.179 0 0 0
1124 2 23.3805 12.5895 0.0 0 0 0
96 2 34.1715 16.1865 25.179 0 0 0
3943 2 0.0 25.179 3.597 0 0 0
2107 2 16.1865 25.179 23.3805 0 0 0
120 2 34.1715 19.7835 32.373 0 0 0
994 2 28.776 34.1715 30.5745 0 0 0
3722 2 3.597 30.5745 1.7985 0 0 0
3812 2 0.0 1.7985 19.7835 0 0 0
790 2 28.776 16.1865 26.9775 0 0 0
1601 2 21.582 17.985 0.0 0 0 0
1566 2 21.582 16.1865 5.3955 0 0 0
3173 2 7.194 14.388 10.791 0 0 0
2654 2 10.791 5.3955 12.5895 0 0 0
1145 2 25.179 10.791 21.582 0 0 0
1380 2 23.3805 34.1715 14.388 0 0 0
2522 2 14.388 30.5745 1.7985 0 0 0
2860 2 8.9925 23.3805 14.388 0 0 0
2665 2 10.791 3.597 21.582 0 0 0
682 2 28.776 8.9925 1.7985 0 0 0
981 2 28.776 32.373 17.985 0 0 0
1148 2 23.3805 12.5895 21.582 0 0 0
2676 2 8.9925 5.3955 28.776 0 0 0
357 2 32.373 10.791 32.373 0 0 0
2503 2 12.5895 25.179 19.7835 0 0 0
3617 2 3.597 17.985 14.388 0 0 0
3307 2 5.3955 25.179 23.3805 0 0 0
1697 2 21.582 25.179 14.388 0 0 0
277 2 32.373 3.597 32.373 0 0 0
2105 2 17.985 25.179 21.582 0 0 0
2224 2 12.5895 1.7985 17.985 0 0 0
2559 2 12.5895 28.776 34.1715 0 0 0
3821 2 0.0 3.597 0.0 0 0 0
485 2 32.373 25.179 3.597 0 0 0
1698 2 21.582 26.9775 16.1865 0 0 0
978 2 28.776 34.1715 16.1865 0 0 0
270 2 32.373 5.3955 26.9775 0 0 0
1222 2 25.179 19.7835 19.7835 0 0 0
3595 2 1.7985 14.388 30.5745 0 0 0
3766 2 3.597 34.1715 5.3955 0 0 0
787 2 26.9775 14.388 23.3805 0 0 0
683 2 26.9775 7.194 1.7985 0 0 0
2625 2 10.791 0.0 21.582 0 0 0
2999 2 8.9925 32.373 34.1715 0 0 0
2030 2 17.985 19.7835 26.9775 0 0 0
2194 2 17.985 34.1715 30.5745 0 0 0
1696 2 19.7835 26.9775 10.791 0 0 0
2924 2 8.9925 30.5745 0.0 0 0 0
1663 2 19.7835 21.582 19.7835 0 0 0
3030 2 7.194 1.7985 26.9775 0 0 0
2151 2 16.1865 28.776 26.9775 0 0 0
1733 2 21.582 28.776 10.791 0 0 0
2265 2 14.388 3.597 21.582 0 0 0
1600 2 19.7835 16.1865 32.373 0 0 0
3 2 34.1715 0.0 5.3955 0 0 0
2591 2 12.5895 32.373 26.9775 0 0 0
1480 2 19.7835 5.3955 32.373 0 0 0
930 2 28.776 30.5745 8.9925 0 0 0
2511 2 12.5895 25.179 26.9775 0 0 0
310 2 32.373 8.9925 26.9775 0 0 0
1647 2 19.7835 21.582 5.3955 0 0 0
3081 2 7.194 7.194 0.0 0 0 0
3536 2 1.7985 12.5895 10.791 0 0 0
1099 2 23.3805 7.194 16.1865 0 0 0
1507 2 19.7835 7.194 23.3805 0 0 0
2480 2 12.5895 23.3805 32.373 0 0 0
3700 2 1.7985 26.9775 14.388 0 0 0
2351 2 12.5895 10.791 26.9775 0 0 0
817 2 28.776 17.985 14.388 0 0 0
3518 2 3.597 8.9925 34.1715 0 0 0
452 2 30.5745 23.3805 7.194 0 0 0
27 2 34.1715 3.597 12.5895 0 0 0
3889 2 0.0 14.388 14.388 0 0 0
3332 2 5.3955 30.5745 7.194 0 0 0
1981 2 17.985 14.388 17.985 0 0 0
1052 2 23.3805 5.3955 7.194 0 0 0
1074 2 25.179 5.3955 30.5745 0 0 0
13 2 34.1715 0.0 23.3805 0 0 0
1184 2 23.3805 16.1865 17.985 0 0 0
2207 2 12.5895 0.0 5.3955 0 0 0
1068 2 23.3805 5.3955 21.582 0 0 0
2492 2 12.5895 26.9775 7.194 0 0 0
3299 2 5.3955 25.179 16.1865 0 0 0
497 2 32.373 25.179 14.388 0 0 0
1569 2 21.582 14.388 7.194 0 0 0
1822 2 17.985 1.7985 19.7835 0 0 0
488 2 30.5745 26.9775 3.597 0 0 0
2996 2 8.9925 34.1715 28.776 0 0 0
2160 2 16.1865 30.5745 32.373 0 0 0
3627 2 1.7985 17.985 23.3805 0 0 0
34 2 34.1715 5.3955 21.582 0 0 0
1603 2 19.7835 17.985 1.7985 0 0 0
745 2 28.776 10.791 21.582 0 0 0
2311 2 12.5895 7.194 26.9775 0 0 0
1270 2 25.179 23.3805 26.9775 0 0 0
3291 2 5.3955 25.179 8.9925 0 0 0
2518 2 14.388 26.9775 34.1715 0 0 0
1712 2 19.7835 26.9775 25.179 0 0 0
1761 2 21.582 32.373 0.0 0 0 0
1242 2 25.179 23.3805 1.7985 0 0 0
3438 2 3.597 1.7985 34.1715 0 0 0
2148 2 16.1865 30.5745 21.582 0 0 0
2038 2 17.985 19.7835 34.1715 0 0 0
2046 2 17.985 23.3805 5.3955 0 0 0
1086 2 25.179 8.9925 5.3955 0 0 0
1261 2 25.179 21.582 17.985 0 0 0
1561 2 21.582 14.388 0.0 0 0 0
722 2 28.776 12.5895 1.7985 0 0 0
1684 2 19.7835 26.9775 0.0 0 0 0
2937 2 10.791 28.776 14.388 0 0 0
523 2 30.5745 28.776 1.7985 0 0 0
3093 2 7.194 7.194 10.791 0 0 0
206 2 32.373 1.7985 5.3955 0 0 0
1622 2 21.582 19.7835 19.7835 0 0 0
1595 2 19.7835 14.388 30.5745 0 0 0
1861 2 17.985 3.597 17.985 0 0 0
2215 2 12.5895 0.0 12.5895 0 0 0
517 2 32.373 25.179 32.373 0 0 0
3786 2 3.597 34.1715 23.3805 0 0 0
3244 2 5.3955 23.3805 0.0 0 0 0
1959 2 16.1865 10.791 34.1715 0 0 0
2300 2 12.5895 8.9925 14.388 0 0 0
1812 2 16.1865 1.7985 7.194 0 0 0
123 2 34.1715 21.582 5.3955 0 0 0
778 2 28.776 16.1865 16.1865 0 0 0
2176 2 16.1865 34.1715 10.791 0 0 0
188 2 34.1715 34.1715 10.791 0 0 0
1672 2 19.7835 23.3805 25.179 0 0 0
1753 2 21.582 28.776 28.776 0 0 0
2953 2 10.791 28.776 28.776 0 0 0
1372 2 23.3805 34.1715 7.194 0 0 0
3326 2 7.194 30.5745 5.3955 0 0 0
2642 2 10.791 5.3955 1.7985 0 0 0
3355 2 5.3955 28.776 30.5745 0 0 0
3886 2 0.0 16.1865 8.9925 0 0 0
341 2 32.373 10.791 17.985 0 0 0
3427 2 1.7985 0.0 23.3805 0 0 0
1020 2 23.3805 1.7985 14.388 0 0 0
767 2 26.9775 14.388 5.3955 0 0 0
690 2 28.776 8.9925 8.9925 0 0 0
2180 2 16.1865 34.1715 14.388 0 0 0
2223 2 12.5895 0.0 19.7835 0 0 0
417 2 32.373 17.985 14.388 0 0 0
507 2 30.5745 25.179 23.3805 0 0 0
3471 2 1.7985 3.597 26.9775 0 0 0
1501 2 21.582 7.194 17.985 0 0 0
713 2 28.776 7.194 28.776 0 0 0
74 2 34.1715 12.5895 21.582 0 0 0
2934 2 10.791 30.5745 12.5895 0 0 0
1281 2 25.179 25.179 0.0 0 0 0
2932 2 8.9925 30.5745 7.194 0 0 0
2913 2 10.791 25.179 28.776 0 0 0
65 2 34.1715 10.791 8.9925 0 0 0
1592 2 19.7835 16.1865 25.179 0 0 0
109 2 34.1715 17.985 16.1865 0 0 0
2266 2 14.388 5.3955 23.3805 0 0 0
2922 2 10.791 30.5745 1.7985 0 0 0
696 2 26.9775 8.9925 10.791 0 0 0
2699 2 8.9925 7.194 16.1865 0 0 0
81 2 34.1715 14.388 1.7985 0 0 0
1536 2 19.7835 12.5895 10.791 0 0 0
230 2 32.373 1.7985 26.9775 0 0 0
3421 2 3.597 0.0 17.985 0 0 0
1048 2 23.3805 5.3955 3.597 0 0 0
477 2 32.373 21.582 32.373 0 0 0
1661 2 21.582 21.582 17.985 0 0 0
325 2 32.373 10.791 3.597 0 0 0
585 2 32.373 32.373 21.582 0 0 0
1531 2 19.7835 10.791 8.9925 0 0 0
1476 2 19.7835 5.3955 28.776 0 0 0
3334 2 7.194 30.5745 12.5895 0 0 0
1504 2 19.7835 8.9925 17.985 0 0 0
3268 2 5.3955 23.3805 21.582 0 0 0
2802 2 10.791 19.7835 1.7985 0 0 0
3469 2 3.597 3.597 25.179 0 0 0
1671 2 19.7835 21.582 26.9775 0 0 0
2411 2 12.5895 17.985 8.9925 0 0 0
3502 2 3.597 8.9925 19.7835 0 0 0
3136 2 5.3955 12.5895 10.791 0 0 0
3638 2 3.597 19.7835 34.1715 0 0 0
3844 2 0.0 8.9925 5.3955 0 0 0
1786 2 21.582 34.1715 23.3805 0 0 0
1993 2 17.985 14.388 28.776 0 0 0
3537 2 3.597 10.791 14.388 0 0 0
2031 2 16.1865 17.985 26.9775 0 0 0
1791 2 19.7835 32.373 26.9775 0 0 0
3831 2 0.0 3.597 17.985 0 0 0
1640 2 19.7835 19.7835 32.373 0 0 0
491 2 30.5745 25.179 8.9925 0 0 0
1742 2 21.582 30.5745 19.7835 0 0 0
2896 2 8.9925 26.9775 10.791 0 0 0
953 2 28.776 28.776 28.776 0 0 0
3515 2 1.7985 7.194 30.5745 0 0 0
1275 2 23.3805 21.582 30.5745 0 0 0
3930 2 0.0 23.3805 16.1865 0 0 0
3213 2 7.194 17.985 10.791 0 0 0
1826 2 17.985 1.7985 23.3805 0 0 0
3161 2 7.194 14.388 0.0 0 0 0
3912 2 0.0 19.7835 19.7835 0 0 0
2388 2 12.5895 16.1865 21.582 0 0 0
916 2 26.9775 26.9775 28.776 0 0 0
2948 2 8.9925 30.5745 21.582 0 0 0
3988 2 0.0 34.1715 12.5895 0 0 0
106 2 34.1715 19.7835 7.194 0 0 0
1976 2 16.1865 16.1865 10.791 0 0 0
2412 2 12.5895 19.7835 7.194 0 0 0
1803 2 16.1865 0.0 1.7985 0 0 0
1492 2 19.7835 8.9925 7.194 0 0 0
513 2 32.373 25.179 28.776 0 0 0
3610 2 3.597 19.7835 8.9925 0 0 0
3463 2 1.7985 3.597 19.7835 0 0 0
1576 2 19.7835 16.1865 10.791 0 0 0
3381 2 7.194 32.373 17.985 0 0 0
2170 2 17.985 34.1715 8.9925 0 0 0
1882 2 17.985 8.9925 1.7985 0 0 0
1897 2 17.985 7.194 14.388 0 0 0
3052 2 5.3955 5.3955 7.194 0 0 0
3532 2 1.7985 12.5895 7.194 0 0 0
702 2 28.776 8.9925 19.7835 0 0 0
2671 2 8.9925 3.597 26.9775 0 0 0
2761 2 10.791 14.388 0.0 0 0 0
403 2 30.5745 17.985 1.7985 0 0 0
665 2 28.776 3.597 21.582 0 0 0
2496 2 12.5895 26.9775 10.791 0 0 0
1965 2 17.985 14.388 3.597 0 0 0
1351 2 23.3805 28.776 26.9775 0 0 0
1062 2 25.179 5.3955 19.7835 0 0 0
1691 2 19.7835 25.179 8.9925 0 0 0
551 2 30.5745 28.776 26.9775 0 0 0
1007 2 23.3805 0.0 5.3955 0 0 0
1749 2 21.582 28.776 25.179 0 0 0
2167 2 16.1865 32.373 5.3955 0 0 0
3125 2 7.194 10.791 3.597 0 0 0
394 2 32.373 16.1865 30.5745 0 0 0
1935 2 16.1865 10.791 12.5895 0 0 0
3589 2 3.597 14.388 25.179 0 0 0
1990 2 17.985 16.1865 26.9775 0 0 0
3488 2 1.7985 8.9925 3.597 0 0 0
3873 2 0.0 10.791 21.582 0 0 0
793 2 28.776 14.388 28.776 0 0 0
97 2 34.1715 14.388 30.5745 0 0 0
663 2 26.9775 3.597 19.7835 0 0 0
712 2 26.9775 8.9925 25.179 0 0 0
2901 2 10.791 25.179 17.985 0 0 0
2431 2 12.5895 17.985 26.9775 0 0 0
2807 2 8.9925 17.985 5.3955 0 0 0
3440 2 1.7985 1.7985 32.373 0 0 0
884 2 26.9775 26.9775 0.0 0 0 0
504 2 30.5745 26.9775 17.985 0 0 0
1359 2 23.3805 28.776 34.1715 0 0 0
2440 2 12.5895 19.7835 32.373 0 0 0
1112 2 23.3805 8.9925 25.179 0 0 0
1411 2 19.7835 0.0 8.9925 0 0 0
3880 2 0.0 12.5895 34.1715 0 0 0
3222 2 7.194 19.7835 19.7835 0 0 0
561 2 32.373 32.373 0.0 0 0 0
3591 2 1.7985 14.388 26.9775 0 0 0
2727 2 8.9925 10.791 5.3955 0 0 0
656 2 26.9775 5.3955 10.791 0 0 0
2794 2 10.791 16.1865 30.5745 0 0 0
3448 2 1.7985 5.3955 3.597 0 0 0
1321 2 25.179 28.776 0.0 0 0 0
3881 2 0.0 14.388 0.0 0 0 0
249 2 32.373 3.597 7.194 0 0 0
3179 2 5.3955 14.388 16.1865 0 0 0
2556 2 12.5895 30.5745 28.776 0 0 0
2912 2 8.9925 26.9775 25.179 0 0 0
2777 2 10.791 14.388 14.388 0 0 0
966 2 28.776 34.1715 5.3955 0 0 0
2263 2 12.5895 3.597 19.7835 0 0 0
2324 2 12.5895 12.5895 0.0 0 0 0
1449 2 21.582 3.597 7.194 0 0 0
1053 2 25.179 3.597 10.791 0 0 0
2814 2 10.791 19.7835 12.5895 0 0 0
1358 2 25.179 30.5745 34.1715 0 0 0
1922 2 17.985 12.5895 1.7985 0 0 0
3124 2 5.3955 12.5895 0.0 0 0 0
2233 2 14.388 0.0 28.776 0 0 0
1155 2 23.3805 10.791 30.5745 0 0 0
1143 2 23.3805 10.791 19.7835 0 0 0
2103 2 16.1865 25.179 19.7835 0 0 0
2386 2 14.388 16.1865 23.3805 0 0 0
671 2 26.9775 3.597 26.9775 0 0 0
321 2 32.373 10.791 0.0 0 0 0
2594 2 14.388 34.1715 30.5745 0 0 0
3140 2 5.3955 12.5895 14.388 0 0 0
2639 2 8.9925 0.0 34.1715 0 0 0
3745 2 3.597 28.776 21.582 0 0 0
154 2 34.1715 26.9775 21.582 0 0 0
1866 2 17.985 5.3955 23.3805 0 0 0
67 2 34.1715 10.791 12.5895 0 0 0
1191 2 23.3805 14.388 26.9775 0 0 0
133 2 34.1715 21.582 23.3805 0 0 0
2964 2 8.9925 34.1715 0.0 0 0 0
319 2 30.5745 7.194 34.1715 0 0 0
1235 2 23.3805 17.985 30.5745 0 0 0
3243 2 5.3955 21.582 1.7985 0 0 0
2443 2 12.5895 21.582 1.7985 0 0 0
1863 2 16.1865 3.597 19.7835 0 0 0
1354 2 25.179 30.5745 30.5745 0 0 0
904 2 26.9775 26.9775 17.985 0 0 0
3769 2 3.597 32.373 7.194 0 0 0
2972 2 8.9925 34.1715 7.194 0 0 0
883 2 26.9775 25.179 1.7985 0 0 0
1352 2 23.3805 30.5745 25.179 0 0 0
709 2 28.776 7.194 25.179 0 0 0
1582 2 21.582 16.1865 19.7835 0 0 0
248 2 30.5745 5.3955 3.597 0 0 0
3221 2 7.194 17.985 17.985 0 0 0
2651 2 8.9925 3.597 8.9925 0 0 0
3529 2 3.597 10.791 7.194 0 0 0
1503 2 19.7835 7.194 19.7835 0 0 0
2613 2 10.791 0.0 10.791 0 0 0
3193 2 7.194 14.388 28.776 0 0 0
2399 2 12.5895 14.388 34.1715 0 0 0
1348 2 23.3805 30.5745 21.582 0 0 0
1720 2 19.7835 26.9775 32.373 0 0 0
3996 2 0.0 34.1715 26.9775 0 0 0
209 2 32.373 0.0 7.194 0 0 0
3893 2 0.0 14.388 21.582 0 0 0
3403 2 1.7985 0.0 1.7985 0 0 0
1024 2 23.3805 1.7985 17.985 0 0 0
26 2 34.1715 5.3955 7.194 0 0 0
2590 2 14.388 34.1715 26.9775 0 0 0
2359 2 12.5895 10.791 34.1715 0 0 0
258 2 32.373 5.3955 16.1865 0 0 0
1290 2 25.179 26.9775 8.9925 0 0 0
1705 2 21.582 25.179 21.582 0 0 0
458 2 32.373 23.3805 16.1865 0 0 0
3598 2 3.597 16.1865 34.1715 0 0 0
3616 2 1.7985 19.7835 10.791 0 0 0
2725 2 10.791 10.791 3.597 0 0 0
998 2 28.776 34.1715 34.1715 0 0 0
1642 2 21.582 23.3805 1.7985 0 0 0
895 2 26.9775 25.179 12.5895 0 0 0
1670 2 21.582 23.3805 26.9775 0 0 0
1719 2 19.7835 25.179 34.1715 0 0 0
1838 2 17.985 1.7985 34.1715 0 0 0
2568 2 12.5895 34.1715 3.597 0 0 0
3064 2 5.3955 5.3955 17.985 0 0 0
2739 2 8.9925 10.791 16.1865 0 0 0
2283 2 12.5895 7.194 1.7985 0 0 0
1332 2 23.3805 30.5745 7.194 0 0 0
2401 2 14.388 17.985 0.0 0 0 0
3801 2 0.0 0.0 0.0 0 0 0
3896 2 0.0 16.1865 26.9775 0 0 0
605 2 28.776 0.0 3.597 0 0 0
3406 2 3.597 1.7985 5.3955 0 0 0
553 2 32.373 28.776 28.776 0 0 0
1551 2 19.7835 10.791 26.9775 0 0 0
1539 2 19.7835 10.791 16.1865 0 0 0
876 2 26.9775 23.3805 28.776 0 0 0
91 2 34.1715 14.388 19.7835 0 0 0
2504 2 12.5895 26.9775 17.985 0 0 0
3065 2 7.194 3.597 21.582 0 0 0
3156 2 5.3955 12.5895 28.776 0 0 0
3376 2 5.3955 34.1715 10.791 0 0 0
2763 2 8.9925 14.388 1.7985 0 0 0
2230 2 14.388 1.7985 26.9775 0 0 0
55 2 34.1715 7.194 26.9775 0 0 0
1042 2 25.179 5.3955 1.7985 0 0 0
2882 2 10.791 26.9775 1.7985 0 0 0
1692 2 19.7835 26.9775 7.194 0 0 0
1872 2 16.1865 5.3955 25.179 0 0 0
2515 2 12.5895 25.179 30.5745 0 0 0
2919 2 8.9925 25.179 34.1715 0 0 0
2903 2 8.9925 25.179 19.7835 0 0 0
3410 2 3.597 1.7985 8.9925 0 0 0
1859 2 16.1865 3.597 16.1865 0 0 0
3351 2 5.3955 28.776 26.9775 0 0 0
3433 2 3.597 0.0 28.776 0 0 0
2616 2 8.9925 1.7985 10.791 0 0 0
3016 2 5.3955 1.7985 10.791 0 0 0
3652 2 1.7985 23.3805 7.194 0 0 0
761 2 28.776 14.388 0.0 0 0 0
503 2 30.5745 25.179 19.7835 0 0 0
2773 2 10.791 14.388 10.791 0 0 0
670 2 28.776 5.3955 26.9775 0 0 0
1516 2 19.7835 8.9925 28.776 0 0 0
3043 2 5.3955 3.597 1.7985 0 0 0
72 2 34.1715 12.5895 17.985 0 0 0
1656 2 19.7835 23.3805 10.791 0 0 0
791 2 26.9775 14.388 26.9775 0 0 0
3579 2 1.7985 14.388 16.1865 0 0 0
2349 2 14.388 10.791 25.179 0 0 0
3399 2 5.3955 32.373 34.1715 0 0 0
3905 2 0.0 17.985 7.194 0 0 0
3885 2 0.0 14.388 7.194 0 0 0
3853 2 0.0 7.194 21.582 0 0 0
3231 2 5.3955 17.985 26.9775 0 0 0
1447 2 19.7835 3.597 5.3955 0 0 0
3227 2 5.3955 17.985 23.3805 0 0 0
2792 2 8.9925 16.1865 25.179 0 0 0
3720 2 1.7985 26.9775 32.373 0 0 0
354 2 32.373 12.5895 30.5745 0 0 0
3098 2 7.194 8.9925 16.1865 0 0 0
421 2 32.373 17.985 17.985 0 0 0
2502 2 14.388 26.9775 19.7835 0 0 0
3321 2 7.194 28.776 0.0 0 0 0
437 2 32.373 17.985 32.373 0 0 0
2906 2 10.791 26.9775 23.3805 0 0 0
2354 2 14.388 12.5895 30.5745 0 0 0
2072 2 16.1865 23.3805 25.179 0 0 0
1113 2 25.179 7.194 28.776 0 0 0
2016 2 16.1865 19.7835 10.791 0 0 0
518 2 32.373 26.9775 34.1715 0 0 0
3157 2 7.194 10.791 32.373 0 0 0
2479 2 12.5895 21.582 34.1715 0 0 0
3037 2 7.194 0.0 32.373 0 0 0
2434 2 14.388 19.7835 30.5745 0 0 0
1435 2 19.7835 0.0 30.5745 0 0 0
2405 2 14.388 17.985 3.597 0 0 0
373 2 32.373 14.388 10.791 0 0 0
2398 2 14.388 16.1865 34.1715 0 0 0
2973 2 10.791 32.373 10.791 0 0 0
2317 2 14.388 7.194 32.373 0 0 0
2308 2 12.5895 8.9925 21.582 0 0 0
3707 2 1.7985 25.179 23.3805 0 0 0
1360 2 23.3805 30.5745 32.373 0 0 0
3517 2 3.597 7.194 32.373 0 0 0
274 2 32.373 5.3955 30.5745 0 0 0
2173 2 17.985 32.373 10.791 0 0 0
3658 2 3.597 23.3805 16.1865 0 0 0
2970 2 10.791 34.1715 8.9925 0 0 0
1932 2 16.1865 12.5895 7.194 0 0 0
775 2 26.9775 14.388 12.5895 0 0 0
1883 2 16.1865 7.194 1.7985 0 0 0
1245 2 25.179 21.582 3.597 0 0 0
3407 2 1.7985 0.0 5.3955 0 0 0
2212 2 12.5895 1.7985 7.194 0 0 0
2355 2 12.5895 10.791 30.5745 0 0 0
2392 2 12.5895 16.1865 25.179 0 0 0
750 2 28.776 12.5895 26.9775 0 0 0
273 2 32.373 3.597 28.776 0 0 0
905 2 28.776 25.179 21.582 0 0 0
3506 2 3.597 8.9925 23.3805 0 0 0
2514 2 14.388 26.9775 30.5745 0 0 0
3024 2 5.3955 1.7985 17.985 0 0 0
2820 2 8.9925 19.7835 14.388 0 0 0
3916 2 0.0 19.7835 26.9775 0 0 0
2229 2 14.388 0.0 25.179 0 0 0
2012 2 16.1865 19.7835 7.194 0 0 0
3028 2 5.3955 1.7985 21.582 0 0 0
3940 2 0.0 23.3805 34.1715 0 0 0
2139 2 16.1865 28.776 16.1865 0 0 0
2920 2 8.9925 26.9775 32.373 0 0 0
2294 2 14.388 8.9925 12.5895 0 0 0
2548 2 12.5895 30.5745 21.582 0 0 0
1706 2 21.582 26.9775 23.3805 0 0 0
3834 2 0.0 5.3955 23.3805 0 0 0
3056 2 5.3955 5.3955 10.791 0 0 0
786 2 28.776 16.1865 23.3805 0 0 0
1758 2 21.582 30.5745 34.1715 0 0 0
770 2 28.776 16.1865 8.9925 0 0 0
3287 2 5.3955 25.179 5.3955 0 0 0
505 2 32.373 25.179 21.582 0 0 0
3558 2 3.597 12.5895 34.1715 0 0 0
2790 2 10.791 16.1865 26.9775 0 0 0
1549 2 21.582 10.791 25.179 0 0 0
2680 3 8.9925 5.3955 32.373 0 0 0
3631 3 1.7985 17.985 26.9775 0 0 0
2685 3 10.791 7.194 3.597 0 0 0
866 3 28.776 23.3805 23.3805 0 0 0
2188 3 16.1865 34.1715 21.582 0 0 0
563 3 30.5745 32.373 1.7985 0 0 0
276 3 30.5745 5.3955 28.776 0 0 0
1299 3 23.3805 25.179 16.1865 0 0 0
2683 3 8.9925 7.194 1.7985 0 0 0
1831 3 16.1865 0.0 26.9775 0 0 0
1904 3 16.1865 8.9925 17.985 0 0 0
975 3 26.9775 32.373 12.5895 0 0 0
2471 3 12.5895 21.582 26.9775 0 0 0
2673 3 10.791 3.597 28.776 0 0 0
1940 3 16.1865 12.5895 14.388 0 0 0
2626 3 10.791 1.7985 23.3805 0 0 0
3731 3 1.7985 28.776 8.9925 0 0 0
3168 3 5.3955 16.1865 3.597 0 0 0
469 3 32.373 21.582 25.179 0 0 0
1877 3 17.985 3.597 32.373 0 0 0
1914 3 17.985 8.9925 30.5745 0 0 0
546 3 32.373 30.5745 23.3805 0 0 0
3256 3 5.3955 23.3805 10.791 0 0 0
1096 3 23.3805 8.9925 10.791 0 0 0
1857 3 17.985 3.597 14.388 0 0 0
3596 3 1.7985 16.1865 28.776 0 0 0
2985 3 10.791 32.373 21.582 0 0 0
2495 3 12.5895 25.179 12.5895 0 0 0
618 3 28.776 1.7985 16.1865 0 0 0
2424 3 12.5895 19.7835 17.985 0 0 0
2247 3 12.5895 3.597 5.3955 0 0 0
2636 3 8.9925 1.7985 28.776 0 0 0
1122 3 25.179 12.5895 1.7985 0 0 0
1071 3 23.3805 3.597 26.9775 0 0 0
3601 3 3.597 17.985 0.0 0 0 0
3281 3 7.194 25.179 0.0 0 0 0
2675 3 8.9925 3.597 30.5745 0 0 0
3432 3 1.7985 1.7985 25.179 0 0 0
2368 3 12.5895 16.1865 3.597 0 0 0
748 3 26.9775 12.5895 21.582 0 0 0
1259 3 23.3805 21.582 16.1865 0 0 0
2607 3 8.9925 0.0 5.3955 0 0 0
335 3 30.5745 10.791 12.5895 0 0 0
3309 3 7.194 25.179 25.179 0 0 0
1410 3 21.582 1.7985 8.9925 0 0 0
2709 3 10.791 7.194 25.179 0 0 0
3186 3 7.194 16.1865 23.3805 0 0 0
124 3 34.1715 23.3805 3.597 0 0 0
3446 3 3.597 5.3955 5.3955 0 0 0
1609 3 21.582 17.985 7.194 0 0 0
1252 3 23.3805 23.3805 7.194 0 0 0
3029 3 7.194 0.0 25.179 0 0 0
1946 3 17.985 12.5895 23.3805 0 0 0
2897 3 10.791 25.179 14.388 0 0 0
2185 3 17.985 32.373 21.582 0 0 0
3068 3 5.3955 5.3955 21.582 0 0 0
3992 3 0.0 34.1715 19.7835 0 0 0
3798 3 3.597 34.1715 34.1715 0 0 0
2259 3 12.5895 3.597 16.1865 0 0 0
2191 3 16.1865 32.373 26.9775 0 0 0
171 3 34.1715 28.776 19.7835 0 0 0
2585 3 14.388 32.373 21.582 0 0 0
1064 3 23.3805 5.3955 17.985 0 0 0
2487 3 12.5895 25.179 5.3955 0 0 0
2994 3 10.791 34.1715 30.5745 0 0 0
3551 3 1.7985 10.791 26.9775 0 0 0
1302 3 25.179 26.9775 19.7835 0 0 0
410 3 32.373 19.7835 8.9925 0 0 0
1456 3 19.7835 5.3955 10.791 0 0 0
3651 3 1.7985 21.582 8.9925 0 0 0
3944 3 0.0 26.9775 5.3955 0 0 0
924 3 26.9775 30.5745 0.0 0 0 0
3079 3 5.3955 3.597 34.1715 0 0 0
3864 3 0.0 12.5895 5.3955 0 0 0
2168 3 16.1865 34.1715 3.597 0 0 0
1398 3 25.179 34.1715 34.1715 0 0 0
71 3 34.1715 10.791 19.7835 0 0 0
3115 3 5.3955 7.194 30.5745 0 0 0
2218 3 14.388 1.7985 16.1865 0 0 0
1149 3 25.179 10.791 25.179 0 0 0
3504 3 1.7985 8.9925 17.985 0 0 0
1004 3 23.3805 1.7985 0.0 0 0 0
3932 3 0.0 23.3805 19.7835 0 0 0
2954 3 10.791 30.5745 30.5745 0 0 0
181 3 34.1715 32.373 1.7985 0 0 0
3561 3 3.597 14.388 0.0 0 0 0
147 3 34.1715 25.179 12.5895 0 0 0
751 3 26.9775 10.791 26.9775 0 0 0
1301 3 25.179 25.179 17.985 0 0 0
2014 3 17.985 19.7835 12.5895 0 0 0
3632 3 1.7985 19.7835 25.179 0 0 0
3370 3 7.194 34.1715 8.9925 0 0 0
1057 3 25.179 3.597 14.388 0 0 0
2255 3 12.5895 3.597 12.5895 0 0 0
955 3 26.9775 28.776 30.5745 0 0 0
653 3 28.776 3.597 10.791 0 0 0
128 3 34.1715 23.3805 10.791 0 0 0
714 3 28.776 8.9925 30.5745 0 0 0
2757 3 10.791 10.791 32.373 0 0 0
3258 3 7.194 23.3805 16.1865 0 0 0
2543 3 12.5895 28.776 19.7835 0 0 0
1240 3 23.3805 19.7835 32.373 0 0 0
3531 3 1.7985 10.791 8.9925 0 0 0
1701 3 21.582 25.179 17.985 0 0 0
606 3 28.776 1.7985 5.3955 0 0 0
1960 3 16.1865 12.5895 32.373 0 0 0
1759 3 19.7835 28.776 34.1715 0 0 0
3329 3 7.194 28.776 7.194 0 0 0
2734 3 10.791 12.5895 12.5895 0 0 0
1146 3 25.179 12.5895 23.3805 0 0 0
3369 3 7.194 32.373 7.194 0 0 0
2715 3 8.9925 7.194 30.5745 0 0 0
2437 3 14.388 17.985 32.373 0 0 0
3306 3 7.194 26.9775 23.3805 0 0 0
472 3 30.5745 23.3805 25.179 0 0 0
1690 3 21.582 26.9775 8.9925 0 0 0
2538 3 14.388 30.5745 16.1865 0 0 0
2063 3 16.1865 21.582 19.7835 0 0 0
2221 3 14.388 0.0 17.985 0 0 0
552 3 30.5745 30.5745 25.179 0 0 0
2121 3 17.985 28.776 0.0 0 0 0
3325 3 7.194 28.776 3.597 0 0 0
2918 3 10.791 26.9775 34.1715 0 0 0
1912 3 16.1865 8.9925 25.179 0 0 0
863 3 26.9775 21.582 19.7835 0 0 0
1426 3 21.582 1.7985 23.3805 0 0 0
3210 3 7.194 19.7835 8.9925 0 0 0
625 3 28.776 0.0 21.582 0 0 0
155 3 34.1715 25.179 26.9775 0 0 0
1201 3 25.179 17.985 0.0 0 0 0
1273 3 25.179 21.582 28.776 0 0 0
1681 3 21.582 25.179 0.0 0 0 0
1065 3 25.179 3.597 21.582 0 0 0
531 3 30.5745 28.776 8.9925 0 0 0
2439 3 12.5895 17.985 34.1715 0 0 0
1619 3 19.7835 17.985 16.1865 0 0 0
1178 3 25.179 16.1865 16.1865 0 0 0
2889 3 10.791 25.179 7.194 0 0 0
1415 3 19.7835 0.0 12.5895 0 0 0
2682 3 10.791 8.9925 1.7985 0 0 0
292 3 30.5745 8.9925 7.194 0 0 0
3545 3 3.597 10.791 21.582 0 0 0
565 3 32.373 32.373 3.597 0 0 0
2806 3 10.791 19.7835 5.3955 0 0 0
3444 3 1.7985 5.3955 0.0 0 0 0
1313 3 25.179 25.179 28.776 0 0 0
801 3 28.776 17.985 0.0 0 0 0
1304 3 23.3805 26.9775 17.985 0 0 0
2786 3 10.791 16.1865 23.3805 0 0 0
2213 3 14.388 0.0 10.791 0 0 0
3830 3 0.0 5.3955 16.1865 0 0 0
917 3 28.776 25.179 32.373 0 0 0
2290 3 14.388 8.9925 8.9925 0 0 0
3380 3 5.3955 34.1715 14.388 0 0 0
715 3 26.9775 7.194 30.5745 0 0 0
448 3 30.5745 23.3805 3.597 0 0 0
1123 3 23.3805 10.791 1.7985 0 0 0
2382 3 14.388 16.1865 19.7835 0 0 0
183 3 34.1715 32.373 5.3955 0 0 0
2733 3 10.791 10.791 10.791 0 0 0
506 3 32.373 26.9775 23.3805 0 0 0
3315 3 5.3955 25.179 30.5745 0 0 0
3829 3 0.0 3.597 14.388 0 0 0
3934 3 0.0 23.3805 23.3805 0 0 0
1724 3 19.7835 30.5745 0.0 0 0 0
995 3 26.9775 32.373 30.5745 0 0 0
2074 3 17.985 23.3805 30.5745 0 0 0
1819 3 16.1865 0.0 16.1865 0 0 0
3970 3 0.0 30.5745 16.1865 0 0 0
3245 3 7.194 21.582 3.597 0 0 0
1762 3 21.582 34.1715 1.7985 0 0 0
3176 3 5.3955 16.1865 10.791 0 0 0
1317 3 25.179 25.179 32.373 0 0 0
50 3 34.1715 8.9925 14.388 0 0 0
1951 3 16.1865 10.791 26.9775 0 0 0
1727 3 19.7835 28.776 5.3955 0 0 0
3982 3 0.0 34.1715 1.7985 0 0 0
3118 3 7.194 8.9925 34.1715 0 0 0
543 3 30.5745 28.776 19.7835 0 0 0
2033 3 17.985 17.985 28.776 0 0 0
2512 3 12.5895 26.9775 25.179 0 0 0
1841 3 17.985 3.597 0.0 0 0 0
1186 3 25.179 16.1865 23.3805 0 0 0
1906 3 17.985 8.9925 23.3805 0 0 0
2052 3 16.1865 23.3805 7.194 0 0 0
554 3 32.373 30.5745 30.5745 0 0 0
39 3 34.1715 3.597 34.1715 0 0 0
1072 3 23.3805 5.3955 25.179 0 0 0
2550 3 14.388 30.5745 26.9775 0 0 0
3049 3 7.194 3.597 7.194 0 0 0
10 3 34.1715 1.7985 14.388 0 0 0
371 3 30.5745 14.388 8.9925 0 0 0
2517 3 14.388 25.179 32.373 0 0 0
474 3 32.373 23.3805 30.5745 0 0 0
1075 3 23.3805 3.597 30.5745 0 0 0
2380 3 12.5895 16.1865 14.388 0 0 0
2595 3 12.5895 32.373 30.5745 0 0 0
3460 3 1.7985 5.3955 14.388 0 0 0
2497 3 14.388 25.179 14.388 0 0 0
1477 3 21.582 3.597 32.373 0 0 0
3717 3 3.597 25.179 32.373 0 0 0
1463 3 19.7835 3.597 19.7835 0 0 0
1964 3 16.1865 16.1865 0.0 0 0 0
1433 3 21.582 0.0 28.776 0 0 0
420 3 30.5745 19.7835 14.388 0 0 0
1874 3 17.985 5.3955 30.5745 0 0 0
1088 3 23.3805 8.9925 3.597 0 0 0
3437 3 3.597 0.0 32.373 0 0 0
2166 3 17.985 34.1715 5.3955 0 0 0
3341 3 7.194 28.776 17.985 0 0 0
805 3 28.776 17.985 3.597 0 0 0
1713 3 21.582 25.179 28.776 0 0 0
947 3 26.9775 28.776 23.3805 0 0 0
2116 3 16.1865 26.9775 28.776 0 0 0
264 3 30.5745 5.3955 17.985 0 0 0
2499 3 12.5895 25.179 16.1865 0 0 0
749 3 28.776 10.791 25.179 0 0 0
3492 3 1.7985 8.9925 7.194 0 0 0
602 3 28.776 1.7985 1.7985 0 0 0
2458 3 14.388 23.3805 16.1865 0 0 0
3954 3 0.0 26.9775 23.3805 0 0 0
1607 3 19.7835 17.985 5.3955 0 0 0
893 3 28.776 25.179 10.791 0 0 0
1432 3 19.7835 1.7985 25.179 0 0 0
3902 3 0.0 19.7835 1.7985 0 0 0
3112 3 5.3955 8.9925 25.179 0 0 0
700 3 26.9775 8.9925 14.388 0 0 0
1491 3 19.7835 7.194 8.9925 0 0 0
2341 3 14.388 10.791 17.985 0 0 0
3511 3 1.7985 7.194 26.9775 0 0 0
918 3 28.776 26.9775 34.1715 0 0 0
450 3 32.373 23.3805 8.9925 0 0 0
2363 3 12.5895 14.388 1.7985 0 0 0
1457 3 21.582 3.597 14.388 0 0 0
1852 3 16.1865 5.3955 7.194 0 0 0
1774 3 21.582 34.1715 12.5895 0 0 0
2402 3 14.388 19.7835 1.7985 0 0 0
2968 3 8.9925 34.1715 3.597 0 0 0
1847 3 16.1865 3.597 5.3955 0 0 0
908 3 26.9775 26.9775 21.582 0 0 0
897 3 28.776 25.179 14.388 0 0 0
765 3 28.776 14.388 3.597 0 0 0
262 3 32.373 5.3955 19.7835 0 0 0
576 3 30.5745 34.1715 10.791 0 0 0
2390 3 14.388 16.1865 26.9775 0 0 0
392 3 30.5745 16.1865 25.179 0 0 0
2219 3 12.5895 0.0 16.1865 0 0 0
2553 3 14.388 28.776 28.776 0 0 0
651 3 26.9775 3.597 8.9925 0 0 0
35 3 34.1715 3.597 26.9775 0 0 0
2890 3 10.791 26.9775 8.9925 0 0 0
3058 3 7.194 5.3955 16.1865 0 0 0
2827 3 8.9925 17.985 23.3805 0 0 0
1151 3 23.3805 10.791 26.9775 0 0 0
3609 3 3.597 17.985 7.194 0 0 0
3666 3 3.597 23.3805 23.3805 0 0 0
2364 3 12.5895 16.1865 0.0 0 0 0
112 3 34.1715 19.7835 17.985 0 0 0
2408 3 12.5895 19.7835 3.597 0 0 0
149 3 34.1715 25.179 16.1865 0 0 0
1927 3 16.1865 10.791 5.3955 0 0 0
3729 3 3.597 28.776 7.194 0 0 0
2100 3 16.1865 26.9775 14.388 0 0 0
3995 3 0.0 32.373 25.179 0 0 0
1087 3 23.3805 7.194 5.3955 0 0 0
3139 3 5.3955 10.791 16.1865 0 0 0
152 3 34.1715 26.9775 17.985 0 0 0
2416 3 12.5895 19.7835 10.791 0 0 0
1050 3 25.179 5.3955 8.9925 0 0 0
3090 3 7.194 8.9925 8.9925 0 0 0
1907 3 16.1865 7.194 23.3805 0 0 0
1974 3 17.985 16.1865 12.5895 0 0 0
52 3 34.1715 8.9925 17.985 0 0 0
3422 3 3.597 1.7985 19.7835 0 0 0
3716 3 1.7985 26.9775 28.776 0 0 0
3188 3 5.3955 16.1865 21.582 0 0 0
3411 3 1.7985 0.0 8.9925 0 0 0
1067 3 23.3805 3.597 23.3805 0 0 0
2396 3 12.5895 16.1865 28.776 0 0 0
2519 3 12.5895 25.179 34.1715 0 0 0
3388 3 5.3955 34.1715 21.582 0 0 0
2847 3 8.9925 21.582 5.3955 0 0 0
3191 3 5.3955 14.388 26.9775 0 0 0
1945 3 17.985 10.791 21.582 0 0 0
3919 3 0.0 17.985 32.373 0 0 0
1116 3 23.3805 8.9925 28.776 0 0 0
595 3 30.5745 32.373 30.5745 0 0 0
1312 3 23.3805 26.9775 25.179 0 0 0
3683 3 1.7985 25.179 1.7985 0 0 0
1215 3 23.3805 17.985 12.5895 0 0 0
2854 3 10.791 23.3805 12.5895 0 0 0
3182 3 7.194 16.1865 19.7835 0 0 0
1683 3 19.7835 25.179 1.7985 0 0 0
375 3 30.5745 14.388 12.5895 0 0 0
1109 3 25.179 7.194 25.179 0 0 0
3312 3 5.3955 26.9775 25.179 0 0 0
227 3 30.5745 0.0 23.3805 0 0 0
3599 3 1.7985 14.388 34.1715 0 0 0
954 3 28.776 30.5745 30.5745 0 0 0
211 3 30.5745 0.0 8.9925 0 0 0
1804 3 16.1865 1.7985 0.0 0 0 0
390 3 32.373 16.1865 26.9775 0 0 0
938 3 28.776 30.5745 16.1865 0 0 0
1770 3 21.582 34.1715 8.9925 0 0 0
3177 3 7.194 14.388 14.388 0 0 0
1292 3 23.3805 26.9775 7.194 0 0 0
180 3 34.1715 30.5745 32.373 0 0 0
2126 3 17.985 30.5745 5.3955 0 0 0
569 3 32.373 32.373 7.194 0 0 0
1989 3 17.985 14.388 25.179 0 0 0
816 3 26.9775 19.7835 10.791 0 0 0
2070 3 17.985 23.3805 26.9775 0 0 0
1649 3 21.582 21.582 7.194 0 0 0
2075 3 16.1865 21.582 30.5745 0 0 0
3011 3 5.3955 0.0 8.9925 0 0 0
240 3 30.5745 1.7985 32.373 0 0 0
1040 3 23.3805 1.7985 32.373 0 0 0
1370 3 25.179 34.1715 8.9925 0 0 0
1682 3 21.582 26.9775 1.7985 0 0 0
869 3 28.776 21.582 25.179 0 0 0
189 3 34.1715 32.373 16.1865 0 0 0
3477 3 3.597 3.597 32.373 0 0 0
302 3 32.373 8.9925 19.7835 0 0 0
3832 3 0.0 5.3955 19.7835 0 0 0
2077 3 17.985 21.582 32.373 0 0 0
3856 3 0.0 8.9925 26.9775 0 0 0
2991 3 8.9925 32.373 26.9775 0 0 0
300 3 30.5745 8.9925 14.388 0 0 0
3344 3 5.3955 30.5745 17.985 0 0 0
1185 3 25.179 14.388 21.582 0 0 0
378 3 32.373 16.1865 16.1865 0 0 0
224 3 30.5745 1.7985 17.985 0 0 0
2086 3 17.985 26.9775 5.3955 0 0 0
278 3 32.373 5.3955 34.1715 0 0 0
3501 3 3.597 7.194 17.985 0 0 0
3294 3 7.194 26.9775 12.5895 0 0 0
1944 3 16.1865 12.5895 17.985 0 0 0
3765 3 3.597 32.373 3.597 0 0 0
1957 3 17.985 10.791 32.373 0 0 0
2525 3 14.388 28.776 3.597 0 0 0
3347 3 5.3955 28.776 23.3805 0 0 0
2871 3 8.9925 21.582 26.9775 0 0 0
3218 3 7.194 19.7835 16.1865 0 0 0
161 3 34.1715 28.776 1.7985 0 0 0
3555 3 1.7985 10.791 30.5745 0 0 0
3622 3 3.597 19.7835 19.7835 0 0 0
815 3 26.9775 17.985 12.5895 0 0 0
69 3 34.1715 10.791 16.1865 0 0 0
1792 3 19.7835 34.1715 25.179 0 0 0
769 3 28.776 14.388 7.194 0 0 0
99 3 34.1715 14.388 34.1715 0 0 0
1604 3 19.7835 19.7835 0.0 0 0 0
3965 3 0.0 28.776 7.194 0 0 0
3677 3 3.597 21.582 32.373 0 0 0
201 3 32.373 0.0 0.0 0 0 0
1992 3 16.1865 16.1865 25.179 0 0 0
1162 3 25.179 16.1865 1.7985 0 0 0
779 3 26.9775 14.388 16.1865 0 0 0
241 3 32.373 3.597 0.0 0 0 0
3757 3 3.597 28.776 32.373 0 0 0
3615 3 1.7985 17.985 12.5895 0 0 0
913 3 28.776 25.179 28.776 0 0 0
1010 3 25.179 1.7985 8.9925 0 0 0
2034 3 17.985 19.7835 30.5745 0 0 0
3676 3 1.7985 23.3805 28.776 0 0 0
1413 3 21.582 0.0 10.791 0 0 0
2227 3 12.5895 0.0 23.3805 0 0 0
2612 3 8.9925 1.7985 7.194 0 0 0
1474 3 21.582 5.3955 30.5745 0 0 0
1104 3 23.3805 8.9925 17.985 0 0 0
526 3 32.373 30.5745 5.3955 0 0 0
2001 3 17.985 17.985 0.0 0 0 0
1983 3 16.1865 14.388 19.7835 0 0 0
3564 3 1.7985 16.1865 0.0 0 0 0
1936 3 16.1865 12.5895 10.791 0 0 0
136 3 34.1715 23.3805 25.179 0 0 0
1176 3 23.3805 16.1865 10.791 0 0 0
3103 3 5.3955 7.194 19.7835 0 0 0
2409 3 14.388 17.985 7.194 0 0 0
2461 3 14.388 21.582 17.985 0 0 0
3959 3 0.0 25.179 32.373 0 0 0
2057 3 17.985 21.582 14.388 0 0 0
1285 3 25.179 25.179 3.597 0 0 0
3603 3 1.7985 17.985 1.7985 0 0 0
2132 3 16.1865 30.5745 7.194 0 0 0
296 3 30.5745 8.9925 10.791 0 0 0
629 3 28.776 0.0 25.179 0 0 0
780 3 26.9775 16.1865 14.388 0 0 0
3322 3 7.194 30.5745 1.7985 0 0 0
1136 3 23.3805 12.5895 10.791 0 0 0
3104 3 5.3955 8.9925 17.985 0 0 0
973 3 28.776 32.373 10.791 0 0 0
3718 3 3.597 26.9775 34.1715 0 0 0
725 3 28.776 10.791 3.597 0 0 0
2744 3 8.9925 12.5895 17.985 0 0 0
925 3 28.776 28.776 3.597 0 0 0
2606 3 10.791 1.7985 5.3955 0 0 0
784 3 26.9775 16.1865 17.985 0 0 0
1490 3 21.582 8.9925 8.9925 0 0 0
220 3 30.5745 1.7985 14.388 0 0 0
418 3 32.373 19.7835 16.1865 0 0 0
2024 3 16.1865 19.7835 17.985 0 0 0
419 3 30.5745 17.985 16.1865 0 0 0
47 3 34.1715 7.194 12.5895 0 0 0
854 3 28.776 23.3805 12.5895 0 0 0
1381 3 25.179 32.373 17.985 0 0 0
2309 3 14.388 7.194 25.179 0 0 0
2730 3 10.791 12.5895 8.9925 0 0 0
1658 3 21.582 23.3805 16.1865 0 0 0
1966 3 17.985 16.1865 5.3955 0 0 0
1499 3 19.7835 7.194 16.1865 0 0 0
455 3 30.5745 21.582 12.5895 0 0 0
2558 3 14.388 30.5745 34.1715 0 0 0
2722 3 10.791 12.5895 1.7985 0 0 0
2404 3 12.5895 19.7835 0.0 0 0 0
3600 3 1.7985 16.1865 32.373 0 0 0
3253 3 7.194 21.582 10.791 0 0 0
429 3 32.373 17.985 25.179 0 0 0
3526 3 3.597 12.5895 5.3955 0 0 0
367 3 30.5745 14.388 5.3955 0 0 0
1255 3 23.3805 21.582 12.5895 0 0 0
2931 3 8.9925 28.776 8.9925 0 0 0
1139 3 23.3805 10.791 16.1865 0 0 0
1562 3 21.582 16.1865 1.7985 0 0 0
1293 3 25.179 25.179 10.791 0 0 0
3810 3 0.0 1.7985 16.1865 0 0 0
1506 3 21.582 8.9925 23.3805 0 0 0
2384 3 12.5895 16.1865 17.985 0 0 0
3624 3 1.7985 19.7835 17.985 0 0 0
1286 3 25.179 26.9775 5.3955 0 0 0
3840 3 0.0 5.3955 34.1715 0 0 0
1581 3 21.582 14.388 17.985 0 0 0
644 3 26.9775 5.3955 0.0 0 0 0
3392 3 5.3955 34.1715 25.179 0 0 0
313 3 32.373 7.194 28.776 0 0 0
1306 3 25.179 26.9775 23.3805 0 0 0
2270 3 14.388 5.3955 26.9775 0 0 0
2415 3 12.5895 17.985 12.5895 0 0 0
582 3 32.373 34.1715 19.7835 0 0 0
192 3 34.1715 34.1715 17.985 0 0 0
1937 3 17.985 10.791 14.388 0 0 0
1111 3 23.3805 7.194 26.9775 0 0 0
3021 3 7.194 0.0 17.985 0 0 0
1615 3 19.7835 17.985 12.5895 0 0 0
481 3 32.373 25.179 0.0 0 0 0
1970 3 17.985 16.1865 8.9925 0 0 0
2631 3 8.9925 0.0 26.9775 0 0 0
1044 3 23.3805 5.3955 0.0 0 0 0
1288 3 23.3805 26.9775 3.597 0 0 0
1441 3 21.582 3.597 0.0 0 0 0
1011 3 23.3805 0.0 8.9925 0 0 0
2980 3 8.9925 34.1715 14.388 0 0 0
2067 3 16.1865 21.582 23.3805 0 0 0
3694 3 3.597 26.9775 12.5895 0 0 0
2741 3 10.791 10.791 17.985 0 0 0
3773 3 3.597 32.373 10.791 0 0 0
3991 3 0.0 32.373 17.985 0 0 0
560 3 30.5745 30.5745 32.373 0 0 0
2697 3 10.791 7.194 14.388 0 0 0
259 3 30.5745 3.597 16.1865 0 0 0
3951 3 0.0 25.179 17.985 0 0 0
3979 3 0.0 28.776 32.373 0 0 0
2238 3 14.388 1.7985 34.1715 0 0 0
1631 3 19.7835 17.985 26.9775 0 0 0
2681 3 10.791 7.194 0.0 0 0 0
3941 3 0.0 25.179 0.0 0 0 0
409 3 32.373 17.985 7.194 0 0 0
660 3 26.9775 5.3955 14.388 0 0 0
3117 3 7.194 7.194 32.373 0 0 0
1346 3 25.179 30.5745 23.3805 0 0 0
1833 3 17.985 0.0 28.776 0 0 0
1848 3 16.1865 5.3955 3.597 0 0 0
3630 3 3.597 19.7835 26.9775 0 0 0
882 3 28.776 26.9775 1.7985 0 0 0
3910 3 0.0 19.7835 16.1865 0 0 0
1431 3 19.7835 0.0 26.9775 0 0 0
37 3 34.1715 3.597 30.5745 0 0 0
3967 3 0.0 28.776 10.791 0 0 0
3684 3 1.7985 26.9775 0.0 0 0 0
1892 3 16.1865 8.9925 7.194 0 0 0
493 3 32.373 25.179 10.791 0 0 0
3805 3 0.0 0.0 7.194 0 0 0
3571 3 1.7985 14.388 8.9925 0 0 0
445 3 32.373 21.582 3.597 0 0 0
3241 3 7.194 21.582 0.0 0 0 0
2780 3 8.9925 16.1865 14.388 0 0 0
3575 3 1.7985 14.388 12.5895 0 0 0
3142 3 7.194 12.5895 19.7835 0 0 0
3587 3 1.7985 14.388 23.3805 0 0 0
2260 3 12.5895 5.3955 14.388 0 0 0
838 3 28.776 19.7835 34.1715 0 0 0
1903 3 16.1865 7.194 19.7835 0 0 0
3857 3 0.0 7.194 28.776 0 0 0
3938 3 0.0 23.3805 30.5745 0 0 0
2573 3 14.388 32.373 10.791 0 0 0
3937 3 0.0 21.582 28.776 0 0 0
3203 3 5.3955 17.985 1.7985 0 0 0
2645 3 10.791 3.597 3.597 0 0 0
3286 3 7.194 26.9775 5.3955 0 0 0
3248 3 5.3955 23.3805 3.597 0 0 0
3675 3 1.7985 21.582 30.5745 0 0 0
3554 3 3.597 12.5895 30.5745 0 0 0
3583 3 1.7985 14.388 19.7835 0 0 0
1509 3 21.582 7.194 25.179 0 0 0
3336 3 5.3955 30.5745 10.791 0 0 0
197 3 34.1715 32.373 30.5745 0 0 0
1500 3 19.7835 8.9925 14.388 0 0 0
414 3 32.373 19.7835 12.5895 0 0 0
3770 3 3.597 34.1715 8.9925 0 0 0
3746 3 3.597 30.5745 23.3805 0 0 0
3998 3 0.0 34.1715 30.5745 0 0 0
5 3 34.1715 0.0 8.9925 0 0 0
2593 3 14.388 32.373 28.776 0 0 0
2124 3 16.1865 30.5745 0.0 0 0 0
808 3 26.9775 19.7835 3.597 0 0 0
77 3 34.1715 10.791 30.5745 0 0 0
1221 3 25.179 17.985 17.985 0 0 0
2752 3 8.9925 12.5895 25.179 0 0 0
2536 3 12.5895 30.5745 10.791 0 0 0
428 3 30.5745 19.7835 21.582 0 0 0
2149 3 17.985 28.776 25.179 0 0 0
3004 3 5.3955 1.7985 0.0 0 0 0
2951 3 8.9925 28.776 26.9775 0 0 0
1446 3 21.582 5.3955 5.3955 0 0 0
2993 3 10.791 32.373 28.776 0 0 0
219 3 30.5745 0.0 16.1865 0 0 0
638 3 28.776 1.7985 34.1715 0 0 0
1806 3 17.985 1.7985 5.3955 0 0 0
333 3 32.373 10.791 10.791 0 0 0
1384 3 23.3805 34.1715 17.985 0 0 0
919 3 26.9775 25.179 34.1715 0 0 0
2535 3 12.5895 28.776 12.5895 0 0 0
2844 3 8.9925 23.3805 0.0 0 0 0
405 3 32.373 17.985 3.597 0 0 0
2145 3 17.985 28.776 21.582 0 0 0
1909 3 17.985 7.194 25.179 0 0 0
2446 3 14.388 23.3805 5.3955 0 0 0
650 3 28.776 5.3955 8.9925 0 0 0
1344 3 23.3805 30.5745 17.985 0 0 0
3402 3 3.597 1.7985 1.7985 0 0 0
797 3 28.776 14.388 32.373 0 0 0
303 3 30.5745 7.194 19.7835 0 0 0
49 3 34.1715 7.194 16.1865 0 0 0
649 3 28.776 3.597 7.194 0 0 0
291 3 30.5745 7.194 8.9925 0 0 0
237 3 32.373 0.0 32.373 0 0 0
1276 3 23.3805 23.3805 28.776 0 0 0
1091 3 23.3805 7.194 8.9925 0 0 0
1620 3 19.7835 19.7835 14.388 0 0 0
912 3 26.9775 26.9775 25.179 0 0 0
3289 3 7.194 25.179 7.194 0 0 0
3419 3 1.7985 0.0 16.1865 0 0 0
3671 3 1.7985 21.582 26.9775 0 0 0
3251 3 5.3955 21.582 8.9925 0 0 0
3363 3 5.3955 32.373 1.7985 0 0 0
3342 3 7.194 30.5745 19.7835 0 0 0
579 3 30.5745 32.373 16.1865 0 0 0
1401 3 21.582 0.0 0.0 0 0 0
3527 3 1.7985 10.791 5.3955 0 0 0
1331 3 23.3805 28.776 8.9925 0 0 0
1374 3 25.179 34.1715 12.5895 0 0 0
208 3 30.5745 1.7985 3.597 0 0 0
2995 3 8.9925 32.373 30.5745 0 0 0
825 3 28.776 17.985 21.582 0 0 0
3957 3 0.0 25.179 28.776 0 0 0
427 3 30.5745 17.985 23.3805 0 0 0
1525 3 21.582 10.791 3.597 0 0 0
1037 3 25.179 0.0 32.373 0 0 0
3568 3 1.7985 16.1865 3.597 0 0 0
324 3 30.5745 12.5895 0.0 0 0 0
2834 3 10.791 19.7835 30.5745 0 0 0
82 3 34.1715 16.1865 0.0 0 0 0
555 3 30.5745 28.776 30.5745 0 0 0
3368 3 5.3955 34.1715 3.597 0 0 0
2276 3 12.5895 5.3955 28.776 0 0 0
3641 3 3.597 21.582 0.0 0 0 0
187 3 34.1715 32.373 12.5895 0 0 0
3726 3 3.597 30.5745 5.3955 0 0 0
1942 3 17.985 12.5895 19.7835 0 0 0
3044 3 5.3955 5.3955 0.0 0 0 0
1161 3 25.179 14.388 0.0 0 0 0
2021 3 17.985 17.985 17.985 0 0 0
4000 3 0.0 34.1715 34.1715 0 0 0
2491 3 12.5895 25.179 8.9925 0 0 0
1487 3 19.7835 7.194 5.3955 0 0 0
1069 3 25.179 3.597 25.179 0 0 0
647 3 26.9775 3.597 5.3955 0 0 0
1880 3 16.1865 5.3955 32.373 0 0 0
3267 3 5.3955 21.582 23.3805 0 0 0
234 3 32.373 1.7985 30.5745 0 0 0
1046 3 25.179 5.3955 5.3955 0 0 0
3127 3 5.3955 10.791 5.3955 0 0 0
1473 3 21.582 3.597 28.776 0 0 0
3927 3 0.0 21.582 10.791 0 0 0
969 3 28.776 32.373 7.194 0 0 0
348 3 30.5745 12.5895 21.582 0 0 0
2658 3 10.791 5.3955 16.1865 0 0 0
2863 3 8.9925 21.582 19.7835 0 0 0
2949 3 10.791 28.776 25.179 0 0 0
454 3 32.373 23.3805 12.5895 0 0 0
294 3 32.373 8.9925 12.5895 0 0 0
2456 3 12.5895 23.3805 10.791 0 0 0
1303 3 23.3805 25.179 19.7835 0 0 0
21 3 34.1715 3.597 1.7985 0 0 0
3566 3 3.597 16.1865 5.3955 0 0 0
937 3 28.776 28.776 14.388 0 0 0
3860 3 0.0 8.9925 34.1715 0 0 0
400 3 30.5745 16.1865 32.373 0 0 0
139 3 34.1715 21.582 34.1715 0 0 0
2599 3 12.5895 32.373 34.1715 0 0 0
3242 3 7.194 23.3805 1.7985 0 0 0
1051 3 23.3805 3.597 8.9925 0 0 0
2220 3 12.5895 1.7985 14.388 0 0 0
3923 3 0.0 21.582 3.597 0 0 0
1121 3 25.179 10.791 0.0 0 0 0
3635 3 1.7985 17.985 30.5745 0 0 0
3464 3 1.7985 5.3955 17.985 0 0 0
14 3 34.1715 1.7985 21.582 0 0 0
3293 3 7.194 25.179 10.791 0 0 0
145 3 34.1715 25.179 8.9925 0 0 0
110 3 34.1715 19.7835 14.388 0 0 0
3113 3 7.194 7.194 28.776 0 0 0
1028 3 23.3805 1.7985 21.582 0 0 0
3260 3 5.3955 23.3805 14.388 0 0 0
2775 3 8.9925 14.388 12.5895 0 0 0
2064 3 16.1865 23.3805 17.985 0 0 0
3984 3 0.0 34.1715 5.3955 0 0 0
1518 3 21.582 8.9925 34.1715 0 0 0
1205 3 25.179 17.985 3.597 0 0 0
398 3 32.373 16.1865 34.1715 0 0 0
1397 3 25.179 32.373 32.373 0 0 0
3592 3 1.7985 16.1865 25.179 0 0 0
1211 3 23.3805 17.985 8.9925 0 0 0
1192 3 23.3805 16.1865 25.179 0 0 0
1300 3 23.3805 26.9775 14.388 0 0 0
1677 3 21.582 21.582 32.373 0 0 0
2053 3 17.985 21.582 10.791 0 0 0
1685 3 21.582 25.179 3.597 0 0 0
232 3 30.5745 1.7985 25.179 0 0 0
1839 3 16.1865 0.0 34.1715 0 0 0
2540 3 12.5895 30.5745 14.388 0 0 0
3121 3 7.194 10.791 0.0 0 0 0
3337 3 7.194 28.776 14.388 0 0 0
707 3 26.9775 7.194 23.3805 0 0 0
2204 3 12.5895 1.7985 0.0 0 0 0
1637 3 21.582 17.985 32.373 0 0 0
1323 3 23.3805 28.776 1.7985 0 0 0
467 3 30.5745 21.582 23.3805 0 0 0
799 3 26.9775 14.388 34.1715 0 0 0
407 3 30.5745 17.985 5.3955 0 0 0
3439 3 1.7985 0.0 34.1715 0 0 0
2864 3 8.9925 23.3805 17.985 0 0 0
3012 3 5.3955 1.7985 7.194 0 0 0
996 3 26.9775 34.1715 28.776 0 0 0
586 3 32.373 34.1715 23.3805 0 0 0
2520 3 12.5895 26.9775 32.373 0 0 0
1728 3 19.7835 30.5745 3.597 0 0 0
3952 3 0.0 26.9775 19.7835 0 0 0
1779 3 19.7835 32.373 16.1865 0 0 0
2465 3 14.388 21.582 21.582 0 0 0
2039 3 16.1865 17.985 34.1715 0 0 0
3835 3 0.0 3.597 25.179 0 0 0
85 3 34.1715 14.388 8.9925 0 0 0
3544 3 1.7985 12.5895 17.985 0 0 0
1439 3 19.7835 0.0 34.1715 0 0 0
1599 3 19.7835 14.388 34.1715 0 0 0
556 3 30.5745 30.5745 28.776 0 0 0
3759 3 1.7985 28.776 34.1715 0 0 0
3017 3 7.194 0.0 14.388 0 0 0
1513 3 21.582 7.194 28.776 0 0 0
1626 3 21.582 19.7835 23.3805 0 0 0
3497 3 3.597 7.194 14.388 0 0 0
2246 3 14.388 5.3955 5.3955 0 0 0
3207 3 5.3955 17.985 5.3955 0 0 0
2281 3 14.388 7.194 0.0 0 0 0
293 3 32.373 7.194 10.791 0 0 0
176 3 34.1715 30.5745 25.179 0 0 0
3225 3 7.194 17.985 21.582 0 0 0
1224 3 23.3805 19.7835 17.985 0 0 0
3420 3 1.7985 1.7985 14.388 0 0 0
2225 3 14.388 0.0 21.582 0 0 0
1568 3 19.7835 16.1865 3.597 0 0 0
870 3 28.776 23.3805 26.9775 0 0 0
1594 3 21.582 16.1865 30.5745 0 0 0
2768 3 8.9925 16.1865 3.597 0 0 0
2279 3 12.5895 3.597 34.1715 0 0 0
1156 3 23.3805 12.5895 28.776 0 0 0
223 3 30.5745 0.0 19.7835 0 0 0
3152 3 5.3955 12.5895 25.179 0 0 0
3283 3 5.3955 25.179 1.7985 0 0 0
1654 3 21.582 23.3805 12.5895 0 0 0
1529 3 21.582 10.791 7.194 0 0 0
1767 3 19.7835 32.373 5.3955 0 0 0
3485 3 3.597 7.194 3.597 0 0 0
2751 3 8.9925 10.791 26.9775 0 0 0
2979 3 8.9925 32.373 16.1865 0 0 0
604 3 26.9775 1.7985 0.0 0 0 0
3290 3 7.194 26.9775 8.9925 0 0 0
184 3 34.1715 34.1715 3.597 0 0 0
3386 3 7.194 34.1715 23.3805 0 0 0
2767 3 8.9925 14.388 5.3955 0 0 0
2648 3 8.9925 5.3955 3.597 0 0 0
720 3 26.9775 8.9925 32.373 0 0 0
2566 3 14.388 34.1715 5.3955 0 0 0
238 3 32.373 1.7985 34.1715 0 0 0
1817 3 17.985 0.0 14.388 0 0 0
1602 3 21.582 19.7835 1.7985 0 0 0
832 3 26.9775 19.7835 25.179 0 0 0
79 3 34.1715 10.791 34.1715 0 0 0
169 3 34.1715 28.776 16.1865 0 0 0
803 3 26.9775 17.985 1.7985 0 0 0
3357 3 7.194 28.776 32.373 0 0 0
3682 3 3.597 26.9775 1.7985 0 0 0
1512 3 19.7835 8.9925 25.179 0 0 0
2152 3 16.1865 30.5745 25.179 0 0 0
46 3 34.1715 8.9925 7.194 0 0 0
2630 3 10.791 1.7985 26.9775 0 0 0
1399 3 23.3805 32.373 34.1715 0 0 0
1556 3 19.7835 12.5895 28.776 0 0 0
425 3 32.373 17.985 21.582 0 0 0
871 3 26.9775 21.582 26.9775 0 0 0
3701 3 3.597 25.179 17.985 0 0 0
1241 3 25.179 21.582 0.0 0 0 0
968 3 26.9775 34.1715 3.597 0 0 0
1448 3 19.7835 5.3955 3.597 0 0 0
2400 3 12.5895 16.1865 32.373 0 0 0
3594 3 3.597 16.1865 30.5745 0 0 0
172 3 34.1715 30.5745 17.985 0 0 0
766 3 28.776 16.1865 5.3955 0 0 0
3981 3 0.0 32.373 0.0 0 0 0
633 3 28.776 0.0 28.776 0 0 0
2356 3 12.5895 12.5895 28.776 0 0 0
2251 3 12.5895 3.597 8.9925 0 0 0
3083 3 5.3955 7.194 1.7985 0 0 0
710 3 28.776 8.9925 26.9775 0 0 0
1083 3 23.3805 7.194 1.7985 0 0 0
1687 3 19.7835 25.179 5.3955 0 0 0
2664 3 8.9925 5.3955 17.985 0 0 0
896 3 26.9775 26.9775 10.791 0 0 0
3459 3 1.7985 3.597 16.1865 0 0 0
1444 3 19.7835 5.3955 0.0 0 0 0
831 3 26.9775 17.985 26.9775 0 0 0
1606 3 21.582 19.7835 5.3955 0 0 0
233 3 32.373 0.0 28.776 0 0 0
2933 3 10.791 28.776 10.791 0 0 0
1849 3 17.985 3.597 7.194 0 0 0
796 3 26.9775 16.1865 28.776 0 0 0
992 3 26.9775 34.1715 25.179 0 0 0
2615 3 8.9925 0.0 12.5895 0 0 0
2028 3 16.1865 19.7835 21.582 0 0 0
2716 3 8.9925 8.9925 28.776 0 0 0
2564 3 12.5895 34.1715 0.0 0 0 0
2505 3 14.388 25.179 21.582 0 0 0
1570 3 21.582 16.1865 8.9925 0 0 0
1017 3 25.179 0.0 14.388 0 0 0
266 3 32.373 5.3955 23.3805 0 0 0
1623 3 19.7835 17.985 19.7835 0 0 0
434 3 32.373 19.7835 30.5745 0 0 0
2269 3 14.388 3.597 25.179 0 0 0
3265 3 7.194 21.582 21.582 0 0 0
3333 3 7.194 28.776 10.791 0 0 0
3761 3 3.597 32.373 0.0 0 0 0
3159 3 5.3955 10.791 34.1715 0 0 0
1553 3 21.582 10.791 28.776 0 0 0
3195 3 5.3955 14.388 30.5745 0 0 0
3292 3 5.3955 26.9775 7.194 0 0 0
2703 3 8.9925 7.194 19.7835 0 0 0
2965 3 10.791 32.373 3.597 0 0 0
1676 3 19.7835 23.3805 28.776 0 0 0
1540 3 19.7835 12.5895 14.388 0 0 0
2236 3 12.5895 1.7985 28.776 0 0 0
3461 3 3.597 3.597 17.985 0 0 0
2195 3 16.1865 32.373 30.5745 0 0 0
3815 3 0.0 0.0 25.179 0 0 0
550 3 32.373 30.5745 26.9775 0 0 0
3514 3 3.597 8.9925 30.5745 0 0 0
2485 3 14.388 25.179 3.597 0 0 0
2498 3 14.388 26.9775 16.1865 0 0 0
2085 3 17.985 25.179 3.597 0 0 0
2376 3 12.5895 16.1865 10.791 0 0 0
3458 3 3.597 5.3955 16.1865 0 0 0
3560 3 1.7985 12.5895 32.373 0 0 0
3764 3 1.7985 34.1715 0.0 0 0 0
2769 3 10.791 14.388 7.194 0 0 0
736 3 26.9775 12.5895 10.791 0 0 0
399 3 30.5745 14.388 34.1715 0 0 0
2352 3 12.5895 12.5895 25.179 0 0 0
2714 3 10.791 8.9925 30.5745 0 0 0
2700 3 8.9925 8.9925 14.388 0 0 0
1115 3 23.3805 7.194 30.5745 0 0 0
2574 3 14.388 34.1715 12.5895 0 0 0
1164 3 23.3805 16.1865 0.0 0 0 0
2943 3 8.9925 28.776 19.7835 0 0 0
2326 3 14.388 12.5895 5.3955 0 0 0
2181 3 17.985 32.373 17.985 0 0 0
2810 3 10.791 19.7835 8.9925 0 0 0
3914 3 0.0 19.7835 23.3805 0 0 0
2668 3 8.9925 5.3955 21.582 0 0 0
667 3 26.9775 3.597 23.3805 0 0 0
3270 3 7.194 23.3805 26.9775 0 0 0
3556 3 1.7985 12.5895 28.776 0 0 0
3715 3 1.7985 25.179 30.5745 0 0 0
3516 3 1.7985 8.9925 28.776 0 0 0
3473 3 3.597 3.597 28.776 0 0 0
3323 3 5.3955 28.776 1.7985 0 0 0
508 3 30.5745 26.9775 21.582 0 0 0
377 3 32.373 14.388 14.388 0 0 0
972 3 26.9775 34.1715 7.194 0 0 0
2240 3 12.5895 1.7985 32.373 0 0 0
3848 3 0.0 8.9925 12.5895 0 0 0
3695 3 1.7985 25.179 12.5895 0 0 0
3449 3 3.597 3.597 7.194 0 0 0
2084 3 16.1865 26.9775 0.0 0 0 0
2019 3 16.1865 17.985 16.1865 0 0 0
3711 3 1.7985 25.179 26.9775 0 0 0
372 3 30.5745 16.1865 7.194 0 0 0
3408 3 1.7985 1.7985 3.597 0 0 0
2058 3 17.985 23.3805 16.1865 0 0 0
3383 3 5.3955 32.373 19.7835 0 0 0
1194 3 25.179 16.1865 30.5745 0 0 0
1768 3 19.7835 34.1715 3.597 0 0 0
2643 3 8.9925 3.597 1.7985 0 0 0
2222 3 14.388 1.7985 19.7835 0 0 0
1029 3 25.179 0.0 25.179 0 0 0
2596 3 12.5895 34.1715 28.776 0 0 0
731 3 26.9775 10.791 8.9925 0 0 0
2389 3 14.388 14.388 25.179 0 0 0
827 3 26.9775 17.985 23.3805 0 0 0
2984 3 8.9925 34.1715 17.985 0 0 0
3915 3 0.0 17.985 25.179 0 0 0
648 3 26.9775 5.3955 3.597 0 0 0
3709 3 3.597 25.179 25.179 0 0 0
3574 3 3.597 16.1865 12.5895 0 0 0
2335 3 12.5895 10.791 12.5895 0 0 0
3343 3 5.3955 28.776 19.7835 0 0 0
3361 3 7.194 32.373 0.0 0 0 0
810 3 28.776 19.7835 8.9925 0 0 0
1754 3 21.582 30.5745 30.5745 0 0 0
1277 3 25.179 21.582 32.373 0 0 0
3275 3 5.3955 21.582 30.5745 0 0 0
1030 3 25.179 1.7985 26.9775 0 0 0
2457 3 14.388 21.582 14.388 0 0 0
2237 3 14.388 0.0 32.373 0 0 0
3297 3 7.194 25.179 14.388 0 0 0
2748 3 8.9925 12.5895 21.582 0 0 0
2056 3 16.1865 23.3805 10.791 0 0 0
1755 3 19.7835 28.776 30.5745 0 0 0
89 3 34.1715 14.388 16.1865 0 0 0
3664 3 1.7985 23.3805 17.985 0 0 0
160 3 34.1715 26.9775 32.373 0 0 0
129 3 34.1715 21.582 16.1865 0 0 0
1782 3 21.582 34.1715 19.7835 0 0 0
806 3 28.776 19.7835 5.3955 0 0 0
2732 3 8.9925 12.5895 7.194 0 0 0
90 3 34.1715 16.1865 14.388 0 0 0
3636 3 1.7985 19.7835 28.776 0 0 0
3071 3 5.3955 3.597 26.9775 0 0 0
3039 3 5.3955 0.0 34.1715 0 0 0
2345 3 14.388 10.791 21.582 0 0 0
753 3 28.776 10.791 28.776 0 0 0
3540 3 1.7985 12.5895 14.388 0 0 0
2271 3 12.5895 3.597 26.9775 0 0 0
926 3 28.776 30.5745 5.3955 0 0 0
911 3 26.9775 25.179 26.9775 0 0 0
1808 3 16.1865 1.7985 3.597 0 0 0
719 3 26.9775 7.194 34.1715 0 0 0
7 3 34.1715 0.0 12.5895 0 0 0
979 3 26.9775 32.373 16.1865 0 0 0
3000 3 8.9925 34.1715 32.373 0 0 0
453 3 32.373 21.582 10.791 0 0 0
2327 3 12.5895 10.791 5.3955 0 0 0
1330 3 25.179 30.5745 8.9925 0 0 0
2433 3 14.388 17.985 28.776 0 0 0
3966 3 0.0 30.5745 8.9925 0 0 0
843 3 26.9775 21.582 1.7985 0 0 0
528 3 30.5745 30.5745 3.597 0 0 0
25 3 34.1715 3.597 8.9925 0 0 0
2589 3 14.388 32.373 25.179 0 0 0
3317 3 7.194 25.179 32.373 0 0 0
2146 3 17.985 30.5745 23.3805 0 0 0
2686 3 10.791 8.9925 5.3955 0 0 0
1251 3 23.3805 21.582 8.9925 0 0 0
1574 3 21.582 16.1865 12.5895 0 0 0
381 3 32.373 14.388 17.985 0 0 0
1546 3 21.582 12.5895 23.3805 0 0 0
1628 3 19.7835 19.7835 21.582 0 0 0
2731 3 8.9925 10.791 8.9925 0 0 0
186 3 34.1715 34.1715 7.194 0 0 0
724 3 26.9775 12.5895 0.0 0 0 0
320 3 30.5745 8.9925 32.373 0 0 0
1627 3 19.7835 17.985 23.3805 0 0 0
2963 3 8.9925 32.373 1.7985 0 0 0
2305 3 14.388 7.194 21.582 0 0 0
446 3 32.373 23.3805 5.3955 0 0 0
275 3 30.5745 3.597 30.5745 0 0 0
2130 3 17.985 30.5745 8.9925 0 0 0
2261 3 14.388 3.597 17.985 0 0 0
2691 3 8.9925 7.194 8.9925 0 0 0
1345 3 25.179 28.776 21.582 0 0 0
1994 3 17.985 16.1865 30.5745 0 0 0
1152 3 23.3805 12.5895 25.179 0 0 0
456 3 30.5745 23.3805 10.791 0 0 0
2228 3 12.5895 1.7985 21.582 0 0 0
1147 3 23.3805 10.791 23.3805 0 0 0
3500 4 1.7985 8.9925 14.388 0 0 0
3534 4 3.597 12.5895 12.5895 0 0 0
1305 4 25.179 25.179 21.582 0 0 0
2521 4 14.388 28.776 0.0 0 0 0
1218 4 25.179 19.7835 16.1865 0 0 0
358 4 32.373 12.5895 34.1715 0 0 0
3202 4 7.194 19.7835 1.7985 0 0 0
568 4 30.5745 34.1715 3.597 0 0 0
1557 4 21.582 10.791 32.373 0 0 0
3584 4 1.7985 16.1865 17.985 0 0 0
1547 4 19.7835 10.791 23.3805 0 0 0
1984 4 16.1865 16.1865 17.985 0 0 0
2782 4 10.791 16.1865 19.7835 0 0 0
487 4 30.5745 25.179 5.3955 0 0 0
1434 4 21.582 1.7985 30.5745 0 0 0
1870 4 17.985 5.3955 26.9775 0 0 0
2314 4 14.388 8.9925 30.5745 0 0 0
1805 4 17.985 0.0 3.597 0 0 0
1027 4 23.3805 0.0 23.3805 0 0 0
603 4 26.9775 0.0 1.7985 0 0 0
2808 4 8.9925 19.7835 3.597 0 0 0
2904 4 8.9925 26.9775 17.985 0 0 0
379 4 30.5745 14.388 16.1865 0 0 0
3198 4 7.194 16.1865 34.1715 0 0 0
2165 4 17.985 32.373 3.597 0 0 0
3373 4 7.194 32.373 10.791 0 0 0
1954 4 17.985 12.5895 30.5745 0 0 0
3900 4 0.0 16.1865 34.1715 0 0 0
902 4 28.776 26.9775 19.7835 0 0 0
3378 4 7.194 34.1715 16.1865 0 0 0
2831 4 8.9925 17.985 26.9775 0 0 0
698 4 28.776 8.9925 16.1865 0 0 0
3130 4 7.194 12.5895 8.9925 0 0 0
500 4 30.5745 26.9775 14.388 0 0 0
2576 4 12.5895 34.1715 10.791 0 0 0
1429 4 21.582 0.0 25.179 0 0 0
639 4 26.9775 0.0 34.1715 0 0 0
2657 4 10.791 3.597 14.388 0 0 0
1364 4 23.3805 34.1715 0.0 0 0 0
1699 4 19.7835 25.179 16.1865 0 0 0
2037 4 17.985 17.985 32.373 0 0 0
834 4 28.776 19.7835 30.5745 0 0 0
2813 4 10.791 17.985 10.791 0 0 0
3777 4 3.597 32.373 14.388 0 0 0
1923 4 16.1865 10.791 1.7985 0 0 0
2638 4 10.791 1.7985 34.1715 0 0 0
3510 4 3.597 8.9925 26.9775 0 0 0
32 4 34.1715 5.3955 17.985 0 0 0
2438 4 14.388 19.7835 34.1715 0 0 0
2094 4 17.985 26.9775 12.5895 0 0 0
515 4 30.5745 25.179 30.5745 0 0 0
754 4 28.776 12.5895 30.5745 0 0 0
2494 4 14.388 26.9775 12.5895 0 0 0
3390 4 7.194 34.1715 26.9775 0 0 0
1943 4 16.1865 10.791 19.7835 0 0 0
3946 4 0.0 26.9775 8.9925 0 0 0
2184 4 16.1865 34.1715 17.985 0 0 0
2136 4 16.1865 30.5745 10.791 0 0 0
2318 4 14.388 8.9925 34.1715 0 0 0
3204 4 5.3955 19.7835 0.0 0 0 0
3401 4 3.597 0.0 0.0 0 0 0
415 4 30.5745 17.985 12.5895 0 0 0
3920 4 0.0 19.7835 34.1715 0 0 0
632 4 26.9775 1.7985 25.179 0 0 0
1442 4 21.582 5.3955 1.7985 0 0 0
3768 4 1.7985 34.1715 3.597 0 0 0
2101 4 17.985 25.179 17.985 0 0 0
1905 4 17.985 7.194 21.582 0 0 0
3804 4 0.0 1.7985 5.3955 0 0 0
3132 4 5.3955 12.5895 7.194 0 0 0
355 4 30.5745 10.791 30.5745 0 0 0
148 4 34.1715 26.9775 10.791 0 0 0
1715 4 19.7835 25.179 30.5745 0 0 0
873 4 28.776 21.582 28.776 0 0 0
1741 4 21.582 28.776 17.985 0 0 0
3590 4 3.597 16.1865 26.9775 0 0 0
3396 4 5.3955 34.1715 28.776 0 0 0
1778 4 21.582 34.1715 16.1865 0 0 0
942 4 28.776 30.5745 19.7835 0 0 0
3101 4 7.194 7.194 17.985 0 0 0
2232 4 12.5895 1.7985 25.179 0 0 0
1769 4 21.582 32.373 7.194 0 0 0
1214 4 25.179 19.7835 12.5895 0 0 0
3649 4 3.597 21.582 7.194 0 0 0
1090 4 25.179 8.9925 8.9925 0 0 0
2743 4 8.9925 10.791 19.7835 0 0 0
2092 4 16.1865 26.9775 7.194 0 0 0
1776 4 19.7835 34.1715 10.791 0 0 0
847 4 26.9775 21.582 5.3955 0 0 0
3956 4 0.0 26.9775 26.9775 0 0 0
2812 4 8.9925 19.7835 7.194 0 0 0
1798 4 21.582 34.1715 34.1715 0 0 0
983 4 26.9775 32.373 19.7835 0 0 0
2306 4 14.388 8.9925 23.3805 0 0 0
3867 4 0.0 10.791 10.791 0 0 0
1608 4 19.7835 19.7835 3.597 0 0 0
1801 4 17.985 0.0 0.0 0 0 0
3861 4 0.0 10.791 0.0 0 0 0
2916 4 8.9925 26.9775 28.776 0 0 0
1653 4 21.582 21.582 10.791 0 0 0
1120 4 23.3805 8.9925 32.373 0 0 0
2253 4 14.388 3.597 10.791 0 0 0
329 4 32.373 10.791 7.194 0 0 0
150 4 34.1715 26.9775 14.388 0 0 0
1751 4 19.7835 28.776 26.9775 0 0 0
2582 4 14.388 34.1715 19.7835 0 0 0
408 4 30.5745 19.7835 3.597 0 0 0
828 4 26.9775 19.7835 21.582 0 0 0
1226 4 25.179 19.7835 23.3805 0 0 0
1834 4 17.985 1.7985 30.5745 0 0 0
771 4 26.9775 14.388 8.9925 0 0 0
2868 4 8.9925 23.3805 21.582 0 0 0
3133 4 7.194 10.791 10.791 0 0 0
1900 4 16.1865 8.9925 14.388 0 0 0
3032 4 5.3955 1.7985 25.179 0 0 0
1409 4 21.582 0.0 7.194 0 0 0
1717 4 21.582 25.179 32.373 0 0 0
470 4 32.373 23.3805 26.9775 0 0 0
3787 4 1.7985 32.373 23.3805 0 0 0
1097 4 25.179 7.194 14.388 0 0 0
1734 4 21.582 30.5745 12.5895 0 0 0
1278 4 25.179 23.3805 34.1715 0 0 0
977 4 28.776 32.373 14.388 0 0 0
1667 4 19.7835 21.582 23.3805 0 0 0
2545 4 14.388 28.776 21.582 0 0 0
2488 4 12.5895 26.9775 3.597 0 0 0
673 4 28.776 3.597 28.776 0 0 0
3129 4 7.194 10.791 7.194 0 0 0
1119 4 23.3805 7.194 34.1715 0 0 0
2678 4 10.791 5.3955 34.1715 0 0 0
2095 4 16.1865 25.179 12.5895 0 0 0
1508 4 19.7835 8.9925 21.582 0 0 0
1271 4 23.3805 21.582 26.9775 0 0 0
1232 4 23.3805 19.7835 25.179 0 0 0
484 4 30.5745 26.9775 0.0 0 0 0
2250 4 14.388 5.3955 8.9925 0 0 0
1533 4 21.582 10.791 10.791 0 0 0
1641 4 21.582 21.582 0.0 0 0 0
2182 4 17.985 34.1715 19.7835 0 0 0
2927 4 8.9925 28.776 5.3955 0 0 0
691 4 26.9775 7.194 8.9925 0 0 0
1660 4 19.7835 23.3805 14.388 0 0 0
3576 4 1.7985 16.1865 10.791 0 0 0
967 4 26.9775 32.373 5.3955 0 0 0
997 4 28.776 32.373 32.373 0 0 0
2316 4 12.5895 8.9925 28.776 0 0 0
1213 4 25.179 17.985 10.791 0 0 0
2603 4 8.9925 0.0 1.7985 0 0 0
2137 4 17.985 28.776 14.388 0 0 0
3898 4 0.0 16.1865 30.5745 0 0 0
2444 4 12.5895 23.3805 0.0 0 0 0
535 4 30.5745 28.776 12.5895 0 0 0
3918 4 0.0 19.7835 30.5745 0 0 0
850 4 28.776 23.3805 8.9925 0 0 0
3296 4 5.3955 26.9775 10.791 0 0 0
1757 4 21.582 28.776 32.373 0 0 0
1019 4 23.3805 0.0 16.1865 0 0 0
3122 4 7.194 12.5895 1.7985 0 0 0
1988 4 16.1865 16.1865 21.582 0 0 0
3928 4 0.0 23.3805 12.5895 0 0 0
3365 4 7.194 32.373 3.597 0 0 0
2214 4 14.388 1.7985 12.5895 0 0 0
88 4 34.1715 16.1865 10.791 0 0 0
1340 4 23.3805 30.5745 14.388 0 0 0
3489 4 3.597 7.194 7.194 0 0 0
1527 4 19.7835 10.791 5.3955 0 0 0
3354 4 7.194 30.5745 30.5745 0 0 0
3760 4 1.7985 30.5745 32.373 0 0 0
3597 4 3.597 14.388 32.373 0 0 0
1896 4 16.1865 8.9925 10.791 0 0 0
3696 4 1.7985 26.9775 10.791 0 0 0
1837 4 17.985 0.0 32.373 0 0 0
1891 4 16.1865 7.194 8.9925 0 0 0
1315 4 23.3805 25.179 30.5745 0 0 0
383 4 30.5745 14.388 19.7835 0 0 0
83 4 34.1715 14.388 5.3955 0 0 0
393 4 32.373 14.388 28.776 0 0 0
666 4 28.776 5.3955 23.3805 0 0 0
3888 4 0.0 16.1865 12.5895 0 0 0
231 4 30.5745 0.0 26.9775 0 0 0
2655 4 8.9925 3.597 12.5895 0 0 0
3348 4 5.3955 30.5745 21.582 0 0 0
2742 4 10.791 12.5895 19.7835 0 0 0
2049 4 17.985 21.582 7.194 0 0 0
1059 4 23.3805 3.597 16.1865 0 0 0
612 4 26.9775 1.7985 7.194 0 0 0
2911 4 8.9925 25.179 26.9775 0 0 0
212 4 30.5745 1.7985 7.194 0 0 0
489 4 32.373 25.179 7.194 0 0 0
1190 4 25.179 16.1865 26.9775 0 0 0
781 4 28.776 14.388 17.985 0 0 0
3827 4 0.0 3.597 10.791 0 0 0
3137 4 7.194 10.791 14.388 0 0 0
2917 4 10.791 25.179 32.373 0 0 0
1657 4 21.582 21.582 14.388 0 0 0
2217 4 14.388 0.0 14.388 0 0 0
1297 4 25.179 25.179 14.388 0 0 0
3088 4 5.3955 8.9925 3.597 0 0 0
2141 4 17.985 28.776 17.985 0 0 0
2571 4 12.5895 32.373 8.9925 0 0 0
1688 4 19.7835 26.9775 3.597 0 0 0
449 4 32.373 21.582 7.194 0 0 0
840 4 26.9775 19.7835 32.373 0 0 0
857 4 28.776 21.582 14.388 0 0 0
3673 4 3.597 21.582 28.776 0 0 0
1260 4 23.3805 23.3805 14.388 0 0 0
1634 4 21.582 19.7835 30.5745 0 0 0
2357 4 14.388 10.791 32.373 0 0 0
4 4 34.1715 1.7985 3.597 0 0 0
1596 4 19.7835 16.1865 28.776 0 0 0
706 4 28.776 8.9925 23.3805 0 0 0
3747 4 1.7985 28.776 23.3805 0 0 0
2407 4 12.5895 17.985 5.3955 0 0 0
697 4 28.776 7.194 14.388 0 0 0
853 4 28.776 21.582 10.791 0 0 0
1227 4 23.3805 17.985 23.3805 0 0 0
3508 4 1.7985 8.9925 21.582 0 0 0
229 4 32.373 0.0 25.179 0 0 0
826 4 28.776 19.7835 23.3805 0 0 0
2718 4 10.791 8.9925 34.1715 0 0 0
1731 4 19.7835 28.776 8.9925 0 0 0
2395 4 12.5895 14.388 30.5745 0 0 0
2462 4 14.388 23.3805 19.7835 0 0 0
2178 4 17.985 34.1715 16.1865 0 0 0
755 4 26.9775 10.791 30.5745 0 0 0
1860 4 16.1865 5.3955 14.388 0 0 0
630 4 28.776 1.7985 26.9775 0 0 0
3869 4 0.0 10.791 14.388 0 0 0
3158 4 7.194 12.5895 34.1715 0 0 0
2257 4 14.388 3.597 14.388 0 0 0
3145 4 7.194 10.791 21.582 0 0 0
2387 4 12.5895 14.388 23.3805 0 0 0
2770 4 10.791 16.1865 8.9925 0 0 0
641 4 28.776 3.597 0.0 0 0 0
3061 4 7.194 3.597 17.985 0 0 0
1376 4 23.3805 34.1715 10.791 0 0 0
179 4 34.1715 28.776 34.1715 0 0 0
3876 4 0.0 12.5895 26.9775 0 0 0
1200 4 23.3805 16.1865 32.373 0 0 0
3482 4 3.597 8.9925 1.7985 0 0 0
1736 4 19.7835 30.5745 10.791 0 0 0
2705 4 10.791 7.194 21.582 0 0 0
2303 4 12.5895 7.194 19.7835 0 0 0
2721 4 10.791 10.791 0.0 0 0 0
2708 4 8.9925 8.9925 21.582 0 0 0
1787 4 19.7835 32.373 23.3805 0 0 0
2143 4 16.1865 28.776 19.7835 0 0 0
676 4 26.9775 5.3955 28.776 0 0 0
2065 4 17.985 21.582 21.582 0 0 0
1748 4 19.7835 30.5745 21.582 0 0 0
1971 4 16.1865 14.388 8.9925 0 0 0
1291 4 23.3805 25.179 8.9925 0 0 0
2572 4 12.5895 34.1715 7.194 0 0 0
1644 4 19.7835 23.3805 0.0 0 0 0
2577 4 14.388 32.373 14.388 0 0 0
3661 4 3.597 21.582 17.985 0 0 0
2969 4 10.791 32.373 7.194 0 0 0
44 4 34.1715 8.9925 3.597 0 0 0
3462 4 3.597 5.3955 19.7835 0 0 0
3724 4 1.7985 30.5745 0.0 0 0 0
1389 4 25.179 32.373 25.179 0 0 0
462 4 32.373 23.3805 19.7835 0 0 0
1387 4 23.3805 32.373 23.3805 0 0 0
1700 4 19.7835 26.9775 14.388 0 0 0
304 4 30.5745 8.9925 17.985 0 0 0
1383 4 23.3805 32.373 19.7835 0 0 0
3748 4 1.7985 30.5745 21.582 0 0 0
2320 4 12.5895 8.9925 32.373 0 0 0
2533 4 14.388 28.776 10.791 0 0 0
3855 4 0.0 7.194 25.179 0 0 0
2427 4 12.5895 17.985 23.3805 0 0 0
2328 4 12.5895 12.5895 3.597 0 0 0
3602 4 3.597 19.7835 1.7985 0 0 0
3503 4 1.7985 7.194 19.7835 0 0 0
1258 4 25.179 23.3805 16.1865 0 0 0
151 4 34.1715 25.179 19.7835 0 0 0
3247 4 5.3955 21.582 5.3955 0 0 0
3417 4 3.597 0.0 14.388 0 0 0
3621 4 3.597 17.985 17.985 0 0 0
2076 4 16.1865 23.3805 28.776 0 0 0
228 4 30.5745 1.7985 21.582 0 0 0
2835 4 8.9925 17.985 30.5745 0 0 0
1247 4 23.3805 21.582 5.3955 0 0 0
985 4 28.776 32.373 21.582 0 0 0
182 4 34.1715 34.1715 0.0 0 0 0
571 4 30.5745 32.373 8.9925 0 0 0
2862 4 10.791 23.3805 19.7835 0 0 0
2169 4 17.985 32.373 7.194 0 0 0
1187 4 23.3805 14.388 23.3805 0 0 0
463 4 30.5745 21.582 19.7835 0 0 0
2987 4 8.9925 32.373 23.3805 0 0 0
964 4 26.9775 34.1715 0.0 0 0 0
1955 4 16.1865 10.791 30.5745 0 0 0
2736 4 8.9925 12.5895 10.791 0 0 0
1199 4 23.3805 14.388 34.1715 0 0 0
2801 4 10.791 17.985 0.0 0 0 0
363 4 30.5745 14.388 1.7985 0 0 0
1820 4 16.1865 1.7985 14.388 0 0 0
1421 4 21.582 0.0 17.985 0 0 0
3226 4 7.194 19.7835 23.3805 0 0 0
891 4 26.9775 25.179 8.9925 0 0 0
2900 4 8.9925 26.9775 14.388 0 0 0
822 4 28.776 19.7835 19.7835 0 0 0
1423 4 19.7835 0.0 19.7835 0 0 0
3936 4 0.0 23.3805 26.9775 0 0 0
1953 4 17.985 10.791 28.776 0 0 0
1105 4 25.179 7.194 21.582 0 0 0
1835 4 16.1865 0.0 30.5745 0 0 0
3479 4 1.7985 3.597 34.1715 0 0 0
1639 4 19.7835 17.985 34.1715 0 0 0
1465 4 21.582 3.597 21.582 0 0 0
1379 4 23.3805 32.373 16.1865 0 0 0
3261 4 7.194 21.582 17.985 0 0 0
3772 4 1.7985 34.1715 7.194 0 0 0
3854 4 0.0 8.9925 23.3805 0 0 0
2575 4 12.5895 32.373 12.5895 0 0 0
2747 4 8.9925 10.791 23.3805 0 0 0
3486 4 3.597 8.9925 5.3955 0 0 0
1784 4 19.7835 34.1715 17.985 0 0 0
2938 4 10.791 30.5745 16.1865 0 0 0
235 4 30.5745 0.0 30.5745 0 0 0
988 4 26.9775 34.1715 21.582 0 0 0
163 4 34.1715 28.776 5.3955 0 0 0
3475 4 1.7985 3.597 30.5745 0 0 0
202 4 32.373 1.7985 1.7985 0 0 0
1865 4 17.985 3.597 21.582 0 0 0
861 4 28.776 21.582 17.985 0 0 0
1810 4 17.985 1.7985 8.9925 0 0 0
1618 4 21.582 19.7835 16.1865 0 0 0
423 4 30.5745 17.985 19.7835 0 0 0
2410 4 14.388 19.7835 8.9925 0 0 0
3659 4 1.7985 21.582 16.1865 0 0 0
1141 4 25.179 10.791 17.985 0 0 0
1026 4 25.179 1.7985 23.3805 0 0 0
772 4 26.9775 16.1865 7.194 0 0 0
3147 4 5.3955 10.791 23.3805 0 0 0
1436 4 19.7835 1.7985 28.776 0 0 0
1165 4 25.179 14.388 3.597 0 0 0
2450 4 14.388 23.3805 8.9925 0 0 0
432 4 30.5745 19.7835 25.179 0 0 0
3816 4 0.0 1.7985 26.9775 0 0 0
43 4 34.1715 7.194 5.3955 0 0 0
479 4 30.5745 21.582 34.1715 0 0 0
1638 4 21.582 19.7835 34.1715 0 0 0
3005 4 7.194 0.0 3.597 0 0 0
1968 4 16.1865 16.1865 3.597 0 0 0
3969 4 0.0 28.776 14.388 0 0 0
584 4 30.5745 34.1715 17.985 0 0 0
1289 4 25.179 25.179 7.194 0 0 0
2175 4 16.1865 32.373 12.5895 0 0 0
566 4 32.373 34.1715 5.3955 0 0 0
1567 4 19.7835 14.388 5.3955 0 0 0
2983 4 8.9925 32.373 19.7835 0 0 0
1824 4 16.1865 1.7985 17.985 0 0 0
2432 4 12.5895 19.7835 25.179 0 0 0
1695 4 19.7835 25.179 12.5895 0 0 0
3672 4 1.7985 23.3805 25.179 0 0 0
402 4 32.373 19.7835 1.7985 0 0 0
3146 4 7.194 12.5895 23.3805 0 0 0
3340 4 5.3955 30.5745 14.388 0 0 0
1061 4 25.179 3.597 17.985 0 0 0
3693 4 3.597 25.179 10.791 0 0 0
3690 4 3.597 26.9775 8.9925 0 0 0
3735 4 1.7985 28.776 12.5895 0 0 0
2125 4 17.985 28.776 3.597 0 0 0
3328 4 5.3955 30.5745 3.597 0 0 0
2825 4 10.791 17.985 21.582 0 0 0
3096 4 5.3955 8.9925 10.791 0 0 0
1740 4 19.7835 30.5745 14.388 0 0 0
1013 4 25.179 0.0 10.791 0 0 0
2244 4 12.5895 5.3955 0.0 0 0 0
3123 4 5.3955 10.791 1.7985 0 0 0
581 4 32.373 32.373 17.985 0 0 0
2342 4 14.388 12.5895 19.7835 0 0 0
1689 4 21.582 25.179 7.194 0 0 0
957 4 28.776 28.776 32.373 0 0 0
2022 4 17.985 19.7835 19.7835 0 0 0
3619 4 1.7985 17.985 16.1865 0 0 0
534 4 32.373 30.5745 12.5895 0 0 0
2975 4 8.9925 32.373 12.5895 0 0 0
3736 4 1.7985 30.5745 10.791 0 0 0
2157 4 17.985 28.776 32.373 0 0 0
2620 4 8.9925 1.7985 14.388 0 0 0
2846 4 10.791 23.3805 5.3955 0 0 0
157 4 34.1715 25.179 30.5745 0 0 0
3519 4 1.7985 7.194 34.1715 0 0 0
3567 4 1.7985 14.388 5.3955 0 0 0
1893 4 17.985 7.194 10.791 0 0 0
1347 4 23.3805 28.776 23.3805 0 0 0
2791 4 8.9925 14.388 26.9775 0 0 0
1679 4 19.7835 21.582 34.1715 0 0 0
2713 4 10.791 7.194 28.776 0 0 0
1455 4 19.7835 3.597 12.5895 0 0 0
1150 4 25.179 12.5895 26.9775 0 0 0
2066 4 17.985 23.3805 23.3805 0 0 0
2035 4 16.1865 17.985 30.5745 0 0 0
1941 4 17.985 10.791 17.985 0 0 0
3806 4 0.0 1.7985 8.9925 0 0 0
3507 4 1.7985 7.194 23.3805 0 0 0
1171 4 23.3805 14.388 8.9925 0 0 0
307 4 30.5745 7.194 23.3805 0 0 0
2323 4 12.5895 10.791 1.7985 0 0 0
3550 4 3.597 12.5895 26.9775 0 0 0
57 4 34.1715 7.194 30.5745 0 0 0
95 4 34.1715 14.388 26.9775 0 0 0
959 4 26.9775 28.776 34.1715 0 0 0
3069 4 7.194 3.597 25.179 0 0 0
1188 4 23.3805 16.1865 21.582 0 0 0
1775 4 19.7835 32.373 12.5895 0 0 0
3100 4 5.3955 8.9925 14.388 0 0 0
3742 4 3.597 30.5745 19.7835 0 0 0
1924 4 16.1865 12.5895 0.0 0 0 0
3374 4 7.194 34.1715 12.5895 0 0 0
1587 4 19.7835 14.388 23.3805 0 0 0
3828 4 0.0 5.3955 12.5895 0 0 0
1282 4 25.179 26.9775 1.7985 0 0 0
2537 4 14.388 28.776 14.388 0 0 0
2292 4 12.5895 8.9925 7.194 0 0 0
1385 4 25.179 32.373 21.582 0 0 0
107 4 34.1715 17.985 12.5895 0 0 0
2297 4 14.388 7.194 14.388 0 0 0
2476 4 12.5895 23.3805 28.776 0 0 0
2403 4 12.5895 17.985 1.7985 0 0 0
353 4 32.373 10.791 28.776 0 0 0
909 4 28.776 25.179 25.179 0 0 0
915 4 26.9775 25.179 30.5745 0 0 0
3084 4 5.3955 8.9925 0.0 0 0 0
800 4 26.9775 16.1865 32.373 0 0 0
1809 4 17.985 0.0 7.194 0 0 0
1573 4 21.582 14.388 10.791 0 0 0
362 4 32.373 16.1865 1.7985 0 0 0
1659 4 19.7835 21.582 16.1865 0 0 0
3491 4 1.7985 7.194 8.9925 0 0 0
2463 4 12.5895 21.582 19.7835 0 0 0
727 4 26.9775 10.791 5.3955 0 0 0
1502 4 21.582 8.9925 19.7835 0 0 0
1400 4 23.3805 34.1715 32.373 0 0 0
1714 4 21.582 26.9775 30.5745 0 0 0
1925 4 17.985 10.791 3.597 0 0 0
3046 4 7.194 5.3955 5.3955 0 0 0
239 4 30.5745 0.0 34.1715 0 0 0
965 4 28.776 32.373 3.597 0 0 0
3839 4 0.0 3.597 32.373 0 0 0
2394 4 14.388 16.1865 30.5745 0 0 0
3778 4 3.597 34.1715 16.1865 0 0 0
1886 4 17.985 8.9925 5.3955 0 0 0
1821 4 17.985 0.0 17.985 0 0 0
2172 4 16.1865 34.1715 7.194 0 0 0
2055 4 16.1865 21.582 12.5895 0 0 0
662 4 28.776 5.3955 19.7835 0 0 0
3430 4 3.597 1.7985 26.9775 0 0 0
621 4 28.776 0.0 17.985 0 0 0
3350 4 7.194 30.5745 26.9775 0 0 0
2331 4 12.5895 10.791 8.9925 0 0 0
2365 4 14.388 14.388 3.597 0 0 0
3702 4 3.597 26.9775 19.7835 0 0 0
3628 4 1.7985 19.7835 21.582 0 0 0
1846 4 17.985 5.3955 5.3955 0 0 0
3169 4 7.194 14.388 7.194 0 0 0
1367 4 23.3805 32.373 5.3955 0 0 0
41 4 34.1715 7.194 1.7985 0 0 0
2115 4 16.1865 25.179 30.5745 0 0 0
643 4 26.9775 3.597 1.7985 0 0 0
494 4 32.373 26.9775 12.5895 0 0 0
3415 4 1.7985 0.0 12.5895 0 0 0
2541 4 14.388 28.776 17.985 0 0 0
679 4 26.9775 3.597 34.1715 0 0 0
2367 4 12.5895 14.388 5.3955 0 0 0
2459 4 12.5895 21.582 16.1865 0 0 0
1095 4 23.3805 7.194 12.5895 0 0 0
464 4 30.5745 23.3805 17.985 0 0 0
575 4 30.5745 32.373 12.5895 0 0 0
461 4 32.373 21.582 17.985 0 0 0
1450 4 21.582 5.3955 8.9925 0 0 0
63 4 34.1715 10.791 5.3955 0 0 0
1430 4 21.582 1.7985 26.9775 0 0 0
2296 4 12.5895 8.9925 10.791 0 0 0
1563 4 19.7835 14.388 1.7985 0 0 0
2159 4 16.1865 28.776 34.1715 0 0 0
686 4 28.776 8.9925 5.3955 0 0 0
999 4 26.9775 32.373 34.1715 0 0 0
1590 4 21.582 16.1865 26.9775 0 0 0
2333 4 14.388 10.791 10.791 0 0 0
927 4 26.9775 28.776 5.3955 0 0 0
1008 4 23.3805 1.7985 3.597 0 0 0
2990 4 10.791 34.1715 26.9775 0 0 0
3593 4 3.597 14.388 28.776 0 0 0
868 4 26.9775 23.3805 21.582 0 0 0
2466 4 14.388 23.3805 23.3805 0 0 0
3756 4 1.7985 30.5745 28.776 0 0 0
1632 4 19.7835 19.7835 25.179 0 0 0
404 4 30.5745 19.7835 0.0 0 0 0
1494 4 21.582 8.9925 12.5895 0 0 0
1353 4 25.179 28.776 28.776 0 0 0
2908 4 8.9925 26.9775 21.582 0 0 0
2158 4 17.985 30.5745 34.1715 0 0 0
920 4 26.9775 26.9775 32.373 0 0 0
137 4 34.1715 21.582 30.5745 0 0 0
295 4 30.5745 7.194 12.5895 0 0 0
288 4 30.5745 8.9925 3.597 0 0 0
1732 4 19.7835 30.5745 7.194 0 0 0
3349 4 7.194 28.776 25.179 0 0 0
2872 4 8.9925 23.3805 25.179 0 0 0
962 4 28.776 34.1715 1.7985 0 0 0
2275 4 12.5895 3.597 30.5745 0 0 0
881 4 28.776 25.179 0.0 0 0 0
1617 4 21.582 17.985 14.388 0 0 0
1238 4 25.179 19.7835 34.1715 0 0 0
2441 4 14.388 21.582 0.0 0 0 0
2898 4 10.791 26.9775 16.1865 0 0 0
1217 4 25.179 17.985 14.388 0 0 0
305 4 32.373 7.194 21.582 0 0 0
2123 4 16.1865 28.776 1.7985 0 0 0
3697 4 3.597 25.179 14.388 0 0 0
2484 4 12.5895 26.9775 0.0 0 0 0
476 4 30.5745 23.3805 28.776 0 0 0
844 4 26.9775 23.3805 0.0 0 0 0
2 4 34.1715 1.7985 0.0 0 0 0
243 4 30.5745 3.597 1.7985 0 0 0
2460 4 12.5895 23.3805 14.388 0 0 0
3620 4 1.7985 19.7835 14.388 0 0 0
1458 4 21.582 5.3955 16.1865 0 0 0
839 4 26.9775 17.985 34.1715 0 0 0
3303 4 5.3955 25.179 19.7835 0 0 0
2635 4 8.9925 0.0 30.5745 0 0 0
1709 4 21.582 25.179 25.179 0 0 0
1404 4 19.7835 1.7985 0.0 0 0 0
2796 4 8.9925 16.1865 28.776 0 0 0
2509 4 14.388 25.179 25.179 0 0 0
1132 4 23.3805 12.5895 7.194 0 0 0
3453 4 3.597 3.597 10.791 0 0 0
2429 4 14.388 17.985 25.179 0 0 0
2663 4 8.9925 3.597 19.7835 0 0 0
943 4 26.9775 28.776 19.7835 0 0 0
1651 4 19.7835 21.582 8.9925 0 0 0
1296 4 23.3805 26.9775 10.791 0 0 0
2800 4 8.9925 16.1865 32.373 0 0 0
2879 4 8.9925 21.582 34.1715 0 0 0
510 4 32.373 26.9775 26.9775 0 0 0
2206 4 14.388 1.7985 5.3955 0 0 0
1089 4 25.179 7.194 7.194 0 0 0
1102 4 25.179 8.9925 19.7835 0 0 0
3688 4 1.7985 26.9775 3.597 0 0 0
2855 4 8.9925 21.582 12.5895 0 0 0
2381 4 14.388 14.388 17.985 0 0 0
752 4 26.9775 12.5895 25.179 0 0 0
1239 4 23.3805 17.985 34.1715 0 0 0
1780 4 19.7835 34.1715 14.388 0 0 0
3018 4 7.194 1.7985 16.1865 0 0 0
3891 4 0.0 14.388 17.985 0 0 0
2089 4 17.985 25.179 7.194 0 0 0
2960 4 8.9925 30.5745 32.373 0 0 0
1534 4 21.582 12.5895 12.5895 0 0 0
68 4 34.1715 12.5895 10.791 0 0 0
3977 4 0.0 28.776 28.776 0 0 0
3167 4 5.3955 14.388 5.3955 0 0 0
1471 4 19.7835 3.597 26.9775 0 0 0
596 4 30.5745 34.1715 28.776 0 0 0
3791 4 1.7985 32.373 26.9775 0 0 0
3623 4 1.7985 17.985 19.7835 0 0 0
3837 4 0.0 3.597 28.776 0 0 0
865 4 28.776 21.582 21.582 0 0 0
1142 4 25.179 12.5895 19.7835 0 0 0
1693 4 21.582 25.179 10.791 0 0 0
1329 4 25.179 28.776 7.194 0 0 0
1729 4 21.582 28.776 7.194 0 0 0
540 4 30.5745 30.5745 14.388 0 0 0
3165 4 7.194 14.388 3.597 0 0 0
3762 4 3.597 34.1715 1.7985 0 0 0
3424 4 1.7985 1.7985 17.985 0 0 0
1100 4 23.3805 8.9925 14.388 0 0 0
3668 4 1.7985 23.3805 21.582 0 0 0
3209 4 7.194 17.985 7.194 0 0 0
2054 4 17.985 23.3805 12.5895 0 0 0
3371 4 5.3955 32.373 8.9925 0 0 0
2836 4 8.9925 19.7835 28.776 0 0 0
2660 4 8.9925 5.3955 14.388 0 0 0
963 4 26.9775 32.373 1.7985 0 0 0
3020 4 5.3955 1.7985 14.388 0 0 0
3926 4 0.0 23.3805 8.9925 0 0 0
739 4 26.9775 10.791 16.1865 0 0 0
529 4 32.373 28.776 7.194 0 0 0
3813 4 0.0 0.0 21.582 0 0 0
433 4 32.373 17.985 28.776 0 0 0
3262 4 7.194 23.3805 19.7835 0 0 0
2142 4 17.985 30.5745 19.7835 0 0 0
323 4 30.5745 10.791 1.7985 0 0 0
3553 4 3.597 10.791 28.776 0 0 0
2032 4 16.1865 19.7835 25.179 0 0 0
1106 4 25.179 8.9925 23.3805 0 0 0
759 4 26.9775 10.791 34.1715 0 0 0
3782 4 3.597 34.1715 19.7835 0 0 0
1745 4 21.582 28.776 21.582 0 0 0
431 4 30.5745 17.985 26.9775 0 0 0
1318 4 25.179 26.9775 34.1715 0 0 0
2190 4 17.985 34.1715 26.9775 0 0 0
3353 4 7.194 28.776 28.776 0 0 0
1869 4 17.985 3.597 25.179 0 0 0
3814 4 0.0 1.7985 23.3805 0 0 0
3522 4 3.597 12.5895 1.7985 0 0 0
1486 4 21.582 8.9925 5.3955 0 0 0
597 4 32.373 32.373 32.373 0 0 0
976 4 26.9775 34.1715 10.791 0 0 0
3274 4 7.194 23.3805 30.5745 0 0 0
156 4 34.1715 26.9775 25.179 0 0 0
852 4 26.9775 23.3805 7.194 0 0 0
1575 4 19.7835 14.388 12.5895 0 0 0
98 4 34.1715 16.1865 28.776 0 0 0
2888 4 8.9925 26.9775 3.597 0 0 0
2910 4 10.791 26.9775 26.9775 0 0 0
62 4 34.1715 12.5895 0.0 0 0 0
3681 4 3.597 25.179 0.0 0 0 0
898 4 28.776 26.9775 16.1865 0 0 0
3435 4 1.7985 0.0 30.5745 0 0 0
2776 4 8.9925 16.1865 10.791 0 0 0
2258 4 14.388 5.3955 16.1865 0 0 0
3565 4 3.597 14.388 3.597 0 0 0
2174 4 17.985 34.1715 12.5895 0 0 0
3310 4 7.194 26.9775 26.9775 0 0 0
577 4 32.373 32.373 14.388 0 0 0
3908 4 0.0 19.7835 12.5895 0 0 0
1842 4 17.985 5.3955 1.7985 0 0 0
3175 4 5.3955 14.388 12.5895 0 0 0
3196 4 5.3955 16.1865 28.776 0 0 0
3614 4 3.597 19.7835 12.5895 0 0 0
3712 4 1.7985 26.9775 25.179 0 0 0
3573 4 3.597 14.388 10.791 0 0 0
764 4 26.9775 16.1865 0.0 0 0 0
1268 4 23.3805 23.3805 21.582 0 0 0
2183 4 16.1865 32.373 19.7835 0 0 0
2677 4 10.791 3.597 32.373 0 0 0
1673 4 21.582 21.582 28.776 0 0 0
406 4 32.373 19.7835 5.3955 0 0 0
1054 4 25.179 5.3955 12.5895 0 0 0
1169 4 25.179 14.388 7.194 0 0 0
3862 4 0.0 12.5895 1.7985 0 0 0
578 4 32.373 34.1715 16.1865 0 0 0
3824 4 0.0 5.3955 5.3955 0 0 0
657 4 28.776 3.597 14.388 0 0 0
2526 4 14.388 30.5745 5.3955 0 0 0
2688 4 8.9925 8.9925 3.597 0 0 0
2435 4 12.5895 17.985 30.5745 0 0 0
548 4 30.5745 30.5745 21.582 0 0 0
116 4 34.1715 19.7835 25.179 0 0 0
3087 4 5.3955 7.194 5.3955 0 0 0
1783 4 19.7835 32.373 19.7835 0 0 0
2097 4 17.985 25.179 14.388 0 0 0
1773 4 21.582 32.373 10.791 0 0 0
3882 4 0.0 16.1865 1.7985 0 0 0
776 4 26.9775 16.1865 10.791 0 0 0
2452 4 12.5895 23.3805 7.194 0 0 0
1972 4 16.1865 16.1865 7.194 0 0 0
352 4 30.5745 12.5895 25.179 0 0 0
3871 4 0.0 10.791 17.985 0 0 0
3105 4 7.194 7.194 21.582 0 0 0
2628 4 8.9925 1.7985 21.582 0 0 0
140 4 34.1715 23.3805 32.373 0 0 0
820 4 26.9775 19.7835 14.388 0 0 0
1645 4 21.582 21.582 3.597 0 0 0
1031 4 23.3805 0.0 26.9775 0 0 0
2102 4 17.985 26.9775 19.7835 0 0 0
723 4 26.9775 10.791 1.7985 0 0 0
245 4 32.373 3.597 3.597 0 0 0
2695 4 8.9925 7.194 12.5895 0 0 0
2653 4 10.791 3.597 10.791 0 0 0
3362 4 7.194 34.1715 1.7985 0 0 0
1475 4 19.7835 3.597 30.5745 0 0 0
2640 4 8.9925 1.7985 32.373 0 0 0
306 4 32.373 8.9925 23.3805 0 0 0
2542 4 14.388 30.5745 19.7835 0 0 0
3921 4 0.0 21.582 0.0 0 0 0
1962 4 17.985 16.1865 1.7985 0 0 0
2249 4 14.388 3.597 7.194 0 0 0
2201 4 14.388 0.0 0.0 0 0 0
2464 4 12.5895 23.3805 17.985 0 0 0
78 4 34.1715 12.5895 28.776 0 0 0
2941 4 10.791 28.776 17.985 0 0 0
2344 4 12.5895 12.5895 17.985 0 0 0
1204 4 23.3805 19.7835 0.0 0 0 0
1181 4 25.179 14.388 17.985 0 0 0
1969 4 17.985 14.388 7.194 0 0 0
1467 4 19.7835 3.597 23.3805 0 0 0
3072 4 5.3955 5.3955 25.179 0 0 0
480 4 30.5745 23.3805 32.373 0 0 0
2967 4 8.9925 32.373 5.3955 0 0 0
439 4 30.5745 17.985 34.1715 0 0 0
3562 4 3.597 16.1865 1.7985 0 0 0
1908 4 16.1865 8.9925 21.582 0 0 0
1183 4 23.3805 14.388 19.7835 0 0 0
1565 4 21.582 14.388 3.597 0 0 0
948 4 26.9775 30.5745 21.582 0 0 0
3301 4 7.194 25.179 17.985 0 0 0
1920 4 16.1865 8.9925 32.373 0 0 0
3569 4 3.597 14.388 7.194 0 0 0
1076 4 23.3805 5.3955 28.776 0 0 0
166 4 34.1715 30.5745 7.194 0 0 0
956 4 26.9775 30.5745 28.776 0 0 0
2711 4 8.9925 7.194 26.9775 0 0 0
3530 4 3.597 12.5895 8.9925 0 0 0
1975 4 16.1865 14.388 12.5895 0 0 0
2966 4 10.791 34.1715 5.3955 0 0 0
3525 4 3.597 10.791 3.597 0 0 0
2358 4 14.388 12.5895 34.1715 0 0 0
3917 4 0.0 17.985 28.776 0 0 0
3047 4 5.3955 3.597 5.3955 0 0 0
1655 4 19.7835 21.582 12.5895 0 0 0
1532 4 19.7835 12.5895 7.194 0 0 0
33 4 34.1715 3.597 23.3805 0 0 0
1686 4 21.582 26.9775 5.3955 0 0 0
2669 4 10.791 3.597 25.179 0 0 0
1003 4 23.3805 0.0 1.7985 0 0 0
3066 4 7.194 5.3955 23.3805 0 0 0
1716 4 19.7835 26.9775 28.776 0 0 0
94 4 34.1715 16.1865 21.582 0 0 0
2729 4 10.791 10.791 7.194 0 0 0
1522 4 21.582 12.5895 1.7985 0 0 0
3164 4 5.3955 16.1865 0.0 0 0 0
1827 4 16.1865 0.0 23.3805 0 0 0
511 4 30.5745 25.179 26.9775 0 0 0
1643 4 19.7835 21.582 1.7985 0 0 0
804 4 26.9775 19.7835 0.0 0 0 0
2880 4 8.9925 23.3805 32.373 0 0 0
1130 4 25.179 12.5895 8.9925 0 0 0
646 4 28.776 5.3955 5.3955 0 0 0
1427 4 19.7835 0.0 23.3805 0 0 0
3913 4 0.0 17.985 21.582 0 0 0
496 4 30.5745 26.9775 10.791 0 0 0
2614 4 10.791 1.7985 12.5895 0 0 0
1066 4 25.179 5.3955 23.3805 0 0 0
1708 4 19.7835 26.9775 21.582 0 0 0
1613 4 21.582 17.985 10.791 0 0 0
910 4 28.776 26.9775 26.9775 0 0 0
1526 4 21.582 12.5895 5.3955 0 0 0
2667 4 8.9925 3.597 23.3805 0 0 0
2580 4 12.5895 34.1715 14.388 0 0 0
2696 4 8.9925 8.9925 10.791 0 0 0
1220 4 23.3805 19.7835 14.388 0 0 0
3474 4 3.597 5.3955 30.5745 0 0 0
1544 4 19.7835 12.5895 17.985 0 0 0
2866 4 10.791 23.3805 23.3805 0 0 0
3205 4 7.194 17.985 3.597 0 0 0
2610 4 10.791 1.7985 8.9925 0 0 0
3850 4 0.0 8.9925 16.1865 0 0 0
422 4 32.373 19.7835 19.7835 0 0 0
2267 4 12.5895 3.597 23.3805 0 0 0
777 4 28.776 14.388 14.388 0 0 0
557 4 32.373 28.776 32.373 0 0 0
952 4 26.9775 30.5745 25.179 0 0 0
1103 4 23.3805 7.194 19.7835 0 0 0
659 4 26.9775 3.597 16.1865 0 0 0
22 4 34.1715 5.3955 0.0 0 0 0
3955 4 0.0 25.179 25.179 0 0 0
2280 4 12.5895 5.3955 32.373 0 0 0
747 4 26.9775 10.791 23.3805 0 0 0
135 4 34.1715 21.582 26.9775 0 0 0
3637 4 3.597 17.985 32.373 0 0 0
600 4 30.5745 34.1715 32.373 0 0 0
2428 4 12.5895 19.7835 21.582 0 0 0
2803 4 8.9925 17.985 1.7985 0 0 0
3027 4 5.3955 0.0 23.3805 0 0 0
3755 4 1.7985 28.776 30.5745 0 0 0
3023 4 5.3955 0.0 19.7835 0 0 0
1564 4 19.7835 16.1865 0.0 0 0 0
45 4 34.1715 7.194 8.9925 0 0 0
1310 4 25.179 26.9775 26.9775 0 0 0
3925 4 0.0 21.582 7.194 0 0 0
2006 4 17.985 19.7835 5.3955 0 0 0
3737 4 3.597 28.776 14.388 0 0 0
2108 4 16.1865 26.9775 21.582 0 0 0
345 4 32.373 10.791 21.582 0 0 0
451 4 30.5745 21.582 8.9925 0 0 0
1915 4 16.1865 7.194 30.5745 0 0 0
441 4 32.373 21.582 0.0 0 0 0
2319 4 12.5895 7.194 34.1715 0 0 0
2088 4 16.1865 26.9775 3.597 0 0 0
2588 4 12.5895 34.1715 21.582 0 0 0
2362 4 14.388 16.1865 1.7985 0 0 0
2301 4 14.388 7.194 17.985 0 0 0
167 4 34.1715 28.776 12.5895 0 0 0
1493 4 21.582 7.194 10.791 0 0 0
2551 4 12.5895 28.776 26.9775 0 0 0
532 4 30.5745 30.5745 7.194 0 0 0
2586 4 14.388 34.1715 23.3805 0 0 0
3703 4 1.7985 25.179 19.7835 0 0 0
3452 4 1.7985 5.3955 7.194 0 0 0
2360 4 12.5895 12.5895 32.373 0 0 0
3318 4 7.194 26.9775 34.1715 0 0 0
2750 4 10.791 12.5895 26.9775 0 0 0
1548 4 19.7835 12.5895 21.582 0 0 0
2720 4 8.9925 8.9925 32.373 0 0 0
3075 4 5.3955 3.597 30.5745 0 0 0
2881 4 10.791 25.179 0.0 0 0 0
3003 4 5.3955 0.0 1.7985 0 0 0
3237 4 7.194 17.985 32.373 0 0 0
3823 4 0.0 3.597 3.597 0 0 0
2531 4 12.5895 28.776 8.9925 0 0 0
2829 4 10.791 17.985 25.179 0 0 0
2245 4 14.388 3.597 3.597 0 0 0
56 4 34.1715 8.9925 25.179 0 0 0
225 4 32.373 0.0 21.582 0 0 0
3978 4 0.0 30.5745 30.5745 0 0 0
609 4 28.776 0.0 7.194 0 0 0
1063 4 23.3805 3.597 19.7835 0 0 0
836 4 26.9775 19.7835 28.776 0 0 0
2371 4 12.5895 14.388 8.9925 0 0 0
3185 4 7.194 14.388 21.582 0 0 0
3426 4 3.597 1.7985 23.3805 0 0 0
1406 4 21.582 1.7985 5.3955 0 0 0
2544 4 12.5895 30.5745 17.985 0 0 0
256 4 30.5745 5.3955 10.791 0 0 0
760 4 26.9775 12.5895 32.373 0 0 0
879 4 26.9775 21.582 34.1715 0 0 0
2510 4 14.388 26.9775 26.9775 0 0 0
3099 4 5.3955 7.194 16.1865 0 0 0
1956 4 16.1865 12.5895 28.776 0 0 0
242 4 32.373 5.3955 1.7985 0 0 0
1795 4 19.7835 32.373 30.5745 0 0 0
681 4 28.776 7.194 0.0 0 0 0
3356 4 5.3955 30.5745 28.776 0 0 0
1363 4 23.3805 32.373 1.7985 0 0 0
1722 4 21.582 30.5745 1.7985 0 0 0
934 4 28.776 30.5745 12.5895 0 0 0
2547 4 12.5895 28.776 23.3805 0 0 0
395 4 30.5745 14.388 30.5745 0 0 0
3395 4 5.3955 32.373 30.5745 0 0 0
541 4 32.373 28.776 17.985 0 0 0
1322 4 25.179 30.5745 1.7985 0 0 0
2262 4 14.388 5.3955 19.7835 0 0 0
2338 4 14.388 12.5895 16.1865 0 0 0
2627 4 8.9925 0.0 23.3805 0 0 0
1129 4 25.179 10.791 7.194 0 0 0
1572 4 19.7835 16.1865 7.194 0 0 0
1823 4 16.1865 0.0 19.7835 0 0 0
562 4 32.373 34.1715 1.7985 0 0 0
2378 4 14.388 16.1865 16.1865 0 0 0
501 4 32.373 25.179 17.985 0 0 0
1243 4 23.3805 21.582 1.7985 0 0 0
2043 4 16.1865 21.582 1.7985 0 0 0
100 4 34.1715 16.1865 32.373 0 0 0
2287 4 12.5895 7.194 5.3955 0 0 0
328 4 30.5745 12.5895 3.597 0 0 0
655 4 26.9775 3.597 12.5895 0 0 0
574 4 32.373 34.1715 12.5895 0 0 0
2679 4 8.9925 3.597 34.1715 0 0 0
1593 4 21.582 14.388 28.776 0 0 0
1167 4 23.3805 14.388 5.3955 0 0 0
946 4 28.776 30.5745 23.3805 0 0 0
1799 4 19.7835 32.373 34.1715 0 0 0
250 4 32.373 5.3955 8.9925 0 0 0
460 4 30.5745 23.3805 14.388 0 0 0
356 4 30.5745 12.5895 28.776 0 0 0
1468 4 19.7835 5.3955 21.582 0 0 0
3436 4 1.7985 1.7985 28.776 0 0 0
389 4 32.373 14.388 25.179 0 0 0
267 4 30.5745 3.597 23.3805 0 0 0
1049 4 25.179 3.597 7.194 0 0 0
380 4 30.5745 16.1865 14.388 0 0 0
3470 4 3.597 5.3955 26.9775 0 0 0
3467 4 1.7985 3.597 23.3805 0 0 0
2375 4 12.5895 14.388 12.5895 0 0 0
3404 4 1.7985 1.7985 0.0 0 0 0
2045 4 17.985 21.582 3.597 0 0 0
2289 4 14.388 7.194 7.194 0 0 0
430 4 32.373 19.7835 26.9775 0 0 0
1554 4 21.582 12.5895 30.5745 0 0 0
3200 4 5.3955 16.1865 32.373 0 0 0
387 4 30.5745 14.388 23.3805 0 0 0
1000 4 26.9775 34.1715 32.373 0 0 0
1542 4 21.582 12.5895 19.7835 0 0 0
669 4 28.776 3.597 25.179 0 0 0
692 4 26.9775 8.9925 7.194 0 0 0
512 4 30.5745 26.9775 25.179 0 0 0
2649 4 10.791 3.597 7.194 0 0 0
3521 4 3.597 10.791 0.0 0 0 0
2926 4 10.791 30.5745 5.3955 0 0 0
3073 4 7.194 3.597 28.776 0 0 0
3646 4 3.597 23.3805 5.3955 0 0 0
3316 4 5.3955 26.9775 28.776 0 0 0
509 4 32.373 25.179 25.179 0 0 0
3685 4 3.597 25.179 3.597 0 0 0
990 4 28.776 34.1715 26.9775 0 0 0
1179 4 23.3805 14.388 16.1865 0 0 0
114 4 34.1715 19.7835 21.582 0 0 0
2524 4 12.5895 30.5745 0.0 0 0 0
2332 4 12.5895 12.5895 7.194 0 0 0
594 4 32.373 34.1715 30.5745 0 0 0
1394 4 25.179 34.1715 30.5745 0 0 0
1117 4 25.179 7.194 32.373 0 0 0
2313 4 14.388 7.194 28.776 0 0 0
3412 4 1.7985 1.7985 7.194 0 0 0
2209 4 14.388 0.0 7.194 0 0 0
3795 4 1.7985 32.373 30.5745 0 0 0
1314 4 25.179 26.9775 30.5745 0 0 0
1055 4 23.3805 3.597 12.5895 0 0 0
1233 4 25.179 17.985 28.776 0 0 0
60 4 34.1715 8.9925 32.373 0 0 0
2397 4 14.388 14.388 32.373 0 0 0
3906 4 0.0 19.7835 8.9925 0 0 0
1559 4 19.7835 10.791 34.1715 0 0 0
2764 4 8.9925 16.1865 0.0 0 0 0
2689 4 10.791 7.194 7.194 0 0 0
3976 4 0.0 30.5745 26.9775 0 0 0
3841 4 0.0 7.194 0.0 0 0 0
1497 4 21.582 7.194 14.388 0 0 0
164 4 34.1715 30.5745 3.597 0 0 0
318 4 32.373 8.9925 34.1715 0 0 0
2192 4 16.1865 34.1715 25.179 0 0 0
2779 4 8.9925 14.388 16.1865 0 0 0
3640 4 1.7985 19.7835 32.373 0 0 0
3607 4 1.7985 17.985 5.3955 0 0 0
1813 4 17.985 0.0 10.791 0 0 0
2656 4 8.9925 5.3955 10.791 0 0 0
271 4 30.5745 3.597 26.9775 0 0 0
1488 4 19.7835 8.9925 3.597 0 0 0
2025 4 17.985 17.985 21.582 0 0 0
3480 4 1.7985 5.3955 32.373 0 0 0
396 4 30.5745 16.1865 28.776 0 0 0
3790 4 3.597 34.1715 26.9775 0 0 0
1978 4 17.985 16.1865 16.1865 0 0 0
1417 4 21.582 0.0 14.388 0 0 0
705 4 28.776 7.194 21.582 0 0 0
3042 4 7.194 5.3955 1.7985 0 0 0
3997 4 0.0 32.373 28.776 0 0 0
2843 4 8.9925 21.582 1.7985 0 0 0
2348 4 12.5895 12.5895 21.582 0 0 0
757 4 28.776 10.791 32.373 0 0 0
2783 4 8.9925 14.388 19.7835 0 0 0
3931 4 0.0 21.582 17.985 0 0 0
559 4 30.5745 28.776 34.1715 0 0 0
2454 4 14.388 23.3805 12.5895 0 0 0
401 4 32.373 17.985 0.0 0 0 0
746 4 28.776 12.5895 23.3805 0 0 0
3705 4 3.597 25.179 21.582 0 0 0
2442 4 14.388 23.3805 1.7985 0 0 0
2749 4 10.791 10.791 25.179 0 0 0
741 4 28.776 10.791 17.985 0 0 0
146 4 34.1715 26.9775 7.194 0 0 0
3239 4 5.3955 17.985 34.1715 0 0 0
178 4 34.1715 30.5745 28.776 0 0 0
3859 4 0.0 7.194 32.373 0 0 0
443 4 30.5745 21.582 1.7985 0 0 0
3963 4 0.0 28.776 3.597 0 0 0
1311 4 23.3805 25.179 26.9775 0 0 0
2804 4 8.9925 19.7835 0.0 0 0 0
818 4 28.776 19.7835 16.1865 0 0 0
2723 4 8.9925 10.791 1.7985 0 0 0
1916 4 16.1865 8.9925 28.776 0 0 0
1283 4 23.3805 25.179 1.7985 0 0 0
3986 4 0.0 34.1715 8.9925 0 0 0
1664 4 19.7835 23.3805 17.985 0 0 0
1133 4 25.179 10.791 10.791 0 0 0
1510 4 21.582 8.9925 26.9775 0 0 0
1166 4 25.179 16.1865 5.3955 0 0 0
1207 4 23.3805 17.985 5.3955 0 0 0
3443 4 1.7985 3.597 1.7985 0 0 0
3727 4 1.7985 28.776 5.3955 0 0 0
364 4 30.5745 16.1865 0.0 0 0 0
3149 4 7.194 10.791 25.179 0 0 0
521 4 32.373 28.776 0.0 0 0 0
1524 4 19.7835 12.5895 0.0 0 0 0
2952 4 8.9925 30.5745 25.179 0 0 0
634 4 28.776 1.7985 30.5745 0 0 0
1419 4 19.7835 0.0 16.1865 0 0 0
718 4 28.776 8.9925 34.1715 0 0 0
66 4 34.1715 12.5895 7.194 0 0 0
1464 4 19.7835 5.3955 17.985 0 0 0
3442 4 3.597 5.3955 1.7985 0 0 0
2113 4 17.985 25.179 28.776 0 0 0
3887 4 0.0 14.388 10.791 0 0 0
87 4 34.1715 14.388 12.5895 0 0 0
1744 4 19.7835 30.5745 17.985 0 0 0
3445 4 3.597 3.597 3.597 0 0 0
1319 4 23.3805 25.179 34.1715 0 0 0
1796 4 19.7835 34.1715 28.776 0 0 0
3679 4 1.7985 21.582 34.1715 0 0 0
1175 4 23.3805 14.388 12.5895 0 0 0
1209 4 25.179 17.985 7.194 0 0 0
2869 4 10.791 21.582 25.179 0 0 0
2756 4 8.9925 12.5895 28.776 0 0 0
864 4 26.9775 23.3805 17.985 0 0 0
1107 4 23.3805 7.194 23.3805 0 0 0
819 4 26.9775 17.985 16.1865 0 0 0
1341 4 25.179 28.776 17.985 0 0 0
2944 4 8.9925 30.5745 17.985 0 0 0
1023 4 23.3805 0.0 19.7835 0 0 0
1580 4 19.7835 16.1865 14.388 0 0 0
2760 4 8.9925 12.5895 32.373 0 0 0
1032 4 23.3805 1.7985 25.179 0 0 0
3257 4 7.194 21.582 14.388 0 0 0
2962 4 10.791 34.1715 1.7985 0 0 0
3686 4 3.597 26.9775 5.3955 0 0 0
216 4 30.5745 1.7985 10.791 0 0 0
3215 4 5.3955 17.985 12.5895 0 0 0
2069 4 17.985 21.582 25.179 0 0 0
3022 4 7.194 1.7985 19.7835 0 0 0
3895 4 0.0 14.388 25.179 0 0 0
2717 4 10.791 7.194 32.373 0 0 0
1743 4 19.7835 28.776 19.7835 0 0 0
2082 4 17.985 26.9775 1.7985 0 0 0
214 4 32.373 1.7985 12.5895 0 0 0
159 4 34.1715 25.179 34.1715 0 0 0
3126 4 7.194 12.5895 5.3955 0 0 0
3528 4 1.7985 12.5895 3.597 0 0 0
3498 4 3.597 8.9925 16.1865 0 0 0
1451 4 19.7835 3.597 8.9925 0 0 0
2366 4 14.388 16.1865 5.3955 0 0 0
1521 4 21.582 10.791 0.0 0 0 0
2852 4 8.9925 23.3805 7.194 0 0 0
2000 4 16.1865 16.1865 32.373 0 0 0
3345 4 7.194 28.776 21.582 0 0 0
3708 4 1.7985 26.9775 21.582 0 0 0
1963 4 16.1865 14.388 1.7985 0 0 0
3240 4 5.3955 19.7835 32.373 0 0 0
3739 4 1.7985 28.776 16.1865 0 0 0
1887 4 16.1865 7.194 5.3955 0 0 0
3741 4 3.597 28.776 17.985 0 0 0
2391 4 12.5895 14.388 26.9775 0 0 0
3266 4 7.194 23.3805 23.3805 0 0 0
2451 4 12.5895 21.582 8.9925 0 0 0
3714 4 3.597 26.9775 30.5745 0 0 0
30 4 34.1715 5.3955 14.388 0 0 0
3394 4 7.194 34.1715 30.5745 0 0 0
1495 4 19.7835 7.194 12.5895 0 0 0
3389 4 7.194 32.373 25.179 0 0 0
3680 4 1.7985 23.3805 32.373 0 0 0
2659 4 8.9925 3.597 16.1865 0 0 0
1454 4 21.582 5.3955 12.5895 0 0 0
2608 4 8.9925 1.7985 3.597 0 0 0
312 4 30.5745 8.9925 25.179 0 0 0
2117 4 17.985 25.179 32.373 0 0 0
3629 4 3.597 17.985 25.179 0 0 0
2083 4 16.1865 25.179 1.7985 0 0 0
2692 4 8.9925 8.9925 7.194 0 0 0
599 4 30.5745 32.373 34.1715 0 0 0
3074 4 7.194 5.3955 30.5745 0 0 0
2977 4 10.791 32.373 14.388 0 0 0
244 4 30.5745 5.3955 0.0 0 0 0
1997 4 17.985 14.388 32.373 0 0 0
2419 4 12.5895 17.985 16.1865 0 0 0
468 4 30.5745 23.3805 21.582 0 0 0
1498 4 21.582 8.9925 16.1865 0 0 0
1472 4 19.7835 5.3955 25.179 0 0 0
2177 4 17.985 32.373 14.388 0 0 0
331 4 30.5745 10.791 8.9925 0 0 0
875 4 26.9775 21.582 30.5745 0 0 0
2988 4 8.9925 34.1715 21.582 0 0 0
1338 4 25.179 30.5745 16.1865 0 0 0
2339 4 12.5895 10.791 16.1865 0 0 0
314 4 32.373 8.9925 30.5745 0 0 0
3423 4 1.7985 0.0 19.7835 0 0 0
2346 4 14.388 12.5895 23.3805 0 0 0
1014 4 25.179 1.7985 12.5895 0 0 0
3546 4 3.597 12.5895 23.3805 0 0 0
1777 4 21.582 32.373 14.388 0 0 0
3648 4 1.7985 23.3805 3.597 0 0 0
168 4 34.1715 30.5745 10.791 0 0 0
2104 4 16.1865 26.9775 17.985 0 0 0
105 4 34.1715 17.985 8.9925 0 0 0
1760 4 19.7835 30.5745 32.373 0 0 0
1163 4 23.3805 14.388 1.7985 0 0 0
1901 4 17.985 7.194 17.985 0 0 0
3557 4 3.597 10.791 32.373 0 0 0
2193 4 17.985 32.373 28.776 0 0 0
3187 4 5.3955 14.388 23.3805 0 0 0
2090 4 17.985 26.9775 8.9925 0 0 0
1949 4 17.985 10.791 25.179 0 0 0
601 4 28.776 0.0 0.0 0 0 0
1219 4 23.3805 17.985 16.1865 0 0 0
2110 4 17.985 26.9775 26.9775 0 0 0
2567 4 12.5895 32.373 5.3955 0 0 0
309 4 32.373 7.194 25.179 0 0 0
762 4 28.776 16.1865 1.7985 0 0 0
885 4 28.776 25.179 3.597 0 0 0
2694 4 10.791 8.9925 12.5895 0 0 0
3466 4 3.597 5.3955 23.3805 0 0 0
813 4 28.776 17.985 10.791 0 0 0
3235 4 5.3955 17.985 30.5745 0 0 0
3178 4 7.194 16.1865 16.1865 0 0 0
636 4 26.9775 1.7985 28.776 0 0 0
933 4 28.776 28.776 10.791 0 0 0
1489 4 21.582 7.194 7.194 0 0 0
1750 4 21.582 30.5745 26.9775 0 0 0
2921 4 10.791 28.776 0.0 0 0 0
3974 4 0.0 30.5745 23.3805 0 0 0
620 4 26.9775 1.7985 14.388 0 0 0
3197 4 7.194 14.388 32.373 0 0 0
317 4 32.373 7.194 32.373 0 0 0
2976 4 8.9925 34.1715 10.791 0 0 0
1001 4 25.179 0.0 0.0 0 0 0
3311 4 5.3955 25.179 26.9775 0 0 0
1125 4 25.179 10.791 3.597 0 0 0
483 4 30.5745 25.179 1.7985 0 0 0
9 5 34.1715 0.0 16.1865 0 0 0
12 5 34.1715 1.7985 17.985 0 0 0
16 5 34.1715 1.7985 25.179 0 0 0
29 5 34.1715 3.597 16.1865 0 0 0
42 5 34.1715 8.9925 0.0 0 0 0
58 5 34.1715 8.9925 28.776 0 0 0
59 5 34.1715 7.194 34.1715 0 0 0
64 5 34.1715 12.5895 3.597 0 0 0
73 5 34.1715 10.791 23.3805 0 0 0
80 5 34.1715 12.5895 32.373 0 0 0
86 5 34.1715 16.1865 7.194 0 0 0
92 5 34.1715 16.1865 17.985 0 0 0
118 5 34.1715 19.7835 28.776 0 0 0
121 5 34.1715 21.582 1.7985 0 0 0
126 5 34.1715 23.3805 7.194 0 0 0
134 5 34.1715 23.3805 21.582 0 0 0
138 5 34.1715 23.3805 28.776 0 0 0
141 5 34.1715 25.179 1.7985 0 0 0
143 5 34.1715 25.179 5.3955 0 0 0
144 5 34.1715 26.9775 3.597 0 0 0
162 5 34.1715 30.5745 0.0 0 0 0
173 5 34.1715 28.776 23.3805 0 0 0
193 5 34.1715 32.373 23.3805 0 0 0
194 5 34.1715 34.1715 21.582 0 0 0
199 5 34.1715 32.373 34.1715 0 0 0
203 5 30.5745 0.0 1.7985 0 0 0
204 5 30.5745 1.7985 0.0 0 0 0
205 5 32.373 0.0 3.597 0 0 0
247 5 30.5745 3.597 5.3955 0 0 0
255 5 30.5745 3.597 12.5895 0 0 0
261 5 32.373 3.597 17.985 0 0 0
287 5 30.5745 7.194 5.3955 0 0 0
297 5 32.373 7.194 14.388 0 0 0
299 5 30.5745 7.194 16.1865 0 0 0
334 5 32.373 12.5895 12.5895 0 0 0
338 5 32.373 12.5895 16.1865 0 0 0
346 5 32.373 12.5895 23.3805 0 0 0
359 5 30.5745 10.791 34.1715 0 0 0
369 5 32.373 14.388 7.194 0 0 0
370 5 32.373 16.1865 8.9925 0 0 0
382 5 32.373 16.1865 19.7835 0 0 0
384 5 30.5745 16.1865 17.985 0 0 0
385 5 32.373 14.388 21.582 0 0 0
386 5 32.373 16.1865 23.3805 0 0 0
388 5 30.5745 16.1865 21.582 0 0 0
411 5 30.5745 17.985 8.9925 0 0 0
416 5 30.5745 19.7835 10.791 0 0 0
426 5 32.373 19.7835 23.3805 0 0 0
442 5 32.373 23.3805 1.7985 0 0 0
447 5 30.5745 21.582 5.3955 0 0 0
475 5 30.5745 21.582 30.5745 0 0 0
478 5 32.373 23.3805 34.1715 0 0 0
514 5 32.373 26.9775 30.5745 0 0 0
516 5 30.5745 26.9775 28.776 0 0 0
525 5 32.373 28.776 3.597 0 0 0
537 5 32.373 28.776 14.388 0 0 0
547 5 30.5745 28.776 23.3805 0 0 0
572 5 30.5745 34.1715 7.194 0 0 0
590 5 32.373 34.1715 26.9775 0 0 0
607 5 26.9775 0.0 5.3955 0 0 0
611 5 26.9775 0.0 8.9925 0 0 0
615 5 26.9775 0.0 12.5895 0 0 0
637 5 28.776 0.0 32.373 0 0 0
640 5 26.9775 1.7985 32.373 0 0 0
654 5 28.776 5.3955 12.5895 0 0 0
658 5 28.776 5.3955 16.1865 0 0 0
664 5 26.9775 5.3955 17.985 0 0 0
672 5 26.9775 5.3955 25.179 0 0 0
674 5 28.776 5.3955 30.5745 0 0 0
675 5 26.9775 3.597 30.5745 0 0 0
685 5 28.776 7.194 3.597 0 0 0
687 5 26.9775 7.194 5.3955 0 0 0
688 5 26.9775 8.9925 3.597 0 0 0
717 5 28.776 7.194 32.373 0 0 0
726 5 28.776 12.5895 5.3955 0 0 0
737 5 28.776 10.791 14.388 0 0 0
738 5 28.776 12.5895 16.1865 0 0 0
742 5 28.776 12.5895 19.7835 0 0 0
795 5 26.9775 14.388 30.5745 0 0 0
821 5 28.776 17.985 17.985 0 0 0
824 5 26.9775 19.7835 17.985 0 0 0
837 5 28.776 17.985 32.373 0 0 0
848 5 26.9775 23.3805 3.597 0 0 0
856 5 26.9775 23.3805 10.791 0 0 0
859 5 26.9775 21.582 16.1865 0 0 0
877 5 28.776 21.582 32.373 0 0 0
890 5 28.776 26.9775 8.9925 0 0 0
894 5 28.776 26.9775 12.5895 0 0 0
900 5 26.9775 26.9775 14.388 0 0 0
928 5 26.9775 30.5745 3.597 0 0 0
929 5 28.776 28.776 7.194 0 0 0
931 5 26.9775 28.776 8.9925 0 0 0
944 5 26.9775 30.5745 17.985 0 0 0
960 5 26.9775 30.5745 32.373 0 0 0
970 5 28.776 34.1715 8.9925 0 0 0
984 5 26.9775 34.1715 17.985 0 0 0
1006 5 25.179 1.7985 5.3955 0 0 0
1009 5 25.179 0.0 7.194 0 0 0
1015 5 23.3805 0.0 12.5895 0 0 0
1018 5 25.179 1.7985 16.1865 0 0 0
1022 5 25.179 1.7985 19.7835 0 0 0
1033 5 25.179 0.0 28.776 0 0 0
1047 5 23.3805 3.597 5.3955 0 0 0
1056 5 23.3805 5.3955 10.791 0 0 0
1085 5 25.179 7.194 3.597 0 0 0
1098 5 25.179 8.9925 16.1865 0 0 0
1108 5 23.3805 8.9925 21.582 0 0 0
1127 5 23.3805 10.791 5.3955 0 0 0
1128 5 23.3805 12.5895 3.597 0 0 0
1131 5 23.3805 10.791 8.9925 0 0 0
1134 5 25.179 12.5895 12.5895 0 0 0
1140 5 23.3805 12.5895 14.388 0 0 0
1159 5 23.3805 10.791 34.1715 0 0 0
1160 5 23.3805 12.5895 32.373 0 0 0
1168 5 23.3805 16.1865 3.597 0 0 0
1174 5 25.179 16.1865 12.5895 0 0 0
1177 5 25.179 14.388 14.388 0 0 0
1180 5 23.3805 16.1865 14.388 0 0 0
1193 5 25.179 14.388 28.776 0 0 0
1195 5 23.3805 14.388 30.5745 0 0 0
1198 5 25.179 16.1865 34.1715 0 0 0
1210 5 25.179 19.7835 8.9925 0 0 0
1212 5 23.3805 19.7835 7.194 0 0 0
1223 5 23.3805 17.985 19.7835 0 0 0
1229 5 25.179 17.985 25.179 0 0 0
1248 5 23.3805 23.3805 3.597 0 0 0
1262 5 25.179 23.3805 19.7835 0 0 0
1263 5 23.3805 21.582 19.7835 0 0 0
1269 5 25.179 21.582 25.179 0 0 0
1274 5 25.179 23.3805 30.5745 0 0 0
1284 5 23.3805 26.9775 0.0 0 0 0
1298 5 25.179 26.9775 16.1865 0 0 0
1309 5 25.179 25.179 25.179 0 0 0
1320 5 23.3805 26.9775 32.373 0 0 0
1326 5 25.179 30.5745 5.3955 0 0 0
1328 5 23.3805 30.5745 3.597 0 0 0
1333 5 25.179 28.776 10.791 0 0 0
1349 5 25.179 28.776 25.179 0 0 0
1357 5 25.179 28.776 32.373 0 0 0
1365 5 25.179 32.373 3.597 0 0 0
1368 5 23.3805 34.1715 3.597 0 0 0
1369 5 25.179 32.373 7.194 0 0 0
1388 5 23.3805 34.1715 21.582 0 0 0
1393 5 25.179 32.373 28.776 0 0 0
1395 5 23.3805 32.373 30.5745 0 0 0
1416 5 19.7835 1.7985 10.791 0 0 0
1420 5 19.7835 1.7985 14.388 0 0 0
1443 5 19.7835 3.597 1.7985 0 0 0
1453 5 21.582 3.597 10.791 0 0 0
1459 5 19.7835 3.597 16.1865 0 0 0
1469 5 21.582 3.597 25.179 0 0 0
1478 5 21.582 5.3955 34.1715 0 0 0
1484 5 19.7835 8.9925 0.0 0 0 0
1519 5 19.7835 7.194 34.1715 0 0 0
1537 5 21.582 10.791 14.388 0 0 0
1538 5 21.582 12.5895 16.1865 0 0 0
1541 5 21.582 10.791 17.985 0 0 0
1550 5 21.582 12.5895 26.9775 0 0 0
1579 5 19.7835 14.388 16.1865 0 0 0
1585 5 21.582 14.388 21.582 0 0 0
1589 5 21.582 14.388 25.179 0 0 0
1611 5 19.7835 17.985 8.9925 0 0 0
1621 5 21.582 17.985 17.985 0 0 0
1635 5 19.7835 17.985 30.5745 0 0 0
1669 5 21.582 21.582 25.179 0 0 0
1680 5 19.7835 23.3805 32.373 0 0 0
1702 5 21.582 26.9775 19.7835 0 0 0
1703 5 19.7835 25.179 19.7835 0 0 0
1725 5 21.582 28.776 3.597 0 0 0
1738 5 21.582 30.5745 16.1865 0 0 0
1747 5 19.7835 28.776 23.3805 0 0 0
1752 5 19.7835 30.5745 25.179 0 0 0
1763 5 19.7835 32.373 1.7985 0 0 0
1765 5 21.582 32.373 3.597 0 0 0
1771 5 19.7835 32.373 8.9925 0 0 0
1772 5 19.7835 34.1715 7.194 0 0 0
1788 5 19.7835 34.1715 21.582 0 0 0
1793 5 21.582 32.373 28.776 0 0 0
1797 5 21.582 32.373 32.373 0 0 0
1800 5 19.7835 34.1715 32.373 0 0 0
1818 5 17.985 1.7985 16.1865 0 0 0
1828 5 16.1865 1.7985 21.582 0 0 0
1829 5 17.985 0.0 25.179 0 0 0
1836 5 16.1865 1.7985 28.776 0 0 0
1843 5 16.1865 3.597 1.7985 0 0 0
1844 5 16.1865 5.3955 0.0 0 0 0
1845 5 17.985 3.597 3.597 0 0 0
1862 5 17.985 5.3955 19.7835 0 0 0
1884 5 16.1865 8.9925 0.0 0 0 0
1885 5 17.985 7.194 3.597 0 0 0
1888 5 16.1865 8.9925 3.597 0 0 0
1889 5 17.985 7.194 7.194 0 0 0
1910 5 17.985 8.9925 26.9775 0 0 0
1911 5 16.1865 7.194 26.9775 0 0 0
1918 5 17.985 8.9925 34.1715 0 0 0
1921 5 17.985 10.791 0.0 0 0 0
1931 5 16.1865 10.791 8.9925 0 0 0
1933 5 17.985 10.791 10.791 0 0 0
1939 5 16.1865 10.791 16.1865 0 0 0
1950 5 17.985 12.5895 26.9775 0 0 0
1961 5 17.985 14.388 0.0 0 0 0
1979 5 16.1865 14.388 16.1865 0 0 0
1985 5 17.985 14.388 21.582 0 0 0
1986 5 17.985 16.1865 23.3805 0 0 0
1995 5 16.1865 14.388 30.5745 0 0 0
1998 5 17.985 16.1865 34.1715 0 0 0
2002 5 17.985 19.7835 1.7985 0 0 0
2004 5 16.1865 19.7835 0.0 0 0 0
2011 5 16.1865 17.985 8.9925 0 0 0
2017 5 17.985 17.985 14.388 0 0 0
2018 5 17.985 19.7835 16.1865 0 0 0
2027 5 16.1865 17.985 23.3805 0 0 0
2051 5 16.1865 21.582 8.9925 0 0 0
2079 5 16.1865 21.582 34.1715 0 0 0
2080 5 16.1865 23.3805 32.373 0 0 0
2081 5 17.985 25.179 0.0 0 0 0
2111 5 16.1865 25.179 26.9775 0 0 0
2112 5 16.1865 26.9775 25.179 0 0 0
2128 5 16.1865 30.5745 3.597 0 0 0
2131 5 16.1865 28.776 8.9925 0 0 0
2138 5 17.985 30.5745 16.1865 0 0 0
2150 5 17.985 30.5745 26.9775 0 0 0
2161 5 17.985 32.373 0.0 0 0 0
2164 5 16.1865 34.1715 0.0 0 0 0
2179 5 16.1865 32.373 16.1865 0 0 0
2198 5 17.985 34.1715 34.1715 0 0 0
2200 5 16.1865 34.1715 32.373 0 0 0
2208 5 12.5895 1.7985 3.597 0 0 0
2211 5 12.5895 0.0 8.9925 0 0 0
2226 5 14.388 1.7985 23.3805 0 0 0
2239 5 12.5895 0.0 34.1715 0 0 0
2264 5 12.5895 5.3955 17.985 0 0 0
2268 5 12.5895 5.3955 21.582 0 0 0
2277 5 14.388 3.597 32.373 0 0 0
2278 5 14.388 5.3955 34.1715 0 0 0
2282 5 14.388 8.9925 1.7985 0 0 0
2286 5 14.388 8.9925 5.3955 0 0 0
2302 5 14.388 8.9925 19.7835 0 0 0
2304 5 12.5895 8.9925 17.985 0 0 0
2310 5 14.388 8.9925 26.9775 0 0 0
2312 5 12.5895 8.9925 25.179 0 0 0
2325 5 14.388 10.791 3.597 0 0 0
2329 5 14.388 10.791 7.194 0 0 0
2334 5 14.388 12.5895 12.5895 0 0 0
2347 5 12.5895 10.791 23.3805 0 0 0
2369 5 14.388 14.388 7.194 0 0 0
2372 5 12.5895 16.1865 7.194 0 0 0
2421 5 14.388 17.985 17.985 0 0 0
2422 5 14.388 19.7835 19.7835 0 0 0
2447 5 12.5895 21.582 5.3955 0 0 0
2449 5 14.388 21.582 7.194 0 0 0
2455 5 12.5895 21.582 12.5895 0 0 0
2469 5 14.388 21.582 25.179 0 0 0
2473 5 14.388 21.582 28.776 0 0 0
2475 5 12.5895 21.582 30.5745 0 0 0
2478 5 14.388 23.3805 34.1715 0 0 0
2483 5 12.5895 25.179 1.7985 0 0 0
2489 5 14.388 25.179 7.194 0 0 0
2490 5 14.388 26.9775 8.9925 0 0 0
2508 5 12.5895 26.9775 21.582 0 0 0
2557 5 14.388 28.776 32.373 0 0 0
2560 5 12.5895 30.5745 32.373 0 0 0
2569 5 14.388 32.373 7.194 0 0 0
2584 5 12.5895 34.1715 17.985 0 0 0
2587 5 12.5895 32.373 23.3805 0 0 0
2592 5 12.5895 34.1715 25.179 0 0 0
2609 5 10.791 0.0 7.194 0 0 0
2622 5 10.791 1.7985 19.7835 0 0 0
2629 5 10.791 0.0 25.179 0 0 0
2646 5 10.791 5.3955 5.3955 0 0 0
2662 5 10.791 5.3955 19.7835 0 0 0
2674 5 10.791 5.3955 30.5745 0 0 0
2704 5 8.9925 8.9925 17.985 0 0 0
2765 5 10.791 14.388 3.597 0 0 0
2774 5 10.791 16.1865 12.5895 0 0 0
2778 5 10.791 16.1865 16.1865 0 0 0
2784 5 8.9925 16.1865 17.985 0 0 0
2789 5 10.791 14.388 25.179 0 0 0
2797 5 10.791 14.388 32.373 0 0 0
2798 5 10.791 16.1865 34.1715 0 0 0
2805 5 10.791 17.985 3.597 0 0 0
2809 5 10.791 17.985 7.194 0 0 0
2816 5 8.9925 19.7835 10.791 0 0 0
2817 5 10.791 17.985 14.388 0 0 0
2819 5 8.9925 17.985 16.1865 0 0 0
2821 5 10.791 17.985 17.985 0 0 0
2822 5 10.791 19.7835 19.7835 0 0 0
2840 5 8.9925 19.7835 32.373 0 0 0
2841 5 10.791 21.582 0.0 0 0 0
2849 5 10.791 21.582 7.194 0 0 0
2850 5 10.791 23.3805 8.9925 0 0 0
2853 5 10.791 21.582 10.791 0 0 0
2856 5 8.9925 23.3805 10.791 0 0 0
2858 5 10.791 23.3805 16.1865 0 0 0
2859 5 8.9925 21.582 16.1865 0 0 0
2875 5 8.9925 21.582 30.5745 0 0 0
2876 5 8.9925 23.3805 28.776 0 0 0
2877 5 10.791 21.582 32.373 0 0 0
2884 5 8.9925 26.9775 0.0 0 0 0
2885 5 10.791 25.179 3.597 0 0 0
2895 5 8.9925 25.179 12.5895 0 0 0
2905 5 10.791 25.179 21.582 0 0 0
2907 5 8.9925 25.179 23.3805 0 0 0
2915 5 8.9925 25.179 30.5745 0 0 0
2929 5 10.791 28.776 7.194 0 0 0
2936 5 8.9925 30.5745 10.791 0 0 0
2940 5 8.9925 30.5745 14.388 0 0 0
2955 5 8.9925 28.776 30.5745 0 0 0
2961 5 10.791 32.373 0.0 0 0 0
2978 5 10.791 34.1715 16.1865 0 0 0
2982 5 10.791 34.1715 19.7835 0 0 0
2989 5 10.791 32.373 25.179 0 0 0
2998 5 10.791 34.1715 34.1715 0 0 0
3007 5 5.3955 0.0 5.3955 0 0 0
3010 5 7.194 1.7985 8.9925 0 0 0
3014 5 7.194 1.7985 12.5895 0 0 0
3015 5 5.3955 0.0 12.5895 0 0 0
3019 5 5.3955 0.0 16.1865 0 0 0
3025 5 7.194 0.0 21.582 0 0 0
3026 5 7.194 1.7985 23.3805 0 0 0
3031 5 5.3955 0.0 26.9775 0 0 0
3033 5 7.194 0.0 28.776 0 0 0
3040 5 5.3955 1.7985 32.373 0 0 0
3045 5 7.194 3.597 3.597 0 0 0
3060 5 5.3955 5.3955 14.388 0 0 0
3070 5 7.194 5.3955 26.9775 0 0 0
3080 5 5.3955 5.3955 32.373 0 0 0
3092 5 5.3955 8.9925 7.194 0 0 0
3097 5 7.194 7.194 14.388 0 0 0
3102 5 7.194 8.9925 19.7835 0 0 0
3108 5 5.3955 8.9925 21.582 0 0 0
3111 5 5.3955 7.194 26.9775 0 0 0
3114 5 7.194 8.9925 30.5745 0 0 0
3134 5 7.194 12.5895 12.5895 0 0 0
3151 5 5.3955 10.791 26.9775 0 0 0
3166 5 7.194 16.1865 5.3955 0 0 0
3180 5 5.3955 16.1865 14.388 0 0 0
3183 5 5.3955 14.388 19.7835 0 0 0
3201 5 7.194 17.985 0.0 0 0 0
3214 5 7.194 19.7835 12.5895 0 0 0
3224 5 5.3955 19.7835 17.985 0 0 0
3234 5 7.194 19.7835 30.5745 0 0 0
3238 5 7.194 19.7835 34.1715 0 0 0
3246 5 7.194 23.3805 5.3955 0 0 0
3249 5 7.194 21.582 7.194 0 0 0
3254 5 7.194 23.3805 12.5895 0 0 0
3255 5 5.3955 21.582 12.5895 0 0 0
3271 5 5.3955 21.582 26.9775 0 0 0
3272 5 5.3955 23.3805 25.179 0 0 0
3279 5 5.3955 21.582 34.1715 0 0 0
3284 5 5.3955 26.9775 0.0 0 0 0
3298 5 7.194 26.9775 16.1865 0 0 0
3300 5 5.3955 26.9775 14.388 0 0 0
3304 5 5.3955 26.9775 17.985 0 0 0
3320 5 5.3955 26.9775 32.373 0 0 0
3366 5 7.194 34.1715 5.3955 0 0 0
3377 5 7.194 32.373 14.388 0 0 0
3384 5 5.3955 34.1715 17.985 0 0 0
3387 5 5.3955 32.373 23.3805 0 0 0
3409 5 3.597 0.0 7.194 0 0 0
3416 5 1.7985 1.7985 10.791 0 0 0
3431 5 1.7985 0.0 26.9775 0 0 0
3434 5 3.597 1.7985 30.5745 0 0 0
3465 5 3.597 3.597 21.582 0 0 0
3472 5 1.7985 5.3955 25.179 0 0 0
3483 5 1.7985 7.194 1.7985 0 0 0
3484 5 1.7985 8.9925 0.0 0 0 0
3512 5 1.7985 8.9925 25.179 0 0 0
3520 5 1.7985 8.9925 32.373 0 0 0
3535 5 1.7985 10.791 12.5895 0 0 0
3539 5 1.7985 10.791 16.1865 0 0 0
3549 5 3.597 10.791 25.179 0 0 0
3585 5 3.597 14.388 21.582 0 0 0
3605 5 3.597 17.985 3.597 0 0 0
3611 5 1.7985 17.985 8.9925 0 0 0
3612 5 1.7985 19.7835 7.194 0 0 0
3613 5 3.597 17.985 10.791 0 0 0
3626 5 3.597 19.7835 23.3805 0 0 0
3654 5 3.597 23.3805 12.5895 0 0 0
3656 5 1.7985 23.3805 10.791 0 0 0
3687 5 1.7985 25.179 5.3955 0 0 0
3692 5 1.7985 26.9775 7.194 0 0 0
3699 5 1.7985 25.179 16.1865 0 0 0
3710 5 3.597 26.9775 26.9775 0 0 0
3719 5 1.7985 25.179 34.1715 0 0 0
3721 5 3.597 28.776 0.0 0 0 0
3723 5 1.7985 28.776 1.7985 0 0 0
3728 5 1.7985 30.5745 3.597 0 0 0
3730 5 3.597 30.5745 8.9925 0 0 0
3732 5 1.7985 30.5745 7.194 0 0 0
3733 5 3.597 28.776 10.791 0 0 0
3743 5 1.7985 28.776 19.7835 0 0 0
3750 5 3.597 30.5745 26.9775 0 0 0
3751 5 1.7985 28.776 26.9775 0 0 0
3752 5 1.7985 30.5745 25.179 0 0 0
3767 5 1.7985 32.373 5.3955 0 0 0
3781 5 3.597 32.373 17.985 0 0 0
3784 5 1.7985 34.1715 17.985 0 0 0
3808 5 0.0 1.7985 12.5895 0 0 0
3818 5 0.0 1.7985 30.5745 0 0 0
3819 5 0.0 0.0 32.373 0 0 0
3822 5 0.0 5.3955 1.7985 0 0 0
3825 5 0.0 3.597 7.194 0 0 0
3836 5 0.0 5.3955 26.9775 0 0 0
3838 5 0.0 5.3955 30.5745 0 0 0
3845 5 0.0 7.194 7.194 0 0 0
3846 5 0.0 8.9925 8.9925 0 0 0
3863 5 0.0 10.791 3.597 0 0 0
3865 5 0.0 10.791 7.194 0 0 0
3866 5 0.0 12.5895 8.9925 0 0 0
3868 5 0.0 12.5895 12.5895 0 0 0
3872 5 0.0 12.5895 19.7835 0 0 0
3892 5 0.0 16.1865 19.7835 0 0 0
3901 5 0.0 17.985 0.0 0 0 0
3907 5 0.0 17.985 10.791 0 0 0
3922 5 0.0 23.3805 1.7985 0 0 0
3935 5 0.0 21.582 25.179 0 0 0
3948 5 0.0 26.9775 12.5895 0 0 0
3950 5 0.0 26.9775 16.1865 0 0 0
3964 5 0.0 30.5745 5.3955 0 0 0
3972 5 0.0 30.5745 19.7835 0 0 0
3973 5 0.0 28.776 21.582 0 0 0
3994 5 0.0 34.1715 23.3805 0 0 0
