LAMMPS data file via write_data version 30 Jul 2021 timestep = 0
4000 atoms
5 atom types
0 35.97 xlo xhi
0 35.97 ylo yhi
0 35.97 zlo zhi
0.0 0.0 0.0 xy xz yz
 
Masses
 
1 1.0
2 2.0
3 3.0
4 4.0
5 5.0
 
Atoms  # atomic
 
2874 1 10.791 23.3805 30.5745 0 0 0
523 1 30.5745 28.776 1.7985 0 0 0
130 1 34.1715 23.3805 14.388 0 0 0
2533 1 14.388 28.776 10.791 0 0 0
829 1 28.776 17.985 25.179 0 0 0
133 1 34.1715 21.582 23.3805 0 0 0
1236 1 23.3805 19.7835 28.776 0 0 0
3619 1 1.7985 17.985 16.1865 0 0 0
2884 1 8.9925 26.9775 0.0 0 0 0
2160 1 16.1865 30.5745 32.373 0 0 0
3322 1 7.194 30.5745 1.7985 0 0 0
1447 1 19.7835 3.597 5.3955 0 0 0
3585 1 3.597 14.388 21.582 0 0 0
1040 1 23.3805 1.7985 32.373 0 0 0
1519 1 19.7835 7.194 34.1715 0 0 0
1533 1 21.582 10.791 10.791 0 0 0
1106 1 25.179 8.9925 23.3805 0 0 0
2420 1 12.5895 19.7835 14.388 0 0 0
592 1 30.5745 34.1715 25.179 0 0 0
1435 1 19.7835 0.0 30.5745 0 0 0
1137 1 25.179 10.791 14.388 0 0 0
1613 1 21.582 17.985 10.791 0 0 0
3691 1 1.7985 25.179 8.9925 0 0 0
2802 1 10.791 19.7835 1.7985 0 0 0
253 1 32.373 3.597 10.791 0 0 0
1215 1 23.3805 17.985 12.5895 0 0 0
2991 1 8.9925 32.373 26.9775 0 0 0
1287 1 23.3805 25.179 5.3955 0 0 0
3314 1 7.194 26.9775 30.5745 0 0 0
2697 1 10.791 7.194 14.388 0 0 0
3000 1 8.9925 34.1715 32.373 0 0 0
2111 1 16.1865 25.179 26.9775 0 0 0
2294 1 14.388 8.9925 12.5895 0 0 0
574 1 32.373 34.1715 12.5895 0 0 0
338 1 32.373 12.5895 16.1865 0 0 0
2796 1 8.9925 16.1865 28.776 0 0 0
458 1 32.373 23.3805 16.1865 0 0 0
2749 1 10.791 10.791 25.179 0 0 0
918 1 28.776 26.9775 34.1715 0 0 0
229 1 32.373 0.0 25.179 0 0 0
2000 1 16.1865 16.1865 32.373 0 0 0
946 1 28.776 30.5745 23.3805 0 0 0
3431 1 1.7985 0.0 26.9775 0 0 0
1166 1 25.179 16.1865 5.3955 0 0 0
479 1 30.5745 21.582 34.1715 0 0 0
3112 1 5.3955 8.9925 25.179 0 0 0
1264 1 23.3805 23.3805 17.985 0 0 0
880 1 26.9775 23.3805 32.373 0 0 0
1663 1 19.7835 21.582 19.7835 0 0 0
1612 1 19.7835 19.7835 7.194 0 0 0
2468 1 12.5895 23.3805 21.582 0 0 0
1936 1 16.1865 12.5895 10.791 0 0 0
3824 1 0.0 5.3955 5.3955 0 0 0
2710 1 10.791 8.9925 26.9775 0 0 0
3316 1 5.3955 26.9775 28.776 0 0 0
2430 1 14.388 19.7835 26.9775 0 0 0
3088 1 5.3955 8.9925 3.597 0 0 0
567 1 30.5745 32.373 5.3955 0 0 0
1048 1 23.3805 5.3955 3.597 0 0 0
1599 1 19.7835 14.388 34.1715 0 0 0
1047 1 23.3805 3.597 5.3955 0 0 0
2940 1 8.9925 30.5745 14.388 0 0 0
664 1 26.9775 5.3955 17.985 0 0 0
1662 1 21.582 23.3805 19.7835 0 0 0
552 1 30.5745 30.5745 25.179 0 0 0
2159 1 16.1865 28.776 34.1715 0 0 0
1902 1 17.985 8.9925 19.7835 0 0 0
1968 1 16.1865 16.1865 3.597 0 0 0
2594 1 14.388 34.1715 30.5745 0 0 0
3013 1 7.194 0.0 10.791 0 0 0
1480 1 19.7835 5.3955 32.373 0 0 0
3277 1 7.194 21.582 32.373 0 0 0
1126 1 25.179 12.5895 5.3955 0 0 0
3048 1 5.3955 5.3955 3.597 0 0 0
1373 1 25.179 32.373 10.791 0 0 0
1086 1 25.179 8.9925 5.3955 0 0 0
2974 1 10.791 34.1715 12.5895 0 0 0
2870 1 10.791 23.3805 26.9775 0 0 0
307 1 30.5745 7.194 23.3805 0 0 0
3338 1 7.194 30.5745 16.1865 0 0 0
1647 1 19.7835 21.582 5.3955 0 0 0
3470 1 3.597 5.3955 26.9775 0 0 0
2472 1 12.5895 23.3805 25.179 0 0 0
2724 1 8.9925 12.5895 0.0 0 0 0
797 1 28.776 14.388 32.373 0 0 0
3012 1 5.3955 1.7985 7.194 0 0 0
1214 1 25.179 19.7835 12.5895 0 0 0
3626 1 3.597 19.7835 23.3805 0 0 0
3637 1 3.597 17.985 32.373 0 0 0
3683 1 1.7985 25.179 1.7985 0 0 0
2860 1 8.9925 23.3805 14.388 0 0 0
2215 1 12.5895 0.0 12.5895 0 0 0
12 1 34.1715 1.7985 17.985 0 0 0
1003 1 23.3805 0.0 1.7985 0 0 0
2753 1 10.791 10.791 28.776 0 0 0
2855 1 8.9925 21.582 12.5895 0 0 0
2626 1 10.791 1.7985 23.3805 0 0 0
2356 1 12.5895 12.5895 28.776 0 0 0
999 1 26.9775 32.373 34.1715 0 0 0
503 1 30.5745 25.179 19.7835 0 0 0
1360 1 23.3805 30.5745 32.373 0 0 0
1973 1 17.985 14.388 10.791 0 0 0
2189 1 17.985 32.373 25.179 0 0 0
1366 1 25.179 34.1715 5.3955 0 0 0
3251 1 5.3955 21.582 8.9925 0 0 0
1900 1 16.1865 8.9925 14.388 0 0 0
3933 1 0.0 21.582 21.582 0 0 0
1219 1 23.3805 17.985 16.1865 0 0 0
8 1 34.1715 1.7985 10.791 0 0 0
3170 1 7.194 16.1865 8.9925 0 0 0
3117 1 7.194 7.194 32.373 0 0 0
2973 1 10.791 32.373 10.791 0 0 0
1043 1 23.3805 3.597 1.7985 0 0 0
2517 1 14.388 25.179 32.373 0 0 0
1734 1 21.582 30.5745 12.5895 0 0 0
813 1 28.776 17.985 10.791 0 0 0
3017 1 7.194 0.0 14.388 0 0 0
1857 1 17.985 3.597 14.388 0 0 0
595 1 30.5745 32.373 30.5745 0 0 0
1707 1 19.7835 25.179 23.3805 0 0 0
1727 1 19.7835 28.776 5.3955 0 0 0
2478 1 14.388 23.3805 34.1715 0 0 0
1875 1 16.1865 3.597 30.5745 0 0 0
2776 1 8.9925 16.1865 10.791 0 0 0
2024 1 16.1865 19.7835 17.985 0 0 0
1321 1 25.179 28.776 0.0 0 0 0
60 1 34.1715 8.9925 32.373 0 0 0
678 1 28.776 5.3955 34.1715 0 0 0
1697 1 21.582 25.179 14.388 0 0 0
1620 1 19.7835 19.7835 14.388 0 0 0
1473 1 21.582 3.597 28.776 0 0 0
2206 1 14.388 1.7985 5.3955 0 0 0
586 1 32.373 34.1715 23.3805 0 0 0
1057 1 25.179 3.597 14.388 0 0 0
1199 1 23.3805 14.388 34.1715 0 0 0
1250 1 25.179 23.3805 8.9925 0 0 0
3724 1 1.7985 30.5745 0.0 0 0 0
3607 1 1.7985 17.985 5.3955 0 0 0
1178 1 25.179 16.1865 16.1865 0 0 0
1278 1 25.179 23.3805 34.1715 0 0 0
3891 1 0.0 14.388 17.985 0 0 0
2558 1 14.388 30.5745 34.1715 0 0 0
1344 1 23.3805 30.5745 17.985 0 0 0
1594 1 21.582 16.1865 30.5745 0 0 0
1795 1 19.7835 32.373 30.5745 0 0 0
2352 1 12.5895 12.5895 25.179 0 0 0
632 1 26.9775 1.7985 25.179 0 0 0
2921 1 10.791 28.776 0.0 0 0 0
551 1 30.5745 28.776 26.9775 0 0 0
1221 1 25.179 17.985 17.985 0 0 0
2167 1 16.1865 32.373 5.3955 0 0 0
907 1 26.9775 25.179 23.3805 0 0 0
1328 1 23.3805 30.5745 3.597 0 0 0
2657 1 10.791 3.597 14.388 0 0 0
1408 1 19.7835 1.7985 3.597 0 0 0
511 1 30.5745 25.179 26.9775 0 0 0
3762 1 3.597 34.1715 1.7985 0 0 0
162 1 34.1715 30.5745 0.0 0 0 0
1643 1 19.7835 21.582 1.7985 0 0 0
3591 1 1.7985 14.388 26.9775 0 0 0
3177 1 7.194 14.388 14.388 0 0 0
598 1 32.373 34.1715 34.1715 0 0 0
1284 1 23.3805 26.9775 0.0 0 0 0
215 1 30.5745 0.0 12.5895 0 0 0
209 1 32.373 0.0 7.194 0 0 0
3634 1 3.597 19.7835 30.5745 0 0 0
3022 1 7.194 1.7985 19.7835 0 0 0
216 1 30.5745 1.7985 10.791 0 0 0
1355 1 23.3805 28.776 30.5745 0 0 0
2465 1 14.388 21.582 21.582 0 0 0
3241 1 7.194 21.582 0.0 0 0 0
2567 1 12.5895 32.373 5.3955 0 0 0
24 1 34.1715 5.3955 3.597 0 0 0
3811 1 0.0 0.0 17.985 0 0 0
612 1 26.9775 1.7985 7.194 0 0 0
1840 1 16.1865 1.7985 32.373 0 0 0
2035 1 16.1865 17.985 30.5745 0 0 0
3527 1 1.7985 10.791 5.3955 0 0 0
1607 1 19.7835 17.985 5.3955 0 0 0
1183 1 23.3805 14.388 19.7835 0 0 0
169 1 34.1715 28.776 16.1865 0 0 0
1142 1 25.179 12.5895 19.7835 0 0 0
3801 1 0.0 0.0 0.0 0 0 0
3386 1 7.194 34.1715 23.3805 0 0 0
2025 1 17.985 17.985 21.582 0 0 0
936 1 26.9775 30.5745 10.791 0 0 0
1737 1 21.582 28.776 14.388 0 0 0
1979 1 16.1865 14.388 16.1865 0 0 0
2093 1 17.985 25.179 10.791 0 0 0
1908 1 16.1865 8.9925 21.582 0 0 0
3453 1 3.597 3.597 10.791 0 0 0
2569 1 14.388 32.373 7.194 0 0 0
429 1 32.373 17.985 25.179 0 0 0
1616 1 19.7835 19.7835 10.791 0 0 0
650 1 28.776 5.3955 8.9925 0 0 0
1194 1 25.179 16.1865 30.5745 0 0 0
1990 1 17.985 16.1865 26.9775 0 0 0
2837 1 10.791 17.985 32.373 0 0 0
3239 1 5.3955 17.985 34.1715 0 0 0
1205 1 25.179 17.985 3.597 0 0 0
1399 1 23.3805 32.373 34.1715 0 0 0
2593 1 14.388 32.373 28.776 0 0 0
3259 1 5.3955 21.582 16.1865 0 0 0
2434 1 14.388 19.7835 30.5745 0 0 0
3703 1 1.7985 25.179 19.7835 0 0 0
2469 1 14.388 21.582 25.179 0 0 0
2778 1 10.791 16.1865 16.1865 0 0 0
1644 1 19.7835 23.3805 0.0 0 0 0
1070 1 25.179 5.3955 26.9775 0 0 0
1574 1 21.582 16.1865 12.5895 0 0 0
1438 1 21.582 1.7985 34.1715 0 0 0
2244 1 12.5895 5.3955 0.0 0 0 0
3855 1 0.0 7.194 25.179 0 0 0
4000 1 0.0 34.1715 34.1715 0 0 0
2004 1 16.1865 19.7835 0.0 0 0 0
1704 1 19.7835 26.9775 17.985 0 0 0
545 1 32.373 28.776 21.582 0 0 0
996 1 26.9775 34.1715 28.776 0 0 0
2002 1 17.985 19.7835 1.7985 0 0 0
321 1 32.373 10.791 0.0 0 0 0
1536 1 19.7835 12.5895 10.791 0 0 0
1710 1 21.582 26.9775 26.9775 0 0 0
3959 1 0.0 25.179 32.373 0 0 0
576 1 30.5745 34.1715 10.791 0 0 0
2961 1 10.791 32.373 0.0 0 0 0
2597 1 14.388 32.373 32.373 0 0 0
702 1 28.776 8.9925 19.7835 0 0 0
3547 1 1.7985 10.791 23.3805 0 0 0
2639 1 8.9925 0.0 34.1715 0 0 0
481 1 32.373 25.179 0.0 0 0 0
3204 1 5.3955 19.7835 0.0 0 0 0
3305 1 7.194 25.179 21.582 0 0 0
95 1 34.1715 14.388 26.9775 0 0 0
2687 1 8.9925 7.194 5.3955 0 0 0
3684 1 1.7985 26.9775 0.0 0 0 0
1691 1 19.7835 25.179 8.9925 0 0 0
1810 1 17.985 1.7985 8.9925 0 0 0
2288 1 12.5895 8.9925 3.597 0 0 0
1234 1 25.179 19.7835 30.5745 0 0 0
2296 1 12.5895 8.9925 10.791 0 0 0
719 1 26.9775 7.194 34.1715 0 0 0
3920 1 0.0 19.7835 34.1715 0 0 0
3212 1 5.3955 19.7835 7.194 0 0 0
2052 1 16.1865 23.3805 7.194 0 0 0
1477 1 21.582 3.597 32.373 0 0 0
1981 1 17.985 14.388 17.985 0 0 0
3002 1 7.194 1.7985 1.7985 0 0 0
3487 1 1.7985 7.194 5.3955 0 0 0
1763 1 19.7835 32.373 1.7985 0 0 0
564 1 30.5745 34.1715 0.0 0 0 0
1159 1 23.3805 10.791 34.1715 0 0 0
2119 1 16.1865 25.179 34.1715 0 0 0
3485 1 3.597 7.194 3.597 0 0 0
1290 1 25.179 26.9775 8.9925 0 0 0
3302 1 7.194 26.9775 19.7835 0 0 0
2903 1 8.9925 25.179 19.7835 0 0 0
87 1 34.1715 14.388 12.5895 0 0 0
1927 1 16.1865 10.791 5.3955 0 0 0
3396 1 5.3955 34.1715 28.776 0 0 0
2536 1 12.5895 30.5745 10.791 0 0 0
179 1 34.1715 28.776 34.1715 0 0 0
530 1 32.373 30.5745 8.9925 0 0 0
2983 1 8.9925 32.373 19.7835 0 0 0
3542 1 3.597 12.5895 19.7835 0 0 0
2120 1 16.1865 26.9775 32.373 0 0 0
3805 1 0.0 0.0 7.194 0 0 0
1739 1 19.7835 28.776 16.1865 0 0 0
2582 1 14.388 34.1715 19.7835 0 0 0
3309 1 7.194 25.179 25.179 0 0 0
3004 1 5.3955 1.7985 0.0 0 0 0
802 1 28.776 19.7835 1.7985 0 0 0
3128 1 5.3955 12.5895 3.597 0 0 0
2555 1 12.5895 28.776 30.5745 0 0 0
1879 1 16.1865 3.597 34.1715 0 0 0
2201 1 14.388 0.0 0.0 0 0 0
2653 1 10.791 3.597 10.791 0 0 0
2987 1 8.9925 32.373 23.3805 0 0 0
2015 1 16.1865 17.985 12.5895 0 0 0
2793 1 10.791 14.388 28.776 0 0 0
1664 1 19.7835 23.3805 17.985 0 0 0
847 1 26.9775 21.582 5.3955 0 0 0
874 1 28.776 23.3805 30.5745 0 0 0
1358 1 25.179 30.5745 34.1715 0 0 0
487 1 30.5745 25.179 5.3955 0 0 0
1065 1 25.179 3.597 21.582 0 0 0
3185 2 7.194 14.388 21.582 0 0 0
485 2 32.373 25.179 3.597 0 0 0
1848 2 16.1865 5.3955 3.597 0 0 0
3099 2 5.3955 7.194 16.1865 0 0 0
3127 2 5.3955 10.791 5.3955 0 0 0
752 2 26.9775 12.5895 25.179 0 0 0
2405 2 14.388 17.985 3.597 0 0 0
995 2 26.9775 32.373 30.5745 0 0 0
798 2 28.776 16.1865 34.1715 0 0 0
1770 2 21.582 34.1715 8.9925 0 0 0
2747 2 8.9925 10.791 23.3805 0 0 0
1943 2 16.1865 10.791 19.7835 0 0 0
492 2 30.5745 26.9775 7.194 0 0 0
1006 2 25.179 1.7985 5.3955 0 0 0
496 2 30.5745 26.9775 10.791 0 0 0
2820 2 8.9925 19.7835 14.388 0 0 0
3310 2 7.194 26.9775 26.9775 0 0 0
3352 2 5.3955 30.5745 25.179 0 0 0
1887 2 16.1865 7.194 5.3955 0 0 0
3418 2 3.597 1.7985 16.1865 0 0 0
1588 2 19.7835 16.1865 21.582 0 0 0
2709 2 10.791 7.194 25.179 0 0 0
1139 2 23.3805 10.791 16.1865 0 0 0
1515 2 19.7835 7.194 30.5745 0 0 0
970 2 28.776 34.1715 8.9925 0 0 0
2238 2 14.388 1.7985 34.1715 0 0 0
631 2 26.9775 0.0 26.9775 0 0 0
3499 2 1.7985 7.194 16.1865 0 0 0
2495 2 12.5895 25.179 12.5895 0 0 0
3480 2 1.7985 5.3955 32.373 0 0 0
2392 2 12.5895 16.1865 25.179 0 0 0
3031 2 5.3955 0.0 26.9775 0 0 0
1820 2 16.1865 1.7985 14.388 0 0 0
3436 2 1.7985 1.7985 28.776 0 0 0
127 2 34.1715 21.582 12.5895 0 0 0
1451 2 19.7835 3.597 8.9925 0 0 0
233 2 32.373 0.0 28.776 0 0 0
3289 2 7.194 25.179 7.194 0 0 0
2768 2 8.9925 16.1865 3.597 0 0 0
2376 2 12.5895 16.1865 10.791 0 0 0
1684 2 19.7835 26.9775 0.0 0 0 0
2357 2 14.388 10.791 32.373 0 0 0
2608 2 8.9925 1.7985 3.597 0 0 0
292 2 30.5745 8.9925 7.194 0 0 0
180 2 34.1715 30.5745 32.373 0 0 0
2972 2 8.9925 34.1715 7.194 0 0 0
3401 2 3.597 0.0 0.0 0 0 0
2786 2 10.791 16.1865 23.3805 0 0 0
1761 2 21.582 32.373 0.0 0 0 0
1555 2 19.7835 10.791 30.5745 0 0 0
774 2 28.776 16.1865 12.5895 0 0 0
2186 2 17.985 34.1715 23.3805 0 0 0
2576 2 12.5895 34.1715 10.791 0 0 0
1337 2 25.179 28.776 14.388 0 0 0
1853 2 17.985 3.597 10.791 0 0 0
2928 2 8.9925 30.5745 3.597 0 0 0
2996 2 8.9925 34.1715 28.776 0 0 0
720 2 26.9775 8.9925 32.373 0 0 0
2440 2 12.5895 19.7835 32.373 0 0 0
1394 2 25.179 34.1715 30.5745 0 0 0
391 2 30.5745 14.388 26.9775 0 0 0
3294 2 7.194 26.9775 12.5895 0 0 0
799 2 26.9775 14.388 34.1715 0 0 0
686 2 28.776 8.9925 5.3955 0 0 0
1257 2 25.179 21.582 14.388 0 0 0
380 2 30.5745 16.1865 14.388 0 0 0
359 2 30.5745 10.791 34.1715 0 0 0
2115 2 16.1865 25.179 30.5745 0 0 0
1526 2 21.582 12.5895 5.3955 0 0 0
947 2 26.9775 28.776 23.3805 0 0 0
1026 2 25.179 1.7985 23.3805 0 0 0
284 2 30.5745 8.9925 0.0 0 0 0
9 2 34.1715 0.0 16.1865 0 0 0
32 2 34.1715 5.3955 17.985 0 0 0
3400 2 5.3955 34.1715 32.373 0 0 0
2065 2 17.985 21.582 21.582 0 0 0
369 2 32.373 14.388 7.194 0 0 0
34 2 34.1715 5.3955 21.582 0 0 0
154 2 34.1715 26.9775 21.582 0 0 0
714 2 28.776 8.9925 30.5745 0 0 0
1563 2 19.7835 14.388 1.7985 0 0 0
1105 2 25.179 7.194 21.582 0 0 0
1128 2 23.3805 12.5895 3.597 0 0 0
832 2 26.9775 19.7835 25.179 0 0 0
649 2 28.776 3.597 7.194 0 0 0
264 2 30.5745 5.3955 17.985 0 0 0
1381 2 25.179 32.373 17.985 0 0 0
2647 2 8.9925 3.597 5.3955 0 0 0
2054 2 17.985 23.3805 12.5895 0 0 0
3686 2 3.597 26.9775 5.3955 0 0 0
431 2 30.5745 17.985 26.9775 0 0 0
791 2 26.9775 14.388 26.9775 0 0 0
3663 2 1.7985 21.582 19.7835 0 0 0
2197 2 17.985 32.373 32.373 0 0 0
3823 2 0.0 3.597 3.597 0 0 0
977 2 28.776 32.373 14.388 0 0 0
3662 2 3.597 23.3805 19.7835 0 0 0
1926 2 17.985 12.5895 5.3955 0 0 0
254 2 32.373 5.3955 12.5895 0 0 0
2358 2 14.388 12.5895 34.1715 0 0 0
2168 2 16.1865 34.1715 3.597 0 0 0
2196 2 16.1865 34.1715 28.776 0 0 0
145 2 34.1715 25.179 8.9925 0 0 0
1186 2 25.179 16.1865 23.3805 0 0 0
3717 2 3.597 25.179 32.373 0 0 0
625 2 28.776 0.0 21.582 0 0 0
3498 2 3.597 8.9925 16.1865 0 0 0
2041 2 17.985 21.582 0.0 0 0 0
3183 2 5.3955 14.388 19.7835 0 0 0
2236 2 12.5895 1.7985 28.776 0 0 0
2438 2 14.388 19.7835 34.1715 0 0 0
2508 2 12.5895 26.9775 21.582 0 0 0
2406 2 14.388 19.7835 5.3955 0 0 0
2603 2 8.9925 0.0 1.7985 0 0 0
3348 2 5.3955 30.5745 21.582 0 0 0
1063 2 23.3805 3.597 19.7835 0 0 0
3491 2 1.7985 7.194 8.9925 0 0 0
1092 2 23.3805 8.9925 7.194 0 0 0
2548 2 12.5895 30.5745 21.582 0 0 0
1711 2 19.7835 25.179 26.9775 0 0 0
3311 2 5.3955 25.179 26.9775 0 0 0
3579 2 1.7985 14.388 16.1865 0 0 0
1421 2 21.582 0.0 17.985 0 0 0
666 2 28.776 5.3955 23.3805 0 0 0
2193 2 17.985 32.373 28.776 0 0 0
2865 2 10.791 21.582 21.582 0 0 0
1407 2 19.7835 0.0 5.3955 0 0 0
2812 2 8.9925 19.7835 7.194 0 0 0
3953 2 0.0 25.179 21.582 0 0 0
304 2 30.5745 8.9925 17.985 0 0 0
2266 2 14.388 5.3955 23.3805 0 0 0
347 2 30.5745 10.791 23.3805 0 0 0
44 2 34.1715 8.9925 3.597 0 0 0
2663 2 8.9925 3.597 19.7835 0 0 0
3696 2 1.7985 26.9775 10.791 0 0 0
3521 2 3.597 10.791 0.0 0 0 0
3918 2 0.0 19.7835 30.5745 0 0 0
452 2 30.5745 23.3805 7.194 0 0 0
3648 2 1.7985 23.3805 3.597 0 0 0
2277 2 14.388 3.597 32.373 0 0 0
3992 2 0.0 34.1715 19.7835 0 0 0
1300 2 23.3805 26.9775 14.388 0 0 0
2174 2 17.985 34.1715 12.5895 0 0 0
1850 2 17.985 5.3955 8.9925 0 0 0
3446 2 3.597 5.3955 5.3955 0 0 0
323 2 30.5745 10.791 1.7985 0 0 0
2330 2 14.388 12.5895 8.9925 0 0 0
1303 2 23.3805 25.179 19.7835 0 0 0
1274 2 25.179 23.3805 30.5745 0 0 0
929 2 28.776 28.776 7.194 0 0 0
3345 2 7.194 28.776 21.582 0 0 0
1251 2 23.3805 21.582 8.9925 0 0 0
1346 2 25.179 30.5745 23.3805 0 0 0
470 2 32.373 23.3805 26.9775 0 0 0
3951 2 0.0 25.179 17.985 0 0 0
620 2 26.9775 1.7985 14.388 0 0 0
2257 2 14.388 3.597 14.388 0 0 0
388 2 30.5745 16.1865 21.582 0 0 0
2737 2 10.791 10.791 14.388 0 0 0
2828 2 8.9925 19.7835 21.582 0 0 0
489 2 32.373 25.179 7.194 0 0 0
2435 2 12.5895 17.985 30.5745 0 0 0
159 2 34.1715 25.179 34.1715 0 0 0
2335 2 12.5895 10.791 12.5895 0 0 0
252 2 30.5745 5.3955 7.194 0 0 0
2679 2 8.9925 3.597 34.1715 0 0 0
1792 2 19.7835 34.1715 25.179 0 0 0
3725 2 3.597 28.776 3.597 0 0 0
2460 2 12.5895 23.3805 14.388 0 0 0
1083 2 23.3805 7.194 1.7985 0 0 0
420 2 30.5745 19.7835 14.388 0 0 0
582 2 32.373 34.1715 19.7835 0 0 0
3336 2 5.3955 30.5745 10.791 0 0 0
3456 2 1.7985 5.3955 10.791 0 0 0
1702 2 21.582 26.9775 19.7835 0 0 0
1987 2 16.1865 14.388 23.3805 0 0 0
2990 2 10.791 34.1715 26.9775 0 0 0
298 2 32.373 8.9925 16.1865 0 0 0
2275 2 12.5895 3.597 30.5745 0 0 0
2902 2 10.791 26.9775 19.7835 0 0 0
1228 2 23.3805 19.7835 21.582 0 0 0
2272 2 12.5895 5.3955 25.179 0 0 0
827 2 26.9775 17.985 23.3805 0 0 0
1983 2 16.1865 14.388 19.7835 0 0 0
3047 2 5.3955 3.597 5.3955 0 0 0
2722 2 10.791 12.5895 1.7985 0 0 0
2142 2 17.985 30.5745 19.7835 0 0 0
2939 2 8.9925 28.776 16.1865 0 0 0
2136 2 16.1865 30.5745 10.791 0 0 0
3326 2 7.194 30.5745 5.3955 0 0 0
3319 2 5.3955 25.179 34.1715 0 0 0
2078 2 17.985 23.3805 34.1715 0 0 0
1812 2 16.1865 1.7985 7.194 0 0 0
3036 2 5.3955 1.7985 28.776 0 0 0
113 2 34.1715 17.985 23.3805 0 0 0
23 2 34.1715 3.597 5.3955 0 0 0
1054 2 25.179 5.3955 12.5895 0 0 0
883 2 26.9775 25.179 1.7985 0 0 0
3772 2 1.7985 34.1715 7.194 0 0 0
2221 2 14.388 0.0 17.985 0 0 0
2481 2 14.388 25.179 0.0 0 0 0
2407 2 12.5895 17.985 5.3955 0 0 0
3930 2 0.0 23.3805 16.1865 0 0 0
172 2 34.1715 30.5745 17.985 0 0 0
2217 2 14.388 0.0 14.388 0 0 0
1834 2 17.985 1.7985 30.5745 0 0 0
2179 2 16.1865 32.373 16.1865 0 0 0
2834 2 10.791 19.7835 30.5745 0 0 0
2755 2 8.9925 10.791 30.5745 0 0 0
785 2 28.776 14.388 21.582 0 0 0
2551 2 12.5895 28.776 26.9775 0 0 0
3428 2 1.7985 1.7985 21.582 0 0 0
1476 2 19.7835 5.3955 28.776 0 0 0
1514 2 21.582 8.9925 30.5745 0 0 0
3761 2 3.597 32.373 0.0 0 0 0
3676 2 1.7985 23.3805 28.776 0 0 0
235 2 30.5745 0.0 30.5745 0 0 0
534 2 32.373 30.5745 12.5895 0 0 0
1634 2 21.582 19.7835 30.5745 0 0 0
422 2 32.373 19.7835 19.7835 0 0 0
660 2 26.9775 5.3955 14.388 0 0 0
1347 2 23.3805 28.776 23.3805 0 0 0
3092 2 5.3955 8.9925 7.194 0 0 0
483 2 30.5745 25.179 1.7985 0 0 0
826 2 28.776 19.7835 23.3805 0 0 0
3167 2 5.3955 14.388 5.3955 0 0 0
3655 2 1.7985 21.582 12.5895 0 0 0
1023 2 23.3805 0.0 19.7835 0 0 0
1397 2 25.179 32.373 32.373 0 0 0
76 2 34.1715 12.5895 25.179 0 0 0
3342 2 7.194 30.5745 19.7835 0 0 0
3916 2 0.0 19.7835 26.9775 0 0 0
146 2 34.1715 26.9775 7.194 0 0 0
2643 2 8.9925 3.597 1.7985 0 0 0
2900 2 8.9925 26.9775 14.388 0 0 0
2442 2 14.388 23.3805 1.7985 0 0 0
2311 2 12.5895 7.194 26.9775 0 0 0
1439 2 19.7835 0.0 34.1715 0 0 0
1955 2 16.1865 10.791 30.5745 0 0 0
2638 2 10.791 1.7985 34.1715 0 0 0
2971 2 8.9925 32.373 8.9925 0 0 0
730 2 28.776 12.5895 8.9925 0 0 0
1713 2 21.582 25.179 28.776 0 0 0
2854 2 10.791 23.3805 12.5895 0 0 0
566 2 32.373 34.1715 5.3955 0 0 0
68 2 34.1715 12.5895 10.791 0 0 0
1808 2 16.1865 1.7985 3.597 0 0 0
1867 2 16.1865 3.597 23.3805 0 0 0
1033 2 25.179 0.0 28.776 0 0 0
3712 2 1.7985 26.9775 25.179 0 0 0
1141 2 25.179 10.791 17.985 0 0 0
3563 2 1.7985 14.388 1.7985 0 0 0
2166 2 17.985 34.1715 5.3955 0 0 0
3778 2 3.597 34.1715 16.1865 0 0 0
618 2 28.776 1.7985 16.1865 0 0 0
2984 2 8.9925 34.1715 17.985 0 0 0
705 2 28.776 7.194 21.582 0 0 0
2387 2 12.5895 14.388 23.3805 0 0 0
434 2 32.373 19.7835 30.5745 0 0 0
2750 2 10.791 12.5895 26.9775 0 0 0
3394 2 7.194 34.1715 30.5745 0 0 0
3361 2 7.194 32.373 0.0 0 0 0
1602 2 21.582 19.7835 1.7985 0 0 0
1004 2 23.3805 1.7985 0.0 0 0 0
2173 2 17.985 32.373 10.791 0 0 0
3899 2 0.0 14.388 32.373 0 0 0
2773 2 10.791 14.388 10.791 0 0 0
2291 2 12.5895 7.194 8.9925 0 0 0
3955 2 0.0 25.179 25.179 0 0 0
1187 2 23.3805 14.388 23.3805 0 0 0
228 2 30.5745 1.7985 21.582 0 0 0
22 2 34.1715 5.3955 0.0 0 0 0
2918 2 10.791 26.9775 34.1715 0 0 0
834 2 28.776 19.7835 30.5745 0 0 0
2947 2 8.9925 28.776 23.3805 0 0 0
3931 2 0.0 21.582 17.985 0 0 0
3962 2 0.0 30.5745 1.7985 0 0 0
1817 2 17.985 0.0 14.388 0 0 0
1920 2 16.1865 8.9925 32.373 0 0 0
267 2 30.5745 3.597 23.3805 0 0 0
1575 2 19.7835 14.388 12.5895 0 0 0
1066 2 25.179 5.3955 23.3805 0 0 0
385 2 32.373 14.388 21.582 0 0 0
1015 2 23.3805 0.0 12.5895 0 0 0
824 2 26.9775 19.7835 17.985 0 0 0
1650 2 21.582 23.3805 8.9925 0 0 0
2312 2 12.5895 8.9925 25.179 0 0 0
888 2 26.9775 26.9775 3.597 0 0 0
2528 2 12.5895 30.5745 3.597 0 0 0
1894 2 17.985 8.9925 12.5895 0 0 0
836 2 26.9775 19.7835 28.776 0 0 0
934 2 28.776 30.5745 12.5895 0 0 0
1198 2 25.179 16.1865 34.1715 0 0 0
2157 2 17.985 28.776 32.373 0 0 0
2988 2 8.9925 34.1715 21.582 0 0 0
399 2 30.5745 14.388 34.1715 0 0 0
1570 2 21.582 16.1865 8.9925 0 0 0
646 2 28.776 5.3955 5.3955 0 0 0
3878 2 0.0 12.5895 30.5745 0 0 0
955 2 26.9775 28.776 30.5745 0 0 0
2897 2 10.791 25.179 14.388 0 0 0
3157 2 7.194 10.791 32.373 0 0 0
241 2 32.373 3.597 0.0 0 0 0
1762 2 21.582 34.1715 1.7985 0 0 0
1952 2 16.1865 12.5895 25.179 0 0 0
1132 2 23.3805 12.5895 7.194 0 0 0
424 2 30.5745 19.7835 17.985 0 0 0
2682 2 10.791 8.9925 1.7985 0 0 0
3509 2 3.597 7.194 25.179 0 0 0
1960 2 16.1865 12.5895 32.373 0 0 0
279 2 30.5745 3.597 34.1715 0 0 0
3771 2 1.7985 32.373 8.9925 0 0 0
3793 2 3.597 32.373 28.776 0 0 0
2592 2 12.5895 34.1715 25.179 0 0 0
3584 2 1.7985 16.1865 17.985 0 0 0
1152 2 23.3805 12.5895 25.179 0 0 0
3688 2 1.7985 26.9775 3.597 0 0 0
2446 2 14.388 23.3805 5.3955 0 0 0
2744 2 8.9925 12.5895 17.985 0 0 0
1645 2 21.582 21.582 3.597 0 0 0
990 2 28.776 34.1715 26.9775 0 0 0
1560 2 19.7835 12.5895 32.373 0 0 0
227 2 30.5745 0.0 23.3805 0 0 0
536 2 30.5745 30.5745 10.791 0 0 0
744 2 26.9775 12.5895 17.985 0 0 0
26 2 34.1715 5.3955 7.194 0 0 0
2518 2 14.388 26.9775 34.1715 0 0 0
2565 2 14.388 32.373 3.597 0 0 0
790 2 28.776 16.1865 26.9775 0 0 0
1493 2 21.582 7.194 10.791 0 0 0
784 2 26.9775 16.1865 17.985 0 0 0
3721 2 3.597 28.776 0.0 0 0 0
3702 2 3.597 26.9775 19.7835 0 0 0
498 2 32.373 26.9775 16.1865 0 0 0
3359 2 5.3955 28.776 34.1715 0 0 0
3819 2 0.0 0.0 32.373 0 0 0
3496 2 1.7985 8.9925 10.791 0 0 0
3059 2 5.3955 3.597 16.1865 0 0 0
1419 2 19.7835 0.0 16.1865 0 0 0
2642 2 10.791 5.3955 1.7985 0 0 0
3382 2 7.194 34.1715 19.7835 0 0 0
1188 2 23.3805 16.1865 21.582 0 0 0
734 2 28.776 12.5895 12.5895 0 0 0
560 2 30.5745 30.5745 32.373 0 0 0
1661 2 21.582 21.582 17.985 0 0 0
1568 2 19.7835 16.1865 3.597 0 0 0
360 2 30.5745 12.5895 32.373 0 0 0
3323 2 5.3955 28.776 1.7985 0 0 0
979 2 26.9775 32.373 16.1865 0 0 0
3263 2 5.3955 21.582 19.7835 0 0 0
1741 2 21.582 28.776 17.985 0 0 0
3625 2 3.597 17.985 21.582 0 0 0
13 2 34.1715 0.0 23.3805 0 0 0
2253 2 14.388 3.597 10.791 0 0 0
2298 2 14.388 8.9925 16.1865 0 0 0
1483 2 19.7835 7.194 1.7985 0 0 0
2605 2 10.791 0.0 3.597 0 0 0
3544 2 1.7985 12.5895 17.985 0 0 0
1989 2 17.985 14.388 25.179 0 0 0
1747 2 19.7835 28.776 23.3805 0 0 0
1963 2 16.1865 14.388 1.7985 0 0 0
1486 2 21.582 8.9925 5.3955 0 0 0
1738 2 21.582 30.5745 16.1865 0 0 0
3949 2 0.0 25.179 14.388 0 0 0
329 2 32.373 10.791 7.194 0 0 0
287 2 30.5745 7.194 5.3955 0 0 0
3411 2 1.7985 0.0 8.9925 0 0 0
3510 2 3.597 8.9925 26.9775 0 0 0
2943 2 8.9925 28.776 19.7835 0 0 0
2967 2 8.9925 32.373 5.3955 0 0 0
3917 2 0.0 17.985 28.776 0 0 0
2408 2 12.5895 19.7835 3.597 0 0 0
1449 2 21.582 3.597 7.194 0 0 0
2461 2 14.388 21.582 17.985 0 0 0
1759 2 19.7835 28.776 34.1715 0 0 0
3589 2 3.597 14.388 25.179 0 0 0
2845 2 10.791 21.582 3.597 0 0 0
3258 2 7.194 23.3805 16.1865 0 0 0
1084 2 23.3805 8.9925 0.0 0 0 0
2005 2 17.985 17.985 3.597 0 0 0
3243 2 5.3955 21.582 1.7985 0 0 0
1376 2 23.3805 34.1715 10.791 0 0 0
1329 2 25.179 28.776 7.194 0 0 0
810 2 28.776 19.7835 8.9925 0 0 0
2877 2 10.791 21.582 32.373 0 0 0
3705 2 3.597 25.179 21.582 0 0 0
2320 2 12.5895 8.9925 32.373 0 0 0
891 2 26.9775 25.179 8.9925 0 0 0
2942 2 10.791 30.5745 19.7835 0 0 0
442 2 32.373 23.3805 1.7985 0 0 0
1966 2 17.985 16.1865 5.3955 0 0 0
1338 2 25.179 30.5745 16.1865 0 0 0
3984 2 0.0 34.1715 5.3955 0 0 0
3661 2 3.597 21.582 17.985 0 0 0
175 2 34.1715 28.776 26.9775 0 0 0
3562 2 3.597 16.1865 1.7985 0 0 0
2681 2 10.791 7.194 0.0 0 0 0
2349 2 14.388 10.791 25.179 0 0 0
2476 2 12.5895 23.3805 28.776 0 0 0
3462 2 3.597 5.3955 19.7835 0 0 0
1299 2 23.3805 25.179 16.1865 0 0 0
1019 2 23.3805 0.0 16.1865 0 0 0
3006 2 7.194 1.7985 5.3955 0 0 0
3102 2 7.194 8.9925 19.7835 0 0 0
2082 2 17.985 26.9775 1.7985 0 0 0
2028 2 16.1865 19.7835 21.582 0 0 0
1341 2 25.179 28.776 17.985 0 0 0
3232 2 5.3955 19.7835 25.179 0 0 0
40 2 34.1715 5.3955 32.373 0 0 0
332 2 30.5745 12.5895 7.194 0 0 0
3286 2 7.194 26.9775 5.3955 0 0 0
561 2 32.373 32.373 0.0 0 0 0
1461 2 21.582 3.597 17.985 0 0 0
1292 2 23.3805 26.9775 7.194 0 0 0
3963 2 0.0 28.776 3.597 0 0 0
1161 2 25.179 14.388 0.0 0 0 0
3220 2 5.3955 19.7835 14.388 0 0 0
1624 2 19.7835 19.7835 17.985 0 0 0
1245 2 25.179 21.582 3.597 0 0 0
1249 2 25.179 21.582 7.194 0 0 0
3812 2 0.0 1.7985 19.7835 0 0 0
1916 2 16.1865 8.9925 28.776 0 0 0
1638 2 21.582 19.7835 34.1715 0 0 0
3253 2 7.194 21.582 10.791 0 0 0
1464 2 19.7835 5.3955 17.985 0 0 0
3897 2 0.0 14.388 28.776 0 0 0
1195 2 23.3805 14.388 30.5745 0 0 0
3785 2 3.597 32.373 21.582 0 0 0
79 2 34.1715 10.791 34.1715 0 0 0
1542 2 21.582 12.5895 19.7835 0 0 0
3073 2 7.194 3.597 28.776 0 0 0
2412 2 12.5895 19.7835 7.194 0 0 0
3730 2 3.597 30.5745 8.9925 0 0 0
1743 2 19.7835 28.776 19.7835 0 0 0
1024 2 23.3805 1.7985 17.985 0 0 0
3284 2 5.3955 26.9775 0.0 0 0 0
3272 2 5.3955 23.3805 25.179 0 0 0
472 2 30.5745 23.3805 25.179 0 0 0
3110 2 7.194 8.9925 26.9775 0 0 0
1113 2 25.179 7.194 28.776 0 0 0
1565 2 21.582 14.388 3.597 0 0 0
3182 2 7.194 16.1865 19.7835 0 0 0
1724 2 19.7835 30.5745 0.0 0 0 0
2007 2 16.1865 17.985 5.3955 0 0 0
303 2 30.5745 7.194 19.7835 0 0 0
2633 2 10.791 0.0 28.776 0 0 0
892 2 26.9775 26.9775 7.194 0 0 0
3604 2 1.7985 19.7835 0.0 0 0 0
61 2 34.1715 10.791 1.7985 0 0 0
1775 2 19.7835 32.373 12.5895 0 0 0
2908 2 8.9925 26.9775 21.582 0 0 0
2907 2 8.9925 25.179 23.3805 0 0 0
1233 2 25.179 17.985 28.776 0 0 0
1605 2 21.582 17.985 3.597 0 0 0
538 2 32.373 30.5745 16.1865 0 0 0
2979 2 8.9925 32.373 16.1865 0 0 0
3165 2 7.194 14.388 3.597 0 0 0
2783 2 8.9925 14.388 19.7835 0 0 0
139 2 34.1715 21.582 34.1715 0 0 0
1275 2 23.3805 21.582 30.5745 0 0 0
691 2 26.9775 7.194 8.9925 0 0 0
3449 2 3.597 3.597 7.194 0 0 0
384 2 30.5745 16.1865 17.985 0 0 0
105 2 34.1715 17.985 8.9925 0 0 0
2736 2 8.9925 12.5895 10.791 0 0 0
96 2 34.1715 16.1865 25.179 0 0 0
2497 2 14.388 25.179 14.388 0 0 0
917 2 28.776 25.179 32.373 0 0 0
42 2 34.1715 8.9925 0.0 0 0 0
1115 2 23.3805 7.194 30.5745 0 0 0
1429 2 21.582 0.0 25.179 0 0 0
736 2 26.9775 12.5895 10.791 0 0 0
3139 2 5.3955 10.791 16.1865 0 0 0
3206 2 7.194 19.7835 5.3955 0 0 0
848 2 26.9775 23.3805 3.597 0 0 0
1597 2 21.582 14.388 32.373 0 0 0
1858 2 17.985 5.3955 16.1865 0 0 0
1379 2 23.3805 32.373 16.1865 0 0 0
90 2 34.1715 16.1865 14.388 0 0 0
845 2 28.776 21.582 3.597 0 0 0
2011 2 16.1865 17.985 8.9925 0 0 0
1948 2 16.1865 12.5895 21.582 0 0 0
3280 2 5.3955 23.3805 32.373 0 0 0
3460 2 1.7985 5.3955 14.388 0 0 0
3640 2 1.7985 19.7835 32.373 0 0 0
2439 2 12.5895 17.985 34.1715 0 0 0
682 2 28.776 8.9925 1.7985 0 0 0
207 2 30.5745 0.0 5.3955 0 0 0
3639 2 1.7985 17.985 34.1715 0 0 0
3882 2 0.0 16.1865 1.7985 0 0 0
1924 2 16.1865 12.5895 0.0 0 0 0
2671 2 8.9925 3.597 26.9775 0 0 0
943 2 26.9775 28.776 19.7835 0 0 0
2763 2 8.9925 14.388 1.7985 0 0 0
163 2 34.1715 28.776 5.3955 0 0 0
3299 2 5.3955 25.179 16.1865 0 0 0
18 2 34.1715 1.7985 28.776 0 0 0
390 2 32.373 16.1865 26.9775 0 0 0
2563 2 12.5895 32.373 1.7985 0 0 0
2998 2 10.791 34.1715 34.1715 0 0 0
10 2 34.1715 1.7985 14.388 0 0 0
1007 2 23.3805 0.0 5.3955 0 0 0
141 2 34.1715 25.179 1.7985 0 0 0
2345 2 14.388 10.791 21.582 0 0 0
3735 2 1.7985 28.776 12.5895 0 0 0
3998 2 0.0 34.1715 30.5745 0 0 0
3391 2 5.3955 32.373 26.9775 0 0 0
1396 2 23.3805 34.1715 28.776 0 0 0
2121 2 17.985 28.776 0.0 0 0 0
1592 2 19.7835 16.1865 25.179 0 0 0
1157 2 25.179 10.791 32.373 0 0 0
2955 2 8.9925 28.776 30.5745 0 0 0
3065 2 7.194 3.597 21.582 0 0 0
2355 2 12.5895 10.791 30.5745 0 0 0
2819 2 8.9925 17.985 16.1865 0 0 0
1044 2 23.3805 5.3955 0.0 0 0 0
3172 2 5.3955 16.1865 7.194 0 0 0
1335 2 23.3805 28.776 12.5895 0 0 0
862 2 28.776 23.3805 19.7835 0 0 0
1359 2 23.3805 28.776 34.1715 0 0 0
3328 2 5.3955 30.5745 3.597 0 0 0
3769 2 3.597 32.373 7.194 0 0 0
2685 2 10.791 7.194 3.597 0 0 0
3704 2 1.7985 26.9775 17.985 0 0 0
3468 2 1.7985 5.3955 21.582 0 0 0
1548 2 19.7835 12.5895 21.582 0 0 0
768 2 26.9775 16.1865 3.597 0 0 0
3938 2 0.0 23.3805 30.5745 0 0 0
3650 2 3.597 23.3805 8.9925 0 0 0
248 2 30.5745 5.3955 3.597 0 0 0
3773 2 3.597 32.373 10.791 0 0 0
3257 2 7.194 21.582 14.388 0 0 0
144 2 34.1715 26.9775 3.597 0 0 0
2479 2 12.5895 21.582 34.1715 0 0 0
3971 2 0.0 28.776 17.985 0 0 0
3595 2 1.7985 14.388 30.5745 0 0 0
3876 2 0.0 12.5895 26.9775 0 0 0
466 2 32.373 23.3805 23.3805 0 0 0
1208 2 23.3805 19.7835 3.597 0 0 0
520 2 30.5745 26.9775 32.373 0 0 0
1382 2 25.179 34.1715 19.7835 0 0 0
103 2 34.1715 17.985 5.3955 0 0 0
250 2 32.373 5.3955 8.9925 0 0 0
3645 2 3.597 21.582 3.597 0 0 0
542 2 32.373 30.5745 19.7835 0 0 0
3678 2 3.597 23.3805 34.1715 0 0 0
1369 2 25.179 32.373 7.194 0 0 0
895 2 26.9775 25.179 12.5895 0 0 0
3713 2 3.597 25.179 28.776 0 0 0
2669 2 10.791 3.597 25.179 0 0 0
3236 2 5.3955 19.7835 28.776 0 0 0
1699 2 19.7835 25.179 16.1865 0 0 0
1076 2 23.3805 5.3955 28.776 0 0 0
2521 2 14.388 28.776 0.0 0 0 0
249 2 32.373 3.597 7.194 0 0 0
3111 2 5.3955 7.194 26.9775 0 0 0
1420 2 19.7835 1.7985 14.388 0 0 0
604 2 26.9775 1.7985 0.0 0 0 0
3252 2 5.3955 23.3805 7.194 0 0 0
3632 2 1.7985 19.7835 25.179 0 0 0
587 2 30.5745 32.373 23.3805 0 0 0
3160 2 5.3955 12.5895 32.373 0 0 0
2503 2 12.5895 25.179 19.7835 0 0 0
959 2 26.9775 28.776 34.1715 0 0 0
1786 2 21.582 34.1715 23.3805 0 0 0
3100 2 5.3955 8.9925 14.388 0 0 0
3288 2 5.3955 26.9775 3.597 0 0 0
2775 2 8.9925 14.388 12.5895 0 0 0
1794 2 21.582 34.1715 30.5745 0 0 0
418 2 32.373 19.7835 16.1865 0 0 0
1378 2 25.179 34.1715 16.1865 0 0 0
2045 2 17.985 21.582 3.597 0 0 0
1094 2 25.179 8.9925 12.5895 0 0 0
2635 2 8.9925 0.0 30.5745 0 0 0
2049 2 17.985 21.582 7.194 0 0 0
1907 2 16.1865 7.194 23.3805 0 0 0
3085 2 7.194 7.194 3.597 0 0 0
3556 2 1.7985 12.5895 28.776 0 0 0
1184 2 23.3805 16.1865 17.985 0 0 0
85 2 34.1715 14.388 8.9925 0 0 0
725 2 28.776 10.791 3.597 0 0 0
2300 2 12.5895 8.9925 14.388 0 0 0
2896 2 8.9925 26.9775 10.791 0 0 0
246 2 32.373 5.3955 5.3955 0 0 0
1822 2 17.985 1.7985 19.7835 0 0 0
2959 2 8.9925 28.776 34.1715 0 0 0
3247 2 5.3955 21.582 5.3955 0 0 0
615 2 26.9775 0.0 12.5895 0 0 0
242 2 32.373 5.3955 1.7985 0 0 0
3066 2 7.194 5.3955 23.3805 0 0 0
3829 2 0.0 3.597 14.388 0 0 0
283 2 30.5745 7.194 1.7985 0 0 0
2922 2 10.791 30.5745 1.7985 0 0 0
381 2 32.373 14.388 17.985 0 0 0
3341 2 7.194 28.776 17.985 0 0 0
2171 2 16.1865 32.373 8.9925 0 0 0
2455 2 12.5895 21.582 12.5895 0 0 0
74 2 34.1715 12.5895 21.582 0 0 0
19 2 34.1715 0.0 34.1715 0 0 0
2017 2 17.985 17.985 14.388 0 0 0
1271 2 23.3805 21.582 26.9775 0 0 0
2766 2 10.791 16.1865 5.3955 0 0 0
2008 2 16.1865 19.7835 3.597 0 0 0
1223 2 23.3805 17.985 19.7835 0 0 0
3339 2 5.3955 28.776 16.1865 0 0 0
78 2 34.1715 12.5895 28.776 0 0 0
940 2 26.9775 30.5745 14.388 0 0 0
3450 2 3.597 5.3955 8.9925 0 0 0
427 2 30.5745 17.985 23.3805 0 0 0
3980 2 0.0 30.5745 34.1715 0 0 0
1034 2 25.179 1.7985 30.5745 0 0 0
2422 2 14.388 19.7835 19.7835 0 0 0
3681 2 3.597 25.179 0.0 0 0 0
3042 2 7.194 5.3955 1.7985 0 0 0
709 2 28.776 7.194 25.179 0 0 0
2966 2 10.791 34.1715 5.3955 0 0 0
2471 2 12.5895 21.582 26.9775 0 0 0
950 2 28.776 30.5745 26.9775 0 0 0
239 2 30.5745 0.0 34.1715 0 0 0
2553 2 14.388 28.776 28.776 0 0 0
2591 2 12.5895 32.373 26.9775 0 0 0
3335 2 5.3955 28.776 12.5895 0 0 0
387 2 30.5745 14.388 23.3805 0 0 0
1075 2 23.3805 3.597 30.5745 0 0 0
1941 2 17.985 10.791 17.985 0 0 0
59 2 34.1715 7.194 34.1715 0 0 0
3974 2 0.0 30.5745 23.3805 0 0 0
2664 2 8.9925 5.3955 17.985 0 0 0
2284 2 12.5895 8.9925 0.0 0 0 0
2066 2 17.985 23.3805 23.3805 0 0 0
3880 2 0.0 12.5895 34.1715 0 0 0
1830 2 17.985 1.7985 26.9775 0 0 0
2377 2 14.388 14.388 14.388 0 0 0
2956 2 8.9925 30.5745 28.776 0 0 0
316 2 30.5745 8.9925 28.776 0 0 0
1444 2 19.7835 5.3955 0.0 0 0 0
46 2 34.1715 8.9925 7.194 0 0 0
1685 2 21.582 25.179 3.597 0 0 0
2453 2 14.388 21.582 10.791 0 0 0
3195 2 5.3955 14.388 30.5745 0 0 0
1895 2 16.1865 7.194 12.5895 0 0 0
1813 2 17.985 0.0 10.791 0 0 0
2915 2 8.9925 25.179 30.5745 0 0 0
3972 2 0.0 30.5745 19.7835 0 0 0
433 2 32.373 17.985 28.776 0 0 0
1260 2 23.3805 23.3805 14.388 0 0 0
676 2 26.9775 5.3955 28.776 0 0 0
1512 2 19.7835 8.9925 25.179 0 0 0
3669 2 3.597 21.582 25.179 0 0 0
2393 2 14.388 14.388 28.776 0 0 0
320 2 30.5745 8.9925 32.373 0 0 0
260 2 30.5745 5.3955 14.388 0 0 0
981 2 28.776 32.373 17.985 0 0 0
944 2 26.9775 30.5745 17.985 0 0 0
2047 2 16.1865 21.582 5.3955 0 0 0
2006 2 17.985 19.7835 5.3955 0 0 0
3495 2 1.7985 7.194 12.5895 0 0 0
3941 2 0.0 25.179 0.0 0 0 0
2817 2 10.791 17.985 14.388 0 0 0
318 2 32.373 8.9925 34.1715 0 0 0
512 2 30.5745 26.9775 25.179 0 0 0
171 2 34.1715 28.776 19.7835 0 0 0
886 2 28.776 26.9775 5.3955 0 0 0
2152 2 16.1865 30.5745 25.179 0 0 0
2739 2 8.9925 10.791 16.1865 0 0 0
1522 2 21.582 12.5895 1.7985 0 0 0
3249 2 7.194 21.582 7.194 0 0 0
2410 2 14.388 19.7835 8.9925 0 0 0
2519 2 12.5895 25.179 34.1715 0 0 0
1587 2 19.7835 14.388 23.3805 0 0 0
1229 2 25.179 17.985 25.179 0 0 0
2887 2 8.9925 25.179 5.3955 0 0 0
2132 2 16.1865 30.5745 7.194 0 0 0
2085 2 17.985 25.179 3.597 0 0 0
3842 2 0.0 8.9925 1.7985 0 0 0
219 2 30.5745 0.0 16.1865 0 0 0
3438 2 3.597 1.7985 34.1715 0 0 0
2504 2 12.5895 26.9775 17.985 0 0 0
3200 2 5.3955 16.1865 32.373 0 0 0
2162 2 17.985 34.1715 1.7985 0 0 0
1 2 34.1715 0.0 1.7985 0 0 0
3412 2 1.7985 1.7985 7.194 0 0 0
2080 2 16.1865 23.3805 32.373 0 0 0
3765 2 3.597 32.373 3.597 0 0 0
165 2 34.1715 28.776 8.9925 0 0 0
602 2 28.776 1.7985 1.7985 0 0 0
1415 2 19.7835 0.0 12.5895 0 0 0
3159 2 5.3955 10.791 34.1715 0 0 0
3011 2 5.3955 0.0 8.9925 0 0 0
3732 2 1.7985 30.5745 7.194 0 0 0
11 2 34.1715 0.0 19.7835 0 0 0
226 2 32.373 1.7985 23.3805 0 0 0
194 2 34.1715 34.1715 21.582 0 0 0
3500 2 1.7985 8.9925 14.388 0 0 0
1845 2 17.985 3.597 3.597 0 0 0
240 2 30.5745 1.7985 32.373 0 0 0
140 2 34.1715 23.3805 32.373 0 0 0
1970 2 17.985 16.1865 8.9925 0 0 0
1951 2 16.1865 10.791 26.9775 0 0 0
3570 2 3.597 16.1865 8.9925 0 0 0
3946 2 0.0 26.9775 8.9925 0 0 0
3988 2 0.0 34.1715 12.5895 0 0 0
2876 2 8.9925 23.3805 28.776 0 0 0
176 2 34.1715 30.5745 25.179 0 0 0
3015 2 5.3955 0.0 12.5895 0 0 0
3094 2 7.194 8.9925 12.5895 0 0 0
2165 2 17.985 32.373 3.597 0 0 0
3576 2 1.7985 16.1865 10.791 0 0 0
4 2 34.1715 1.7985 3.597 0 0 0
3506 2 3.597 8.9925 23.3805 0 0 0
1992 2 16.1865 16.1865 25.179 0 0 0
1315 2 23.3805 25.179 30.5745 0 0 0
741 2 28.776 10.791 17.985 0 0 0
2467 2 12.5895 21.582 23.3805 0 0 0
3080 2 5.3955 5.3955 32.373 0 0 0
630 2 28.776 1.7985 26.9775 0 0 0
335 2 30.5745 10.791 12.5895 0 0 0
2209 2 14.388 0.0 7.194 0 0 0
1240 2 23.3805 19.7835 32.373 0 0 0
3722 2 3.597 30.5745 1.7985 0 0 0
2449 2 14.388 21.582 7.194 0 0 0
2620 2 8.9925 1.7985 14.388 0 0 0
2629 2 10.791 0.0 25.179 0 0 0
35 2 34.1715 3.597 26.9775 0 0 0
225 2 32.373 0.0 21.582 0 0 0
3553 2 3.597 10.791 28.776 0 0 0
2227 2 12.5895 0.0 23.3805 0 0 0
2489 2 14.388 25.179 7.194 0 0 0
3965 2 0.0 28.776 7.194 0 0 0
3537 2 3.597 10.791 14.388 0 0 0
352 2 30.5745 12.5895 25.179 0 0 0
1488 2 19.7835 8.9925 3.597 0 0 0
3575 2 1.7985 14.388 12.5895 0 0 0
583 2 30.5745 32.373 19.7835 0 0 0
2761 2 10.791 14.388 0.0 0 0 0
124 2 34.1715 23.3805 3.597 0 0 0
2689 2 10.791 7.194 7.194 0 0 0
3119 2 5.3955 7.194 34.1715 0 0 0
2730 2 10.791 12.5895 8.9925 0 0 0
1375 2 23.3805 32.373 12.5895 0 0 0
3815 2 0.0 0.0 25.179 0 0 0
3843 2 0.0 7.194 3.597 0 0 0
2359 2 12.5895 10.791 34.1715 0 0 0
2077 2 17.985 21.582 32.373 0 0 0
3420 2 1.7985 1.7985 14.388 0 0 0
735 2 26.9775 10.791 12.5895 0 0 0
2771 2 8.9925 14.388 8.9925 0 0 0
2901 2 10.791 25.179 17.985 0 0 0
3744 2 1.7985 30.5745 17.985 0 0 0
780 2 26.9775 16.1865 14.388 0 0 0
2808 2 8.9925 19.7835 3.597 0 0 0
243 2 30.5745 3.597 1.7985 0 0 0
3743 2 1.7985 28.776 19.7835 0 0 0
3158 2 7.194 12.5895 34.1715 0 0 0
1967 2 16.1865 14.388 5.3955 0 0 0
2885 2 10.791 25.179 3.597 0 0 0
2177 2 17.985 32.373 14.388 0 0 0
2207 2 12.5895 0.0 5.3955 0 0 0
2561 2 14.388 32.373 0.0 0 0 0
379 2 30.5745 14.388 16.1865 0 0 0
1055 2 23.3805 3.597 12.5895 0 0 0
958 2 28.776 30.5745 34.1715 0 0 0
425 2 32.373 17.985 21.582 0 0 0
1964 2 16.1865 16.1865 0.0 0 0 0
3798 2 3.597 34.1715 34.1715 0 0 0
1525 2 21.582 10.791 3.597 0 0 0
480 2 30.5745 23.3805 32.373 0 0 0
3551 2 1.7985 10.791 26.9775 0 0 0
2180 2 16.1865 34.1715 14.388 0 0 0
3367 2 5.3955 32.373 5.3955 0 0 0
3043 2 5.3955 3.597 1.7985 0 0 0
2129 2 17.985 28.776 7.194 0 0 0
2116 2 16.1865 26.9775 28.776 0 0 0
2327 2 12.5895 10.791 5.3955 0 0 0
584 2 30.5745 34.1715 17.985 0 0 0
2678 2 10.791 5.3955 34.1715 0 0 0
2175 2 16.1865 32.373 12.5895 0 0 0
3344 2 5.3955 30.5745 17.985 0 0 0
1788 2 19.7835 34.1715 21.582 0 0 0
3488 2 1.7985 8.9925 3.597 0 0 0
345 2 32.373 10.791 21.582 0 0 0
84 2 34.1715 16.1865 3.597 0 0 0
245 2 32.373 3.597 3.597 0 0 0
3275 2 5.3955 21.582 30.5745 0 0 0
1884 2 16.1865 8.9925 0.0 0 0 0
2104 2 16.1865 26.9775 17.985 0 0 0
1682 3 21.582 26.9775 1.7985 0 0 0
984 3 26.9775 34.1715 17.985 0 0 0
3149 3 7.194 10.791 25.179 0 0 0
927 3 26.9775 28.776 5.3955 0 0 0
2585 3 14.388 32.373 21.582 0 0 0
906 3 28.776 26.9775 23.3805 0 0 0
879 3 26.9775 21.582 34.1715 0 0 0
302 3 32.373 8.9925 19.7835 0 0 0
3894 3 0.0 16.1865 23.3805 0 0 0
508 3 30.5745 26.9775 21.582 0 0 0
375 3 30.5745 14.388 12.5895 0 0 0
1049 3 25.179 3.597 7.194 0 0 0
2315 3 12.5895 7.194 30.5745 0 0 0
2081 3 17.985 25.179 0.0 0 0 0
1173 3 25.179 14.388 10.791 0 0 0
1680 3 19.7835 23.3805 32.373 0 0 0
3847 3 0.0 7.194 10.791 0 0 0
182 3 34.1715 34.1715 0.0 0 0 0
3600 3 1.7985 16.1865 32.373 0 0 0
1174 3 25.179 16.1865 12.5895 0 0 0
1295 3 23.3805 25.179 12.5895 0 0 0
188 3 34.1715 34.1715 10.791 0 0 0
2713 3 10.791 7.194 28.776 0 0 0
311 3 30.5745 7.194 26.9775 0 0 0
657 3 28.776 3.597 14.388 0 0 0
1540 3 19.7835 12.5895 14.388 0 0 0
965 3 28.776 32.373 3.597 0 0 0
3444 3 1.7985 5.3955 0.0 0 0 0
1780 3 19.7835 34.1715 14.388 0 0 0
1695 3 19.7835 25.179 12.5895 0 0 0
952 3 26.9775 30.5745 25.179 0 0 0
30 3 34.1715 5.3955 14.388 0 0 0
401 3 32.373 17.985 0.0 0 0 0
1883 3 16.1865 7.194 1.7985 0 0 0
3578 3 3.597 16.1865 16.1865 0 0 0
3388 3 5.3955 34.1715 21.582 0 0 0
2219 3 12.5895 0.0 16.1865 0 0 0
3155 3 5.3955 10.791 30.5745 0 0 0
3001 3 7.194 0.0 0.0 0 0 0
2032 3 16.1865 19.7835 25.179 0 0 0
1102 3 25.179 8.9925 19.7835 0 0 0
1545 3 21.582 10.791 21.582 0 0 0
938 3 28.776 30.5745 16.1865 0 0 0
3269 3 7.194 21.582 25.179 0 0 0
178 3 34.1715 30.5745 28.776 0 0 0
3822 3 0.0 5.3955 1.7985 0 0 0
913 3 28.776 25.179 28.776 0 0 0
471 3 30.5745 21.582 26.9775 0 0 0
3948 3 0.0 26.9775 12.5895 0 0 0
1387 3 23.3805 32.373 23.3805 0 0 0
1222 3 25.179 19.7835 19.7835 0 0 0
1441 3 21.582 3.597 0.0 0 0 0
2625 3 10.791 0.0 21.582 0 0 0
2198 3 17.985 34.1715 34.1715 0 0 0
2138 3 17.985 30.5745 16.1865 0 0 0
2261 3 14.388 3.597 17.985 0 0 0
2601 3 10.791 0.0 0.0 0 0 0
1463 3 19.7835 3.597 19.7835 0 0 0
557 3 32.373 28.776 32.373 0 0 0
843 3 26.9775 21.582 1.7985 0 0 0
3464 3 1.7985 5.3955 17.985 0 0 0
2415 3 12.5895 17.985 12.5895 0 0 0
2610 3 10.791 1.7985 8.9925 0 0 0
70 3 34.1715 12.5895 14.388 0 0 0
2202 3 14.388 1.7985 1.7985 0 0 0
2237 3 14.388 0.0 32.373 0 0 0
2800 3 8.9925 16.1865 32.373 0 0 0
1392 3 23.3805 34.1715 25.179 0 0 0
2079 3 16.1865 21.582 34.1715 0 0 0
670 3 28.776 5.3955 26.9775 0 0 0
2631 3 8.9925 0.0 26.9775 0 0 0
2040 3 16.1865 19.7835 32.373 0 0 0
3714 3 3.597 26.9775 30.5745 0 0 0
2696 3 8.9925 8.9925 10.791 0 0 0
2290 3 14.388 8.9925 8.9925 0 0 0
3710 3 3.597 26.9775 26.9775 0 0 0
2880 3 8.9925 23.3805 32.373 0 0 0
404 3 30.5745 19.7835 0.0 0 0 0
3914 3 0.0 19.7835 23.3805 0 0 0
2617 3 10.791 0.0 14.388 0 0 0
2964 3 8.9925 34.1715 0.0 0 0 0
392 3 30.5745 16.1865 25.179 0 0 0
2102 3 17.985 26.9775 19.7835 0 0 0
3423 3 1.7985 0.0 19.7835 0 0 0
436 3 30.5745 19.7835 28.776 0 0 0
1424 3 19.7835 1.7985 17.985 0 0 0
2385 3 14.388 14.388 21.582 0 0 0
1189 3 25.179 14.388 25.179 0 0 0
3113 3 7.194 7.194 28.776 0 0 0
2858 3 10.791 23.3805 16.1865 0 0 0
1226 3 25.179 19.7835 23.3805 0 0 0
3791 3 1.7985 32.373 26.9775 0 0 0
1227 3 23.3805 17.985 23.3805 0 0 0
2092 3 16.1865 26.9775 7.194 0 0 0
2210 3 14.388 1.7985 8.9925 0 0 0
3868 3 0.0 12.5895 12.5895 0 0 0
1500 3 19.7835 8.9925 14.388 0 0 0
1356 3 23.3805 30.5745 28.776 0 0 0
2895 3 8.9925 25.179 12.5895 0 0 0
1732 3 19.7835 30.5745 7.194 0 0 0
468 3 30.5745 23.3805 21.582 0 0 0
2514 3 14.388 26.9775 30.5745 0 0 0
1614 3 21.582 19.7835 12.5895 0 0 0
706 3 28.776 8.9925 23.3805 0 0 0
1571 3 19.7835 14.388 8.9925 0 0 0
522 3 32.373 30.5745 1.7985 0 0 0
2307 3 12.5895 7.194 23.3805 0 0 0
174 3 34.1715 30.5745 21.582 0 0 0
1443 3 19.7835 3.597 1.7985 0 0 0
2117 3 17.985 25.179 32.373 0 0 0
1160 3 23.3805 12.5895 32.373 0 0 0
3950 3 0.0 26.9775 16.1865 0 0 0
2909 3 10.791 25.179 25.179 0 0 0
1841 3 17.985 3.597 0.0 0 0 0
1326 3 25.179 30.5745 5.3955 0 0 0
515 3 30.5745 25.179 30.5745 0 0 0
3321 3 7.194 28.776 0.0 0 0 0
462 3 32.373 23.3805 19.7835 0 0 0
3408 3 1.7985 1.7985 3.597 0 0 0
39 3 34.1715 3.597 34.1715 0 0 0
1595 3 19.7835 14.388 30.5745 0 0 0
529 3 32.373 28.776 7.194 0 0 0
1465 3 21.582 3.597 21.582 0 0 0
2701 3 10.791 7.194 17.985 0 0 0
3142 3 7.194 12.5895 19.7835 0 0 0
3046 3 7.194 5.3955 5.3955 0 0 0
1921 3 17.985 10.791 0.0 0 0 0
2905 3 10.791 25.179 21.582 0 0 0
962 3 28.776 34.1715 1.7985 0 0 0
2246 3 14.388 5.3955 5.3955 0 0 0
2882 3 10.791 26.9775 1.7985 0 0 0
548 3 30.5745 30.5745 21.582 0 0 0
3203 3 5.3955 17.985 1.7985 0 0 0
674 3 28.776 5.3955 30.5745 0 0 0
460 3 30.5745 23.3805 14.388 0 0 0
1888 3 16.1865 8.9925 3.597 0 0 0
1279 3 23.3805 21.582 34.1715 0 0 0
1135 3 23.3805 10.791 12.5895 0 0 0
655 3 26.9775 3.597 12.5895 0 0 0
258 3 32.373 5.3955 16.1865 0 0 0
344 3 30.5745 12.5895 17.985 0 0 0
2061 3 17.985 21.582 17.985 0 0 0
2172 3 16.1865 34.1715 7.194 0 0 0
2532 3 12.5895 30.5745 7.194 0 0 0
1122 3 25.179 12.5895 1.7985 0 0 0
1386 3 25.179 34.1715 23.3805 0 0 0
2342 3 14.388 12.5895 19.7835 0 0 0
3235 3 5.3955 17.985 30.5745 0 0 0
3151 3 5.3955 10.791 26.9775 0 0 0
1800 3 19.7835 34.1715 32.373 0 0 0
3887 3 0.0 14.388 10.791 0 0 0
3642 3 3.597 23.3805 1.7985 0 0 0
3567 3 1.7985 14.388 5.3955 0 0 0
2740 3 8.9925 12.5895 14.388 0 0 0
3875 3 0.0 10.791 25.179 0 0 0
2068 3 16.1865 23.3805 21.582 0 0 0
3641 3 3.597 21.582 0.0 0 0 0
2428 3 12.5895 19.7835 21.582 0 0 0
3023 3 5.3955 0.0 19.7835 0 0 0
1945 3 17.985 10.791 21.582 0 0 0
1395 3 23.3805 32.373 30.5745 0 0 0
2308 3 12.5895 8.9925 21.582 0 0 0
3796 3 1.7985 34.1715 28.776 0 0 0
3199 3 5.3955 14.388 34.1715 0 0 0
3278 3 7.194 23.3805 34.1715 0 0 0
1246 3 25.179 23.3805 5.3955 0 0 0
773 3 28.776 14.388 10.791 0 0 0
3731 3 1.7985 28.776 8.9925 0 0 0
1767 3 19.7835 32.373 5.3955 0 0 0
1746 3 21.582 30.5745 23.3805 0 0 0
3137 3 7.194 10.791 14.388 0 0 0
2520 3 12.5895 26.9775 32.373 0 0 0
1852 3 16.1865 5.3955 7.194 0 0 0
873 3 28.776 21.582 28.776 0 0 0
778 3 28.776 16.1865 16.1865 0 0 0
197 3 34.1715 32.373 30.5745 0 0 0
3364 3 5.3955 34.1715 0.0 0 0 0
696 3 26.9775 8.9925 10.791 0 0 0
578 3 32.373 34.1715 16.1865 0 0 0
365 3 32.373 14.388 3.597 0 0 0
3513 3 3.597 7.194 28.776 0 0 0
788 3 26.9775 16.1865 21.582 0 0 0
1863 3 16.1865 3.597 19.7835 0 0 0
443 3 30.5745 21.582 1.7985 0 0 0
1021 3 25.179 0.0 17.985 0 0 0
654 3 28.776 5.3955 12.5895 0 0 0
3861 3 0.0 10.791 0.0 0 0 0
3118 3 7.194 8.9925 34.1715 0 0 0
801 3 28.776 17.985 0.0 0 0 0
2718 3 10.791 8.9925 34.1715 0 0 0
3442 3 3.597 5.3955 1.7985 0 0 0
122 3 34.1715 23.3805 0.0 0 0 0
377 3 32.373 14.388 14.388 0 0 0
3074 3 7.194 5.3955 30.5745 0 0 0
2831 3 8.9925 17.985 26.9775 0 0 0
732 3 26.9775 12.5895 7.194 0 0 0
3150 3 7.194 12.5895 26.9775 0 0 0
1164 3 23.3805 16.1865 0.0 0 0 0
3803 3 0.0 0.0 3.597 0 0 0
2491 3 12.5895 25.179 8.9925 0 0 0
1147 3 23.3805 10.791 23.3805 0 0 0
1805 3 17.985 0.0 3.597 0 0 0
3709 3 3.597 25.179 25.179 0 0 0
3850 3 0.0 8.9925 16.1865 0 0 0
751 3 26.9775 10.791 26.9775 0 0 0
3123 3 5.3955 10.791 1.7985 0 0 0
1823 3 16.1865 0.0 19.7835 0 0 0
3792 3 1.7985 34.1715 25.179 0 0 0
3649 3 3.597 21.582 7.194 0 0 0
2824 3 8.9925 19.7835 17.985 0 0 0
3654 3 3.597 23.3805 12.5895 0 0 0
1931 3 16.1865 10.791 8.9925 0 0 0
143 3 34.1715 25.179 5.3955 0 0 0
64 3 34.1715 12.5895 3.597 0 0 0
2878 3 10.791 23.3805 34.1715 0 0 0
1608 3 19.7835 19.7835 3.597 0 0 0
107 3 34.1715 17.985 12.5895 0 0 0
275 3 30.5745 3.597 30.5745 0 0 0
2273 3 14.388 3.597 28.776 0 0 0
1578 3 21.582 16.1865 16.1865 0 0 0
1072 3 23.3805 5.3955 25.179 0 0 0
430 3 32.373 19.7835 26.9775 0 0 0
305 3 32.373 7.194 21.582 0 0 0
170 3 34.1715 30.5745 14.388 0 0 0
2178 3 17.985 34.1715 16.1865 0 0 0
3652 3 1.7985 23.3805 7.194 0 0 0
3375 3 5.3955 32.373 12.5895 0 0 0
1876 3 16.1865 5.3955 28.776 0 0 0
1423 3 19.7835 0.0 19.7835 0 0 0
325 3 32.373 10.791 3.597 0 0 0
1345 3 25.179 28.776 21.582 0 0 0
2223 3 12.5895 0.0 19.7835 0 0 0
3358 3 7.194 30.5745 34.1715 0 0 0
1305 3 25.179 25.179 21.582 0 0 0
1919 3 16.1865 7.194 34.1715 0 0 0
3903 3 0.0 17.985 3.597 0 0 0
3928 3 0.0 23.3805 12.5895 0 0 0
2779 3 8.9925 14.388 16.1865 0 0 0
3888 3 0.0 16.1865 12.5895 0 0 0
1411 3 19.7835 0.0 8.9925 0 0 0
3300 3 5.3955 26.9775 14.388 0 0 0
1468 3 19.7835 5.3955 21.582 0 0 0
919 3 26.9775 25.179 34.1715 0 0 0
635 3 26.9775 0.0 30.5745 0 0 0
398 3 32.373 16.1865 34.1715 0 0 0
110 3 34.1715 19.7835 14.388 0 0 0
120 3 34.1715 19.7835 32.373 0 0 0
2099 3 16.1865 25.179 16.1865 0 0 0
339 3 30.5745 10.791 16.1865 0 0 0
2487 3 12.5895 25.179 5.3955 0 0 0
1708 3 19.7835 26.9775 21.582 0 0 0
1197 3 25.179 14.388 32.373 0 0 0
1556 3 19.7835 12.5895 28.776 0 0 0
2691 3 8.9925 7.194 8.9925 0 0 0
2334 3 14.388 12.5895 12.5895 0 0 0
1456 3 19.7835 5.3955 10.791 0 0 0
2241 3 14.388 3.597 0.0 0 0 0
2264 3 12.5895 5.3955 17.985 0 0 0
446 3 32.373 23.3805 5.3955 0 0 0
1518 3 21.582 8.9925 34.1715 0 0 0
51 3 34.1715 7.194 19.7835 0 0 0
3952 3 0.0 26.9775 19.7835 0 0 0
1357 3 25.179 28.776 32.373 0 0 0
99 3 34.1715 14.388 34.1715 0 0 0
3063 3 5.3955 3.597 19.7835 0 0 0
2818 3 10.791 19.7835 16.1865 0 0 0
535 3 30.5745 28.776 12.5895 0 0 0
1145 3 25.179 10.791 21.582 0 0 0
3234 3 7.194 19.7835 30.5745 0 0 0
2050 3 17.985 23.3805 8.9925 0 0 0
1285 3 25.179 25.179 3.597 0 0 0
1011 3 23.3805 0.0 8.9925 0 0 0
1377 3 25.179 32.373 14.388 0 0 0
3828 3 0.0 5.3955 12.5895 0 0 0
3398 3 7.194 34.1715 34.1715 0 0 0
3228 3 5.3955 19.7835 21.582 0 0 0
2292 3 12.5895 8.9925 7.194 0 0 0
2554 3 14.388 30.5745 30.5745 0 0 0
2480 3 12.5895 23.3805 32.373 0 0 0
3679 3 1.7985 21.582 34.1715 0 0 0
2825 3 10.791 17.985 21.582 0 0 0
3737 3 3.597 28.776 14.388 0 0 0
3452 3 1.7985 5.3955 7.194 0 0 0
3306 3 7.194 26.9775 23.3805 0 0 0
3176 3 5.3955 16.1865 10.791 0 0 0
132 3 34.1715 23.3805 17.985 0 0 0
1728 3 19.7835 30.5745 3.597 0 0 0
478 3 32.373 23.3805 34.1715 0 0 0
3837 3 0.0 3.597 28.776 0 0 0
1304 3 23.3805 26.9775 17.985 0 0 0
495 3 30.5745 25.179 12.5895 0 0 0
2027 3 16.1865 17.985 23.3805 0 0 0
2781 3 10.791 14.388 17.985 0 0 0
1641 3 21.582 21.582 0.0 0 0 0
3700 3 1.7985 26.9775 14.388 0 0 0
324 3 30.5745 12.5895 0.0 0 0 0
421 3 32.373 17.985 17.985 0 0 0
1872 3 16.1865 5.3955 25.179 0 0 0
185 3 34.1715 32.373 8.9925 0 0 0
2559 3 12.5895 28.776 34.1715 0 0 0
1601 3 21.582 17.985 0.0 0 0 0
1903 3 16.1865 7.194 19.7835 0 0 0
1111 3 23.3805 7.194 26.9775 0 0 0
1204 3 23.3805 19.7835 0.0 0 0 0
1028 3 23.3805 1.7985 21.582 0 0 0
3005 3 7.194 0.0 3.597 0 0 0
1674 3 21.582 23.3805 30.5745 0 0 0
2409 3 14.388 17.985 7.194 0 0 0
3774 3 3.597 34.1715 12.5895 0 0 0
1622 3 21.582 19.7835 19.7835 0 0 0
502 3 32.373 26.9775 19.7835 0 0 0
699 3 26.9775 7.194 16.1865 0 0 0
2914 3 10.791 26.9775 30.5745 0 0 0
1730 3 21.582 30.5745 8.9925 0 0 0
3145 3 7.194 10.791 21.582 0 0 0
2888 3 8.9925 26.9775 3.597 0 0 0
643 3 26.9775 3.597 1.7985 0 0 0
2906 3 10.791 26.9775 23.3805 0 0 0
3293 3 7.194 25.179 10.791 0 0 0
2425 3 14.388 17.985 21.582 0 0 0
1798 3 21.582 34.1715 34.1715 0 0 0
2321 3 14.388 10.791 0.0 0 0 0
3927 3 0.0 21.582 10.791 0 0 0
2267 3 12.5895 3.597 23.3805 0 0 0
2234 3 14.388 1.7985 30.5745 0 0 0
513 3 32.373 25.179 28.776 0 0 0
2317 3 14.388 7.194 32.373 0 0 0
3728 3 1.7985 30.5745 3.597 0 0 0
86 3 34.1715 16.1865 7.194 0 0 0
3593 3 3.597 14.388 28.776 0 0 0
1114 3 25.179 8.9925 30.5745 0 0 0
1002 3 25.179 1.7985 1.7985 0 0 0
1725 3 21.582 28.776 3.597 0 0 0
65 3 34.1715 10.791 8.9925 0 0 0
3555 3 1.7985 10.791 30.5745 0 0 0
1844 3 16.1865 5.3955 0.0 0 0 0
818 3 28.776 19.7835 16.1865 0 0 0
247 3 30.5745 3.597 5.3955 0 0 0
464 3 30.5745 23.3805 17.985 0 0 0
100 3 34.1715 16.1865 32.373 0 0 0
475 3 30.5745 21.582 30.5745 0 0 0
637 3 28.776 0.0 32.373 0 0 0
2754 3 10.791 12.5895 30.5745 0 0 0
3296 3 5.3955 26.9775 10.791 0 0 0
2935 3 8.9925 28.776 12.5895 0 0 0
2770 3 10.791 16.1865 8.9925 0 0 0
1811 3 16.1865 0.0 8.9925 0 0 0
925 3 28.776 28.776 3.597 0 0 0
3993 3 0.0 32.373 21.582 0 0 0
2009 3 17.985 17.985 7.194 0 0 0
3653 3 3.597 21.582 10.791 0 0 0
383 3 30.5745 14.388 19.7835 0 0 0
1262 3 25.179 23.3805 19.7835 0 0 0
1723 3 19.7835 28.776 1.7985 0 0 0
3457 3 3.597 3.597 14.388 0 0 0
1553 3 21.582 10.791 28.776 0 0 0
455 3 30.5745 21.582 12.5895 0 0 0
2835 3 8.9925 17.985 30.5745 0 0 0
1332 3 23.3805 30.5745 7.194 0 0 0
3871 3 0.0 10.791 17.985 0 0 0
2094 3 17.985 26.9775 12.5895 0 0 0
1806 3 17.985 1.7985 5.3955 0 0 0
1206 3 25.179 19.7835 5.3955 0 0 0
1551 3 19.7835 10.791 26.9775 0 0 0
1471 3 19.7835 3.597 26.9775 0 0 0
2934 3 10.791 30.5745 12.5895 0 0 0
463 3 30.5745 21.582 19.7835 0 0 0
1148 3 23.3805 12.5895 21.582 0 0 0
3201 3 7.194 17.985 0.0 0 0 0
2542 3 14.388 30.5745 19.7835 0 0 0
3610 3 3.597 19.7835 8.9925 0 0 0
2414 3 14.388 19.7835 12.5895 0 0 0
3226 3 7.194 19.7835 23.3805 0 0 0
3520 3 1.7985 8.9925 32.373 0 0 0
212 3 30.5745 1.7985 7.194 0 0 0
2190 3 17.985 34.1715 26.9775 0 0 0
3353 3 7.194 28.776 28.776 0 0 0
1799 3 19.7835 32.373 34.1715 0 0 0
1306 3 25.179 26.9775 23.3805 0 0 0
1336 3 23.3805 30.5745 10.791 0 0 0
2506 3 14.388 26.9775 23.3805 0 0 0
2486 3 14.388 26.9775 5.3955 0 0 0
794 3 28.776 16.1865 30.5745 0 0 0
1942 3 17.985 12.5895 19.7835 0 0 0
2259 3 12.5895 3.597 16.1865 0 0 0
1322 3 25.179 30.5745 1.7985 0 0 0
1242 3 25.179 23.3805 1.7985 0 0 0
2960 3 8.9925 30.5745 32.373 0 0 0
1041 3 25.179 3.597 0.0 0 0 0
759 3 26.9775 10.791 34.1715 0 0 0
428 3 30.5745 19.7835 21.582 0 0 0
1365 3 25.179 32.373 3.597 0 0 0
1225 3 25.179 17.985 21.582 0 0 0
2057 3 17.985 21.582 14.388 0 0 0
1636 3 19.7835 19.7835 28.776 0 0 0
402 3 32.373 19.7835 1.7985 0 0 0
1978 3 17.985 16.1865 16.1865 0 0 0
3173 3 7.194 14.388 10.791 0 0 0
3525 3 3.597 10.791 3.597 0 0 0
3356 3 5.3955 30.5745 28.776 0 0 0
3856 3 0.0 8.9925 26.9775 0 0 0
1052 3 23.3805 5.3955 7.194 0 0 0
3934 3 0.0 23.3805 23.3805 0 0 0
703 3 26.9775 7.194 19.7835 0 0 0
3016 3 5.3955 1.7985 10.791 0 0 0
1698 3 21.582 26.9775 16.1865 0 0 0
1067 3 23.3805 3.597 23.3805 0 0 0
3557 3 3.597 10.791 32.373 0 0 0
3402 3 3.597 1.7985 1.7985 0 0 0
3178 3 7.194 16.1865 16.1865 0 0 0
3635 3 1.7985 17.985 30.5745 0 0 0
2301 3 14.388 7.194 17.985 0 0 0
1785 3 21.582 32.373 21.582 0 0 0
2212 3 12.5895 1.7985 7.194 0 0 0
1380 3 23.3805 34.1715 14.388 0 0 0
286 3 32.373 8.9925 5.3955 0 0 0
3274 3 7.194 23.3805 30.5745 0 0 0
280 3 30.5745 5.3955 32.373 0 0 0
1846 3 17.985 5.3955 5.3955 0 0 0
1912 3 16.1865 8.9925 25.179 0 0 0
1414 3 21.582 1.7985 12.5895 0 0 0
2126 3 17.985 30.5745 5.3955 0 0 0
2048 3 16.1865 23.3805 3.597 0 0 0
1537 3 21.582 10.791 14.388 0 0 0
2760 3 8.9925 12.5895 32.373 0 0 0
2403 3 12.5895 17.985 1.7985 0 0 0
1029 3 25.179 0.0 25.179 0 0 0
547 3 30.5745 28.776 23.3805 0 0 0
1180 3 23.3805 16.1865 14.388 0 0 0
211 3 30.5745 0.0 8.9925 0 0 0
2930 3 10.791 30.5745 8.9925 0 0 0
136 3 34.1715 23.3805 25.179 0 0 0
1557 3 21.582 10.791 32.373 0 0 0
1403 3 19.7835 0.0 1.7985 0 0 0
2402 3 14.388 19.7835 1.7985 0 0 0
3489 3 3.597 7.194 7.194 0 0 0
3904 3 0.0 19.7835 5.3955 0 0 0
314 3 32.373 8.9925 30.5745 0 0 0
526 3 32.373 30.5745 5.3955 0 0 0
3413 3 3.597 0.0 10.791 0 0 0
3733 3 3.597 28.776 10.791 0 0 0
3734 3 3.597 30.5745 12.5895 0 0 0
2618 3 10.791 1.7985 16.1865 0 0 0
2341 3 14.388 10.791 17.985 0 0 0
411 3 30.5745 17.985 8.9925 0 0 0
1289 3 25.179 25.179 7.194 0 0 0
3767 3 1.7985 32.373 5.3955 0 0 0
3164 3 5.3955 16.1865 0.0 0 0 0
2844 3 8.9925 23.3805 0.0 0 0 0
572 3 30.5745 34.1715 7.194 0 0 0
554 3 32.373 30.5745 30.5745 0 0 0
1827 3 16.1865 0.0 23.3805 0 0 0
407 3 30.5745 17.985 5.3955 0 0 0
3751 3 1.7985 28.776 26.9775 0 0 0
168 3 34.1715 30.5745 10.791 0 0 0
2531 3 12.5895 28.776 8.9925 0 0 0
599 3 30.5745 32.373 34.1715 0 0 0
1478 3 21.582 5.3955 34.1715 0 0 0
1694 3 21.582 26.9775 12.5895 0 0 0
1909 3 17.985 7.194 25.179 0 0 0
2030 3 17.985 19.7835 26.9775 0 0 0
3770 3 3.597 34.1715 8.9925 0 0 0
3925 3 0.0 21.582 7.194 0 0 0
3245 3 7.194 21.582 3.597 0 0 0
2343 3 12.5895 10.791 19.7835 0 0 0
1758 3 21.582 30.5745 34.1715 0 0 0
597 3 32.373 32.373 32.373 0 0 0
2325 3 14.388 10.791 3.597 0 0 0
3038 3 7.194 1.7985 34.1715 0 0 0
2451 3 12.5895 21.582 8.9925 0 0 0
2777 3 10.791 14.388 14.388 0 0 0
1077 3 25.179 3.597 32.373 0 0 0
2003 3 16.1865 17.985 1.7985 0 0 0
3126 3 7.194 12.5895 5.3955 0 0 0
2535 3 12.5895 28.776 12.5895 0 0 0
1549 3 21.582 10.791 25.179 0 0 0
2702 3 10.791 8.9925 19.7835 0 0 0
2613 3 10.791 0.0 10.791 0 0 0
1116 3 23.3805 8.9925 28.776 0 0 0
2931 3 8.9925 28.776 8.9925 0 0 0
3539 3 1.7985 10.791 16.1865 0 0 0
1030 3 25.179 1.7985 26.9775 0 0 0
994 3 28.776 34.1715 30.5745 0 0 0
2525 3 14.388 28.776 3.597 0 0 0
1156 3 23.3805 12.5895 28.776 0 0 0
1881 3 17.985 7.194 0.0 0 0 0
998 3 28.776 34.1715 34.1715 0 0 0
2945 3 10.791 28.776 21.582 0 0 0
933 3 28.776 28.776 10.791 0 0 0
3018 3 7.194 1.7985 16.1865 0 0 0
1906 3 17.985 8.9925 23.3805 0 0 0
1252 3 23.3805 23.3805 7.194 0 0 0
3514 3 3.597 8.9925 30.5745 0 0 0
1773 3 21.582 32.373 10.791 0 0 0
1832 3 16.1865 1.7985 25.179 0 0 0
2580 3 12.5895 34.1715 14.388 0 0 0
533 3 32.373 28.776 10.791 0 0 0
935 3 26.9775 28.776 12.5895 0 0 0
2611 3 8.9925 0.0 8.9925 0 0 0
2692 3 8.9925 8.9925 7.194 0 0 0
2411 3 12.5895 17.985 8.9925 0 0 0
3083 3 5.3955 7.194 1.7985 0 0 0
177 3 34.1715 28.776 30.5745 0 0 0
976 3 26.9775 34.1715 10.791 0 0 0
2574 3 14.388 34.1715 12.5895 0 0 0
2001 3 17.985 17.985 0.0 0 0 0
1427 3 19.7835 0.0 23.3805 0 0 0
491 3 30.5745 25.179 8.9925 0 0 0
3776 3 1.7985 34.1715 10.791 0 0 0
1562 3 21.582 16.1865 1.7985 0 0 0
48 3 34.1715 8.9925 10.791 0 0 0
2919 3 8.9925 25.179 34.1715 0 0 0
3519 3 1.7985 7.194 34.1715 0 0 0
3029 3 7.194 0.0 25.179 0 0 0
1944 3 16.1865 12.5895 17.985 0 0 0
131 3 34.1715 21.582 19.7835 0 0 0
2873 3 10.791 21.582 28.776 0 0 0
1388 3 23.3805 34.1715 21.582 0 0 0
1489 3 21.582 7.194 7.194 0 0 0
1626 3 21.582 19.7835 23.3805 0 0 0
2314 3 14.388 8.9925 30.5745 0 0 0
112 3 34.1715 19.7835 17.985 0 0 0
3490 3 3.597 8.9925 8.9925 0 0 0
882 3 28.776 26.9775 1.7985 0 0 0
2636 3 8.9925 1.7985 28.776 0 0 0
1117 3 25.179 7.194 32.373 0 0 0
1988 3 16.1865 16.1865 21.582 0 0 0
473 3 32.373 21.582 28.776 0 0 0
2109 3 17.985 25.179 25.179 0 0 0
1579 3 19.7835 14.388 16.1865 0 0 0
601 3 28.776 0.0 0.0 0 0 0
3859 3 0.0 7.194 32.373 0 0 0
3849 3 0.0 7.194 14.388 0 0 0
1241 3 25.179 21.582 0.0 0 0 0
2794 3 10.791 16.1865 30.5745 0 0 0
742 3 28.776 12.5895 19.7835 0 0 0
3052 3 5.3955 5.3955 7.194 0 0 0
859 3 26.9775 21.582 16.1865 0 0 0
658 3 28.776 5.3955 16.1865 0 0 0
409 3 32.373 17.985 7.194 0 0 0
3599 3 1.7985 14.388 34.1715 0 0 0
975 3 26.9775 32.373 12.5895 0 0 0
3320 3 5.3955 26.9775 32.373 0 0 0
3333 3 7.194 28.776 10.791 0 0 0
3515 3 1.7985 7.194 30.5745 0 0 0
2677 3 10.791 3.597 32.373 0 0 0
3469 3 3.597 3.597 25.179 0 0 0
83 3 34.1715 14.388 5.3955 0 0 0
2911 3 8.9925 25.179 26.9775 0 0 0
2894 3 10.791 26.9775 12.5895 0 0 0
296 3 30.5745 8.9925 10.791 0 0 0
3365 3 7.194 32.373 3.597 0 0 0
3530 3 3.597 12.5895 8.9925 0 0 0
3913 3 0.0 17.985 21.582 0 0 0
1528 3 19.7835 12.5895 3.597 0 0 0
1417 3 21.582 0.0 14.388 0 0 0
3814 3 0.0 1.7985 23.3805 0 0 0
1025 3 25.179 0.0 21.582 0 0 0
764 3 26.9775 16.1865 0.0 0 0 0
3355 3 5.3955 28.776 30.5745 0 0 0
2473 3 14.388 21.582 28.776 0 0 0
1815 3 16.1865 0.0 12.5895 0 0 0
37 3 34.1715 3.597 30.5745 0 0 0
271 3 30.5745 3.597 26.9775 0 0 0
2788 3 8.9925 16.1865 21.582 0 0 0
393 3 32.373 14.388 28.776 0 0 0
1087 3 23.3805 7.194 5.3955 0 0 0
544 3 30.5745 30.5745 17.985 0 0 0
2304 3 12.5895 8.9925 17.985 0 0 0
1678 3 21.582 23.3805 34.1715 0 0 0
3523 3 1.7985 10.791 1.7985 0 0 0
3187 3 5.3955 14.388 23.3805 0 0 0
3742 3 3.597 30.5745 19.7835 0 0 0
1124 3 23.3805 12.5895 0.0 0 0 0
750 3 28.776 12.5895 26.9775 0 0 0
1112 3 23.3805 8.9925 25.179 0 0 0
1361 3 25.179 32.373 0.0 0 0 0
782 3 28.776 16.1865 19.7835 0 0 0
988 3 26.9775 34.1715 21.582 0 0 0
3727 3 1.7985 28.776 5.3955 0 0 0
516 3 30.5745 26.9775 28.776 0 0 0
2130 3 17.985 30.5745 8.9925 0 0 0
3179 3 5.3955 14.388 16.1865 0 0 0
1001 3 25.179 0.0 0.0 0 0 0
2924 3 8.9925 30.5745 0.0 0 0 0
3053 3 7.194 3.597 10.791 0 0 0
2245 3 14.388 3.597 3.597 0 0 0
1470 3 21.582 5.3955 26.9775 0 0 0
767 3 26.9775 14.388 5.3955 0 0 0
3156 3 5.3955 12.5895 28.776 0 0 0
2813 3 10.791 17.985 10.791 0 0 0
868 3 26.9775 23.3805 21.582 0 0 0
1573 3 21.582 14.388 10.791 0 0 0
2148 3 16.1865 30.5745 21.582 0 0 0
644 3 26.9775 5.3955 0.0 0 0 0
1692 3 19.7835 26.9775 7.194 0 0 0
3409 3 3.597 0.0 7.194 0 0 0
98 3 34.1715 16.1865 28.776 0 0 0
3739 3 1.7985 28.776 16.1865 0 0 0
3630 3 3.597 19.7835 26.9775 0 0 0
707 3 26.9775 7.194 23.3805 0 0 0
835 3 26.9775 17.985 30.5745 0 0 0
2690 3 10.791 8.9925 8.9925 0 0 0
2416 3 12.5895 19.7835 10.791 0 0 0
679 3 26.9775 3.597 34.1715 0 0 0
1651 3 19.7835 21.582 8.9925 0 0 0
3037 3 7.194 0.0 32.373 0 0 0
2543 3 12.5895 28.776 19.7835 0 0 0
213 3 32.373 0.0 10.791 0 0 0
3564 3 1.7985 16.1865 0.0 0 0 0
3660 3 1.7985 23.3805 14.388 0 0 0
1833 3 17.985 0.0 28.776 0 0 0
854 3 28.776 23.3805 12.5895 0 0 0
244 3 30.5745 5.3955 0.0 0 0 0
3543 3 1.7985 10.791 19.7835 0 0 0
2577 3 14.388 32.373 14.388 0 0 0
3580 3 1.7985 16.1865 14.388 0 0 0
2105 3 17.985 25.179 21.582 0 0 0
3884 3 0.0 16.1865 5.3955 0 0 0
3492 3 1.7985 8.9925 7.194 0 0 0
681 3 28.776 7.194 0.0 0 0 0
525 3 32.373 28.776 3.597 0 0 0
2208 3 12.5895 1.7985 3.597 0 0 0
3638 3 3.597 19.7835 34.1715 0 0 0
484 3 30.5745 26.9775 0.0 0 0 0
2886 3 10.791 26.9775 5.3955 0 0 0
3307 3 5.3955 25.179 23.3805 0 0 0
3664 3 1.7985 23.3805 17.985 0 0 0
1479 3 19.7835 3.597 34.1715 0 0 0
639 3 26.9775 0.0 34.1715 0 0 0
865 3 28.776 21.582 21.582 0 0 0
1501 3 21.582 7.194 17.985 0 0 0
2183 3 16.1865 32.373 19.7835 0 0 0
2652 3 8.9925 5.3955 7.194 0 0 0
2810 3 10.791 19.7835 8.9925 0 0 0
2146 3 17.985 30.5745 23.3805 0 0 0
617 3 28.776 0.0 14.388 0 0 0
610 3 28.776 1.7985 8.9925 0 0 0
3794 3 3.597 34.1715 30.5745 0 0 0
931 3 26.9775 28.776 8.9925 0 0 0
1110 3 25.179 8.9925 26.9775 0 0 0
419 3 30.5745 17.985 16.1865 0 0 0
2584 3 12.5895 34.1715 17.985 0 0 0
3720 3 1.7985 26.9775 32.373 0 0 0
1604 3 19.7835 19.7835 0.0 0 0 0
2932 3 8.9925 30.5745 7.194 0 0 0
2399 3 12.5895 14.388 34.1715 0 0 0
1485 3 21.582 7.194 3.597 0 0 0
1192 3 23.3805 16.1865 25.179 0 0 0
1974 3 17.985 16.1865 12.5895 0 0 0
745 3 28.776 10.791 21.582 0 0 0
1720 3 19.7835 26.9775 32.373 0 0 0
1255 3 23.3805 21.582 12.5895 0 0 0
3973 3 0.0 28.776 21.582 0 0 0
356 3 30.5745 12.5895 28.776 0 0 0
3231 3 5.3955 17.985 26.9775 0 0 0
3455 3 1.7985 3.597 12.5895 0 0 0
3082 3 7.194 8.9925 1.7985 0 0 0
1202 3 25.179 19.7835 1.7985 0 0 0
1543 3 19.7835 10.791 19.7835 0 0 0
2772 3 8.9925 16.1865 7.194 0 0 0
3255 3 5.3955 21.582 12.5895 0 0 0
875 3 26.9775 21.582 30.5745 0 0 0
2815 3 8.9925 17.985 12.5895 0 0 0
3350 3 7.194 30.5745 26.9775 0 0 0
3502 3 3.597 8.9925 19.7835 0 0 0
3466 3 3.597 5.3955 23.3805 0 0 0
3592 3 1.7985 16.1865 25.179 0 0 0
1520 3 19.7835 8.9925 32.373 0 0 0
3213 3 7.194 17.985 10.791 0 0 0
1211 3 23.3805 17.985 8.9925 0 0 0
1296 3 23.3805 26.9775 10.791 0 0 0
1133 3 25.179 10.791 10.791 0 0 0
114 3 34.1715 19.7835 21.582 0 0 0
3706 3 3.597 26.9775 23.3805 0 0 0
1660 3 19.7835 23.3805 14.388 0 0 0
733 3 28.776 10.791 10.791 0 0 0
986 3 28.776 34.1715 23.3805 0 0 0
550 3 32.373 30.5745 26.9775 0 0 0
912 3 26.9775 26.9775 25.179 0 0 0
1772 3 19.7835 34.1715 7.194 0 0 0
2970 3 10.791 34.1715 8.9925 0 0 0
1527 3 19.7835 10.791 5.3955 0 0 0
3964 3 0.0 30.5745 5.3955 0 0 0
1350 3 25.179 30.5745 26.9775 0 0 0
1467 3 19.7835 3.597 23.3805 0 0 0
1617 3 21.582 17.985 14.388 0 0 0
2513 3 14.388 25.179 28.776 0 0 0
1354 3 25.179 30.5745 30.5745 0 0 0
3832 3 0.0 5.3955 19.7835 0 0 0
1764 3 19.7835 34.1715 0.0 0 0 0
3932 3 0.0 23.3805 19.7835 0 0 0
1862 3 17.985 5.3955 19.7835 0 0 0
3087 3 5.3955 7.194 5.3955 0 0 0
857 3 28.776 21.582 14.388 0 0 0
1342 3 25.179 30.5745 19.7835 0 0 0
3363 3 5.3955 32.373 1.7985 0 0 0
1069 3 25.179 3.597 25.179 0 0 0
1401 3 21.582 0.0 0.0 0 0 0
821 3 28.776 17.985 17.985 0 0 0
2074 3 17.985 23.3805 30.5745 0 0 0
3840 3 0.0 5.3955 34.1715 0 0 0
2699 3 8.9925 7.194 16.1865 0 0 0
3836 3 0.0 5.3955 26.9775 0 0 0
459 3 30.5745 21.582 16.1865 0 0 0
2616 3 8.9925 1.7985 10.791 0 0 0
3839 3 0.0 3.597 32.373 0 0 0
3979 3 0.0 28.776 32.373 0 0 0
3852 3 0.0 8.9925 19.7835 0 0 0
2715 3 8.9925 7.194 30.5745 0 0 0
1721 3 21.582 28.776 0.0 0 0 0
3062 3 7.194 5.3955 19.7835 0 0 0
97 3 34.1715 14.388 30.5745 0 0 0
1220 3 23.3805 19.7835 14.388 0 0 0
1877 3 17.985 3.597 32.373 0 0 0
1410 3 21.582 1.7985 8.9925 0 0 0
3605 3 3.597 17.985 3.597 0 0 0
2784 3 8.9925 16.1865 17.985 0 0 0
2418 3 14.388 19.7835 16.1865 0 0 0
1878 3 17.985 5.3955 34.1715 0 0 0
2110 3 17.985 26.9775 26.9775 0 0 0
3090 3 7.194 8.9925 8.9925 0 0 0
2188 3 16.1865 34.1715 21.582 0 0 0
1959 3 16.1865 10.791 34.1715 0 0 0
831 3 26.9775 17.985 26.9775 0 0 0
694 3 28.776 8.9925 12.5895 0 0 0
3376 3 5.3955 34.1715 10.791 0 0 0
173 3 34.1715 28.776 23.3805 0 0 0
3194 3 7.194 16.1865 30.5745 0 0 0
3512 3 1.7985 8.9925 25.179 0 0 0
3559 3 1.7985 10.791 34.1715 0 0 0
1851 3 16.1865 3.597 8.9925 0 0 0
2662 3 10.791 5.3955 19.7835 0 0 0
683 3 26.9775 7.194 1.7985 0 0 0
2933 3 10.791 28.776 10.791 0 0 0
1860 3 16.1865 5.3955 14.388 0 0 0
565 3 32.373 32.373 3.597 0 0 0
833 3 28.776 17.985 28.776 0 0 0
259 3 30.5745 3.597 16.1865 0 0 0
2751 3 8.9925 10.791 26.9775 0 0 0
881 3 28.776 25.179 0.0 0 0 0
1020 3 23.3805 1.7985 14.388 0 0 0
3572 3 1.7985 16.1865 7.194 0 0 0
1492 3 19.7835 8.9925 7.194 0 0 0
1238 3 25.179 19.7835 34.1715 0 0 0
528 3 30.5745 30.5745 3.597 0 0 0
1032 3 23.3805 1.7985 25.179 0 0 0
3522 3 3.597 12.5895 1.7985 0 0 0
1503 3 19.7835 7.194 19.7835 0 0 0
251 3 30.5745 3.597 8.9925 0 0 0
1302 3 25.179 26.9775 19.7835 0 0 0
2995 3 8.9925 32.373 30.5745 0 0 0
1744 3 19.7835 30.5745 17.985 0 0 0
2090 3 17.985 26.9775 8.9925 0 0 0
151 3 34.1715 25.179 19.7835 0 0 0
3279 3 5.3955 21.582 34.1715 0 0 0
2534 3 14.388 30.5745 12.5895 0 0 0
636 3 26.9775 1.7985 28.776 0 0 0
2134 3 17.985 30.5745 12.5895 0 0 0
2367 3 12.5895 14.388 5.3955 0 0 0
3152 3 5.3955 12.5895 25.179 0 0 0
591 3 30.5745 32.373 26.9775 0 0 0
293 3 32.373 7.194 10.791 0 0 0
1308 3 23.3805 26.9775 21.582 0 0 0
1263 3 23.3805 21.582 19.7835 0 0 0
2680 3 8.9925 5.3955 32.373 0 0 0
1777 3 21.582 32.373 14.388 0 0 0
899 3 26.9775 25.179 16.1865 0 0 0
2588 3 12.5895 34.1715 21.582 0 0 0
1371 3 23.3805 32.373 8.9925 0 0 0
3816 3 0.0 1.7985 26.9775 0 0 0
2668 3 8.9925 5.3955 21.582 0 0 0
2170 3 17.985 34.1715 8.9925 0 0 0
2458 3 14.388 23.3805 16.1865 0 0 0
911 3 26.9775 25.179 26.9775 0 0 0
1998 3 17.985 16.1865 34.1715 0 0 0
1193 3 25.179 14.388 28.776 0 0 0
2700 3 8.9925 8.9925 14.388 0 0 0
3869 3 0.0 10.791 14.388 0 0 0
562 3 32.373 34.1715 1.7985 0 0 0
3806 3 0.0 1.7985 8.9925 0 0 0
2925 3 10.791 28.776 3.597 0 0 0
2540 3 12.5895 30.5745 14.388 0 0 0
1929 3 17.985 10.791 7.194 0 0 0
121 3 34.1715 21.582 1.7985 0 0 0
2917 3 10.791 25.179 32.373 0 0 0
608 3 26.9775 1.7985 3.597 0 0 0
408 3 30.5745 19.7835 3.597 0 0 0
405 3 32.373 17.985 3.597 0 0 0
334 3 32.373 12.5895 12.5895 0 0 0
3505 3 3.597 7.194 21.582 0 0 0
3797 3 3.597 32.373 32.373 0 0 0
722 3 28.776 12.5895 1.7985 0 0 0
2637 3 10.791 0.0 32.373 0 0 0
2164 3 16.1865 34.1715 0.0 0 0 0
3056 3 5.3955 5.3955 10.791 0 0 0
1158 3 25.179 12.5895 34.1715 0 0 0
2851 3 8.9925 21.582 8.9925 0 0 0
1298 3 25.179 26.9775 16.1865 0 0 0
119 3 34.1715 17.985 34.1715 0 0 0
474 3 32.373 23.3805 30.5745 0 0 0
1505 3 21.582 7.194 21.582 0 0 0
2397 3 14.388 14.388 32.373 0 0 0
3283 3 5.3955 25.179 1.7985 0 0 0
3768 3 1.7985 34.1715 3.597 0 0 0
195 3 34.1715 32.373 26.9775 0 0 0
3459 3 1.7985 3.597 16.1865 0 0 0
2287 3 12.5895 7.194 5.3955 0 0 0
236 3 30.5745 1.7985 28.776 0 0 0
1717 3 21.582 25.179 32.373 0 0 0
1719 3 19.7835 25.179 34.1715 0 0 0
2218 3 14.388 1.7985 16.1865 0 0 0
3406 3 3.597 1.7985 5.3955 0 0 0
1005 3 25.179 0.0 3.597 0 0 0
781 3 28.776 14.388 17.985 0 0 0
1629 3 21.582 17.985 25.179 0 0 0
2042 3 17.985 23.3805 1.7985 0 0 0
2268 3 12.5895 5.3955 21.582 0 0 0
942 3 28.776 30.5745 19.7835 0 0 0
743 3 26.9775 10.791 19.7835 0 0 0
3675 3 1.7985 21.582 30.5745 0 0 0
2270 3 14.388 5.3955 26.9775 0 0 0
872 3 26.9775 23.3805 25.179 0 0 0
1014 3 25.179 1.7985 12.5895 0 0 0
3881 3 0.0 14.388 0.0 0 0 0
3144 3 5.3955 12.5895 17.985 0 0 0
1582 3 21.582 16.1865 19.7835 0 0 0
3116 3 5.3955 8.9925 28.776 0 0 0
2879 3 8.9925 21.582 34.1715 0 0 0
3672 3 1.7985 23.3805 25.179 0 0 0
628 3 26.9775 1.7985 21.582 0 0 0
3347 3 5.3955 28.776 23.3805 0 0 0
3115 3 5.3955 7.194 30.5745 0 0 0
3919 3 0.0 17.985 32.373 0 0 0
665 3 28.776 3.597 21.582 0 0 0
3282 3 7.194 26.9775 1.7985 0 0 0
2112 3 16.1865 26.9775 25.179 0 0 0
2789 3 10.791 14.388 25.179 0 0 0
3081 3 7.194 7.194 0.0 0 0 0
3975 3 0.0 28.776 25.179 0 0 0
77 3 34.1715 10.791 30.5745 0 0 0
3290 3 7.194 26.9775 8.9925 0 0 0
372 3 30.5745 16.1865 7.194 0 0 0
3613 3 3.597 17.985 10.791 0 0 0
3565 3 3.597 14.388 3.597 0 0 0
2302 3 14.388 8.9925 19.7835 0 0 0
1950 3 17.985 12.5895 26.9775 0 0 0
964 3 26.9775 34.1715 0.0 0 0 0
2598 3 14.388 34.1715 34.1715 0 0 0
1671 3 19.7835 21.582 26.9775 0 0 0
2628 3 8.9925 1.7985 21.582 0 0 0
3910 3 0.0 19.7835 16.1865 0 0 0
1352 3 23.3805 30.5745 25.179 0 0 0
3538 3 3.597 12.5895 16.1865 0 0 0
187 3 34.1715 32.373 12.5895 0 0 0
1801 3 17.985 0.0 0.0 0 0 0
2125 3 17.985 28.776 3.597 0 0 0
2139 3 16.1865 28.776 16.1865 0 0 0
806 3 28.776 19.7835 5.3955 0 0 0
2797 3 10.791 14.388 32.373 0 0 0
1523 3 19.7835 10.791 1.7985 0 0 0
1583 3 19.7835 14.388 19.7835 0 0 0
355 3 30.5745 10.791 30.5745 0 0 0
2948 3 8.9925 30.5745 21.582 0 0 0
905 3 28.776 25.179 21.582 0 0 0
924 3 26.9775 30.5745 0.0 0 0 0
510 3 32.373 26.9775 26.9775 0 0 0
200 3 34.1715 34.1715 32.373 0 0 0
1896 3 16.1865 8.9925 10.791 0 0 0
1325 3 25.179 28.776 3.597 0 0 0
954 3 28.776 30.5745 30.5745 0 0 0
2719 3 8.9925 7.194 34.1715 0 0 0
3588 3 1.7985 16.1865 21.582 0 0 0
1953 3 17.985 10.791 28.776 0 0 0
3867 3 0.0 10.791 10.791 0 0 0
600 3 30.5745 34.1715 32.373 0 0 0
326 3 32.373 12.5895 5.3955 0 0 0
3061 3 7.194 3.597 17.985 0 0 0
2707 3 8.9925 7.194 23.3805 0 0 0
1658 3 21.582 23.3805 16.1865 0 0 0
1239 3 23.3805 17.985 34.1715 0 0 0
2122 3 17.985 30.5745 1.7985 0 0 0
3007 3 5.3955 0.0 5.3955 0 0 0
1868 3 16.1865 5.3955 21.582 0 0 0
2490 3 14.388 26.9775 8.9925 0 0 0
3666 3 3.597 23.3805 23.3805 0 0 0
3454 3 3.597 5.3955 12.5895 0 0 0
1367 3 23.3805 32.373 5.3955 0 0 0
609 3 28.776 0.0 7.194 0 0 0
3461 3 3.597 3.597 17.985 0 0 0
2255 3 12.5895 3.597 12.5895 0 0 0
3281 3 7.194 25.179 0.0 0 0 0
1580 3 19.7835 16.1865 14.388 0 0 0
3685 3 3.597 25.179 3.597 0 0 0
2892 3 8.9925 26.9775 7.194 0 0 0
2505 3 14.388 25.179 21.582 0 0 0
160 3 34.1715 26.9775 32.373 0 0 0
2806 3 10.791 19.7835 5.3955 0 0 0
1755 3 19.7835 28.776 30.5745 0 0 0
2083 3 16.1865 25.179 1.7985 0 0 0
614 3 28.776 1.7985 12.5895 0 0 0
993 3 28.776 32.373 28.776 0 0 0
3224 3 5.3955 19.7835 17.985 0 0 0
3404 3 1.7985 1.7985 0.0 0 0 0
1771 3 19.7835 32.373 8.9925 0 0 0
740 3 26.9775 12.5895 14.388 0 0 0
3753 3 3.597 28.776 28.776 0 0 0
770 3 28.776 16.1865 8.9925 0 0 0
106 3 34.1715 19.7835 7.194 0 0 0
1340 3 23.3805 30.5745 14.388 0 0 0
3106 3 7.194 8.9925 23.3805 0 0 0
1455 3 19.7835 3.597 12.5895 0 0 0
2571 3 12.5895 32.373 8.9925 0 0 0
3291 3 5.3955 25.179 8.9925 0 0 0
2549 3 14.388 28.776 25.179 0 0 0
623 3 26.9775 0.0 19.7835 0 0 0
3853 3 0.0 7.194 21.582 0 0 0
1838 3 17.985 1.7985 34.1715 0 0 0
1319 3 23.3805 25.179 34.1715 0 0 0
1859 3 16.1865 3.597 16.1865 0 0 0
3458 3 3.597 5.3955 16.1865 0 0 0
2470 3 14.388 23.3805 26.9775 0 0 0
272 3 30.5745 5.3955 25.179 0 0 0
2447 3 12.5895 21.582 5.3955 0 0 0
1090 3 25.179 8.9925 8.9925 0 0 0
3343 3 5.3955 28.776 19.7835 0 0 0
837 3 28.776 17.985 32.373 0 0 0
3273 3 7.194 21.582 28.776 0 0 0
1657 3 21.582 21.582 14.388 0 0 0
2963 3 8.9925 32.373 1.7985 0 0 0
3332 3 5.3955 30.5745 7.194 0 0 0
3389 3 7.194 32.373 25.179 0 0 0
3695 3 1.7985 25.179 12.5895 0 0 0
860 3 26.9775 23.3805 14.388 0 0 0
1864 3 16.1865 5.3955 17.985 0 0 0
2347 3 12.5895 10.791 23.3805 0 0 0
1089 3 25.179 7.194 7.194 0 0 0
1513 3 21.582 7.194 28.776 0 0 0
2686 3 10.791 8.9925 5.3955 0 0 0
2437 3 14.388 17.985 32.373 0 0 0
2655 3 8.9925 3.597 12.5895 0 0 0
704 3 26.9775 8.9925 17.985 0 0 0
2526 3 14.388 30.5745 5.3955 0 0 0
2695 3 8.9925 7.194 12.5895 0 0 0
366 3 32.373 16.1865 5.3955 0 0 0
2226 3 14.388 1.7985 23.3805 0 0 0
2523 3 12.5895 28.776 1.7985 0 0 0
2550 3 14.388 30.5745 26.9775 0 0 0
3254 3 7.194 23.3805 12.5895 0 0 0
2859 3 8.9925 21.582 16.1865 0 0 0
2660 3 8.9925 5.3955 14.388 0 0 0
2893 3 10.791 25.179 10.791 0 0 0
2249 3 14.388 3.597 7.194 0 0 0
2114 3 17.985 26.9775 30.5745 0 0 0
2522 3 14.388 30.5745 1.7985 0 0 0
2929 3 10.791 28.776 7.194 0 0 0
1790 3 21.582 34.1715 26.9775 0 0 0
1177 3 25.179 14.388 14.388 0 0 0
1659 3 19.7835 21.582 16.1865 0 0 0
3129 3 7.194 10.791 7.194 0 0 0
3841 3 0.0 7.194 0.0 0 0 0
91 3 34.1715 14.388 19.7835 0 0 0
1676 3 19.7835 23.3805 28.776 0 0 0
1327 3 23.3805 28.776 5.3955 0 0 0
1008 3 23.3805 1.7985 3.597 0 0 0
3560 3 1.7985 12.5895 32.373 0 0 0
2137 3 17.985 28.776 14.388 0 0 0
2382 3 14.388 16.1865 19.7835 0 0 0
3507 3 1.7985 7.194 23.3805 0 0 0
2303 3 12.5895 7.194 19.7835 0 0 0
317 3 32.373 7.194 32.373 0 0 0
3747 3 1.7985 28.776 23.3805 0 0 0
237 3 32.373 0.0 32.373 0 0 0
864 3 26.9775 23.3805 17.985 0 0 0
354 3 32.373 12.5895 30.5745 0 0 0
361 3 32.373 14.388 0.0 0 0 0
2850 3 10.791 23.3805 8.9925 0 0 0
3108 3 5.3955 8.9925 21.582 0 0 0
3994 3 0.0 34.1715 23.3805 0 0 0
66 3 34.1715 12.5895 7.194 0 0 0
1821 3 17.985 0.0 17.985 0 0 0
3699 3 1.7985 25.179 16.1865 0 0 0
129 3 34.1715 21.582 16.1865 0 0 0
3883 3 0.0 14.388 3.597 0 0 0
206 3 32.373 1.7985 5.3955 0 0 0
457 3 32.373 21.582 14.388 0 0 0
2694 3 10.791 8.9925 12.5895 0 0 0
3027 3 5.3955 0.0 23.3805 0 0 0
633 3 28.776 0.0 28.776 0 0 0
1870 3 17.985 5.3955 26.9775 0 0 0
25 3 34.1715 3.597 8.9925 0 0 0
675 3 26.9775 3.597 30.5745 0 0 0
2856 3 8.9925 23.3805 10.791 0 0 0
2596 3 12.5895 34.1715 28.776 0 0 0
2396 3 12.5895 16.1865 28.776 0 0 0
1672 3 19.7835 23.3805 25.179 0 0 0
971 3 26.9775 32.373 8.9925 0 0 0
1666 3 21.582 23.3805 23.3805 0 0 0
2013 3 17.985 17.985 10.791 0 0 0
914 3 28.776 26.9775 30.5745 0 0 0
3098 3 7.194 8.9925 16.1865 0 0 0
3987 3 0.0 32.373 10.791 0 0 0
1368 3 23.3805 34.1715 3.597 0 0 0
1957 3 17.985 10.791 32.373 0 0 0
1996 3 16.1865 16.1865 28.776 0 0 0
2675 3 8.9925 3.597 30.5745 0 0 0
3687 3 1.7985 25.179 5.3955 0 0 0
3399 3 5.3955 32.373 34.1715 0 0 0
3315 3 5.3955 25.179 30.5745 0 0 0
3233 3 7.194 17.985 28.776 0 0 0
3262 3 7.194 23.3805 19.7835 0 0 0
2252 3 12.5895 5.3955 7.194 0 0 0
1633 3 21.582 17.985 28.776 0 0 0
1915 3 16.1865 7.194 30.5745 0 0 0
2384 3 12.5895 16.1865 17.985 0 0 0
3780 3 1.7985 34.1715 14.388 0 0 0
2573 3 14.388 32.373 10.791 0 0 0
2401 3 14.388 17.985 0.0 0 0 0
397 3 32.373 14.388 32.373 0 0 0
3698 3 3.597 26.9775 16.1865 0 0 0
2018 3 17.985 19.7835 16.1865 0 0 0
519 3 30.5745 25.179 34.1715 0 0 0
2614 3 10.791 1.7985 12.5895 0 0 0
234 3 32.373 1.7985 30.5745 0 0 0
2717 3 10.791 7.194 32.373 0 0 0
1482 3 21.582 8.9925 1.7985 0 0 0
2463 3 12.5895 21.582 19.7835 0 0 0
3656 3 1.7985 23.3805 10.791 0 0 0
164 3 34.1715 30.5745 3.597 0 0 0
2619 3 8.9925 0.0 16.1865 0 0 0
1532 3 19.7835 12.5895 7.194 0 0 0
3198 3 7.194 16.1865 34.1715 0 0 0
3422 3 3.597 1.7985 19.7835 0 0 0
2994 3 10.791 34.1715 30.5745 0 0 0
126 3 34.1715 23.3805 7.194 0 0 0
1313 3 25.179 25.179 28.776 0 0 0
3851 3 0.0 7.194 17.985 0 0 0
3437 3 3.597 0.0 32.373 0 0 0
3285 3 7.194 25.179 3.597 0 0 0
2310 3 14.388 8.9925 26.9775 0 0 0
569 3 32.373 32.373 7.194 0 0 0
684 3 26.9775 8.9925 0.0 0 0 0
2069 3 17.985 21.582 25.179 0 0 0
3905 3 0.0 17.985 7.194 0 0 0
2106 3 17.985 26.9775 23.3805 0 0 0
2340 3 12.5895 12.5895 14.388 0 0 0
2233 3 14.388 0.0 28.776 0 0 0
499 3 30.5745 25.179 16.1865 0 0 0
1930 3 17.985 12.5895 8.9925 0 0 0
1404 3 19.7835 1.7985 0.0 0 0 0
3809 3 0.0 0.0 14.388 0 0 0
3340 3 5.3955 30.5745 14.388 0 0 0
937 3 28.776 28.776 14.388 0 0 0
1600 3 19.7835 16.1865 32.373 0 0 0
1213 3 25.179 17.985 10.791 0 0 0
816 3 26.9775 19.7835 10.791 0 0 0
809 3 28.776 17.985 7.194 0 0 0
1939 3 16.1865 10.791 16.1865 0 0 0
3192 3 5.3955 16.1865 25.179 0 0 0
438 3 32.373 19.7835 34.1715 0 0 0
2648 3 8.9925 5.3955 3.597 0 0 0
1705 3 21.582 25.179 21.582 0 0 0
2419 3 12.5895 17.985 16.1865 0 0 0
3308 3 5.3955 26.9775 21.582 0 0 0
898 3 28.776 26.9775 16.1865 0 0 0
3947 3 0.0 25.179 10.791 0 0 0
2055 3 16.1865 21.582 12.5895 0 0 0
2589 3 14.388 32.373 25.179 0 0 0
2803 3 8.9925 17.985 1.7985 0 0 0
524 3 30.5745 30.5745 0.0 0 0 0
1631 3 19.7835 17.985 26.9775 0 0 0
2651 3 8.9925 3.597 8.9925 0 0 0
3908 3 0.0 19.7835 12.5895 0 0 0
2762 3 10.791 16.1865 1.7985 0 0 0
3901 3 0.0 17.985 0.0 0 0 0
792 3 26.9775 16.1865 25.179 0 0 0
2494 3 14.388 26.9775 12.5895 0 0 0
1646 3 21.582 23.3805 5.3955 0 0 0
217 3 32.373 0.0 14.388 0 0 0
2051 3 16.1865 21.582 8.9925 0 0 0
1871 3 16.1865 3.597 26.9775 0 0 0
1718 3 21.582 26.9775 34.1715 0 0 0
3718 3 3.597 26.9775 34.1715 0 0 0
2328 3 12.5895 12.5895 3.597 0 0 0
3835 3 0.0 3.597 25.179 0 0 0
687 3 26.9775 7.194 5.3955 0 0 0
3130 3 7.194 12.5895 8.9925 0 0 0
930 3 28.776 30.5745 8.9925 0 0 0
1168 3 23.3805 16.1865 3.597 0 0 0
1127 3 23.3805 10.791 5.3955 0 0 0
3381 3 7.194 32.373 17.985 0 0 0
3025 3 7.194 0.0 21.582 0 0 0
3860 3 0.0 8.9925 34.1715 0 0 0
301 3 32.373 7.194 17.985 0 0 0
1196 3 23.3805 16.1865 28.776 0 0 0
2278 3 14.388 5.3955 34.1715 0 0 0
268 3 30.5745 5.3955 21.582 0 0 0
1899 3 16.1865 7.194 16.1865 0 0 0
2982 3 10.791 34.1715 19.7835 0 0 0
2426 3 14.388 19.7835 23.3805 0 0 0
1176 3 23.3805 16.1865 10.791 0 0 0
653 3 28.776 3.597 10.791 0 0 0
1050 3 25.179 5.3955 8.9925 0 0 0
1459 3 19.7835 3.597 16.1865 0 0 0
3225 3 7.194 17.985 21.582 0 0 0
256 3 30.5745 5.3955 10.791 0 0 0
1317 3 25.179 25.179 32.373 0 0 0
1179 3 23.3805 14.388 16.1865 0 0 0
2725 3 10.791 10.791 3.597 0 0 0
2318 3 14.388 8.9925 34.1715 0 0 0
1701 3 21.582 25.179 17.985 0 0 0
2847 3 8.9925 21.582 5.3955 0 0 0
3671 3 1.7985 21.582 26.9775 0 0 0
330 3 32.373 12.5895 8.9925 0 0 0
2339 3 12.5895 10.791 16.1865 0 0 0
3026 3 7.194 1.7985 23.3805 0 0 0
3690 3 3.597 26.9775 8.9925 0 0 0
2498 3 14.388 26.9775 16.1865 0 0 0
2204 3 12.5895 1.7985 0.0 0 0 0
437 3 32.373 17.985 32.373 0 0 0
1740 3 19.7835 30.5745 14.388 0 0 0
1593 3 21.582 14.388 28.776 0 0 0
2640 3 8.9925 1.7985 32.373 0 0 0
3448 3 1.7985 5.3955 3.597 0 0 0
3715 3 1.7985 25.179 30.5745 0 0 0
312 3 30.5745 8.9925 25.179 0 0 0
945 3 28.776 28.776 21.582 0 0 0
2958 3 10.791 30.5745 34.1715 0 0 0
1552 3 19.7835 12.5895 25.179 0 0 0
440 3 30.5745 19.7835 32.373 0 0 0
3790 3 3.597 34.1715 26.9775 0 0 0
2033 3 17.985 17.985 28.776 0 0 0
869 3 28.776 21.582 25.179 0 0 0
2274 3 14.388 5.3955 30.5745 0 0 0
2748 3 8.9925 12.5895 21.582 0 0 0
727 3 26.9775 10.791 5.3955 0 0 0
450 3 32.373 23.3805 8.9925 0 0 0
3647 3 1.7985 21.582 5.3955 0 0 0
2421 3 14.388 17.985 17.985 0 0 0
1217 3 25.179 17.985 14.388 0 0 0
2380 3 12.5895 16.1865 14.388 0 0 0
3405 3 3.597 0.0 3.597 0 0 0
3614 3 3.597 19.7835 12.5895 0 0 0
514 3 32.373 26.9775 30.5745 0 0 0
3991 3 0.0 32.373 17.985 0 0 0
585 3 32.373 32.373 21.582 0 0 0
116 3 34.1715 19.7835 25.179 0 0 0
3922 3 0.0 23.3805 1.7985 0 0 0
2849 3 10.791 21.582 7.194 0 0 0
198 3 34.1715 34.1715 28.776 0 0 0
3729 3 3.597 28.776 7.194 0 0 0
546 3 32.373 30.5745 23.3805 0 0 0
3184 3 5.3955 16.1865 17.985 0 0 0
400 3 30.5745 16.1865 32.373 0 0 0
2413 3 14.388 17.985 10.791 0 0 0
128 3 34.1715 23.3805 10.791 0 0 0
795 3 26.9775 14.388 30.5745 0 0 0
1060 3 23.3805 5.3955 14.388 0 0 0
3417 3 3.597 0.0 14.388 0 0 0
1742 3 21.582 30.5745 19.7835 0 0 0
1856 3 16.1865 5.3955 10.791 0 0 0
3246 3 7.194 23.3805 5.3955 0 0 0
1254 3 25.179 23.3805 12.5895 0 0 0
1497 3 21.582 7.194 14.388 0 0 0
1400 3 23.3805 34.1715 32.373 0 0 0
2353 3 14.388 10.791 28.776 0 0 0
1494 3 21.582 8.9925 12.5895 0 0 0
992 3 26.9775 34.1715 25.179 0 0 0
82 3 34.1715 16.1865 0.0 0 0 0
985 3 28.776 32.373 21.582 0 0 0
2260 3 12.5895 5.3955 14.388 0 0 0
2485 3 14.388 25.179 3.597 0 0 0
1869 3 17.985 3.597 25.179 0 0 0
1307 3 23.3805 25.179 23.3805 0 0 0
3644 3 1.7985 23.3805 0.0 0 0 0
594 3 32.373 34.1715 30.5745 0 0 0
1686 3 21.582 26.9775 5.3955 0 0 0
2545 3 14.388 28.776 21.582 0 0 0
2975 3 8.9925 32.373 12.5895 0 0 0
571 3 30.5745 32.373 8.9925 0 0 0
3977 3 0.0 28.776 28.776 0 0 0
1212 3 23.3805 19.7835 7.194 0 0 0
3493 3 3.597 7.194 10.791 0 0 0
974 3 28.776 34.1715 12.5895 0 0 0
3369 3 7.194 32.373 7.194 0 0 0
2852 3 8.9925 23.3805 7.194 0 0 0
766 3 28.776 16.1865 5.3955 0 0 0
2790 3 10.791 16.1865 26.9775 0 0 0
1182 3 25.179 16.1865 19.7835 0 0 0
94 3 34.1715 16.1865 21.582 0 0 0
1731 3 19.7835 28.776 8.9925 0 0 0
2336 3 12.5895 12.5895 10.791 0 0 0
2916 3 8.9925 26.9775 28.776 0 0 0
3035 3 5.3955 0.0 30.5745 0 0 0
2155 3 16.1865 28.776 30.5745 0 0 0
2823 3 8.9925 17.985 19.7835 0 0 0
3504 3 1.7985 8.9925 17.985 0 0 0
1623 3 19.7835 17.985 19.7835 0 0 0
21 3 34.1715 3.597 1.7985 0 0 0
605 3 28.776 0.0 3.597 0 0 0
1509 3 21.582 7.194 25.179 0 0 0
3983 3 0.0 32.373 3.597 0 0 0
1175 3 23.3805 14.388 12.5895 0 0 0
648 3 26.9775 5.3955 3.597 0 0 0
763 3 26.9775 14.388 1.7985 0 0 0
2759 3 8.9925 10.791 34.1715 0 0 0
1121 3 25.179 10.791 0.0 0 0 0
3627 3 1.7985 17.985 23.3805 0 0 0
71 3 34.1715 10.791 19.7835 0 0 0
983 3 26.9775 32.373 19.7835 0 0 0
319 3 30.5745 7.194 34.1715 0 0 0
1971 3 16.1865 14.388 8.9925 0 0 0
2113 3 17.985 25.179 28.776 0 0 0
3208 3 5.3955 19.7835 3.597 0 0 0
1073 3 25.179 3.597 28.776 0 0 0
1390 3 25.179 34.1715 26.9775 0 0 0
349 3 32.373 10.791 25.179 0 0 0
893 3 28.776 25.179 10.791 0 0 0
1559 3 19.7835 10.791 34.1715 0 0 0
1472 3 19.7835 5.3955 25.179 0 0 0
1440 3 19.7835 1.7985 32.373 0 0 0
2841 3 10.791 21.582 0.0 0 0 0
2720 3 8.9925 8.9925 32.373 0 0 0
2869 3 10.791 21.582 25.179 0 0 0
771 3 26.9775 14.388 8.9925 0 0 0
3611 3 1.7985 17.985 8.9925 0 0 0
3064 3 5.3955 5.3955 17.985 0 0 0
1534 3 21.582 12.5895 12.5895 0 0 0
3261 3 7.194 21.582 17.985 0 0 0
3969 3 0.0 28.776 14.388 0 0 0
3818 3 0.0 1.7985 30.5745 0 0 0
1956 3 16.1865 12.5895 28.776 0 0 0
3089 3 7.194 7.194 7.194 0 0 0
1363 3 23.3805 32.373 1.7985 0 0 0
1572 3 19.7835 16.1865 7.194 0 0 0
156 3 34.1715 26.9775 25.179 0 0 0
2326 3 14.388 12.5895 5.3955 0 0 0
299 3 30.5745 7.194 16.1865 0 0 0
825 3 28.776 17.985 21.582 0 0 0
710 3 28.776 8.9925 26.9775 0 0 0
504 3 30.5745 26.9775 17.985 0 0 0
1787 3 19.7835 32.373 23.3805 0 0 0
3240 3 5.3955 19.7835 32.373 0 0 0
1937 3 17.985 10.791 14.388 0 0 0
2912 3 8.9925 26.9775 25.179 0 0 0
3961 3 0.0 28.776 0.0 0 0 0
2898 3 10.791 26.9775 16.1865 0 0 0
1712 3 19.7835 26.9775 25.179 0 0 0
3070 3 7.194 5.3955 26.9775 0 0 0
3161 3 7.194 14.388 0.0 0 0 0
920 3 26.9775 26.9775 32.373 0 0 0
1880 3 16.1865 5.3955 32.373 0 0 0
1310 3 25.179 26.9775 26.9775 0 0 0
3518 3 3.597 8.9925 34.1715 0 0 0
3244 3 5.3955 23.3805 0.0 0 0 0
2076 3 16.1865 23.3805 28.776 0 0 0
3471 3 1.7985 3.597 26.9775 0 0 0
1991 3 16.1865 14.388 26.9775 0 0 0
1993 3 17.985 14.388 28.776 0 0 0
167 3 34.1715 28.776 12.5895 0 0 0
395 3 30.5745 14.388 30.5745 0 0 0
3667 3 1.7985 21.582 23.3805 0 0 0
1185 3 25.179 14.388 21.582 0 0 0
1982 3 17.985 16.1865 19.7835 0 0 0
1609 3 21.582 17.985 7.194 0 0 0
2360 3 12.5895 12.5895 32.373 0 0 0
3693 3 3.597 25.179 10.791 0 0 0
1655 3 19.7835 21.582 12.5895 0 0 0
3327 3 5.3955 28.776 5.3955 0 0 0
1756 3 19.7835 30.5745 28.776 0 0 0
2950 3 10.791 30.5745 26.9775 0 0 0
624 3 26.9775 1.7985 17.985 0 0 0
606 3 28.776 1.7985 5.3955 0 0 0
2706 3 10.791 8.9925 23.3805 0 0 0
3421 3 3.597 0.0 17.985 0 0 0
2436 3 12.5895 19.7835 28.776 0 0 0
667 3 26.9775 3.597 23.3805 0 0 0
220 3 30.5745 1.7985 14.388 0 0 0
3866 3 0.0 12.5895 8.9925 0 0 0
3370 3 7.194 34.1715 8.9925 0 0 0
692 3 26.9775 8.9925 7.194 0 0 0
2059 3 16.1865 21.582 16.1865 0 0 0
3403 3 1.7985 0.0 1.7985 0 0 0
588 3 30.5745 34.1715 21.582 0 0 0
769 3 28.776 14.388 7.194 0 0 0
1311 3 23.3805 25.179 26.9775 0 0 0
56 3 34.1715 8.9925 25.179 0 0 0
2366 3 14.388 16.1865 5.3955 0 0 0
2804 3 8.9925 19.7835 0.0 0 0 0
3276 3 5.3955 23.3805 28.776 0 0 0
2123 3 16.1865 28.776 1.7985 0 0 0
3486 3 3.597 8.9925 5.3955 0 0 0
261 3 32.373 3.597 17.985 0 0 0
2156 4 16.1865 30.5745 28.776 0 0 0
1253 4 25.179 21.582 10.791 0 0 0
2153 4 17.985 28.776 28.776 0 0 0
2951 4 8.9925 28.776 26.9775 0 0 0
3906 4 0.0 19.7835 8.9925 0 0 0
3651 4 1.7985 21.582 8.9925 0 0 0
2337 4 14.388 10.791 14.388 0 0 0
849 4 28.776 21.582 7.194 0 0 0
754 4 28.776 12.5895 30.5745 0 0 0
1136 4 23.3805 12.5895 10.791 0 0 0
2191 4 16.1865 32.373 26.9775 0 0 0
3271 4 5.3955 21.582 26.9775 0 0 0
814 4 28.776 19.7835 12.5895 0 0 0
1544 4 19.7835 12.5895 17.985 0 0 0
1149 4 25.179 10.791 25.179 0 0 0
2235 4 12.5895 0.0 30.5745 0 0 0
2020 4 16.1865 19.7835 14.388 0 0 0
444 4 30.5745 23.3805 0.0 0 0 0
2371 4 12.5895 14.388 8.9925 0 0 0
476 4 30.5745 23.3805 28.776 0 0 0
3021 4 7.194 0.0 17.985 0 0 0
3885 4 0.0 14.388 7.194 0 0 0
698 4 28.776 8.9925 16.1865 0 0 0
1333 4 25.179 28.776 10.791 0 0 0
3414 4 3.597 1.7985 12.5895 0 0 0
288 4 30.5745 8.9925 3.597 0 0 0
2441 4 14.388 21.582 0.0 0 0 0
1384 4 23.3805 34.1715 17.985 0 0 0
3135 4 5.3955 10.791 12.5895 0 0 0
1778 4 21.582 34.1715 16.1865 0 0 0
3789 4 3.597 32.373 25.179 0 0 0
2827 4 8.9925 17.985 23.3805 0 0 0
2373 4 14.388 14.388 10.791 0 0 0
2606 4 10.791 1.7985 5.3955 0 0 0
15 4 34.1715 0.0 26.9775 0 0 0
3862 4 0.0 12.5895 1.7985 0 0 0
507 4 30.5745 25.179 23.3805 0 0 0
922 4 28.776 30.5745 1.7985 0 0 0
568 4 30.5745 34.1715 3.597 0 0 0
2795 4 8.9925 14.388 30.5745 0 0 0
2721 4 10.791 10.791 0.0 0 0 0
214 4 32.373 1.7985 12.5895 0 0 0
1618 4 21.582 19.7835 16.1865 0 0 0
1172 4 23.3805 16.1865 7.194 0 0 0
1677 4 21.582 21.582 32.373 0 0 0
2456 4 12.5895 23.3805 10.791 0 0 0
3533 4 3.597 10.791 10.791 0 0 0
700 4 26.9775 8.9925 14.388 0 0 0
3221 4 7.194 17.985 17.985 0 0 0
3970 4 0.0 30.5745 16.1865 0 0 0
2547 4 12.5895 28.776 23.3805 0 0 0
915 4 26.9775 25.179 30.5745 0 0 0
2853 4 10.791 21.582 10.791 0 0 0
3680 4 1.7985 23.3805 32.373 0 0 0
2224 4 12.5895 1.7985 17.985 0 0 0
3550 4 3.597 12.5895 26.9775 0 0 0
2949 4 10.791 28.776 25.179 0 0 0
3541 4 3.597 10.791 17.985 0 0 0
3804 4 0.0 1.7985 5.3955 0 0 0
2493 4 14.388 25.179 10.791 0 0 0
2566 4 14.388 34.1715 5.3955 0 0 0
2562 4 14.388 34.1715 1.7985 0 0 0
2351 4 12.5895 10.791 26.9775 0 0 0
2634 4 10.791 1.7985 30.5745 0 0 0
1914 4 17.985 8.9925 30.5745 0 0 0
668 4 26.9775 5.3955 21.582 0 0 0
2729 4 10.791 10.791 7.194 0 0 0
193 4 34.1715 32.373 23.3805 0 0 0
1866 4 17.985 5.3955 23.3805 0 0 0
3531 4 1.7985 10.791 8.9925 0 0 0
343 4 30.5745 10.791 19.7835 0 0 0
3297 4 7.194 25.179 14.388 0 0 0
1165 4 25.179 14.388 3.597 0 0 0
2496 4 12.5895 26.9775 10.791 0 0 0
2161 4 17.985 32.373 0.0 0 0 0
2192 4 16.1865 34.1715 25.179 0 0 0
3264 4 5.3955 23.3805 17.985 0 0 0
157 4 34.1715 25.179 30.5745 0 0 0
1985 4 17.985 14.388 21.582 0 0 0
2389 4 14.388 14.388 25.179 0 0 0
2846 4 10.791 23.3805 5.3955 0 0 0
3536 4 1.7985 12.5895 10.791 0 0 0
2809 4 10.791 17.985 7.194 0 0 0
553 4 32.373 28.776 28.776 0 0 0
982 4 28.776 34.1715 19.7835 0 0 0
908 4 26.9775 26.9775 21.582 0 0 0
2862 4 10.791 23.3805 19.7835 0 0 0
2182 4 17.985 34.1715 19.7835 0 0 0
2568 4 12.5895 34.1715 3.597 0 0 0
2767 4 8.9925 14.388 5.3955 0 0 0
1452 4 19.7835 5.3955 7.194 0 0 0
1791 4 19.7835 32.373 26.9775 0 0 0
2101 4 17.985 25.179 17.985 0 0 0
1606 4 21.582 19.7835 5.3955 0 0 0
3237 4 7.194 17.985 32.373 0 0 0
3058 4 7.194 5.3955 16.1865 0 0 0
3266 4 7.194 23.3805 23.3805 0 0 0
2581 4 14.388 32.373 17.985 0 0 0
556 4 30.5745 30.5745 28.776 0 0 0
531 4 30.5745 28.776 8.9925 0 0 0
2989 4 10.791 32.373 25.179 0 0 0
2871 4 8.9925 21.582 26.9775 0 0 0
2672 4 8.9925 5.3955 25.179 0 0 0
2937 4 10.791 28.776 14.388 0 0 0
1797 4 21.582 32.373 32.373 0 0 0
3481 4 3.597 7.194 0.0 0 0 0
2539 4 12.5895 28.776 16.1865 0 0 0
2954 4 10.791 30.5745 30.5745 0 0 0
3726 4 3.597 30.5745 5.3955 0 0 0
549 4 32.373 28.776 25.179 0 0 0
3657 4 3.597 21.582 14.388 0 0 0
3736 4 1.7985 30.5745 10.791 0 0 0
3707 4 1.7985 25.179 23.3805 0 0 0
3915 4 0.0 17.985 25.179 0 0 0
493 4 32.373 25.179 10.791 0 0 0
1824 4 16.1865 1.7985 17.985 0 0 0
1209 4 25.179 17.985 7.194 0 0 0
3019 4 5.3955 0.0 16.1865 0 0 0
1481 4 21.582 7.194 0.0 0 0 0
2354 4 14.388 12.5895 30.5745 0 0 0
2269 4 14.388 3.597 25.179 0 0 0
1586 4 21.582 16.1865 23.3805 0 0 0
2889 4 10.791 25.179 7.194 0 0 0
3670 4 3.597 23.3805 26.9775 0 0 0
1312 4 23.3805 26.9775 25.179 0 0 0
1577 4 21.582 14.388 14.388 0 0 0
1103 4 23.3805 7.194 19.7835 0 0 0
1581 4 21.582 14.388 17.985 0 0 0
3701 4 3.597 25.179 17.985 0 0 0
3372 4 5.3955 34.1715 7.194 0 0 0
1266 4 25.179 23.3805 23.3805 0 0 0
2816 4 8.9925 19.7835 10.791 0 0 0
2248 4 12.5895 5.3955 3.597 0 0 0
800 4 26.9775 16.1865 32.373 0 0 0
2714 4 10.791 8.9925 30.5745 0 0 0
662 4 28.776 5.3955 19.7835 0 0 0
2096 4 16.1865 26.9775 10.791 0 0 0
1442 4 21.582 5.3955 1.7985 0 0 0
1753 4 21.582 28.776 28.776 0 0 0
1818 4 17.985 1.7985 16.1865 0 0 0
2609 4 10.791 0.0 7.194 0 0 0
186 4 34.1715 34.1715 7.194 0 0 0
1539 4 19.7835 10.791 16.1865 0 0 0
2683 4 8.9925 7.194 1.7985 0 0 0
3825 4 0.0 3.597 7.194 0 0 0
2872 4 8.9925 23.3805 25.179 0 0 0
2021 4 17.985 17.985 17.985 0 0 0
89 4 34.1715 14.388 16.1865 0 0 0
1547 4 19.7835 10.791 23.3805 0 0 0
1018 4 25.179 1.7985 16.1865 0 0 0
580 4 30.5745 34.1715 14.388 0 0 0
1130 4 25.179 12.5895 8.9925 0 0 0
2091 4 16.1865 25.179 8.9925 0 0 0
1405 4 21.582 0.0 3.597 0 0 0
708 4 26.9775 8.9925 21.582 0 0 0
2427 4 12.5895 17.985 23.3805 0 0 0
1819 4 16.1865 0.0 16.1865 0 0 0
469 4 32.373 21.582 25.179 0 0 0
1865 4 17.985 3.597 21.582 0 0 0
328 4 30.5745 12.5895 3.597 0 0 0
3368 4 5.3955 34.1715 3.597 0 0 0
3750 4 3.597 30.5745 26.9775 0 0 0
2863 4 8.9925 21.582 19.7835 0 0 0
202 4 32.373 1.7985 1.7985 0 0 0
3892 4 0.0 16.1865 19.7835 0 0 0
1789 4 21.582 32.373 25.179 0 0 0
2037 4 17.985 17.985 32.373 0 0 0
117 4 34.1715 17.985 30.5745 0 0 0
838 4 28.776 19.7835 34.1715 0 0 0
1393 4 25.179 32.373 28.776 0 0 0
341 4 32.373 10.791 17.985 0 0 0
761 4 28.776 14.388 0.0 0 0 0
2056 4 16.1865 23.3805 10.791 0 0 0
2108 4 16.1865 26.9775 21.582 0 0 0
104 4 34.1715 19.7835 3.597 0 0 0
2232 4 12.5895 1.7985 25.179 0 0 0
192 4 34.1715 34.1715 17.985 0 0 0
2128 4 16.1865 30.5745 3.597 0 0 0
890 4 28.776 26.9775 8.9925 0 0 0
2910 4 10.791 26.9775 26.9775 0 0 0
3511 4 1.7985 7.194 26.9775 0 0 0
1012 4 23.3805 1.7985 7.194 0 0 0
27 4 34.1715 3.597 12.5895 0 0 0
2124 4 16.1865 30.5745 0.0 0 0 0
3799 4 1.7985 32.373 34.1715 0 0 0
953 4 28.776 28.776 28.776 0 0 0
1749 4 21.582 28.776 25.179 0 0 0
1804 4 16.1865 1.7985 0.0 0 0 0
3432 4 1.7985 1.7985 25.179 0 0 0
737 4 28.776 10.791 14.388 0 0 0
3121 4 7.194 10.791 0.0 0 0 0
1268 4 23.3805 23.3805 21.582 0 0 0
3587 4 1.7985 14.388 23.3805 0 0 0
3954 4 0.0 26.9775 23.3805 0 0 0
1766 4 21.582 34.1715 5.3955 0 0 0
753 4 28.776 10.791 28.776 0 0 0
1108 4 23.3805 8.9925 21.582 0 0 0
3084 4 5.3955 8.9925 0.0 0 0 0
3473 4 3.597 3.597 28.776 0 0 0
3040 4 5.3955 1.7985 32.373 0 0 0
866 4 28.776 23.3805 23.3805 0 0 0
3723 4 1.7985 28.776 1.7985 0 0 0
1469 4 21.582 3.597 25.179 0 0 0
987 4 26.9775 32.373 23.3805 0 0 0
482 4 32.373 26.9775 1.7985 0 0 0
613 4 28.776 0.0 10.791 0 0 0
3574 4 3.597 16.1865 12.5895 0 0 0
1917 4 17.985 7.194 32.373 0 0 0
1954 4 17.985 12.5895 30.5745 0 0 0
2459 4 12.5895 21.582 16.1865 0 0 0
118 4 34.1715 19.7835 28.776 0 0 0
1561 4 21.582 14.388 0.0 0 0 0
3140 4 5.3955 12.5895 14.388 0 0 0
1000 4 26.9775 34.1715 32.373 0 0 0
3325 4 7.194 28.776 3.597 0 0 0
3716 4 1.7985 26.9775 28.776 0 0 0
2140 4 16.1865 30.5745 14.388 0 0 0
2390 4 14.388 16.1865 26.9775 0 0 0
2649 4 10.791 3.597 7.194 0 0 0
1550 4 21.582 12.5895 26.9775 0 0 0
3331 4 5.3955 28.776 8.9925 0 0 0
155 4 34.1715 25.179 26.9775 0 0 0
777 4 28.776 14.388 14.388 0 0 0
3483 4 1.7985 7.194 1.7985 0 0 0
1969 4 17.985 14.388 7.194 0 0 0
2044 4 16.1865 23.3805 0.0 0 0 0
2316 4 12.5895 8.9925 28.776 0 0 0
2095 4 16.1865 25.179 12.5895 0 0 0
991 4 26.9775 32.373 26.9775 0 0 0
222 4 32.373 1.7985 19.7835 0 0 0
1144 4 23.3805 12.5895 17.985 0 0 0
158 4 34.1715 26.9775 28.776 0 0 0
290 4 32.373 8.9925 8.9925 0 0 0
2578 4 14.388 34.1715 16.1865 0 0 0
3072 4 5.3955 5.3955 25.179 0 0 0
2211 4 12.5895 0.0 8.9925 0 0 0
2046 4 17.985 23.3805 5.3955 0 0 0
1564 4 19.7835 16.1865 0.0 0 0 0
2454 4 14.388 23.3805 12.5895 0 0 0
2814 4 10.791 19.7835 12.5895 0 0 0
1781 4 21.582 32.373 17.985 0 0 0
717 4 28.776 7.194 32.373 0 0 0
73 4 34.1715 10.791 23.3805 0 0 0
1630 4 21.582 19.7835 26.9775 0 0 0
3597 4 3.597 14.388 32.373 0 0 0
257 4 32.373 3.597 14.388 0 0 0
626 4 28.776 1.7985 23.3805 0 0 0
2708 4 8.9925 8.9925 21.582 0 0 0
2832 4 8.9925 19.7835 25.179 0 0 0
1428 4 19.7835 1.7985 21.582 0 0 0
367 4 30.5745 14.388 5.3955 0 0 0
2023 4 16.1865 17.985 19.7835 0 0 0
871 4 26.9775 21.582 26.9775 0 0 0
3304 4 5.3955 26.9775 17.985 0 0 0
439 4 30.5745 17.985 34.1715 0 0 0
3508 4 1.7985 8.9925 21.582 0 0 0
1591 4 19.7835 14.388 26.9775 0 0 0
265 4 32.373 3.597 21.582 0 0 0
3003 4 5.3955 0.0 1.7985 0 0 0
1058 4 25.179 5.3955 16.1865 0 0 0
948 4 26.9775 30.5745 21.582 0 0 0
445 4 32.373 21.582 3.597 0 0 0
3909 4 0.0 17.985 14.388 0 0 0
2364 4 12.5895 16.1865 0.0 0 0 0
2840 4 8.9925 19.7835 32.373 0 0 0
1283 4 23.3805 25.179 1.7985 0 0 0
760 4 26.9775 12.5895 32.373 0 0 0
306 4 32.373 8.9925 23.3805 0 0 0
3425 4 3.597 0.0 21.582 0 0 0
2728 4 8.9925 12.5895 3.597 0 0 0
861 4 28.776 21.582 17.985 0 0 0
619 4 26.9775 0.0 16.1865 0 0 0
435 4 30.5745 17.985 30.5745 0 0 0
3248 4 5.3955 23.3805 3.597 0 0 0
2976 4 8.9925 34.1715 10.791 0 0 0
67 4 34.1715 10.791 12.5895 0 0 0
3879 4 0.0 10.791 32.373 0 0 0
1980 4 16.1865 16.1865 14.388 0 0 0
1280 4 23.3805 23.3805 32.373 0 0 0
796 4 26.9775 16.1865 28.776 0 0 0
230 4 32.373 1.7985 26.9775 0 0 0
3238 4 7.194 19.7835 34.1715 0 0 0
3558 4 3.597 12.5895 34.1715 0 0 0
1889 4 17.985 7.194 7.194 0 0 0
152 4 34.1715 26.9775 17.985 0 0 0
2742 4 10.791 12.5895 19.7835 0 0 0
2890 4 10.791 26.9775 8.9925 0 0 0
3096 4 5.3955 8.9925 10.791 0 0 0
1976 4 16.1865 16.1865 10.791 0 0 0
1635 4 19.7835 17.985 30.5745 0 0 0
2097 4 17.985 25.179 14.388 0 0 0
1531 4 19.7835 10.791 8.9925 0 0 0
3926 4 0.0 23.3805 8.9925 0 0 0
2365 4 14.388 14.388 3.597 0 0 0
1170 4 25.179 16.1865 8.9925 0 0 0
2764 4 8.9925 16.1865 0.0 0 0 0
3229 4 7.194 17.985 25.179 0 0 0
3833 4 0.0 3.597 21.582 0 0 0
3433 4 3.597 0.0 28.776 0 0 0
956 4 26.9775 30.5745 28.776 0 0 0
1432 4 19.7835 1.7985 25.179 0 0 0
2501 4 14.388 25.179 17.985 0 0 0
3786 4 3.597 34.1715 23.3805 0 0 0
3410 4 3.597 1.7985 8.9925 0 0 0
2807 4 8.9925 17.985 5.3955 0 0 0
3324 4 5.3955 30.5745 0.0 0 0 0
285 4 32.373 7.194 3.597 0 0 0
1201 4 25.179 17.985 0.0 0 0 0
3741 4 3.597 28.776 17.985 0 0 0
579 4 30.5745 32.373 16.1865 0 0 0
1793 4 21.582 32.373 28.776 0 0 0
573 4 32.373 32.373 10.791 0 0 0
1826 4 17.985 1.7985 23.3805 0 0 0
2379 4 12.5895 14.388 16.1865 0 0 0
1836 4 16.1865 1.7985 28.776 0 0 0
3426 4 3.597 1.7985 23.3805 0 0 0
2445 4 14.388 21.582 3.597 0 0 0
191 4 34.1715 32.373 19.7835 0 0 0
138 4 34.1715 23.3805 28.776 0 0 0
1910 4 17.985 8.9925 26.9775 0 0 0
3395 4 5.3955 32.373 30.5745 0 0 0
1615 4 19.7835 17.985 12.5895 0 0 0
1389 4 25.179 32.373 25.179 0 0 0
2064 4 16.1865 23.3805 17.985 0 0 0
2070 4 17.985 23.3805 26.9775 0 0 0
3821 4 0.0 3.597 0.0 0 0 0
2295 4 12.5895 7.194 12.5895 0 0 0
3270 4 7.194 23.3805 26.9775 0 0 0
3020 4 5.3955 1.7985 14.388 0 0 0
1733 4 21.582 28.776 10.791 0 0 0
3 4 34.1715 0.0 5.3955 0 0 0
926 4 28.776 30.5745 5.3955 0 0 0
3754 4 3.597 30.5745 30.5745 0 0 0
342 4 32.373 12.5895 19.7835 0 0 0
521 4 32.373 28.776 0.0 0 0 0
1151 4 23.3805 10.791 26.9775 0 0 0
3378 4 7.194 34.1715 16.1865 0 0 0
2431 4 12.5895 17.985 26.9775 0 0 0
3782 4 3.597 34.1715 19.7835 0 0 0
142 4 34.1715 26.9775 0.0 0 0 0
629 4 28.776 0.0 25.179 0 0 0
889 4 28.776 25.179 7.194 0 0 0
1665 4 21.582 21.582 21.582 0 0 0
2712 4 8.9925 8.9925 25.179 0 0 0
55 4 34.1715 7.194 26.9775 0 0 0
386 4 32.373 16.1865 23.3805 0 0 0
846 4 28.776 23.3805 5.3955 0 0 0
786 4 28.776 16.1865 23.3805 0 0 0
1961 4 17.985 14.388 0.0 0 0 0
2993 4 10.791 32.373 28.776 0 0 0
1637 4 21.582 17.985 32.373 0 0 0
3912 4 0.0 19.7835 19.7835 0 0 0
2745 4 10.791 10.791 21.582 0 0 0
3334 4 7.194 30.5745 12.5895 0 0 0
3636 4 1.7985 19.7835 28.776 0 0 0
3986 4 0.0 34.1715 8.9925 0 0 0
7 4 34.1715 0.0 12.5895 0 0 0
2674 4 10.791 5.3955 30.5745 0 0 0
3890 4 0.0 16.1865 16.1865 0 0 0
721 4 28.776 10.791 0.0 0 0 0
2444 4 12.5895 23.3805 0.0 0 0 0
3624 4 1.7985 19.7835 17.985 0 0 0
2962 4 10.791 34.1715 1.7985 0 0 0
2646 4 10.791 5.3955 5.3955 0 0 0
1351 4 23.3805 28.776 26.9775 0 0 0
3141 4 7.194 10.791 17.985 0 0 0
555 4 30.5745 28.776 30.5745 0 0 0
669 4 28.776 3.597 25.179 0 0 0
1064 4 23.3805 5.3955 17.985 0 0 0
2243 4 12.5895 3.597 1.7985 0 0 0
1566 4 21.582 16.1865 5.3955 0 0 0
3292 4 5.3955 26.9775 7.194 0 0 0
358 4 32.373 12.5895 34.1715 0 0 0
1437 4 21.582 0.0 32.373 0 0 0
1150 4 25.179 12.5895 26.9775 0 0 0
1714 4 21.582 26.9775 30.5745 0 0 0
1088 4 23.3805 8.9925 3.597 0 0 0
3748 4 1.7985 30.5745 21.582 0 0 0
373 4 32.373 14.388 10.791 0 0 0
3267 4 5.3955 21.582 23.3805 0 0 0
541 4 32.373 28.776 17.985 0 0 0
2654 4 10.791 5.3955 12.5895 0 0 0
3548 4 1.7985 12.5895 21.582 0 0 0
3424 4 1.7985 1.7985 17.985 0 0 0
297 4 32.373 7.194 14.388 0 0 0
1683 4 19.7835 25.179 1.7985 0 0 0
3940 4 0.0 23.3805 34.1715 0 0 0
1748 4 19.7835 30.5745 21.582 0 0 0
3134 4 7.194 12.5895 12.5895 0 0 0
577 4 32.373 32.373 14.388 0 0 0
1854 4 17.985 5.3955 12.5895 0 0 0
1385 4 25.179 32.373 21.582 0 0 0
765 4 28.776 14.388 3.597 0 0 0
1667 4 19.7835 21.582 23.3805 0 0 0
989 4 28.776 32.373 25.179 0 0 0
3602 4 3.597 19.7835 1.7985 0 0 0
701 4 28.776 7.194 17.985 0 0 0
2265 4 14.388 3.597 21.582 0 0 0
3628 4 1.7985 19.7835 21.582 0 0 0
3439 4 1.7985 0.0 34.1715 0 0 0
2604 4 8.9925 1.7985 0.0 0 0 0
966 4 28.776 34.1715 5.3955 0 0 0
2181 4 17.985 32.373 17.985 0 0 0
1972 4 16.1865 16.1865 7.194 0 0 0
353 4 32.373 10.791 28.776 0 0 0
1911 4 16.1865 7.194 26.9775 0 0 0
2575 4 12.5895 32.373 12.5895 0 0 0
3945 4 0.0 25.179 7.194 0 0 0
2462 4 14.388 23.3805 19.7835 0 0 0
941 4 28.776 28.776 17.985 0 0 0
3122 4 7.194 12.5895 1.7985 0 0 0
2322 4 14.388 12.5895 1.7985 0 0 0
362 4 32.373 16.1865 1.7985 0 0 0
2144 4 16.1865 30.5745 17.985 0 0 0
2743 4 8.9925 10.791 19.7835 0 0 0
3846 4 0.0 8.9925 8.9925 0 0 0
1436 4 19.7835 1.7985 28.776 0 0 0
2735 4 8.9925 10.791 12.5895 0 0 0
856 4 26.9775 23.3805 10.791 0 0 0
842 4 28.776 23.3805 1.7985 0 0 0
1131 4 23.3805 10.791 8.9925 0 0 0
3935 4 0.0 21.582 25.179 0 0 0
1362 4 25.179 34.1715 1.7985 0 0 0
1218 4 25.179 19.7835 16.1865 0 0 0
2590 4 14.388 34.1715 26.9775 0 0 0
506 4 32.373 26.9775 23.3805 0 0 0
1538 4 21.582 12.5895 16.1865 0 0 0
1905 4 17.985 7.194 21.582 0 0 0
807 4 26.9775 17.985 5.3955 0 0 0
2583 4 12.5895 32.373 19.7835 0 0 0
1977 4 17.985 14.388 14.388 0 0 0
3872 4 0.0 12.5895 19.7835 0 0 0
896 4 26.9775 26.9775 10.791 0 0 0
1508 4 19.7835 8.9925 21.582 0 0 0
1750 4 21.582 30.5745 26.9775 0 0 0
255 4 30.5745 3.597 12.5895 0 0 0
1334 4 25.179 30.5745 12.5895 0 0 0
3857 4 0.0 7.194 28.776 0 0 0
1085 4 25.179 7.194 3.597 0 0 0
2263 4 12.5895 3.597 19.7835 0 0 0
3958 4 0.0 26.9775 30.5745 0 0 0
3329 4 7.194 28.776 7.194 0 0 0
1445 4 21.582 3.597 3.597 0 0 0
3174 4 7.194 16.1865 12.5895 0 0 0
3621 4 3.597 17.985 17.985 0 0 0
109 4 34.1715 17.985 16.1865 0 0 0
1104 4 23.3805 8.9925 17.985 0 0 0
1855 4 16.1865 3.597 12.5895 0 0 0
262 4 32.373 5.3955 19.7835 0 0 0
1610 4 21.582 19.7835 8.9925 0 0 0
3677 4 3.597 21.582 32.373 0 0 0
3929 4 0.0 21.582 14.388 0 0 0
150 4 34.1715 26.9775 14.388 0 0 0
1496 4 19.7835 8.9925 10.791 0 0 0
3479 4 1.7985 3.597 34.1715 0 0 0
410 4 32.373 19.7835 8.9925 0 0 0
1291 4 23.3805 25.179 8.9925 0 0 0
3429 4 3.597 0.0 25.179 0 0 0
2034 4 17.985 19.7835 30.5745 0 0 0
3598 4 3.597 16.1865 34.1715 0 0 0
663 4 26.9775 3.597 19.7835 0 0 0
1098 4 25.179 8.9925 16.1865 0 0 0
3516 4 1.7985 8.9925 28.776 0 0 0
69 4 34.1715 10.791 16.1865 0 0 0
111 4 34.1715 17.985 19.7835 0 0 0
274 4 32.373 5.3955 30.5745 0 0 0
1511 4 19.7835 7.194 26.9775 0 0 0
1162 4 25.179 16.1865 1.7985 0 0 0
2515 4 12.5895 25.179 30.5745 0 0 0
2370 4 14.388 16.1865 8.9925 0 0 0
1703 4 19.7835 25.179 19.7835 0 0 0
3583 4 1.7985 14.388 19.7835 0 0 0
3582 4 3.597 16.1865 19.7835 0 0 0
1457 4 21.582 3.597 14.388 0 0 0
2107 4 16.1865 25.179 23.3805 0 0 0
697 4 28.776 7.194 14.388 0 0 0
2329 4 14.388 10.791 7.194 0 0 0
263 4 30.5745 3.597 19.7835 0 0 0
5 4 34.1715 0.0 8.9925 0 0 0
776 4 26.9775 16.1865 10.791 0 0 0
2838 4 10.791 19.7835 34.1715 0 0 0
779 4 26.9775 14.388 16.1865 0 0 0
2228 4 12.5895 1.7985 21.582 0 0 0
3781 4 3.597 32.373 17.985 0 0 0
3921 4 0.0 21.582 0.0 0 0 0
81 4 34.1715 14.388 1.7985 0 0 0
1783 4 19.7835 32.373 19.7835 0 0 0
2627 4 8.9925 0.0 23.3805 0 0 0
2483 4 12.5895 25.179 1.7985 0 0 0
2842 4 10.791 23.3805 1.7985 0 0 0
1649 4 21.582 21.582 7.194 0 0 0
1155 4 23.3805 10.791 30.5745 0 0 0
315 4 30.5745 7.194 30.5745 0 0 0
3968 4 0.0 30.5745 12.5895 0 0 0
1282 4 25.179 26.9775 1.7985 0 0 0
1273 4 25.179 21.582 28.776 0 0 0
93 4 34.1715 14.388 23.3805 0 0 0
3830 4 0.0 5.3955 16.1865 0 0 0
38 4 34.1715 5.3955 28.776 0 0 0
616 4 26.9775 1.7985 10.791 0 0 0
1134 4 25.179 12.5895 12.5895 0 0 0
611 4 26.9775 0.0 8.9925 0 0 0
3609 4 3.597 17.985 7.194 0 0 0
2530 4 14.388 30.5745 8.9925 0 0 0
1039 4 23.3805 0.0 34.1715 0 0 0
1462 4 21.582 5.3955 19.7835 0 0 0
1120 4 23.3805 8.9925 32.373 0 0 0
3526 4 3.597 12.5895 5.3955 0 0 0
2999 4 8.9925 32.373 34.1715 0 0 0
2607 4 8.9925 0.0 5.3955 0 0 0
1450 4 21.582 5.3955 8.9925 0 0 0
1986 4 17.985 16.1865 23.3805 0 0 0
903 4 26.9775 25.179 19.7835 0 0 0
2891 4 8.9925 25.179 8.9925 0 0 0
3120 4 5.3955 8.9925 32.373 0 0 0
712 4 26.9775 8.9925 25.179 0 0 0
1898 4 17.985 8.9925 16.1865 0 0 0
2338 4 14.388 12.5895 16.1865 0 0 0
3371 4 5.3955 32.373 8.9925 0 0 0
1576 4 19.7835 16.1865 10.791 0 0 0
3268 4 5.3955 23.3805 21.582 0 0 0
1330 4 25.179 30.5745 8.9925 0 0 0
3549 4 3.597 10.791 25.179 0 0 0
3561 4 3.597 14.388 0.0 0 0 0
2058 4 17.985 23.3805 16.1865 0 0 0
537 4 32.373 28.776 14.388 0 0 0
672 4 26.9775 5.3955 25.179 0 0 0
447 4 30.5745 21.582 5.3955 0 0 0
877 4 28.776 21.582 32.373 0 0 0
3260 4 5.3955 23.3805 14.388 0 0 0
3594 4 3.597 16.1865 30.5745 0 0 0
3162 4 7.194 16.1865 1.7985 0 0 0
1140 4 23.3805 12.5895 14.388 0 0 0
1843 4 16.1865 3.597 1.7985 0 0 0
2644 4 8.9925 5.3955 0.0 0 0 0
876 4 26.9775 23.3805 28.776 0 0 0
3196 4 5.3955 16.1865 28.776 0 0 0
3377 4 7.194 32.373 14.388 0 0 0
2864 4 8.9925 23.3805 17.985 0 0 0
811 4 26.9775 17.985 8.9925 0 0 0
772 4 26.9775 16.1865 7.194 0 0 0
1835 4 16.1865 0.0 30.5745 0 0 0
3175 4 5.3955 14.388 12.5895 0 0 0
863 4 26.9775 21.582 19.7835 0 0 0
2881 4 10.791 25.179 0.0 0 0 0
2822 4 10.791 19.7835 19.7835 0 0 0
461 4 32.373 21.582 17.985 0 0 0
1715 4 19.7835 25.179 30.5745 0 0 0
3373 4 7.194 32.373 10.791 0 0 0
368 4 30.5745 16.1865 3.597 0 0 0
1625 4 21.582 17.985 21.582 0 0 0
1138 4 25.179 12.5895 16.1865 0 0 0
3091 4 5.3955 7.194 8.9925 0 0 0
909 4 28.776 25.179 25.179 0 0 0
1849 4 17.985 3.597 7.194 0 0 0
1082 4 25.179 8.9925 1.7985 0 0 0
2698 4 10.791 8.9925 16.1865 0 0 0
2920 4 8.9925 26.9775 32.373 0 0 0
3864 4 0.0 12.5895 5.3955 0 0 0
1648 4 19.7835 23.3805 3.597 0 0 0
2331 4 12.5895 10.791 8.9925 0 0 0
3357 4 7.194 28.776 32.373 0 0 0
1632 4 19.7835 19.7835 25.179 0 0 0
2433 4 14.388 17.985 28.776 0 0 0
1074 4 25.179 5.3955 30.5745 0 0 0
900 4 26.9775 26.9775 14.388 0 0 0
2222 4 14.388 1.7985 19.7835 0 0 0
2383 4 12.5895 14.388 19.7835 0 0 0
382 4 32.373 16.1865 19.7835 0 0 0
3783 4 1.7985 32.373 19.7835 0 0 0
1690 4 21.582 26.9775 8.9925 0 0 0
3443 4 1.7985 3.597 1.7985 0 0 0
2612 4 8.9925 1.7985 7.194 0 0 0
2923 4 8.9925 28.776 1.7985 0 0 0
2684 4 8.9925 8.9925 0.0 0 0 0
2556 4 12.5895 30.5745 28.776 0 0 0
2214 4 14.388 1.7985 12.5895 0 0 0
3779 4 1.7985 32.373 16.1865 0 0 0
3028 4 5.3955 1.7985 21.582 0 0 0
2230 4 14.388 1.7985 26.9775 0 0 0
680 4 26.9775 5.3955 32.373 0 0 0
308 4 30.5745 8.9925 21.582 0 0 0
1391 4 23.3805 32.373 26.9775 0 0 0
3689 4 3.597 25.179 7.194 0 0 0
1997 4 17.985 14.388 32.373 0 0 0
1541 4 21.582 10.791 17.985 0 0 0
3820 4 0.0 1.7985 34.1715 0 0 0
92 4 34.1715 16.1865 17.985 0 0 0
1169 4 25.179 14.388 7.194 0 0 0
2280 4 12.5895 5.3955 32.373 0 0 0
1554 4 21.582 12.5895 30.5745 0 0 0
1409 4 21.582 0.0 7.194 0 0 0
963 4 26.9775 32.373 1.7985 0 0 0
3826 4 0.0 5.3955 8.9925 0 0 0
897 4 28.776 25.179 14.388 0 0 0
3147 4 5.3955 10.791 23.3805 0 0 0
3101 4 7.194 7.194 17.985 0 0 0
808 4 26.9775 19.7835 3.597 0 0 0
3181 4 7.194 14.388 17.985 0 0 0
3039 4 5.3955 0.0 34.1715 0 0 0
3719 4 1.7985 25.179 34.1715 0 0 0
3202 4 7.194 19.7835 1.7985 0 0 0
232 4 30.5745 1.7985 25.179 0 0 0
757 4 28.776 10.791 32.373 0 0 0
724 4 26.9775 12.5895 0.0 0 0 0
1466 4 21.582 5.3955 23.3805 0 0 0
2448 4 12.5895 23.3805 3.597 0 0 0
803 4 26.9775 17.985 1.7985 0 0 0
294 4 32.373 8.9925 12.5895 0 0 0
2394 4 14.388 16.1865 30.5745 0 0 0
3186 4 7.194 16.1865 23.3805 0 0 0
1339 4 23.3805 28.776 16.1865 0 0 0
844 4 26.9775 23.3805 0.0 0 0 0
3337 4 7.194 28.776 14.388 0 0 0
2688 4 8.9925 8.9925 3.597 0 0 0
1247 4 23.3805 21.582 5.3955 0 0 0
1735 4 19.7835 28.776 12.5895 0 0 0
1062 4 25.179 5.3955 19.7835 0 0 0
2985 4 10.791 32.373 21.582 0 0 0
1932 4 16.1865 12.5895 7.194 0 0 0
3615 4 1.7985 17.985 12.5895 0 0 0
878 4 28.776 23.3805 34.1715 0 0 0
337 4 32.373 10.791 14.388 0 0 0
2346 4 14.388 12.5895 23.3805 0 0 0
1093 4 25.179 7.194 10.791 0 0 0
894 4 28.776 26.9775 12.5895 0 0 0
346 4 32.373 12.5895 23.3805 0 0 0
3694 4 3.597 26.9775 12.5895 0 0 0
3808 4 0.0 1.7985 12.5895 0 0 0
3362 4 7.194 34.1715 1.7985 0 0 0
3265 4 7.194 21.582 21.582 0 0 0
2452 4 12.5895 23.3805 7.194 0 0 0
1928 4 16.1865 12.5895 3.597 0 0 0
3924 4 0.0 23.3805 5.3955 0 0 0
3532 4 1.7985 12.5895 7.194 0 0 0
3535 4 1.7985 10.791 12.5895 0 0 0
651 4 26.9775 3.597 8.9925 0 0 0
1521 4 21.582 10.791 0.0 0 0 0
3889 4 0.0 14.388 14.388 0 0 0
695 4 26.9775 7.194 12.5895 0 0 0
1099 4 23.3805 7.194 16.1865 0 0 0
49 4 34.1715 7.194 16.1865 0 0 0
3222 4 7.194 19.7835 19.7835 0 0 0
3197 4 7.194 14.388 32.373 0 0 0
2738 4 10.791 12.5895 16.1865 0 0 0
928 4 26.9775 30.5745 3.597 0 0 0
3360 4 5.3955 30.5745 32.373 0 0 0
2423 4 12.5895 17.985 19.7835 0 0 0
1598 4 21.582 16.1865 34.1715 0 0 0
1925 4 17.985 10.791 3.597 0 0 0
1016 4 23.3805 1.7985 10.791 0 0 0
2363 4 12.5895 14.388 1.7985 0 0 0
208 4 30.5745 1.7985 3.597 0 0 0
2599 4 12.5895 32.373 34.1715 0 0 0
3844 4 0.0 8.9925 5.3955 0 0 0
884 4 26.9775 26.9775 0.0 0 0 0
1125 4 25.179 10.791 3.597 0 0 0
1095 4 23.3805 7.194 12.5895 0 0 0
2537 4 14.388 28.776 14.388 0 0 0
2723 4 8.9925 10.791 1.7985 0 0 0
1422 4 21.582 1.7985 19.7835 0 0 0
3848 4 0.0 8.9925 12.5895 0 0 0
3838 4 0.0 5.3955 30.5745 0 0 0
3189 4 7.194 14.388 25.179 0 0 0
3030 4 7.194 1.7985 26.9775 0 0 0
634 4 28.776 1.7985 30.5745 0 0 0
2141 4 17.985 28.776 17.985 0 0 0
820 4 26.9775 19.7835 14.388 0 0 0
1688 4 19.7835 26.9775 3.597 0 0 0
2726 4 10.791 12.5895 5.3955 0 0 0
951 4 26.9775 28.776 26.9775 0 0 0
2875 4 8.9925 21.582 30.5745 0 0 0
2299 4 12.5895 7.194 16.1865 0 0 0
327 4 30.5745 10.791 5.3955 0 0 0
2992 4 8.9925 34.1715 25.179 0 0 0
1882 4 17.985 8.9925 1.7985 0 0 0
1716 4 19.7835 26.9775 28.776 0 0 0
449 4 32.373 21.582 7.194 0 0 0
364 4 30.5745 16.1865 0.0 0 0 0
2251 4 12.5895 3.597 8.9925 0 0 0
2830 4 10.791 19.7835 26.9775 0 0 0
1017 4 25.179 0.0 14.388 0 0 0
3763 4 1.7985 32.373 1.7985 0 0 0
2225 4 14.388 0.0 21.582 0 0 0
3787 4 1.7985 32.373 23.3805 0 0 0
3076 4 5.3955 5.3955 28.776 0 0 0
2946 4 10.791 30.5745 23.3805 0 0 0
501 4 32.373 25.179 17.985 0 0 0
3622 4 3.597 19.7835 19.7835 0 0 0
755 4 26.9775 10.791 30.5745 0 0 0
2475 4 12.5895 21.582 30.5745 0 0 0
2560 4 12.5895 30.5745 32.373 0 0 0
2386 4 14.388 16.1865 23.3805 0 0 0
2926 4 10.791 30.5745 5.3955 0 0 0
1372 4 23.3805 34.1715 7.194 0 0 0
62 4 34.1715 12.5895 0.0 0 0 0
403 4 30.5745 17.985 1.7985 0 0 0
1038 4 25.179 1.7985 34.1715 0 0 0
3385 4 7.194 32.373 21.582 0 0 0
2031 4 16.1865 17.985 26.9775 0 0 0
291 4 30.5745 7.194 8.9925 0 0 0
17 4 34.1715 0.0 30.5745 0 0 0
1934 4 17.985 12.5895 12.5895 0 0 0
1611 4 19.7835 17.985 8.9925 0 0 0
1669 4 21.582 21.582 25.179 0 0 0
2332 4 12.5895 12.5895 7.194 0 0 0
350 4 32.373 12.5895 26.9775 0 0 0
54 4 34.1715 8.9925 21.582 0 0 0
3658 4 3.597 23.3805 16.1865 0 0 0
2239 4 12.5895 0.0 34.1715 0 0 0
57 4 34.1715 7.194 30.5745 0 0 0
1885 4 17.985 7.194 3.597 0 0 0
819 4 26.9775 17.985 16.1865 0 0 0
1109 4 25.179 7.194 25.179 0 0 0
1839 4 16.1865 0.0 34.1715 0 0 0
2388 4 12.5895 16.1865 21.582 0 0 0
822 4 28.776 19.7835 19.7835 0 0 0
88 4 34.1715 16.1865 10.791 0 0 0
1294 4 25.179 26.9775 12.5895 0 0 0
3749 4 3.597 28.776 25.179 0 0 0
815 4 26.9775 17.985 12.5895 0 0 0
3230 4 7.194 19.7835 26.9775 0 0 0
1460 4 19.7835 5.3955 14.388 0 0 0
2374 4 14.388 16.1865 12.5895 0 0 0
972 4 26.9775 34.1715 7.194 0 0 0
715 4 26.9775 7.194 30.5745 0 0 0
3301 4 7.194 25.179 17.985 0 0 0
3566 4 3.597 16.1865 5.3955 0 0 0
1045 4 25.179 3.597 3.597 0 0 0
3854 4 0.0 8.9925 23.3805 0 0 0
2981 4 10.791 32.373 17.985 0 0 0
1765 4 21.582 32.373 3.597 0 0 0
1316 4 23.3805 26.9775 28.776 0 0 0
6 4 34.1715 1.7985 7.194 0 0 0
1009 4 25.179 0.0 7.194 0 0 0
2350 4 14.388 12.5895 26.9775 0 0 0
3191 4 5.3955 14.388 26.9775 0 0 0
1673 4 21.582 21.582 28.776 0 0 0
1816 4 16.1865 1.7985 10.791 0 0 0
581 4 32.373 32.373 17.985 0 0 0
2705 4 10.791 7.194 21.582 0 0 0
1886 4 17.985 8.9925 5.3955 0 0 0
980 4 26.9775 34.1715 14.388 0 0 0
147 4 34.1715 25.179 12.5895 0 0 0
1569 4 21.582 14.388 7.194 0 0 0
3190 4 7.194 16.1865 26.9775 0 0 0
115 4 34.1715 17.985 26.9775 0 0 0
415 4 30.5745 17.985 12.5895 0 0 0
2499 4 12.5895 25.179 16.1865 0 0 0
1510 4 21.582 8.9925 26.9775 0 0 0
2564 4 12.5895 34.1715 0.0 0 0 0
231 4 30.5745 0.0 26.9775 0 0 0
2595 4 12.5895 32.373 30.5745 0 0 0
1035 4 23.3805 0.0 30.5745 0 0 0
2557 4 14.388 28.776 32.373 0 0 0
2857 4 10.791 21.582 14.388 0 0 0
1318 4 25.179 26.9775 34.1715 0 0 0
1779 4 19.7835 32.373 16.1865 0 0 0
3169 4 7.194 14.388 7.194 0 0 0
2147 4 16.1865 28.776 23.3805 0 0 0
1265 4 25.179 21.582 21.582 0 0 0
2936 4 8.9925 30.5745 10.791 0 0 0
1243 4 23.3805 21.582 1.7985 0 0 0
2510 4 14.388 26.9775 26.9775 0 0 0
3079 4 5.3955 3.597 34.1715 0 0 0
775 4 26.9775 14.388 12.5895 0 0 0
2861 4 10.791 21.582 17.985 0 0 0
1640 4 19.7835 19.7835 32.373 0 0 0
1272 4 23.3805 23.3805 25.179 0 0 0
2968 4 8.9925 34.1715 3.597 0 0 0
1269 4 25.179 21.582 25.179 0 0 0
2185 4 17.985 32.373 21.582 0 0 0
3223 4 5.3955 17.985 19.7835 0 0 0
53 4 34.1715 7.194 23.3805 0 0 0
3943 4 0.0 25.179 3.597 0 0 0
1010 4 25.179 1.7985 8.9925 0 0 0
2062 4 17.985 23.3805 19.7835 0 0 0
3766 4 3.597 34.1715 5.3955 0 0 0
3210 4 7.194 19.7835 8.9925 0 0 0
153 4 34.1715 25.179 23.3805 0 0 0
282 4 32.373 8.9925 1.7985 0 0 0
3738 4 3.597 30.5745 16.1865 0 0 0
1475 4 19.7835 3.597 30.5745 0 0 0
1425 4 21.582 0.0 21.582 0 0 0
2541 4 14.388 28.776 17.985 0 0 0
689 4 28.776 7.194 7.194 0 0 0
3034 4 7.194 1.7985 30.5745 0 0 0
1453 4 21.582 3.597 10.791 0 0 0
2022 4 17.985 19.7835 19.7835 0 0 0
412 4 30.5745 19.7835 7.194 0 0 0
2756 4 8.9925 12.5895 28.776 0 0 0
1619 4 19.7835 17.985 16.1865 0 0 0
596 4 30.5745 34.1715 28.776 0 0 0
2927 4 8.9925 28.776 5.3955 0 0 0
2150 4 17.985 30.5745 26.9775 0 0 0
2071 4 16.1865 21.582 26.9775 0 0 0
1458 4 21.582 5.3955 16.1865 0 0 0
2131 4 16.1865 28.776 8.9925 0 0 0
416 4 30.5745 19.7835 10.791 0 0 0
2512 4 12.5895 26.9775 25.179 0 0 0
916 4 26.9775 26.9775 28.776 0 0 0
357 4 32.373 10.791 32.373 0 0 0
3764 4 1.7985 34.1715 0.0 0 0 0
1487 4 19.7835 7.194 5.3955 0 0 0
518 4 32.373 26.9775 34.1715 0 0 0
3590 4 3.597 16.1865 26.9775 0 0 0
1825 4 17.985 0.0 21.582 0 0 0
2378 4 14.388 16.1865 16.1865 0 0 0
1146 4 25.179 12.5895 23.3805 0 0 0
3010 4 7.194 1.7985 8.9925 0 0 0
2019 4 16.1865 17.985 16.1865 0 0 0
1107 4 23.3805 7.194 23.3805 0 0 0
2256 4 12.5895 5.3955 10.791 0 0 0
2969 4 10.791 32.373 7.194 0 0 0
1331 4 23.3805 28.776 8.9925 0 0 0
1270 4 25.179 23.3805 26.9775 0 0 0
277 4 32.373 3.597 32.373 0 0 0
3218 4 7.194 19.7835 16.1865 0 0 0
2 5 34.1715 1.7985 0.0 0 0 0
14 5 34.1715 1.7985 21.582 0 0 0
16 5 34.1715 1.7985 25.179 0 0 0
20 5 34.1715 1.7985 32.373 0 0 0
28 5 34.1715 5.3955 10.791 0 0 0
29 5 34.1715 3.597 16.1865 0 0 0
31 5 34.1715 3.597 19.7835 0 0 0
33 5 34.1715 3.597 23.3805 0 0 0
36 5 34.1715 5.3955 25.179 0 0 0
41 5 34.1715 7.194 1.7985 0 0 0
43 5 34.1715 7.194 5.3955 0 0 0
45 5 34.1715 7.194 8.9925 0 0 0
47 5 34.1715 7.194 12.5895 0 0 0
50 5 34.1715 8.9925 14.388 0 0 0
52 5 34.1715 8.9925 17.985 0 0 0
58 5 34.1715 8.9925 28.776 0 0 0
63 5 34.1715 10.791 5.3955 0 0 0
72 5 34.1715 12.5895 17.985 0 0 0
75 5 34.1715 10.791 26.9775 0 0 0
80 5 34.1715 12.5895 32.373 0 0 0
101 5 34.1715 17.985 1.7985 0 0 0
102 5 34.1715 19.7835 0.0 0 0 0
108 5 34.1715 19.7835 10.791 0 0 0
123 5 34.1715 21.582 5.3955 0 0 0
125 5 34.1715 21.582 8.9925 0 0 0
134 5 34.1715 23.3805 21.582 0 0 0
135 5 34.1715 21.582 26.9775 0 0 0
137 5 34.1715 21.582 30.5745 0 0 0
148 5 34.1715 26.9775 10.791 0 0 0
149 5 34.1715 25.179 16.1865 0 0 0
161 5 34.1715 28.776 1.7985 0 0 0
166 5 34.1715 30.5745 7.194 0 0 0
181 5 34.1715 32.373 1.7985 0 0 0
183 5 34.1715 32.373 5.3955 0 0 0
184 5 34.1715 34.1715 3.597 0 0 0
189 5 34.1715 32.373 16.1865 0 0 0
190 5 34.1715 34.1715 14.388 0 0 0
196 5 34.1715 34.1715 25.179 0 0 0
199 5 34.1715 32.373 34.1715 0 0 0
201 5 32.373 0.0 0.0 0 0 0
203 5 30.5745 0.0 1.7985 0 0 0
204 5 30.5745 1.7985 0.0 0 0 0
205 5 32.373 0.0 3.597 0 0 0
210 5 32.373 1.7985 8.9925 0 0 0
218 5 32.373 1.7985 16.1865 0 0 0
221 5 32.373 0.0 17.985 0 0 0
223 5 30.5745 0.0 19.7835 0 0 0
224 5 30.5745 1.7985 17.985 0 0 0
238 5 32.373 1.7985 34.1715 0 0 0
266 5 32.373 5.3955 23.3805 0 0 0
269 5 32.373 3.597 25.179 0 0 0
270 5 32.373 5.3955 26.9775 0 0 0
273 5 32.373 3.597 28.776 0 0 0
276 5 30.5745 5.3955 28.776 0 0 0
278 5 32.373 5.3955 34.1715 0 0 0
281 5 32.373 7.194 0.0 0 0 0
289 5 32.373 7.194 7.194 0 0 0
295 5 30.5745 7.194 12.5895 0 0 0
300 5 30.5745 8.9925 14.388 0 0 0
309 5 32.373 7.194 25.179 0 0 0
310 5 32.373 8.9925 26.9775 0 0 0
313 5 32.373 7.194 28.776 0 0 0
322 5 32.373 12.5895 1.7985 0 0 0
331 5 30.5745 10.791 8.9925 0 0 0
333 5 32.373 10.791 10.791 0 0 0
336 5 30.5745 12.5895 10.791 0 0 0
340 5 30.5745 12.5895 14.388 0 0 0
348 5 30.5745 12.5895 21.582 0 0 0
351 5 30.5745 10.791 26.9775 0 0 0
363 5 30.5745 14.388 1.7985 0 0 0
370 5 32.373 16.1865 8.9925 0 0 0
371 5 30.5745 14.388 8.9925 0 0 0
374 5 32.373 16.1865 12.5895 0 0 0
376 5 30.5745 16.1865 10.791 0 0 0
378 5 32.373 16.1865 16.1865 0 0 0
389 5 32.373 14.388 25.179 0 0 0
394 5 32.373 16.1865 30.5745 0 0 0
396 5 30.5745 16.1865 28.776 0 0 0
406 5 32.373 19.7835 5.3955 0 0 0
413 5 32.373 17.985 10.791 0 0 0
414 5 32.373 19.7835 12.5895 0 0 0
417 5 32.373 17.985 14.388 0 0 0
423 5 30.5745 17.985 19.7835 0 0 0
426 5 32.373 19.7835 23.3805 0 0 0
432 5 30.5745 19.7835 25.179 0 0 0
441 5 32.373 21.582 0.0 0 0 0
448 5 30.5745 23.3805 3.597 0 0 0
451 5 30.5745 21.582 8.9925 0 0 0
453 5 32.373 21.582 10.791 0 0 0
454 5 32.373 23.3805 12.5895 0 0 0
456 5 30.5745 23.3805 10.791 0 0 0
465 5 32.373 21.582 21.582 0 0 0
467 5 30.5745 21.582 23.3805 0 0 0
477 5 32.373 21.582 32.373 0 0 0
486 5 32.373 26.9775 5.3955 0 0 0
488 5 30.5745 26.9775 3.597 0 0 0
490 5 32.373 26.9775 8.9925 0 0 0
494 5 32.373 26.9775 12.5895 0 0 0
497 5 32.373 25.179 14.388 0 0 0
500 5 30.5745 26.9775 14.388 0 0 0
505 5 32.373 25.179 21.582 0 0 0
509 5 32.373 25.179 25.179 0 0 0
517 5 32.373 25.179 32.373 0 0 0
527 5 30.5745 28.776 5.3955 0 0 0
532 5 30.5745 30.5745 7.194 0 0 0
539 5 30.5745 28.776 16.1865 0 0 0
540 5 30.5745 30.5745 14.388 0 0 0
543 5 30.5745 28.776 19.7835 0 0 0
558 5 32.373 30.5745 34.1715 0 0 0
559 5 30.5745 28.776 34.1715 0 0 0
563 5 30.5745 32.373 1.7985 0 0 0
570 5 32.373 34.1715 8.9925 0 0 0
575 5 30.5745 32.373 12.5895 0 0 0
589 5 32.373 32.373 25.179 0 0 0
590 5 32.373 34.1715 26.9775 0 0 0
593 5 32.373 32.373 28.776 0 0 0
603 5 26.9775 0.0 1.7985 0 0 0
607 5 26.9775 0.0 5.3955 0 0 0
621 5 28.776 0.0 17.985 0 0 0
622 5 28.776 1.7985 19.7835 0 0 0
627 5 26.9775 0.0 23.3805 0 0 0
638 5 28.776 1.7985 34.1715 0 0 0
640 5 26.9775 1.7985 32.373 0 0 0
641 5 28.776 3.597 0.0 0 0 0
642 5 28.776 5.3955 1.7985 0 0 0
645 5 28.776 3.597 3.597 0 0 0
647 5 26.9775 3.597 5.3955 0 0 0
652 5 26.9775 5.3955 7.194 0 0 0
656 5 26.9775 5.3955 10.791 0 0 0
659 5 26.9775 3.597 16.1865 0 0 0
661 5 28.776 3.597 17.985 0 0 0
671 5 26.9775 3.597 26.9775 0 0 0
673 5 28.776 3.597 28.776 0 0 0
677 5 28.776 3.597 32.373 0 0 0
685 5 28.776 7.194 3.597 0 0 0
688 5 26.9775 8.9925 3.597 0 0 0
690 5 28.776 8.9925 8.9925 0 0 0
693 5 28.776 7.194 10.791 0 0 0
711 5 26.9775 7.194 26.9775 0 0 0
713 5 28.776 7.194 28.776 0 0 0
716 5 26.9775 8.9925 28.776 0 0 0
718 5 28.776 8.9925 34.1715 0 0 0
723 5 26.9775 10.791 1.7985 0 0 0
726 5 28.776 12.5895 5.3955 0 0 0
728 5 26.9775 12.5895 3.597 0 0 0
729 5 28.776 10.791 7.194 0 0 0
731 5 26.9775 10.791 8.9925 0 0 0
738 5 28.776 12.5895 16.1865 0 0 0
739 5 26.9775 10.791 16.1865 0 0 0
746 5 28.776 12.5895 23.3805 0 0 0
747 5 26.9775 10.791 23.3805 0 0 0
748 5 26.9775 12.5895 21.582 0 0 0
749 5 28.776 10.791 25.179 0 0 0
756 5 26.9775 12.5895 28.776 0 0 0
758 5 28.776 12.5895 34.1715 0 0 0
762 5 28.776 16.1865 1.7985 0 0 0
783 5 26.9775 14.388 19.7835 0 0 0
787 5 26.9775 14.388 23.3805 0 0 0
789 5 28.776 14.388 25.179 0 0 0
793 5 28.776 14.388 28.776 0 0 0
804 5 26.9775 19.7835 0.0 0 0 0
805 5 28.776 17.985 3.597 0 0 0
812 5 26.9775 19.7835 7.194 0 0 0
817 5 28.776 17.985 14.388 0 0 0
823 5 26.9775 17.985 19.7835 0 0 0
828 5 26.9775 19.7835 21.582 0 0 0
830 5 28.776 19.7835 26.9775 0 0 0
839 5 26.9775 17.985 34.1715 0 0 0
840 5 26.9775 19.7835 32.373 0 0 0
841 5 28.776 21.582 0.0 0 0 0
850 5 28.776 23.3805 8.9925 0 0 0
851 5 26.9775 21.582 8.9925 0 0 0
852 5 26.9775 23.3805 7.194 0 0 0
853 5 28.776 21.582 10.791 0 0 0
855 5 26.9775 21.582 12.5895 0 0 0
858 5 28.776 23.3805 16.1865 0 0 0
867 5 26.9775 21.582 23.3805 0 0 0
870 5 28.776 23.3805 26.9775 0 0 0
885 5 28.776 25.179 3.597 0 0 0
887 5 26.9775 25.179 5.3955 0 0 0
901 5 28.776 25.179 17.985 0 0 0
902 5 28.776 26.9775 19.7835 0 0 0
904 5 26.9775 26.9775 17.985 0 0 0
910 5 28.776 26.9775 26.9775 0 0 0
921 5 28.776 28.776 0.0 0 0 0
923 5 26.9775 28.776 1.7985 0 0 0
932 5 26.9775 30.5745 7.194 0 0 0
939 5 26.9775 28.776 16.1865 0 0 0
949 5 28.776 28.776 25.179 0 0 0
957 5 28.776 28.776 32.373 0 0 0
960 5 26.9775 30.5745 32.373 0 0 0
961 5 28.776 32.373 0.0 0 0 0
967 5 26.9775 32.373 5.3955 0 0 0
968 5 26.9775 34.1715 3.597 0 0 0
969 5 28.776 32.373 7.194 0 0 0
973 5 28.776 32.373 10.791 0 0 0
978 5 28.776 34.1715 16.1865 0 0 0
997 5 28.776 32.373 32.373 0 0 0
1013 5 25.179 0.0 10.791 0 0 0
1022 5 25.179 1.7985 19.7835 0 0 0
1027 5 23.3805 0.0 23.3805 0 0 0
1031 5 23.3805 0.0 26.9775 0 0 0
1036 5 23.3805 1.7985 28.776 0 0 0
1037 5 25.179 0.0 32.373 0 0 0
1042 5 25.179 5.3955 1.7985 0 0 0
1046 5 25.179 5.3955 5.3955 0 0 0
1051 5 23.3805 3.597 8.9925 0 0 0
1053 5 25.179 3.597 10.791 0 0 0
1056 5 23.3805 5.3955 10.791 0 0 0
1059 5 23.3805 3.597 16.1865 0 0 0
1061 5 25.179 3.597 17.985 0 0 0
1068 5 23.3805 5.3955 21.582 0 0 0
1071 5 23.3805 3.597 26.9775 0 0 0
1078 5 25.179 5.3955 34.1715 0 0 0
1079 5 23.3805 3.597 34.1715 0 0 0
1080 5 23.3805 5.3955 32.373 0 0 0
1081 5 25.179 7.194 0.0 0 0 0
1091 5 23.3805 7.194 8.9925 0 0 0
1096 5 23.3805 8.9925 10.791 0 0 0
1097 5 25.179 7.194 14.388 0 0 0
1100 5 23.3805 8.9925 14.388 0 0 0
1101 5 25.179 7.194 17.985 0 0 0
1118 5 25.179 8.9925 34.1715 0 0 0
1119 5 23.3805 7.194 34.1715 0 0 0
1123 5 23.3805 10.791 1.7985 0 0 0
1129 5 25.179 10.791 7.194 0 0 0
1143 5 23.3805 10.791 19.7835 0 0 0
1153 5 25.179 10.791 28.776 0 0 0
1154 5 25.179 12.5895 30.5745 0 0 0
1163 5 23.3805 14.388 1.7985 0 0 0
1167 5 23.3805 14.388 5.3955 0 0 0
1171 5 23.3805 14.388 8.9925 0 0 0
1181 5 25.179 14.388 17.985 0 0 0
1190 5 25.179 16.1865 26.9775 0 0 0
1191 5 23.3805 14.388 26.9775 0 0 0
1200 5 23.3805 16.1865 32.373 0 0 0
1203 5 23.3805 17.985 1.7985 0 0 0
1207 5 23.3805 17.985 5.3955 0 0 0
1210 5 25.179 19.7835 8.9925 0 0 0
1216 5 23.3805 19.7835 10.791 0 0 0
1224 5 23.3805 19.7835 17.985 0 0 0
1230 5 25.179 19.7835 26.9775 0 0 0
1231 5 23.3805 17.985 26.9775 0 0 0
1232 5 23.3805 19.7835 25.179 0 0 0
1235 5 23.3805 17.985 30.5745 0 0 0
1237 5 25.179 17.985 32.373 0 0 0
1244 5 23.3805 23.3805 0.0 0 0 0
1248 5 23.3805 23.3805 3.597 0 0 0
1256 5 23.3805 23.3805 10.791 0 0 0
1258 5 25.179 23.3805 16.1865 0 0 0
1259 5 23.3805 21.582 16.1865 0 0 0
1261 5 25.179 21.582 17.985 0 0 0
1267 5 23.3805 21.582 23.3805 0 0 0
1276 5 23.3805 23.3805 28.776 0 0 0
1277 5 25.179 21.582 32.373 0 0 0
1281 5 25.179 25.179 0.0 0 0 0
1286 5 25.179 26.9775 5.3955 0 0 0
1288 5 23.3805 26.9775 3.597 0 0 0
1293 5 25.179 25.179 10.791 0 0 0
1297 5 25.179 25.179 14.388 0 0 0
1301 5 25.179 25.179 17.985 0 0 0
1309 5 25.179 25.179 25.179 0 0 0
1314 5 25.179 26.9775 30.5745 0 0 0
1320 5 23.3805 26.9775 32.373 0 0 0
1323 5 23.3805 28.776 1.7985 0 0 0
1324 5 23.3805 30.5745 0.0 0 0 0
1343 5 23.3805 28.776 19.7835 0 0 0
1348 5 23.3805 30.5745 21.582 0 0 0
1349 5 25.179 28.776 25.179 0 0 0
1353 5 25.179 28.776 28.776 0 0 0
1364 5 23.3805 34.1715 0.0 0 0 0
1370 5 25.179 34.1715 8.9925 0 0 0
1374 5 25.179 34.1715 12.5895 0 0 0
1383 5 23.3805 32.373 19.7835 0 0 0
1398 5 25.179 34.1715 34.1715 0 0 0
1402 5 21.582 1.7985 1.7985 0 0 0
1406 5 21.582 1.7985 5.3955 0 0 0
1412 5 19.7835 1.7985 7.194 0 0 0
1413 5 21.582 0.0 10.791 0 0 0
1416 5 19.7835 1.7985 10.791 0 0 0
1418 5 21.582 1.7985 16.1865 0 0 0
1426 5 21.582 1.7985 23.3805 0 0 0
1430 5 21.582 1.7985 26.9775 0 0 0
1431 5 19.7835 0.0 26.9775 0 0 0
1433 5 21.582 0.0 28.776 0 0 0
1434 5 21.582 1.7985 30.5745 0 0 0
1446 5 21.582 5.3955 5.3955 0 0 0
1448 5 19.7835 5.3955 3.597 0 0 0
1454 5 21.582 5.3955 12.5895 0 0 0
1474 5 21.582 5.3955 30.5745 0 0 0
1484 5 19.7835 8.9925 0.0 0 0 0
1490 5 21.582 8.9925 8.9925 0 0 0
1491 5 19.7835 7.194 8.9925 0 0 0
1495 5 19.7835 7.194 12.5895 0 0 0
1498 5 21.582 8.9925 16.1865 0 0 0
1499 5 19.7835 7.194 16.1865 0 0 0
1502 5 21.582 8.9925 19.7835 0 0 0
1504 5 19.7835 8.9925 17.985 0 0 0
1506 5 21.582 8.9925 23.3805 0 0 0
1507 5 19.7835 7.194 23.3805 0 0 0
1516 5 19.7835 8.9925 28.776 0 0 0
1517 5 21.582 7.194 32.373 0 0 0
1524 5 19.7835 12.5895 0.0 0 0 0
1529 5 21.582 10.791 7.194 0 0 0
1530 5 21.582 12.5895 8.9925 0 0 0
1535 5 19.7835 10.791 12.5895 0 0 0
1546 5 21.582 12.5895 23.3805 0 0 0
1558 5 21.582 12.5895 34.1715 0 0 0
1567 5 19.7835 14.388 5.3955 0 0 0
1584 5 19.7835 16.1865 17.985 0 0 0
1585 5 21.582 14.388 21.582 0 0 0
1589 5 21.582 14.388 25.179 0 0 0
1590 5 21.582 16.1865 26.9775 0 0 0
1596 5 19.7835 16.1865 28.776 0 0 0
1603 5 19.7835 17.985 1.7985 0 0 0
1621 5 21.582 17.985 17.985 0 0 0
1627 5 19.7835 17.985 23.3805 0 0 0
1628 5 19.7835 19.7835 21.582 0 0 0
1639 5 19.7835 17.985 34.1715 0 0 0
1642 5 21.582 23.3805 1.7985 0 0 0
1652 5 19.7835 23.3805 7.194 0 0 0
1653 5 21.582 21.582 10.791 0 0 0
1654 5 21.582 23.3805 12.5895 0 0 0
1656 5 19.7835 23.3805 10.791 0 0 0
1668 5 19.7835 23.3805 21.582 0 0 0
1670 5 21.582 23.3805 26.9775 0 0 0
1675 5 19.7835 21.582 30.5745 0 0 0
1679 5 19.7835 21.582 34.1715 0 0 0
1681 5 21.582 25.179 0.0 0 0 0
1687 5 19.7835 25.179 5.3955 0 0 0
1689 5 21.582 25.179 7.194 0 0 0
1693 5 21.582 25.179 10.791 0 0 0
1696 5 19.7835 26.9775 10.791 0 0 0
1700 5 19.7835 26.9775 14.388 0 0 0
1706 5 21.582 26.9775 23.3805 0 0 0
1709 5 21.582 25.179 25.179 0 0 0
1722 5 21.582 30.5745 1.7985 0 0 0
1726 5 21.582 30.5745 5.3955 0 0 0
1729 5 21.582 28.776 7.194 0 0 0
1736 5 19.7835 30.5745 10.791 0 0 0
1745 5 21.582 28.776 21.582 0 0 0
1751 5 19.7835 28.776 26.9775 0 0 0
1752 5 19.7835 30.5745 25.179 0 0 0
1754 5 21.582 30.5745 30.5745 0 0 0
1757 5 21.582 28.776 32.373 0 0 0
1760 5 19.7835 30.5745 32.373 0 0 0
1768 5 19.7835 34.1715 3.597 0 0 0
1769 5 21.582 32.373 7.194 0 0 0
1774 5 21.582 34.1715 12.5895 0 0 0
1776 5 19.7835 34.1715 10.791 0 0 0
1782 5 21.582 34.1715 19.7835 0 0 0
1784 5 19.7835 34.1715 17.985 0 0 0
1796 5 19.7835 34.1715 28.776 0 0 0
1802 5 17.985 1.7985 1.7985 0 0 0
1803 5 16.1865 0.0 1.7985 0 0 0
1807 5 16.1865 0.0 5.3955 0 0 0
1809 5 17.985 0.0 7.194 0 0 0
1814 5 17.985 1.7985 12.5895 0 0 0
1828 5 16.1865 1.7985 21.582 0 0 0
1829 5 17.985 0.0 25.179 0 0 0
1831 5 16.1865 0.0 26.9775 0 0 0
1837 5 17.985 0.0 32.373 0 0 0
1842 5 17.985 5.3955 1.7985 0 0 0
1847 5 16.1865 3.597 5.3955 0 0 0
1861 5 17.985 3.597 17.985 0 0 0
1873 5 17.985 3.597 28.776 0 0 0
1874 5 17.985 5.3955 30.5745 0 0 0
1890 5 17.985 8.9925 8.9925 0 0 0
1891 5 16.1865 7.194 8.9925 0 0 0
1892 5 16.1865 8.9925 7.194 0 0 0
1893 5 17.985 7.194 10.791 0 0 0
1897 5 17.985 7.194 14.388 0 0 0
1901 5 17.985 7.194 17.985 0 0 0
1904 5 16.1865 8.9925 17.985 0 0 0
1913 5 17.985 7.194 28.776 0 0 0
1918 5 17.985 8.9925 34.1715 0 0 0
1922 5 17.985 12.5895 1.7985 0 0 0
1923 5 16.1865 10.791 1.7985 0 0 0
1933 5 17.985 10.791 10.791 0 0 0
1935 5 16.1865 10.791 12.5895 0 0 0
1938 5 17.985 12.5895 16.1865 0 0 0
1940 5 16.1865 12.5895 14.388 0 0 0
1946 5 17.985 12.5895 23.3805 0 0 0
1947 5 16.1865 10.791 23.3805 0 0 0
1949 5 17.985 10.791 25.179 0 0 0
1958 5 17.985 12.5895 34.1715 0 0 0
1962 5 17.985 16.1865 1.7985 0 0 0
1965 5 17.985 14.388 3.597 0 0 0
1975 5 16.1865 14.388 12.5895 0 0 0
1984 5 16.1865 16.1865 17.985 0 0 0
1994 5 17.985 16.1865 30.5745 0 0 0
1995 5 16.1865 14.388 30.5745 0 0 0
1999 5 16.1865 14.388 34.1715 0 0 0
2010 5 17.985 19.7835 8.9925 0 0 0
2012 5 16.1865 19.7835 7.194 0 0 0
2014 5 17.985 19.7835 12.5895 0 0 0
2016 5 16.1865 19.7835 10.791 0 0 0
2026 5 17.985 19.7835 23.3805 0 0 0
2029 5 17.985 17.985 25.179 0 0 0
2036 5 16.1865 19.7835 28.776 0 0 0
2038 5 17.985 19.7835 34.1715 0 0 0
2039 5 16.1865 17.985 34.1715 0 0 0
2043 5 16.1865 21.582 1.7985 0 0 0
2053 5 17.985 21.582 10.791 0 0 0
2060 5 16.1865 23.3805 14.388 0 0 0
2063 5 16.1865 21.582 19.7835 0 0 0
2067 5 16.1865 21.582 23.3805 0 0 0
2072 5 16.1865 23.3805 25.179 0 0 0
2073 5 17.985 21.582 28.776 0 0 0
2075 5 16.1865 21.582 30.5745 0 0 0
2084 5 16.1865 26.9775 0.0 0 0 0
2086 5 17.985 26.9775 5.3955 0 0 0
2087 5 16.1865 25.179 5.3955 0 0 0
2088 5 16.1865 26.9775 3.597 0 0 0
2089 5 17.985 25.179 7.194 0 0 0
2098 5 17.985 26.9775 16.1865 0 0 0
2100 5 16.1865 26.9775 14.388 0 0 0
2103 5 16.1865 25.179 19.7835 0 0 0
2118 5 17.985 26.9775 34.1715 0 0 0
2127 5 16.1865 28.776 5.3955 0 0 0
2133 5 17.985 28.776 10.791 0 0 0
2135 5 16.1865 28.776 12.5895 0 0 0
2143 5 16.1865 28.776 19.7835 0 0 0
2145 5 17.985 28.776 21.582 0 0 0
2149 5 17.985 28.776 25.179 0 0 0
2151 5 16.1865 28.776 26.9775 0 0 0
2154 5 17.985 30.5745 30.5745 0 0 0
2158 5 17.985 30.5745 34.1715 0 0 0
2163 5 16.1865 32.373 1.7985 0 0 0
2169 5 17.985 32.373 7.194 0 0 0
2176 5 16.1865 34.1715 10.791 0 0 0
2184 5 16.1865 34.1715 17.985 0 0 0
2187 5 16.1865 32.373 23.3805 0 0 0
2194 5 17.985 34.1715 30.5745 0 0 0
2195 5 16.1865 32.373 30.5745 0 0 0
2199 5 16.1865 32.373 34.1715 0 0 0
2200 5 16.1865 34.1715 32.373 0 0 0
2203 5 12.5895 0.0 1.7985 0 0 0
2205 5 14.388 0.0 3.597 0 0 0
2213 5 14.388 0.0 10.791 0 0 0
2216 5 12.5895 1.7985 10.791 0 0 0
2220 5 12.5895 1.7985 14.388 0 0 0
2229 5 14.388 0.0 25.179 0 0 0
2231 5 12.5895 0.0 26.9775 0 0 0
2240 5 12.5895 1.7985 32.373 0 0 0
2242 5 14.388 5.3955 1.7985 0 0 0
2247 5 12.5895 3.597 5.3955 0 0 0
2250 5 14.388 5.3955 8.9925 0 0 0
2254 5 14.388 5.3955 12.5895 0 0 0
2258 5 14.388 5.3955 16.1865 0 0 0
2262 5 14.388 5.3955 19.7835 0 0 0
2271 5 12.5895 3.597 26.9775 0 0 0
2276 5 12.5895 5.3955 28.776 0 0 0
2279 5 12.5895 3.597 34.1715 0 0 0
2281 5 14.388 7.194 0.0 0 0 0
2282 5 14.388 8.9925 1.7985 0 0 0
2283 5 12.5895 7.194 1.7985 0 0 0
2285 5 14.388 7.194 3.597 0 0 0
2286 5 14.388 8.9925 5.3955 0 0 0
2289 5 14.388 7.194 7.194 0 0 0
2293 5 14.388 7.194 10.791 0 0 0
2297 5 14.388 7.194 14.388 0 0 0
2305 5 14.388 7.194 21.582 0 0 0
2306 5 14.388 8.9925 23.3805 0 0 0
2309 5 14.388 7.194 25.179 0 0 0
2313 5 14.388 7.194 28.776 0 0 0
2319 5 12.5895 7.194 34.1715 0 0 0
2323 5 12.5895 10.791 1.7985 0 0 0
2324 5 12.5895 12.5895 0.0 0 0 0
2333 5 14.388 10.791 10.791 0 0 0
2344 5 12.5895 12.5895 17.985 0 0 0
2348 5 12.5895 12.5895 21.582 0 0 0
2361 5 14.388 14.388 0.0 0 0 0
2362 5 14.388 16.1865 1.7985 0 0 0
2368 5 12.5895 16.1865 3.597 0 0 0
2369 5 14.388 14.388 7.194 0 0 0
2372 5 12.5895 16.1865 7.194 0 0 0
2375 5 12.5895 14.388 12.5895 0 0 0
2381 5 14.388 14.388 17.985 0 0 0
2391 5 12.5895 14.388 26.9775 0 0 0
2395 5 12.5895 14.388 30.5745 0 0 0
2398 5 14.388 16.1865 34.1715 0 0 0
2400 5 12.5895 16.1865 32.373 0 0 0
2404 5 12.5895 19.7835 0.0 0 0 0
2417 5 14.388 17.985 14.388 0 0 0
2424 5 12.5895 19.7835 17.985 0 0 0
2429 5 14.388 17.985 25.179 0 0 0
2432 5 12.5895 19.7835 25.179 0 0 0
2443 5 12.5895 21.582 1.7985 0 0 0
2450 5 14.388 23.3805 8.9925 0 0 0
2457 5 14.388 21.582 14.388 0 0 0
2464 5 12.5895 23.3805 17.985 0 0 0
2466 5 14.388 23.3805 23.3805 0 0 0
2474 5 14.388 23.3805 30.5745 0 0 0
2477 5 14.388 21.582 32.373 0 0 0
2482 5 14.388 26.9775 1.7985 0 0 0
2484 5 12.5895 26.9775 0.0 0 0 0
2488 5 12.5895 26.9775 3.597 0 0 0
2492 5 12.5895 26.9775 7.194 0 0 0
2500 5 12.5895 26.9775 14.388 0 0 0
2502 5 14.388 26.9775 19.7835 0 0 0
2507 5 12.5895 25.179 23.3805 0 0 0
2509 5 14.388 25.179 25.179 0 0 0
2511 5 12.5895 25.179 26.9775 0 0 0
2516 5 12.5895 26.9775 28.776 0 0 0
2524 5 12.5895 30.5745 0.0 0 0 0
2527 5 12.5895 28.776 5.3955 0 0 0
2529 5 14.388 28.776 7.194 0 0 0
2538 5 14.388 30.5745 16.1865 0 0 0
2544 5 12.5895 30.5745 17.985 0 0 0
2546 5 14.388 30.5745 23.3805 0 0 0
2552 5 12.5895 30.5745 25.179 0 0 0
2570 5 14.388 34.1715 8.9925 0 0 0
2572 5 12.5895 34.1715 7.194 0 0 0
2579 5 12.5895 32.373 16.1865 0 0 0
2586 5 14.388 34.1715 23.3805 0 0 0
2587 5 12.5895 32.373 23.3805 0 0 0
2600 5 12.5895 34.1715 32.373 0 0 0
2602 5 10.791 1.7985 1.7985 0 0 0
2615 5 8.9925 0.0 12.5895 0 0 0
2621 5 10.791 0.0 17.985 0 0 0
2622 5 10.791 1.7985 19.7835 0 0 0
2623 5 8.9925 0.0 19.7835 0 0 0
2624 5 8.9925 1.7985 17.985 0 0 0
2630 5 10.791 1.7985 26.9775 0 0 0
2632 5 8.9925 1.7985 25.179 0 0 0
2641 5 10.791 3.597 0.0 0 0 0
2645 5 10.791 3.597 3.597 0 0 0
2650 5 10.791 5.3955 8.9925 0 0 0
2656 5 8.9925 5.3955 10.791 0 0 0
2658 5 10.791 5.3955 16.1865 0 0 0
2659 5 8.9925 3.597 16.1865 0 0 0
2661 5 10.791 3.597 17.985 0 0 0
2665 5 10.791 3.597 21.582 0 0 0
2666 5 10.791 5.3955 23.3805 0 0 0
2667 5 8.9925 3.597 23.3805 0 0 0
2670 5 10.791 5.3955 26.9775 0 0 0
2673 5 10.791 3.597 28.776 0 0 0
2676 5 8.9925 5.3955 28.776 0 0 0
2693 5 10.791 7.194 10.791 0 0 0
2703 5 8.9925 7.194 19.7835 0 0 0
2704 5 8.9925 8.9925 17.985 0 0 0
2711 5 8.9925 7.194 26.9775 0 0 0
2716 5 8.9925 8.9925 28.776 0 0 0
2727 5 8.9925 10.791 5.3955 0 0 0
2731 5 8.9925 10.791 8.9925 0 0 0
2732 5 8.9925 12.5895 7.194 0 0 0
2733 5 10.791 10.791 10.791 0 0 0
2734 5 10.791 12.5895 12.5895 0 0 0
2741 5 10.791 10.791 17.985 0 0 0
2746 5 10.791 12.5895 23.3805 0 0 0
2752 5 8.9925 12.5895 25.179 0 0 0
2757 5 10.791 10.791 32.373 0 0 0
2758 5 10.791 12.5895 34.1715 0 0 0
2765 5 10.791 14.388 3.597 0 0 0
2769 5 10.791 14.388 7.194 0 0 0
2774 5 10.791 16.1865 12.5895 0 0 0
2780 5 8.9925 16.1865 14.388 0 0 0
2782 5 10.791 16.1865 19.7835 0 0 0
2785 5 10.791 14.388 21.582 0 0 0
2787 5 8.9925 14.388 23.3805 0 0 0
2791 5 8.9925 14.388 26.9775 0 0 0
2792 5 8.9925 16.1865 25.179 0 0 0
2798 5 10.791 16.1865 34.1715 0 0 0
2799 5 8.9925 14.388 34.1715 0 0 0
2801 5 10.791 17.985 0.0 0 0 0
2805 5 10.791 17.985 3.597 0 0 0
2811 5 8.9925 17.985 8.9925 0 0 0
2821 5 10.791 17.985 17.985 0 0 0
2826 5 10.791 19.7835 23.3805 0 0 0
2829 5 10.791 17.985 25.179 0 0 0
2833 5 10.791 17.985 28.776 0 0 0
2836 5 8.9925 19.7835 28.776 0 0 0
2839 5 8.9925 17.985 34.1715 0 0 0
2843 5 8.9925 21.582 1.7985 0 0 0
2848 5 8.9925 23.3805 3.597 0 0 0
2866 5 10.791 23.3805 23.3805 0 0 0
2867 5 8.9925 21.582 23.3805 0 0 0
2868 5 8.9925 23.3805 21.582 0 0 0
2883 5 8.9925 25.179 1.7985 0 0 0
2899 5 8.9925 25.179 16.1865 0 0 0
2904 5 8.9925 26.9775 17.985 0 0 0
2913 5 10.791 25.179 28.776 0 0 0
2938 5 10.791 30.5745 16.1865 0 0 0
2941 5 10.791 28.776 17.985 0 0 0
2944 5 8.9925 30.5745 17.985 0 0 0
2952 5 8.9925 30.5745 25.179 0 0 0
2953 5 10.791 28.776 28.776 0 0 0
2957 5 10.791 28.776 32.373 0 0 0
2965 5 10.791 32.373 3.597 0 0 0
2977 5 10.791 32.373 14.388 0 0 0
2978 5 10.791 34.1715 16.1865 0 0 0
2980 5 8.9925 34.1715 14.388 0 0 0
2986 5 10.791 34.1715 23.3805 0 0 0
2997 5 10.791 32.373 32.373 0 0 0
3008 5 5.3955 1.7985 3.597 0 0 0
3009 5 7.194 0.0 7.194 0 0 0
3014 5 7.194 1.7985 12.5895 0 0 0
3024 5 5.3955 1.7985 17.985 0 0 0
3032 5 5.3955 1.7985 25.179 0 0 0
3033 5 7.194 0.0 28.776 0 0 0
3041 5 7.194 3.597 0.0 0 0 0
3044 5 5.3955 5.3955 0.0 0 0 0
3045 5 7.194 3.597 3.597 0 0 0
3049 5 7.194 3.597 7.194 0 0 0
3050 5 7.194 5.3955 8.9925 0 0 0
3051 5 5.3955 3.597 8.9925 0 0 0
3054 5 7.194 5.3955 12.5895 0 0 0
3055 5 5.3955 3.597 12.5895 0 0 0
3057 5 7.194 3.597 14.388 0 0 0
3060 5 5.3955 5.3955 14.388 0 0 0
3067 5 5.3955 3.597 23.3805 0 0 0
3068 5 5.3955 5.3955 21.582 0 0 0
3069 5 7.194 3.597 25.179 0 0 0
3071 5 5.3955 3.597 26.9775 0 0 0
3075 5 5.3955 3.597 30.5745 0 0 0
3077 5 7.194 3.597 32.373 0 0 0
3078 5 7.194 5.3955 34.1715 0 0 0
3086 5 7.194 8.9925 5.3955 0 0 0
3093 5 7.194 7.194 10.791 0 0 0
3095 5 5.3955 7.194 12.5895 0 0 0
3097 5 7.194 7.194 14.388 0 0 0
3103 5 5.3955 7.194 19.7835 0 0 0
3104 5 5.3955 8.9925 17.985 0 0 0
3105 5 7.194 7.194 21.582 0 0 0
3107 5 5.3955 7.194 23.3805 0 0 0
3109 5 7.194 7.194 25.179 0 0 0
3114 5 7.194 8.9925 30.5745 0 0 0
3124 5 5.3955 12.5895 0.0 0 0 0
3125 5 7.194 10.791 3.597 0 0 0
3131 5 5.3955 10.791 8.9925 0 0 0
3132 5 5.3955 12.5895 7.194 0 0 0
3133 5 7.194 10.791 10.791 0 0 0
3136 5 5.3955 12.5895 10.791 0 0 0
3138 5 7.194 12.5895 16.1865 0 0 0
3143 5 5.3955 10.791 19.7835 0 0 0
3146 5 7.194 12.5895 23.3805 0 0 0
3148 5 5.3955 12.5895 21.582 0 0 0
3153 5 7.194 10.791 28.776 0 0 0
3154 5 7.194 12.5895 30.5745 0 0 0
3163 5 5.3955 14.388 1.7985 0 0 0
3166 5 7.194 16.1865 5.3955 0 0 0
3168 5 5.3955 16.1865 3.597 0 0 0
3171 5 5.3955 14.388 8.9925 0 0 0
3180 5 5.3955 16.1865 14.388 0 0 0
3188 5 5.3955 16.1865 21.582 0 0 0
3193 5 7.194 14.388 28.776 0 0 0
3205 5 7.194 17.985 3.597 0 0 0
3207 5 5.3955 17.985 5.3955 0 0 0
3209 5 7.194 17.985 7.194 0 0 0
3211 5 5.3955 17.985 8.9925 0 0 0
3214 5 7.194 19.7835 12.5895 0 0 0
3215 5 5.3955 17.985 12.5895 0 0 0
3216 5 5.3955 19.7835 10.791 0 0 0
3217 5 7.194 17.985 14.388 0 0 0
3219 5 5.3955 17.985 16.1865 0 0 0
3227 5 5.3955 17.985 23.3805 0 0 0
3242 5 7.194 23.3805 1.7985 0 0 0
3250 5 7.194 23.3805 8.9925 0 0 0
3256 5 5.3955 23.3805 10.791 0 0 0
3287 5 5.3955 25.179 5.3955 0 0 0
3295 5 5.3955 25.179 12.5895 0 0 0
3298 5 7.194 26.9775 16.1865 0 0 0
3303 5 5.3955 25.179 19.7835 0 0 0
3312 5 5.3955 26.9775 25.179 0 0 0
3313 5 7.194 25.179 28.776 0 0 0
3317 5 7.194 25.179 32.373 0 0 0
3318 5 7.194 26.9775 34.1715 0 0 0
3330 5 7.194 30.5745 8.9925 0 0 0
3346 5 7.194 30.5745 23.3805 0 0 0
3349 5 7.194 28.776 25.179 0 0 0
3351 5 5.3955 28.776 26.9775 0 0 0
3354 5 7.194 30.5745 30.5745 0 0 0
3366 5 7.194 34.1715 5.3955 0 0 0
3374 5 7.194 34.1715 12.5895 0 0 0
3379 5 5.3955 32.373 16.1865 0 0 0
3380 5 5.3955 34.1715 14.388 0 0 0
3383 5 5.3955 32.373 19.7835 0 0 0
3384 5 5.3955 34.1715 17.985 0 0 0
3387 5 5.3955 32.373 23.3805 0 0 0
3390 5 7.194 34.1715 26.9775 0 0 0
3392 5 5.3955 34.1715 25.179 0 0 0
3393 5 7.194 32.373 28.776 0 0 0
3397 5 7.194 32.373 32.373 0 0 0
3407 5 1.7985 0.0 5.3955 0 0 0
3415 5 1.7985 0.0 12.5895 0 0 0
3416 5 1.7985 1.7985 10.791 0 0 0
3419 5 1.7985 0.0 16.1865 0 0 0
3427 5 1.7985 0.0 23.3805 0 0 0
3430 5 3.597 1.7985 26.9775 0 0 0
3434 5 3.597 1.7985 30.5745 0 0 0
3435 5 1.7985 0.0 30.5745 0 0 0
3440 5 1.7985 1.7985 32.373 0 0 0
3441 5 3.597 3.597 0.0 0 0 0
3445 5 3.597 3.597 3.597 0 0 0
3447 5 1.7985 3.597 5.3955 0 0 0
3451 5 1.7985 3.597 8.9925 0 0 0
3463 5 1.7985 3.597 19.7835 0 0 0
3465 5 3.597 3.597 21.582 0 0 0
3467 5 1.7985 3.597 23.3805 0 0 0
3472 5 1.7985 5.3955 25.179 0 0 0
3474 5 3.597 5.3955 30.5745 0 0 0
3475 5 1.7985 3.597 30.5745 0 0 0
3476 5 1.7985 5.3955 28.776 0 0 0
3477 5 3.597 3.597 32.373 0 0 0
3478 5 3.597 5.3955 34.1715 0 0 0
3482 5 3.597 8.9925 1.7985 0 0 0
3484 5 1.7985 8.9925 0.0 0 0 0
3494 5 3.597 8.9925 12.5895 0 0 0
3497 5 3.597 7.194 14.388 0 0 0
3501 5 3.597 7.194 17.985 0 0 0
3503 5 1.7985 7.194 19.7835 0 0 0
3517 5 3.597 7.194 32.373 0 0 0
3524 5 1.7985 12.5895 0.0 0 0 0
3528 5 1.7985 12.5895 3.597 0 0 0
3529 5 3.597 10.791 7.194 0 0 0
3534 5 3.597 12.5895 12.5895 0 0 0
3540 5 1.7985 12.5895 14.388 0 0 0
3545 5 3.597 10.791 21.582 0 0 0
3546 5 3.597 12.5895 23.3805 0 0 0
3552 5 1.7985 12.5895 25.179 0 0 0
3554 5 3.597 12.5895 30.5745 0 0 0
3568 5 1.7985 16.1865 3.597 0 0 0
3569 5 3.597 14.388 7.194 0 0 0
3571 5 1.7985 14.388 8.9925 0 0 0
3573 5 3.597 14.388 10.791 0 0 0
3577 5 3.597 14.388 14.388 0 0 0
3581 5 3.597 14.388 17.985 0 0 0
3586 5 3.597 16.1865 23.3805 0 0 0
3596 5 1.7985 16.1865 28.776 0 0 0
3601 5 3.597 17.985 0.0 0 0 0
3603 5 1.7985 17.985 1.7985 0 0 0
3606 5 3.597 19.7835 5.3955 0 0 0
3608 5 1.7985 19.7835 3.597 0 0 0
3612 5 1.7985 19.7835 7.194 0 0 0
3616 5 1.7985 19.7835 10.791 0 0 0
3617 5 3.597 17.985 14.388 0 0 0
3618 5 3.597 19.7835 16.1865 0 0 0
3620 5 1.7985 19.7835 14.388 0 0 0
3623 5 1.7985 17.985 19.7835 0 0 0
3629 5 3.597 17.985 25.179 0 0 0
3631 5 1.7985 17.985 26.9775 0 0 0
3633 5 3.597 17.985 28.776 0 0 0
3643 5 1.7985 21.582 1.7985 0 0 0
3646 5 3.597 23.3805 5.3955 0 0 0
3659 5 1.7985 21.582 16.1865 0 0 0
3665 5 3.597 21.582 21.582 0 0 0
3668 5 1.7985 23.3805 21.582 0 0 0
3673 5 3.597 21.582 28.776 0 0 0
3674 5 3.597 23.3805 30.5745 0 0 0
3682 5 3.597 26.9775 1.7985 0 0 0
3692 5 1.7985 26.9775 7.194 0 0 0
3697 5 3.597 25.179 14.388 0 0 0
3708 5 1.7985 26.9775 21.582 0 0 0
3711 5 1.7985 25.179 26.9775 0 0 0
3740 5 1.7985 30.5745 14.388 0 0 0
3745 5 3.597 28.776 21.582 0 0 0
3746 5 3.597 30.5745 23.3805 0 0 0
3752 5 1.7985 30.5745 25.179 0 0 0
3755 5 1.7985 28.776 30.5745 0 0 0
3756 5 1.7985 30.5745 28.776 0 0 0
3757 5 3.597 28.776 32.373 0 0 0
3758 5 3.597 30.5745 34.1715 0 0 0
3759 5 1.7985 28.776 34.1715 0 0 0
3760 5 1.7985 30.5745 32.373 0 0 0
3775 5 1.7985 32.373 12.5895 0 0 0
3777 5 3.597 32.373 14.388 0 0 0
3784 5 1.7985 34.1715 17.985 0 0 0
3788 5 1.7985 34.1715 21.582 0 0 0
3795 5 1.7985 32.373 30.5745 0 0 0
3800 5 1.7985 34.1715 32.373 0 0 0
3802 5 0.0 1.7985 1.7985 0 0 0
3807 5 0.0 0.0 10.791 0 0 0
3810 5 0.0 1.7985 16.1865 0 0 0
3813 5 0.0 0.0 21.582 0 0 0
3817 5 0.0 0.0 28.776 0 0 0
3827 5 0.0 3.597 10.791 0 0 0
3831 5 0.0 3.597 17.985 0 0 0
3834 5 0.0 5.3955 23.3805 0 0 0
3845 5 0.0 7.194 7.194 0 0 0
3858 5 0.0 8.9925 30.5745 0 0 0
3863 5 0.0 10.791 3.597 0 0 0
3865 5 0.0 10.791 7.194 0 0 0
3870 5 0.0 12.5895 16.1865 0 0 0
3873 5 0.0 10.791 21.582 0 0 0
3874 5 0.0 12.5895 23.3805 0 0 0
3877 5 0.0 10.791 28.776 0 0 0
3886 5 0.0 16.1865 8.9925 0 0 0
3893 5 0.0 14.388 21.582 0 0 0
3895 5 0.0 14.388 25.179 0 0 0
3896 5 0.0 16.1865 26.9775 0 0 0
3898 5 0.0 16.1865 30.5745 0 0 0
3900 5 0.0 16.1865 34.1715 0 0 0
3902 5 0.0 19.7835 1.7985 0 0 0
3907 5 0.0 17.985 10.791 0 0 0
3911 5 0.0 17.985 17.985 0 0 0
3923 5 0.0 21.582 3.597 0 0 0
3936 5 0.0 23.3805 26.9775 0 0 0
3937 5 0.0 21.582 28.776 0 0 0
3939 5 0.0 21.582 32.373 0 0 0
3942 5 0.0 26.9775 1.7985 0 0 0
3944 5 0.0 26.9775 5.3955 0 0 0
3956 5 0.0 26.9775 26.9775 0 0 0
3957 5 0.0 25.179 28.776 0 0 0
3960 5 0.0 26.9775 34.1715 0 0 0
3966 5 0.0 30.5745 8.9925 0 0 0
3967 5 0.0 28.776 10.791 0 0 0
3976 5 0.0 30.5745 26.9775 0 0 0
3978 5 0.0 30.5745 30.5745 0 0 0
3981 5 0.0 32.373 0.0 0 0 0
3982 5 0.0 34.1715 1.7985 0 0 0
3985 5 0.0 32.373 7.194 0 0 0
3989 5 0.0 32.373 14.388 0 0 0
3990 5 0.0 34.1715 16.1865 0 0 0
3995 5 0.0 32.373 25.179 0 0 0
3996 5 0.0 34.1715 26.9775 0 0 0
3997 5 0.0 32.373 28.776 0 0 0
3999 5 0.0 32.373 32.373 0 0 0
