LAMMPS data file via write_data version 30 Jul 2021 timestep = 0
4000 atoms
5 atom types
0 35.97 xlo xhi
0 35.97 ylo yhi
0 35.97 zlo zhi
0.0 0.0 0.0 xy xz yz
 
Masses
 
1 1.0
2 2.0
3 3.0
4 4.0
5 5.0
 
Atoms  # atomic
 
2488 1 12.5895 26.9775 3.597 0 0 0
3692 1 1.7985 26.9775 7.194 0 0 0
2842 1 10.791 23.3805 1.7985 0 0 0
3214 1 7.194 19.7835 12.5895 0 0 0
2557 1 14.388 28.776 32.373 0 0 0
926 1 28.776 30.5745 5.3955 0 0 0
841 1 28.776 21.582 0.0 0 0 0
1227 1 23.3805 17.985 23.3805 0 0 0
2232 1 12.5895 1.7985 25.179 0 0 0
1794 1 21.582 34.1715 30.5745 0 0 0
814 1 28.776 19.7835 12.5895 0 0 0
178 1 34.1715 30.5745 28.776 0 0 0
1476 1 19.7835 5.3955 28.776 0 0 0
243 1 30.5745 3.597 1.7985 0 0 0
2765 1 10.791 14.388 3.597 0 0 0
3845 1 0.0 7.194 7.194 0 0 0
323 1 30.5745 10.791 1.7985 0 0 0
1450 1 21.582 5.3955 8.9925 0 0 0
2164 1 16.1865 34.1715 0.0 0 0 0
2535 1 12.5895 28.776 12.5895 0 0 0
3157 1 7.194 10.791 32.373 0 0 0
3576 1 1.7985 16.1865 10.791 0 0 0
1896 1 16.1865 8.9925 10.791 0 0 0
2829 1 10.791 17.985 25.179 0 0 0
3076 1 5.3955 5.3955 28.776 0 0 0
3502 1 3.597 8.9925 19.7835 0 0 0
1718 1 21.582 26.9775 34.1715 0 0 0
2597 1 14.388 32.373 32.373 0 0 0
1186 1 25.179 16.1865 23.3805 0 0 0
481 1 32.373 25.179 0.0 0 0 0
3501 1 3.597 7.194 17.985 0 0 0
986 1 28.776 34.1715 23.3805 0 0 0
341 1 32.373 10.791 17.985 0 0 0
758 1 28.776 12.5895 34.1715 0 0 0
187 1 34.1715 32.373 12.5895 0 0 0
2715 1 8.9925 7.194 30.5745 0 0 0
3469 1 3.597 3.597 25.179 0 0 0
3620 1 1.7985 19.7835 14.388 0 0 0
3392 1 5.3955 34.1715 25.179 0 0 0
3931 1 0.0 21.582 17.985 0 0 0
3255 1 5.3955 21.582 12.5895 0 0 0
696 1 26.9775 8.9925 10.791 0 0 0
390 1 32.373 16.1865 26.9775 0 0 0
2815 1 8.9925 17.985 12.5895 0 0 0
1265 1 25.179 21.582 21.582 0 0 0
69 1 34.1715 10.791 16.1865 0 0 0
2141 1 17.985 28.776 17.985 0 0 0
5 1 34.1715 0.0 8.9925 0 0 0
374 1 32.373 16.1865 12.5895 0 0 0
1686 1 21.582 26.9775 5.3955 0 0 0
3703 1 1.7985 25.179 19.7835 0 0 0
3104 1 5.3955 8.9925 17.985 0 0 0
3007 1 5.3955 0.0 5.3955 0 0 0
3897 1 0.0 14.388 28.776 0 0 0
2599 1 12.5895 32.373 34.1715 0 0 0
3774 1 3.597 34.1715 12.5895 0 0 0
3151 1 5.3955 10.791 26.9775 0 0 0
1875 1 16.1865 3.597 30.5745 0 0 0
585 1 32.373 32.373 21.582 0 0 0
3304 1 5.3955 26.9775 17.985 0 0 0
1540 1 19.7835 12.5895 14.388 0 0 0
2749 1 10.791 10.791 25.179 0 0 0
1190 1 25.179 16.1865 26.9775 0 0 0
809 1 28.776 17.985 7.194 0 0 0
954 1 28.776 30.5745 30.5745 0 0 0
2616 1 8.9925 1.7985 10.791 0 0 0
3273 1 7.194 21.582 28.776 0 0 0
3030 1 7.194 1.7985 26.9775 0 0 0
3089 1 7.194 7.194 7.194 0 0 0
3210 1 7.194 19.7835 8.9925 0 0 0
219 1 30.5745 0.0 16.1865 0 0 0
2959 1 8.9925 28.776 34.1715 0 0 0
3334 1 7.194 30.5745 12.5895 0 0 0
2904 1 8.9925 26.9775 17.985 0 0 0
2010 1 17.985 19.7835 8.9925 0 0 0
3271 1 5.3955 21.582 26.9775 0 0 0
1650 1 21.582 23.3805 8.9925 0 0 0
384 1 30.5745 16.1865 17.985 0 0 0
277 1 32.373 3.597 32.373 0 0 0
65 1 34.1715 10.791 8.9925 0 0 0
3624 1 1.7985 19.7835 17.985 0 0 0
1732 1 19.7835 30.5745 7.194 0 0 0
1100 1 23.3805 8.9925 14.388 0 0 0
1213 1 25.179 17.985 10.791 0 0 0
1026 1 25.179 1.7985 23.3805 0 0 0
3032 1 5.3955 1.7985 25.179 0 0 0
880 1 26.9775 23.3805 32.373 0 0 0
2844 1 8.9925 23.3805 0.0 0 0 0
1349 1 25.179 28.776 25.179 0 0 0
629 1 28.776 0.0 25.179 0 0 0
1619 1 19.7835 17.985 16.1865 0 0 0
951 1 26.9775 28.776 26.9775 0 0 0
3169 1 7.194 14.388 7.194 0 0 0
3443 1 1.7985 3.597 1.7985 0 0 0
3140 1 5.3955 12.5895 14.388 0 0 0
3535 1 1.7985 10.791 12.5895 0 0 0
860 1 26.9775 23.3805 14.388 0 0 0
3742 1 3.597 30.5745 19.7835 0 0 0
2254 1 14.388 5.3955 12.5895 0 0 0
1487 1 19.7835 7.194 5.3955 0 0 0
2546 1 14.388 30.5745 23.3805 0 0 0
1210 1 25.179 19.7835 8.9925 0 0 0
284 1 30.5745 8.9925 0.0 0 0 0
3455 1 1.7985 3.597 12.5895 0 0 0
2405 1 14.388 17.985 3.597 0 0 0
1431 1 19.7835 0.0 26.9775 0 0 0
3764 1 1.7985 34.1715 0.0 0 0 0
1807 1 16.1865 0.0 5.3955 0 0 0
1224 1 23.3805 19.7835 17.985 0 0 0
1078 1 25.179 5.3955 34.1715 0 0 0
815 1 26.9775 17.985 12.5895 0 0 0
26 1 34.1715 5.3955 7.194 0 0 0
3309 1 7.194 25.179 25.179 0 0 0
2684 1 8.9925 8.9925 0.0 0 0 0
2631 1 8.9925 0.0 26.9775 0 0 0
2803 1 8.9925 17.985 1.7985 0 0 0
1415 1 19.7835 0.0 12.5895 0 0 0
760 1 26.9775 12.5895 32.373 0 0 0
3183 1 5.3955 14.388 19.7835 0 0 0
1308 1 23.3805 26.9775 21.582 0 0 0
3977 1 0.0 28.776 28.776 0 0 0
1220 1 23.3805 19.7835 14.388 0 0 0
43 1 34.1715 7.194 5.3955 0 0 0
3 1 34.1715 0.0 5.3955 0 0 0
357 1 32.373 10.791 32.373 0 0 0
3305 1 7.194 25.179 21.582 0 0 0
124 1 34.1715 23.3805 3.597 0 0 0
2008 1 16.1865 19.7835 3.597 0 0 0
3645 1 3.597 21.582 3.597 0 0 0
1410 1 21.582 1.7985 8.9925 0 0 0
1972 1 16.1865 16.1865 7.194 0 0 0
1777 1 21.582 32.373 14.388 0 0 0
2409 1 14.388 17.985 7.194 0 0 0
3342 1 7.194 30.5745 19.7835 0 0 0
1567 1 19.7835 14.388 5.3955 0 0 0
3648 1 1.7985 23.3805 3.597 0 0 0
664 1 26.9775 5.3955 17.985 0 0 0
3368 1 5.3955 34.1715 3.597 0 0 0
2408 1 12.5895 19.7835 3.597 0 0 0
3801 1 0.0 0.0 0.0 0 0 0
869 1 28.776 21.582 25.179 0 0 0
1796 1 19.7835 34.1715 28.776 0 0 0
2368 1 12.5895 16.1865 3.597 0 0 0
3486 1 3.597 8.9925 5.3955 0 0 0
288 1 30.5745 8.9925 3.597 0 0 0
2022 1 17.985 19.7835 19.7835 0 0 0
3361 1 7.194 32.373 0.0 0 0 0
2362 1 14.388 16.1865 1.7985 0 0 0
180 1 34.1715 30.5745 32.373 0 0 0
732 1 26.9775 12.5895 7.194 0 0 0
761 1 28.776 14.388 0.0 0 0 0
2753 1 10.791 10.791 28.776 0 0 0
3250 1 7.194 23.3805 8.9925 0 0 0
1199 1 23.3805 14.388 34.1715 0 0 0
3092 1 5.3955 8.9925 7.194 0 0 0
2264 1 12.5895 5.3955 17.985 0 0 0
3126 1 7.194 12.5895 5.3955 0 0 0
1212 1 23.3805 19.7835 7.194 0 0 0
1702 1 21.582 26.9775 19.7835 0 0 0
420 1 30.5745 19.7835 14.388 0 0 0
1015 1 23.3805 0.0 12.5895 0 0 0
3143 1 5.3955 10.791 19.7835 0 0 0
2579 1 12.5895 32.373 16.1865 0 0 0
3174 1 7.194 16.1865 12.5895 0 0 0
2276 1 12.5895 5.3955 28.776 0 0 0
321 1 32.373 10.791 0.0 0 0 0
322 1 32.373 12.5895 1.7985 0 0 0
3061 1 7.194 3.597 17.985 0 0 0
256 1 30.5745 5.3955 10.791 0 0 0
1024 1 23.3805 1.7985 17.985 0 0 0
2053 1 17.985 21.582 10.791 0 0 0
53 1 34.1715 7.194 23.3805 0 0 0
2602 1 10.791 1.7985 1.7985 0 0 0
27 1 34.1715 3.597 12.5895 0 0 0
2769 1 10.791 14.388 7.194 0 0 0
3099 1 5.3955 7.194 16.1865 0 0 0
2153 1 17.985 28.776 28.776 0 0 0
3796 1 1.7985 34.1715 28.776 0 0 0
3822 1 0.0 5.3955 1.7985 0 0 0
1850 1 17.985 5.3955 8.9925 0 0 0
1059 1 23.3805 3.597 16.1865 0 0 0
1326 1 25.179 30.5745 5.3955 0 0 0
3467 1 1.7985 3.597 23.3805 0 0 0
3950 1 0.0 26.9775 16.1865 0 0 0
864 1 26.9775 23.3805 17.985 0 0 0
2163 1 16.1865 32.373 1.7985 0 0 0
2531 1 12.5895 28.776 8.9925 0 0 0
2520 1 12.5895 26.9775 32.373 0 0 0
1101 1 25.179 7.194 17.985 0 0 0
3428 1 1.7985 1.7985 21.582 0 0 0
3967 1 0.0 28.776 10.791 0 0 0
3646 1 3.597 23.3805 5.3955 0 0 0
3173 1 7.194 14.388 10.791 0 0 0
3379 1 5.3955 32.373 16.1865 0 0 0
3483 1 1.7985 7.194 1.7985 0 0 0
3041 1 7.194 3.597 0.0 0 0 0
3186 1 7.194 16.1865 23.3805 0 0 0
179 1 34.1715 28.776 34.1715 0 0 0
1473 1 21.582 3.597 28.776 0 0 0
842 1 28.776 23.3805 1.7985 0 0 0
3965 1 0.0 28.776 7.194 0 0 0
819 1 26.9775 17.985 16.1865 0 0 0
3112 1 5.3955 8.9925 25.179 0 0 0
3656 1 1.7985 23.3805 10.791 0 0 0
3196 1 5.3955 16.1865 28.776 0 0 0
2515 1 12.5895 25.179 30.5745 0 0 0
2457 1 14.388 21.582 14.388 0 0 0
1552 1 19.7835 12.5895 25.179 0 0 0
558 1 32.373 30.5745 34.1715 0 0 0
3189 1 7.194 14.388 25.179 0 0 0
88 1 34.1715 16.1865 10.791 0 0 0
3221 1 7.194 17.985 17.985 0 0 0
3056 1 5.3955 5.3955 10.791 0 0 0
1546 1 21.582 12.5895 23.3805 0 0 0
614 1 28.776 1.7985 12.5895 0 0 0
373 1 32.373 14.388 10.791 0 0 0
3706 1 3.597 26.9775 23.3805 0 0 0
3382 1 7.194 34.1715 19.7835 0 0 0
1862 1 17.985 5.3955 19.7835 0 0 0
484 1 30.5745 26.9775 0.0 0 0 0
112 1 34.1715 19.7835 17.985 0 0 0
896 1 26.9775 26.9775 10.791 0 0 0
3374 1 7.194 34.1715 12.5895 0 0 0
421 1 32.373 17.985 17.985 0 0 0
2356 1 12.5895 12.5895 28.776 0 0 0
1912 1 16.1865 8.9925 25.179 0 0 0
1971 1 16.1865 14.388 8.9925 0 0 0
146 1 34.1715 26.9775 7.194 0 0 0
1701 1 21.582 25.179 17.985 0 0 0
3376 1 5.3955 34.1715 10.791 0 0 0
1676 1 19.7835 23.3805 28.776 0 0 0
2642 1 10.791 5.3955 1.7985 0 0 0
3024 1 5.3955 1.7985 17.985 0 0 0
2294 1 14.388 8.9925 12.5895 0 0 0
3581 1 3.597 14.388 17.985 0 0 0
1191 1 23.3805 14.388 26.9775 0 0 0
882 1 28.776 26.9775 1.7985 0 0 0
2187 1 16.1865 32.373 23.3805 0 0 0
1297 1 25.179 25.179 14.388 0 0 0
291 1 30.5745 7.194 8.9925 0 0 0
3390 1 7.194 34.1715 26.9775 0 0 0
1950 1 17.985 12.5895 26.9775 0 0 0
2293 1 14.388 7.194 10.791 0 0 0
16 1 34.1715 1.7985 25.179 0 0 0
1506 1 21.582 8.9925 23.3805 0 0 0
1077 1 25.179 3.597 32.373 0 0 0
3978 1 0.0 30.5745 30.5745 0 0 0
1260 1 23.3805 23.3805 14.388 0 0 0
1985 1 17.985 14.388 21.582 0 0 0
589 1 32.373 32.373 25.179 0 0 0
3687 1 1.7985 25.179 5.3955 0 0 0
1031 1 23.3805 0.0 26.9775 0 0 0
198 1 34.1715 34.1715 28.776 0 0 0
1645 1 21.582 21.582 3.597 0 0 0
2046 1 17.985 23.3805 5.3955 0 0 0
489 1 32.373 25.179 7.194 0 0 0
3745 1 3.597 28.776 21.582 0 0 0
2663 1 8.9925 3.597 19.7835 0 0 0
3384 1 5.3955 34.1715 17.985 0 0 0
2184 1 16.1865 34.1715 17.985 0 0 0
2511 1 12.5895 25.179 26.9775 0 0 0
3922 1 0.0 23.3805 1.7985 0 0 0
1310 1 25.179 26.9775 26.9775 0 0 0
488 1 30.5745 26.9775 3.597 0 0 0
2399 1 12.5895 14.388 34.1715 0 0 0
2186 1 17.985 34.1715 23.3805 0 0 0
460 1 30.5745 23.3805 14.388 0 0 0
1918 1 17.985 8.9925 34.1715 0 0 0
3323 1 5.3955 28.776 1.7985 0 0 0
2261 1 14.388 3.597 17.985 0 0 0
565 1 32.373 32.373 3.597 0 0 0
3225 1 7.194 17.985 21.582 0 0 0
3084 1 5.3955 8.9925 0.0 0 0 0
3906 1 0.0 19.7835 8.9925 0 0 0
2687 1 8.9925 7.194 5.3955 0 0 0
2501 1 14.388 25.179 17.985 0 0 0
1696 1 19.7835 26.9775 10.791 0 0 0
2864 1 8.9925 23.3805 17.985 0 0 0
688 1 26.9775 8.9925 3.597 0 0 0
1127 1 23.3805 10.791 5.3955 0 0 0
1630 1 21.582 19.7835 26.9775 0 0 0
1150 1 25.179 12.5895 26.9775 0 0 0
1782 1 21.582 34.1715 19.7835 0 0 0
1350 1 25.179 30.5745 26.9775 0 0 0
1165 1 25.179 14.388 3.597 0 0 0
2328 2 12.5895 12.5895 3.597 0 0 0
3190 2 7.194 16.1865 26.9775 0 0 0
2452 2 12.5895 23.3805 7.194 0 0 0
1851 2 16.1865 3.597 8.9925 0 0 0
1809 2 17.985 0.0 7.194 0 0 0
1459 2 19.7835 3.597 16.1865 0 0 0
1996 2 16.1865 16.1865 28.776 0 0 0
3006 2 7.194 1.7985 5.3955 0 0 0
3014 2 7.194 1.7985 12.5895 0 0 0
2268 2 12.5895 5.3955 21.582 0 0 0
3937 2 0.0 21.582 28.776 0 0 0
1408 2 19.7835 1.7985 3.597 0 0 0
2100 2 16.1865 26.9775 14.388 0 0 0
2454 2 14.388 23.3805 12.5895 0 0 0
3053 2 7.194 3.597 10.791 0 0 0
2727 2 8.9925 10.791 5.3955 0 0 0
1057 2 25.179 3.597 14.388 0 0 0
1998 2 17.985 16.1865 34.1715 0 0 0
1264 2 23.3805 23.3805 17.985 0 0 0
2934 2 10.791 30.5745 12.5895 0 0 0
2543 2 12.5895 28.776 19.7835 0 0 0
1195 2 23.3805 14.388 30.5745 0 0 0
141 2 34.1715 25.179 1.7985 0 0 0
1113 2 25.179 7.194 28.776 0 0 0
3398 2 7.194 34.1715 34.1715 0 0 0
2058 2 17.985 23.3805 16.1865 0 0 0
2085 2 17.985 25.179 3.597 0 0 0
2742 2 10.791 12.5895 19.7835 0 0 0
3889 2 0.0 14.388 14.388 0 0 0
2971 2 8.9925 32.373 8.9925 0 0 0
1940 2 16.1865 12.5895 14.388 0 0 0
3036 2 5.3955 1.7985 28.776 0 0 0
2183 2 16.1865 32.373 19.7835 0 0 0
1207 2 23.3805 17.985 5.3955 0 0 0
1226 2 25.179 19.7835 23.3805 0 0 0
2525 2 14.388 28.776 3.597 0 0 0
512 2 30.5745 26.9775 25.179 0 0 0
1203 2 23.3805 17.985 1.7985 0 0 0
2091 2 16.1865 25.179 8.9925 0 0 0
1091 2 23.3805 7.194 8.9925 0 0 0
2470 2 14.388 23.3805 26.9775 0 0 0
3052 2 5.3955 5.3955 7.194 0 0 0
2383 2 12.5895 14.388 19.7835 0 0 0
330 2 32.373 12.5895 8.9925 0 0 0
222 2 32.373 1.7985 19.7835 0 0 0
1611 2 19.7835 17.985 8.9925 0 0 0
2272 2 12.5895 5.3955 25.179 0 0 0
3636 2 1.7985 19.7835 28.776 0 0 0
186 2 34.1715 34.1715 7.194 0 0 0
810 2 28.776 19.7835 8.9925 0 0 0
3886 2 0.0 16.1865 8.9925 0 0 0
1813 2 17.985 0.0 10.791 0 0 0
1223 2 23.3805 17.985 19.7835 0 0 0
1167 2 23.3805 14.388 5.3955 0 0 0
2855 2 8.9925 21.582 12.5895 0 0 0
2872 2 8.9925 23.3805 25.179 0 0 0
1884 2 16.1865 8.9925 0.0 0 0 0
3429 2 3.597 0.0 25.179 0 0 0
2484 2 12.5895 26.9775 0.0 0 0 0
2204 2 12.5895 1.7985 0.0 0 0 0
2533 2 14.388 28.776 10.791 0 0 0
45 2 34.1715 7.194 8.9925 0 0 0
2440 2 12.5895 19.7835 32.373 0 0 0
1184 2 23.3805 16.1865 17.985 0 0 0
1763 2 19.7835 32.373 1.7985 0 0 0
587 2 30.5745 32.373 23.3805 0 0 0
3333 2 7.194 28.776 10.791 0 0 0
1291 2 23.3805 25.179 8.9925 0 0 0
2054 2 17.985 23.3805 12.5895 0 0 0
3776 2 1.7985 34.1715 10.791 0 0 0
3898 2 0.0 16.1865 30.5745 0 0 0
3908 2 0.0 19.7835 12.5895 0 0 0
467 2 30.5745 21.582 23.3805 0 0 0
2758 2 10.791 12.5895 34.1715 0 0 0
1027 2 23.3805 0.0 23.3805 0 0 0
1523 2 19.7835 10.791 1.7985 0 0 0
3489 2 3.597 7.194 7.194 0 0 0
2237 2 14.388 0.0 32.373 0 0 0
3091 2 5.3955 7.194 8.9925 0 0 0
1536 2 19.7835 12.5895 10.791 0 0 0
150 2 34.1715 26.9775 14.388 0 0 0
2006 2 17.985 19.7835 5.3955 0 0 0
1348 2 23.3805 30.5745 21.582 0 0 0
260 2 30.5745 5.3955 14.388 0 0 0
2305 2 14.388 7.194 21.582 0 0 0
2862 2 10.791 23.3805 19.7835 0 0 0
86 2 34.1715 16.1865 7.194 0 0 0
2242 2 14.388 5.3955 1.7985 0 0 0
2060 2 16.1865 23.3805 14.388 0 0 0
2122 2 17.985 30.5745 1.7985 0 0 0
1368 2 23.3805 34.1715 3.597 0 0 0
3885 2 0.0 14.388 7.194 0 0 0
1479 2 19.7835 3.597 34.1715 0 0 0
161 2 34.1715 28.776 1.7985 0 0 0
2951 2 8.9925 28.776 26.9775 0 0 0
2582 2 14.388 34.1715 19.7835 0 0 0
3299 2 5.3955 25.179 16.1865 0 0 0
2070 2 17.985 23.3805 26.9775 0 0 0
446 2 32.373 23.3805 5.3955 0 0 0
3619 2 1.7985 17.985 16.1865 0 0 0
3934 2 0.0 23.3805 23.3805 0 0 0
1978 2 17.985 16.1865 16.1865 0 0 0
3744 2 1.7985 30.5745 17.985 0 0 0
1011 2 23.3805 0.0 8.9925 0 0 0
1864 2 16.1865 5.3955 17.985 0 0 0
208 2 30.5745 1.7985 3.597 0 0 0
1913 2 17.985 7.194 28.776 0 0 0
3512 2 1.7985 8.9925 25.179 0 0 0
2973 2 10.791 32.373 10.791 0 0 0
2224 2 12.5895 1.7985 17.985 0 0 0
667 2 26.9775 3.597 23.3805 0 0 0
1399 2 23.3805 32.373 34.1715 0 0 0
3498 2 3.597 8.9925 16.1865 0 0 0
2619 2 8.9925 0.0 16.1865 0 0 0
3628 2 1.7985 19.7835 21.582 0 0 0
3318 2 7.194 26.9775 34.1715 0 0 0
2938 2 10.791 30.5745 16.1865 0 0 0
3682 2 3.597 26.9775 1.7985 0 0 0
3838 2 0.0 5.3955 30.5745 0 0 0
3961 2 0.0 28.776 0.0 0 0 0
2044 2 16.1865 23.3805 0.0 0 0 0
393 2 32.373 14.388 28.776 0 0 0
1593 2 21.582 14.388 28.776 0 0 0
240 2 30.5745 1.7985 32.373 0 0 0
1662 2 21.582 23.3805 19.7835 0 0 0
596 2 30.5745 34.1715 28.776 0 0 0
2739 2 8.9925 10.791 16.1865 0 0 0
3504 2 1.7985 8.9925 17.985 0 0 0
1243 2 23.3805 21.582 1.7985 0 0 0
3295 2 5.3955 25.179 12.5895 0 0 0
835 2 26.9775 17.985 30.5745 0 0 0
3993 2 0.0 32.373 21.582 0 0 0
3839 2 0.0 3.597 32.373 0 0 0
2701 2 10.791 7.194 17.985 0 0 0
1900 2 16.1865 8.9925 14.388 0 0 0
229 2 32.373 0.0 25.179 0 0 0
1601 2 21.582 17.985 0.0 0 0 0
248 2 30.5745 5.3955 3.597 0 0 0
813 2 28.776 17.985 10.791 0 0 0
2479 2 12.5895 21.582 34.1715 0 0 0
713 2 28.776 7.194 28.776 0 0 0
72 2 34.1715 12.5895 17.985 0 0 0
821 2 28.776 17.985 17.985 0 0 0
1033 2 25.179 0.0 28.776 0 0 0
173 2 34.1715 28.776 23.3805 0 0 0
48 2 34.1715 8.9925 10.791 0 0 0
529 2 32.373 28.776 7.194 0 0 0
2489 2 14.388 25.179 7.194 0 0 0
31 2 34.1715 3.597 19.7835 0 0 0
1733 2 21.582 28.776 10.791 0 0 0
192 2 34.1715 34.1715 17.985 0 0 0
2216 2 12.5895 1.7985 10.791 0 0 0
494 2 32.373 26.9775 12.5895 0 0 0
545 2 32.373 28.776 21.582 0 0 0
151 2 34.1715 25.179 19.7835 0 0 0
2503 2 12.5895 25.179 19.7835 0 0 0
1254 2 25.179 23.3805 12.5895 0 0 0
2388 2 12.5895 16.1865 21.582 0 0 0
2231 2 12.5895 0.0 26.9775 0 0 0
317 2 32.373 7.194 32.373 0 0 0
289 2 32.373 7.194 7.194 0 0 0
929 2 28.776 28.776 7.194 0 0 0
134 2 34.1715 23.3805 21.582 0 0 0
1946 2 17.985 12.5895 23.3805 0 0 0
52 2 34.1715 8.9925 17.985 0 0 0
3094 2 7.194 8.9925 12.5895 0 0 0
967 2 26.9775 32.373 5.3955 0 0 0
2131 2 16.1865 28.776 8.9925 0 0 0
271 2 30.5745 3.597 26.9775 0 0 0
79 2 34.1715 10.791 34.1715 0 0 0
3511 2 1.7985 7.194 26.9775 0 0 0
2410 2 14.388 19.7835 8.9925 0 0 0
2671 2 8.9925 3.597 26.9775 0 0 0
425 2 32.373 17.985 21.582 0 0 0
3873 2 0.0 10.791 21.582 0 0 0
3471 2 1.7985 3.597 26.9775 0 0 0
18 2 34.1715 1.7985 28.776 0 0 0
3327 2 5.3955 28.776 5.3955 0 0 0
1232 2 23.3805 19.7835 25.179 0 0 0
2678 2 10.791 5.3955 34.1715 0 0 0
539 2 30.5745 28.776 16.1865 0 0 0
1509 2 21.582 7.194 25.179 0 0 0
3290 2 7.194 26.9775 8.9925 0 0 0
2318 2 14.388 8.9925 34.1715 0 0 0
1141 2 25.179 10.791 17.985 0 0 0
3324 2 5.3955 30.5745 0.0 0 0 0
1525 2 21.582 10.791 3.597 0 0 0
955 2 26.9775 28.776 30.5745 0 0 0
1129 2 25.179 10.791 7.194 0 0 0
2128 2 16.1865 30.5745 3.597 0 0 0
2398 2 14.388 16.1865 34.1715 0 0 0
811 2 26.9775 17.985 8.9925 0 0 0
2180 2 16.1865 34.1715 14.388 0 0 0
133 2 34.1715 21.582 23.3805 0 0 0
3866 2 0.0 12.5895 8.9925 0 0 0
1211 2 23.3805 17.985 8.9925 0 0 0
2114 2 17.985 26.9775 30.5745 0 0 0
975 2 26.9775 32.373 12.5895 0 0 0
2467 2 12.5895 21.582 23.3805 0 0 0
1309 2 25.179 25.179 25.179 0 0 0
3939 2 0.0 21.582 32.373 0 0 0
1539 2 19.7835 10.791 16.1865 0 0 0
407 2 30.5745 17.985 5.3955 0 0 0
1320 2 23.3805 26.9775 32.373 0 0 0
823 2 26.9775 17.985 19.7835 0 0 0
2221 2 14.388 0.0 17.985 0 0 0
998 2 28.776 34.1715 34.1715 0 0 0
441 2 32.373 21.582 0.0 0 0 0
847 2 26.9775 21.582 5.3955 0 0 0
3823 2 0.0 3.597 3.597 0 0 0
2905 2 10.791 25.179 21.582 0 0 0
2497 2 14.388 25.179 14.388 0 0 0
2817 2 10.791 17.985 14.388 0 0 0
2623 2 8.9925 0.0 19.7835 0 0 0
2059 2 16.1865 21.582 16.1865 0 0 0
1698 2 21.582 26.9775 16.1865 0 0 0
1770 2 21.582 34.1715 8.9925 0 0 0
2347 2 12.5895 10.791 23.3805 0 0 0
2032 2 16.1865 19.7835 25.179 0 0 0
3141 2 7.194 10.791 17.985 0 0 0
416 2 30.5745 19.7835 10.791 0 0 0
3734 2 3.597 30.5745 12.5895 0 0 0
3642 2 3.597 23.3805 1.7985 0 0 0
3751 2 1.7985 28.776 26.9775 0 0 0
2954 2 10.791 30.5745 30.5745 0 0 0
711 2 26.9775 7.194 26.9775 0 0 0
2720 2 8.9925 8.9925 32.373 0 0 0
352 2 30.5745 12.5895 25.179 0 0 0
191 2 34.1715 32.373 19.7835 0 0 0
3714 2 3.597 26.9775 30.5745 0 0 0
1771 2 19.7835 32.373 8.9925 0 0 0
846 2 28.776 23.3805 5.3955 0 0 0
2148 2 16.1865 30.5745 21.582 0 0 0
3861 2 0.0 10.791 0.0 0 0 0
1921 2 17.985 10.791 0.0 0 0 0
1712 2 19.7835 26.9775 25.179 0 0 0
1961 2 17.985 14.388 0.0 0 0 0
126 2 34.1715 23.3805 7.194 0 0 0
2882 2 10.791 26.9775 1.7985 0 0 0
227 2 30.5745 0.0 23.3805 0 0 0
3289 2 7.194 25.179 7.194 0 0 0
3122 2 7.194 12.5895 1.7985 0 0 0
1828 2 16.1865 1.7985 21.582 0 0 0
3280 2 5.3955 23.3805 32.373 0 0 0
2267 2 12.5895 3.597 23.3805 0 0 0
3336 2 5.3955 30.5745 10.791 0 0 0
3819 2 0.0 0.0 32.373 0 0 0
624 2 26.9775 1.7985 17.985 0 0 0
1931 2 16.1865 10.791 8.9925 0 0 0
3858 2 0.0 8.9925 30.5745 0 0 0
3582 2 3.597 16.1865 19.7835 0 0 0
3106 2 7.194 8.9925 23.3805 0 0 0
826 2 28.776 19.7835 23.3805 0 0 0
670 2 28.776 5.3955 26.9775 0 0 0
559 2 30.5745 28.776 34.1715 0 0 0
2228 2 12.5895 1.7985 21.582 0 0 0
1600 2 19.7835 16.1865 32.373 0 0 0
2564 2 12.5895 34.1715 0.0 0 0 0
3891 2 0.0 14.388 17.985 0 0 0
74 2 34.1715 12.5895 21.582 0 0 0
2692 2 8.9925 8.9925 7.194 0 0 0
796 2 26.9775 16.1865 28.776 0 0 0
3004 2 5.3955 1.7985 0.0 0 0 0
977 2 28.776 32.373 14.388 0 0 0
3786 2 3.597 34.1715 23.3805 0 0 0
3654 2 3.597 23.3805 12.5895 0 0 0
1897 2 17.985 7.194 14.388 0 0 0
885 2 28.776 25.179 3.597 0 0 0
83 2 34.1715 14.388 5.3955 0 0 0
2171 2 16.1865 32.373 8.9925 0 0 0
733 2 28.776 10.791 10.791 0 0 0
1242 2 25.179 23.3805 1.7985 0 0 0
1572 2 19.7835 16.1865 7.194 0 0 0
2985 2 10.791 32.373 21.582 0 0 0
2394 2 14.388 16.1865 30.5745 0 0 0
1196 2 23.3805 16.1865 28.776 0 0 0
990 2 28.776 34.1715 26.9775 0 0 0
806 2 28.776 19.7835 5.3955 0 0 0
3700 2 1.7985 26.9775 14.388 0 0 0
2991 2 8.9925 32.373 26.9775 0 0 0
3026 2 7.194 1.7985 23.3805 0 0 0
1953 2 17.985 10.791 28.776 0 0 0
1762 2 21.582 34.1715 1.7985 0 0 0
270 2 32.373 5.3955 26.9775 0 0 0
579 2 30.5745 32.373 16.1865 0 0 0
1804 2 16.1865 1.7985 0.0 0 0 0
952 2 26.9775 30.5745 25.179 0 0 0
923 2 26.9775 28.776 1.7985 0 0 0
1521 2 21.582 10.791 0.0 0 0 0
615 2 26.9775 0.0 12.5895 0 0 0
2105 2 17.985 25.179 21.582 0 0 0
231 2 30.5745 0.0 26.9775 0 0 0
610 2 28.776 1.7985 8.9925 0 0 0
1477 2 21.582 3.597 32.373 0 0 0
508 2 30.5745 26.9775 21.582 0 0 0
3034 2 7.194 1.7985 30.5745 0 0 0
3621 2 3.597 17.985 17.985 0 0 0
1751 2 19.7835 28.776 26.9775 0 0 0
948 2 26.9775 30.5745 21.582 0 0 0
1992 2 16.1865 16.1865 25.179 0 0 0
244 2 30.5745 5.3955 0.0 0 0 0
1840 2 16.1865 1.7985 32.373 0 0 0
3515 2 1.7985 7.194 30.5745 0 0 0
900 2 26.9775 26.9775 14.388 0 0 0
3516 2 1.7985 8.9925 28.776 0 0 0
2566 2 14.388 34.1715 5.3955 0 0 0
87 2 34.1715 14.388 12.5895 0 0 0
3395 2 5.3955 32.373 30.5745 0 0 0
2155 2 16.1865 28.776 30.5745 0 0 0
2437 2 14.388 17.985 32.373 0 0 0
3859 2 0.0 7.194 32.373 0 0 0
2074 2 17.985 23.3805 30.5745 0 0 0
2913 2 10.791 25.179 28.776 0 0 0
3630 2 3.597 19.7835 26.9775 0 0 0
3350 2 7.194 30.5745 26.9775 0 0 0
1277 2 25.179 21.582 32.373 0 0 0
1685 2 21.582 25.179 3.597 0 0 0
680 2 26.9775 5.3955 32.373 0 0 0
943 2 26.9775 28.776 19.7835 0 0 0
2638 2 10.791 1.7985 34.1715 0 0 0
1055 2 23.3805 3.597 12.5895 0 0 0
1263 2 23.3805 21.582 19.7835 0 0 0
2296 2 12.5895 8.9925 10.791 0 0 0
1200 2 23.3805 16.1865 32.373 0 0 0
3266 2 7.194 23.3805 23.3805 0 0 0
3184 2 5.3955 16.1865 17.985 0 0 0
930 2 28.776 30.5745 8.9925 0 0 0
1014 2 25.179 1.7985 12.5895 0 0 0
1251 2 23.3805 21.582 8.9925 0 0 0
68 2 34.1715 12.5895 10.791 0 0 0
3146 2 7.194 12.5895 23.3805 0 0 0
3226 2 7.194 19.7835 23.3805 0 0 0
876 2 26.9775 23.3805 28.776 0 0 0
3001 2 7.194 0.0 0.0 0 0 0
437 2 32.373 17.985 32.373 0 0 0
2248 2 12.5895 5.3955 3.597 0 0 0
3071 2 5.3955 3.597 26.9775 0 0 0
1482 2 21.582 8.9925 1.7985 0 0 0
2591 2 12.5895 32.373 26.9775 0 0 0
3541 2 3.597 10.791 17.985 0 0 0
2562 2 14.388 34.1715 1.7985 0 0 0
40 2 34.1715 5.3955 32.373 0 0 0
590 2 32.373 34.1715 26.9775 0 0 0
1481 2 21.582 7.194 0.0 0 0 0
1693 2 21.582 25.179 10.791 0 0 0
3500 2 1.7985 8.9925 14.388 0 0 0
1134 2 25.179 12.5895 12.5895 0 0 0
2159 2 16.1865 28.776 34.1715 0 0 0
3959 2 0.0 25.179 32.373 0 0 0
2620 2 8.9925 1.7985 14.388 0 0 0
901 2 28.776 25.179 17.985 0 0 0
1981 2 17.985 14.388 17.985 0 0 0
3397 2 7.194 32.373 32.373 0 0 0
2798 2 10.791 16.1865 34.1715 0 0 0
3399 2 5.3955 32.373 34.1715 0 0 0
3242 2 7.194 23.3805 1.7985 0 0 0
1779 2 19.7835 32.373 16.1865 0 0 0
301 2 32.373 7.194 17.985 0 0 0
3775 2 1.7985 32.373 12.5895 0 0 0
3068 2 5.3955 5.3955 21.582 0 0 0
506 2 32.373 26.9775 23.3805 0 0 0
1795 2 19.7835 32.373 30.5745 0 0 0
1654 2 21.582 23.3805 12.5895 0 0 0
371 2 30.5745 14.388 8.9925 0 0 0
1728 2 19.7835 30.5745 3.597 0 0 0
2456 2 12.5895 23.3805 10.791 0 0 0
3754 2 3.597 30.5745 30.5745 0 0 0
1976 2 16.1865 16.1865 10.791 0 0 0
354 2 32.373 12.5895 30.5745 0 0 0
3108 2 5.3955 8.9925 21.582 0 0 0
1892 2 16.1865 8.9925 7.194 0 0 0
2717 2 10.791 7.194 32.373 0 0 0
681 2 28.776 7.194 0.0 0 0 0
3848 2 0.0 8.9925 12.5895 0 0 0
1052 2 23.3805 5.3955 7.194 0 0 0
3424 2 1.7985 1.7985 17.985 0 0 0
3257 2 7.194 21.582 14.388 0 0 0
418 2 32.373 19.7835 16.1865 0 0 0
1398 2 25.179 34.1715 34.1715 0 0 0
3206 2 7.194 19.7835 5.3955 0 0 0
1756 2 19.7835 30.5745 28.776 0 0 0
1558 2 21.582 12.5895 34.1715 0 0 0
1353 2 25.179 28.776 28.776 0 0 0
3641 2 3.597 21.582 0.0 0 0 0
3869 2 0.0 10.791 14.388 0 0 0
1126 2 25.179 12.5895 5.3955 0 0 0
2998 2 10.791 34.1715 34.1715 0 0 0
455 2 30.5745 21.582 12.5895 0 0 0
652 2 26.9775 5.3955 7.194 0 0 0
669 2 28.776 3.597 25.179 0 0 0
25 2 34.1715 3.597 8.9925 0 0 0
2894 2 10.791 26.9775 12.5895 0 0 0
2382 2 14.388 16.1865 19.7835 0 0 0
3269 2 7.194 21.582 25.179 0 0 0
2286 2 14.388 8.9925 5.3955 0 0 0
1768 2 19.7835 34.1715 3.597 0 0 0
3385 2 7.194 32.373 21.582 0 0 0
1356 2 23.3805 30.5745 28.776 0 0 0
442 2 32.373 23.3805 1.7985 0 0 0
591 2 30.5745 32.373 26.9775 0 0 0
1993 2 17.985 14.388 28.776 0 0 0
2320 2 12.5895 8.9925 32.373 0 0 0
1393 2 25.179 32.373 28.776 0 0 0
1180 2 23.3805 16.1865 14.388 0 0 0
3287 2 5.3955 25.179 5.3955 0 0 0
279 2 30.5745 3.597 34.1715 0 0 0
3709 2 3.597 25.179 25.179 0 0 0
1023 2 23.3805 0.0 19.7835 0 0 0
3401 2 3.597 0.0 0.0 0 0 0
3386 2 7.194 34.1715 23.3805 0 0 0
640 2 26.9775 1.7985 32.373 0 0 0
483 2 30.5745 25.179 1.7985 0 0 0
3662 2 3.597 23.3805 19.7835 0 0 0
2365 2 14.388 14.388 3.597 0 0 0
1319 2 23.3805 25.179 34.1715 0 0 0
107 2 34.1715 17.985 12.5895 0 0 0
1036 2 23.3805 1.7985 28.776 0 0 0
722 2 28.776 12.5895 1.7985 0 0 0
1502 2 21.582 8.9925 19.7835 0 0 0
3182 2 7.194 16.1865 19.7835 0 0 0
582 2 32.373 34.1715 19.7835 0 0 0
3856 2 0.0 8.9925 26.9775 0 0 0
3194 2 7.194 16.1865 30.5745 0 0 0
1994 2 17.985 16.1865 30.5745 0 0 0
3901 2 0.0 17.985 0.0 0 0 0
739 2 26.9775 10.791 16.1865 0 0 0
3556 2 1.7985 12.5895 28.776 0 0 0
3875 2 0.0 10.791 25.179 0 0 0
1111 2 23.3805 7.194 26.9775 0 0 0
1667 2 19.7835 21.582 23.3805 0 0 0
2357 2 14.388 10.791 32.373 0 0 0
1122 2 25.179 12.5895 1.7985 0 0 0
3393 2 7.194 32.373 28.776 0 0 0
2463 2 12.5895 21.582 19.7835 0 0 0
1507 2 19.7835 7.194 23.3805 0 0 0
209 2 32.373 0.0 7.194 0 0 0
51 2 34.1715 7.194 19.7835 0 0 0
3668 2 1.7985 23.3805 21.582 0 0 0
2417 2 14.388 17.985 14.388 0 0 0
3769 2 3.597 32.373 7.194 0 0 0
3380 2 5.3955 34.1715 14.388 0 0 0
3972 2 0.0 30.5745 19.7835 0 0 0
472 2 30.5745 23.3805 25.179 0 0 0
2323 2 12.5895 10.791 1.7985 0 0 0
939 2 26.9775 28.776 16.1865 0 0 0
1166 2 25.179 16.1865 5.3955 0 0 0
3643 2 1.7985 21.582 1.7985 0 0 0
118 2 34.1715 19.7835 28.776 0 0 0
1174 2 25.179 16.1865 12.5895 0 0 0
3983 2 0.0 32.373 3.597 0 0 0
3622 2 3.597 19.7835 19.7835 0 0 0
1010 2 25.179 1.7985 8.9925 0 0 0
1253 2 25.179 21.582 10.791 0 0 0
776 2 26.9775 16.1865 10.791 0 0 0
2101 2 17.985 25.179 17.985 0 0 0
3671 2 1.7985 21.582 26.9775 0 0 0
1764 2 19.7835 34.1715 0.0 0 0 0
721 2 28.776 10.791 0.0 0 0 0
3008 2 5.3955 1.7985 3.597 0 0 0
3162 2 7.194 16.1865 1.7985 0 0 0
3451 2 1.7985 3.597 8.9925 0 0 0
556 2 30.5745 30.5745 28.776 0 0 0
1722 2 21.582 30.5745 1.7985 0 0 0
2220 2 12.5895 1.7985 14.388 0 0 0
3111 2 5.3955 7.194 26.9775 0 0 0
2019 2 16.1865 17.985 16.1865 0 0 0
1615 2 19.7835 17.985 12.5895 0 0 0
1522 2 21.582 12.5895 1.7985 0 0 0
2030 2 17.985 19.7835 26.9775 0 0 0
743 2 26.9775 10.791 19.7835 0 0 0
949 2 28.776 28.776 25.179 0 0 0
1366 2 25.179 34.1715 5.3955 0 0 0
1951 2 16.1865 10.791 26.9775 0 0 0
932 2 26.9775 30.5745 7.194 0 0 0
1352 2 23.3805 30.5745 25.179 0 0 0
334 2 32.373 12.5895 12.5895 0 0 0
3150 2 7.194 12.5895 26.9775 0 0 0
305 2 32.373 7.194 21.582 0 0 0
1494 2 21.582 8.9925 12.5895 0 0 0
3691 2 1.7985 25.179 8.9925 0 0 0
303 2 30.5745 7.194 19.7835 0 0 0
1248 2 23.3805 23.3805 3.597 0 0 0
2782 2 10.791 16.1865 19.7835 0 0 0
3446 2 3.597 5.3955 5.3955 0 0 0
1357 2 25.179 28.776 32.373 0 0 0
2422 2 14.388 19.7835 19.7835 0 0 0
3408 2 1.7985 1.7985 3.597 0 0 0
38 2 34.1715 5.3955 28.776 0 0 0
440 2 30.5745 19.7835 32.373 0 0 0
2662 2 10.791 5.3955 19.7835 0 0 0
1128 2 23.3805 12.5895 3.597 0 0 0
85 2 34.1715 14.388 8.9925 0 0 0
1752 2 19.7835 30.5745 25.179 0 0 0
3283 2 5.3955 25.179 1.7985 0 0 0
985 2 28.776 32.373 21.582 0 0 0
166 2 34.1715 30.5745 7.194 0 0 0
3807 2 0.0 0.0 10.791 0 0 0
2696 2 8.9925 8.9925 10.791 0 0 0
2819 2 8.9925 17.985 16.1865 0 0 0
2677 2 10.791 3.597 32.373 0 0 0
1438 2 21.582 1.7985 34.1715 0 0 0
3119 2 5.3955 7.194 34.1715 0 0 0
1962 2 17.985 16.1865 1.7985 0 0 0
224 2 30.5745 1.7985 17.985 0 0 0
2381 2 14.388 14.388 17.985 0 0 0
1439 2 19.7835 0.0 34.1715 0 0 0
1907 2 16.1865 7.194 23.3805 0 0 0
128 2 34.1715 23.3805 10.791 0 0 0
1012 2 23.3805 1.7985 7.194 0 0 0
2605 2 10.791 0.0 3.597 0 0 0
1428 2 19.7835 1.7985 21.582 0 0 0
212 2 30.5745 1.7985 7.194 0 0 0
2487 2 12.5895 25.179 5.3955 0 0 0
1664 2 19.7835 23.3805 17.985 0 0 0
2206 2 14.388 1.7985 5.3955 0 0 0
2007 2 16.1865 17.985 5.3955 0 0 0
439 2 30.5745 17.985 34.1715 0 0 0
3200 2 5.3955 16.1865 32.373 0 0 0
710 2 28.776 8.9925 26.9775 0 0 0
3746 2 3.597 30.5745 23.3805 0 0 0
2031 2 16.1865 17.985 26.9775 0 0 0
3899 2 0.0 14.388 32.373 0 0 0
1446 2 21.582 5.3955 5.3955 0 0 0
3595 2 1.7985 14.388 30.5745 0 0 0
349 2 32.373 10.791 25.179 0 0 0
1633 2 21.582 17.985 28.776 0 0 0
3679 2 1.7985 21.582 34.1715 0 0 0
1737 2 21.582 28.776 14.388 0 0 0
3968 2 0.0 30.5745 12.5895 0 0 0
3701 2 3.597 25.179 17.985 0 0 0
3767 2 1.7985 32.373 5.3955 0 0 0
1935 2 16.1865 10.791 12.5895 0 0 0
2723 2 8.9925 10.791 1.7985 0 0 0
474 2 32.373 23.3805 30.5745 0 0 0
99 2 34.1715 14.388 34.1715 0 0 0
1434 2 21.582 1.7985 30.5745 0 0 0
598 2 32.373 34.1715 34.1715 0 0 0
2170 2 17.985 34.1715 8.9925 0 0 0
3864 2 0.0 12.5895 5.3955 0 0 0
2746 2 10.791 12.5895 23.3805 0 0 0
3337 2 7.194 28.776 14.388 0 0 0
2380 2 12.5895 16.1865 14.388 0 0 0
3256 2 5.3955 23.3805 10.791 0 0 0
3657 2 3.597 21.582 14.388 0 0 0
3027 2 5.3955 0.0 23.3805 0 0 0
1205 2 25.179 17.985 3.597 0 0 0
1445 2 21.582 3.597 3.597 0 0 0
1133 2 25.179 10.791 10.791 0 0 0
921 2 28.776 28.776 0.0 0 0 0
106 2 34.1715 19.7835 7.194 0 0 0
185 2 34.1715 32.373 8.9925 0 0 0
1228 2 23.3805 19.7835 21.582 0 0 0
2836 2 8.9925 19.7835 28.776 0 0 0
2886 2 10.791 26.9775 5.3955 0 0 0
871 2 26.9775 21.582 26.9775 0 0 0
2636 2 8.9925 1.7985 28.776 0 0 0
1405 2 21.582 0.0 3.597 0 0 0
375 2 30.5745 14.388 12.5895 0 0 0
605 2 28.776 0.0 3.597 0 0 0
3916 2 0.0 19.7835 26.9775 0 0 0
1176 2 23.3805 16.1865 10.791 0 0 0
839 2 26.9775 17.985 34.1715 0 0 0
2691 2 8.9925 7.194 8.9925 0 0 0
3058 2 7.194 5.3955 16.1865 0 0 0
2627 2 8.9925 0.0 23.3805 0 0 0
623 2 26.9775 0.0 19.7835 0 0 0
717 2 28.776 7.194 32.373 0 0 0
2891 2 8.9925 25.179 8.9925 0 0 0
3650 2 3.597 23.3805 8.9925 0 0 0
1064 2 23.3805 5.3955 17.985 0 0 0
687 2 26.9775 7.194 5.3955 0 0 0
93 2 34.1715 14.388 23.3805 0 0 0
3550 2 3.597 12.5895 26.9775 0 0 0
3772 2 1.7985 34.1715 7.194 0 0 0
1980 2 16.1865 16.1865 14.388 0 0 0
2592 2 12.5895 34.1715 25.179 0 0 0
1074 2 25.179 5.3955 30.5745 0 0 0
1290 2 25.179 26.9775 8.9925 0 0 0
2051 2 16.1865 21.582 8.9925 0 0 0
1505 2 21.582 7.194 21.582 0 0 0
875 2 26.9775 21.582 30.5745 0 0 0
2831 2 8.9925 17.985 26.9775 0 0 0
634 2 28.776 1.7985 30.5745 0 0 0
609 2 28.776 0.0 7.194 0 0 0
2322 2 14.388 12.5895 1.7985 0 0 0
1452 2 19.7835 5.3955 7.194 0 0 0
2332 2 12.5895 12.5895 7.194 0 0 0
3560 2 1.7985 12.5895 32.373 0 0 0
1293 2 25.179 25.179 10.791 0 0 0
575 2 30.5745 32.373 12.5895 0 0 0
1019 2 23.3805 0.0 16.1865 0 0 0
2618 2 10.791 1.7985 16.1865 0 0 0
1955 2 16.1865 10.791 30.5745 0 0 0
1625 2 21.582 17.985 21.582 0 0 0
2385 2 14.388 14.388 21.582 0 0 0
1384 2 23.3805 34.1715 17.985 0 0 0
3932 2 0.0 23.3805 19.7835 0 0 0
2161 2 17.985 32.373 0.0 0 0 0
1003 2 23.3805 0.0 1.7985 0 0 0
2174 2 17.985 34.1715 12.5895 0 0 0
3330 2 7.194 30.5745 8.9925 0 0 0
1387 2 23.3805 32.373 23.3805 0 0 0
1096 2 23.3805 8.9925 10.791 0 0 0
540 2 30.5745 30.5745 14.388 0 0 0
2975 2 8.9925 32.373 12.5895 0 0 0
145 2 34.1715 25.179 8.9925 0 0 0
103 2 34.1715 17.985 5.3955 0 0 0
946 2 28.776 30.5745 23.3805 0 0 0
3852 2 0.0 8.9925 19.7835 0 0 0
737 2 28.776 10.791 14.388 0 0 0
657 2 28.776 3.597 14.388 0 0 0
887 2 26.9775 25.179 5.3955 0 0 0
684 2 26.9775 8.9925 0.0 0 0 0
1369 2 25.179 32.373 7.194 0 0 0
137 2 34.1715 21.582 30.5745 0 0 0
164 2 34.1715 30.5745 3.597 0 0 0
3156 2 5.3955 12.5895 28.776 0 0 0
1072 2 23.3805 5.3955 25.179 0 0 0
3815 2 0.0 0.0 25.179 0 0 0
1681 2 21.582 25.179 0.0 0 0 0
272 2 30.5745 5.3955 25.179 0 0 0
2009 2 17.985 17.985 7.194 0 0 0
3422 2 3.597 1.7985 19.7835 0 0 0
1436 2 19.7835 1.7985 28.776 0 0 0
1579 2 19.7835 14.388 16.1865 0 0 0
3430 2 3.597 1.7985 26.9775 0 0 0
2892 2 8.9925 26.9775 7.194 0 0 0
570 2 32.373 34.1715 8.9925 0 0 0
2507 2 12.5895 25.179 23.3805 0 0 0
1082 2 25.179 8.9925 1.7985 0 0 0
473 2 32.373 21.582 28.776 0 0 0
2751 2 8.9925 10.791 26.9775 0 0 0
1084 2 23.3805 8.9925 0.0 0 0 0
3567 2 1.7985 14.388 5.3955 0 0 0
182 2 34.1715 34.1715 0.0 0 0 0
3826 2 0.0 5.3955 8.9925 0 0 0
3389 2 7.194 32.373 25.179 0 0 0
757 2 28.776 10.791 32.373 0 0 0
2312 2 12.5895 8.9925 25.179 0 0 0
798 2 28.776 16.1865 34.1715 0 0 0
1858 2 17.985 5.3955 16.1865 0 0 0
1422 2 21.582 1.7985 19.7835 0 0 0
3930 2 0.0 23.3805 16.1865 0 0 0
1651 2 19.7835 21.582 8.9925 0 0 0
1793 2 21.582 32.373 28.776 0 0 0
2500 2 12.5895 26.9775 14.388 0 0 0
1939 2 16.1865 10.791 16.1865 0 0 0
910 2 28.776 26.9775 26.9775 0 0 0
1547 2 19.7835 10.791 23.3805 0 0 0
504 2 30.5745 26.9775 17.985 0 0 0
957 2 28.776 28.776 32.373 0 0 0
764 2 26.9775 16.1865 0.0 0 0 0
1569 2 21.582 14.388 7.194 0 0 0
2629 2 10.791 0.0 25.179 0 0 0
2875 2 8.9925 21.582 30.5745 0 0 0
1469 2 21.582 3.597 25.179 0 0 0
3632 2 1.7985 19.7835 25.179 0 0 0
3130 2 7.194 12.5895 8.9925 0 0 0
547 2 30.5745 28.776 23.3805 0 0 0
538 2 32.373 30.5745 16.1865 0 0 0
3292 2 5.3955 26.9775 7.194 0 0 0
1382 2 25.179 34.1715 19.7835 0 0 0
1708 2 19.7835 26.9775 21.582 0 0 0
4 2 34.1715 1.7985 3.597 0 0 0
2108 2 16.1865 26.9775 21.582 0 0 0
2214 2 14.388 1.7985 12.5895 0 0 0
3571 2 1.7985 14.388 8.9925 0 0 0
34 2 34.1715 5.3955 21.582 0 0 0
3403 2 1.7985 0.0 1.7985 0 0 0
2425 2 14.388 17.985 21.582 0 0 0
1018 2 25.179 1.7985 16.1865 0 0 0
2493 2 14.388 25.179 10.791 0 0 0
2297 2 14.388 7.194 14.388 0 0 0
505 2 32.373 25.179 21.582 0 0 0
1435 2 19.7835 0.0 30.5745 0 0 0
1146 2 25.179 12.5895 23.3805 0 0 0
1403 2 19.7835 0.0 1.7985 0 0 0
1304 2 23.3805 26.9775 17.985 0 0 0
2994 2 10.791 34.1715 30.5745 0 0 0
1021 2 25.179 0.0 17.985 0 0 0
11 2 34.1715 0.0 19.7835 0 0 0
3359 2 5.3955 28.776 34.1715 0 0 0
944 2 26.9775 30.5745 17.985 0 0 0
1704 2 19.7835 26.9775 17.985 0 0 0
3996 2 0.0 34.1715 26.9775 0 0 0
3370 2 7.194 34.1715 8.9925 0 0 0
632 2 26.9775 1.7985 25.179 0 0 0
3552 2 1.7985 12.5895 25.179 0 0 0
2078 2 17.985 23.3805 34.1715 0 0 0
3307 2 5.3955 25.179 23.3805 0 0 0
262 2 32.373 5.3955 19.7835 0 0 0
1941 2 17.985 10.791 17.985 0 0 0
356 2 30.5745 12.5895 28.776 0 0 0
2964 2 8.9925 34.1715 0.0 0 0 0
2462 2 14.388 23.3805 19.7835 0 0 0
1419 2 19.7835 0.0 16.1865 0 0 0
1409 2 21.582 0.0 7.194 0 0 0
2779 2 8.9925 14.388 16.1865 0 0 0
1054 2 25.179 5.3955 12.5895 0 0 0
3491 2 1.7985 7.194 8.9925 0 0 0
1905 2 17.985 7.194 21.582 0 0 0
1095 2 23.3805 7.194 12.5895 0 0 0
2530 2 14.388 30.5745 8.9925 0 0 0
1822 2 17.985 1.7985 19.7835 0 0 0
3440 2 1.7985 1.7985 32.373 0 0 0
2686 2 10.791 8.9925 5.3955 0 0 0
3065 2 7.194 3.597 21.582 0 0 0
2111 2 16.1865 25.179 26.9775 0 0 0
2542 2 14.388 30.5745 19.7835 0 0 0
1730 2 21.582 30.5745 8.9925 0 0 0
1673 2 21.582 21.582 28.776 0 0 0
2113 2 17.985 25.179 28.776 0 0 0
456 2 30.5745 23.3805 10.791 0 0 0
1772 2 19.7835 34.1715 7.194 0 0 0
2799 2 8.9925 14.388 34.1715 0 0 0
3614 2 3.597 19.7835 12.5895 0 0 0
476 2 30.5745 23.3805 28.776 0 0 0
49 2 34.1715 7.194 16.1865 0 0 0
2856 2 8.9925 23.3805 10.791 0 0 0
1899 2 16.1865 7.194 16.1865 0 0 0
1758 2 21.582 30.5745 34.1715 0 0 0
1327 2 23.3805 28.776 5.3955 0 0 0
2863 2 8.9925 21.582 19.7835 0 0 0
432 2 30.5745 19.7835 25.179 0 0 0
569 2 32.373 32.373 7.194 0 0 0
3025 2 7.194 0.0 21.582 0 0 0
1973 2 17.985 14.388 10.791 0 0 0
2235 2 12.5895 0.0 30.5745 0 0 0
3964 2 0.0 30.5745 5.3955 0 0 0
3338 2 7.194 30.5745 16.1865 0 0 0
3568 2 1.7985 16.1865 3.597 0 0 0
2682 2 10.791 8.9925 1.7985 0 0 0
660 2 26.9775 5.3955 14.388 0 0 0
1451 2 19.7835 3.597 8.9925 0 0 0
2615 2 8.9925 0.0 12.5895 0 0 0
1837 2 17.985 0.0 32.373 0 0 0
2808 2 8.9925 19.7835 3.597 0 0 0
2244 2 12.5895 5.3955 0.0 0 0 0
2370 2 14.388 16.1865 8.9925 0 0 0
457 2 32.373 21.582 14.388 0 0 0
1790 2 21.582 34.1715 26.9775 0 0 0
3011 2 5.3955 0.0 8.9925 0 0 0
379 2 30.5745 14.388 16.1865 0 0 0
3438 2 3.597 1.7985 34.1715 0 0 0
1270 2 25.179 23.3805 26.9775 0 0 0
1628 2 19.7835 19.7835 21.582 0 0 0
3278 2 7.194 23.3805 34.1715 0 0 0
789 2 28.776 14.388 25.179 0 0 0
3607 2 1.7985 17.985 5.3955 0 0 0
2393 2 14.388 14.388 28.776 0 0 0
2391 2 12.5895 14.388 26.9775 0 0 0
3043 2 5.3955 3.597 1.7985 0 0 0
1307 2 23.3805 25.179 23.3805 0 0 0
3872 2 0.0 12.5895 19.7835 0 0 0
1761 2 21.582 32.373 0.0 0 0 0
3663 2 1.7985 21.582 19.7835 0 0 0
622 2 28.776 1.7985 19.7835 0 0 0
3494 2 3.597 8.9925 12.5895 0 0 0
1901 2 17.985 7.194 17.985 0 0 0
2589 2 14.388 32.373 25.179 0 0 0
3107 2 5.3955 7.194 23.3805 0 0 0
2637 2 10.791 0.0 32.373 0 0 0
1088 2 23.3805 8.9925 3.597 0 0 0
1738 2 21.582 30.5745 16.1865 0 0 0
2521 2 14.388 28.776 0.0 0 0 0
2852 2 8.9925 23.3805 7.194 0 0 0
338 2 32.373 12.5895 16.1865 0 0 0
2400 2 12.5895 16.1865 32.373 0 0 0
498 2 32.373 26.9775 16.1865 0 0 0
2933 2 10.791 28.776 10.791 0 0 0
1826 2 17.985 1.7985 23.3805 0 0 0
2366 2 14.388 16.1865 5.3955 0 0 0
294 2 32.373 8.9925 12.5895 0 0 0
35 2 34.1715 3.597 26.9775 0 0 0
1022 2 25.179 1.7985 19.7835 0 0 0
2644 2 8.9925 5.3955 0.0 0 0 0
3973 2 0.0 28.776 21.582 0 0 0
3203 2 5.3955 17.985 1.7985 0 0 0
1298 2 25.179 26.9775 16.1865 0 0 0
2342 2 14.388 12.5895 19.7835 0 0 0
3012 2 5.3955 1.7985 7.194 0 0 0
662 2 28.776 5.3955 19.7835 0 0 0
1119 2 23.3805 7.194 34.1715 0 0 0
2162 2 17.985 34.1715 1.7985 0 0 0
3695 2 1.7985 25.179 12.5895 0 0 0
1877 2 17.985 3.597 32.373 0 0 0
2706 3 10.791 8.9925 23.3805 0 0 0
54 3 34.1715 8.9925 21.582 0 0 0
2073 3 17.985 21.582 28.776 0 0 0
2966 3 10.791 34.1715 5.3955 0 0 0
3472 3 1.7985 5.3955 25.179 0 0 0
873 3 28.776 21.582 28.776 0 0 0
3731 3 1.7985 28.776 8.9925 0 0 0
728 3 26.9775 12.5895 3.597 0 0 0
3580 3 1.7985 16.1865 14.388 0 0 0
235 3 30.5745 0.0 30.5745 0 0 0
1292 3 23.3805 26.9775 7.194 0 0 0
1252 3 23.3805 23.3805 7.194 0 0 0
1492 3 19.7835 8.9925 7.194 0 0 0
2478 3 14.388 23.3805 34.1715 0 0 0
3348 3 5.3955 30.5745 21.582 0 0 0
1007 3 23.3805 0.0 5.3955 0 0 0
1543 3 19.7835 10.791 19.7835 0 0 0
966 3 28.776 34.1715 5.3955 0 0 0
3388 3 5.3955 34.1715 21.582 0 0 0
2125 3 17.985 28.776 3.597 0 0 0
3254 3 7.194 23.3805 12.5895 0 0 0
281 3 32.373 7.194 0.0 0 0 0
1755 3 19.7835 28.776 30.5745 0 0 0
1587 3 19.7835 14.388 23.3805 0 0 0
1945 3 17.985 10.791 21.582 0 0 0
2154 3 17.985 30.5745 30.5745 0 0 0
1295 3 23.3805 25.179 12.5895 0 0 0
1859 3 16.1865 3.597 16.1865 0 0 0
1867 3 16.1865 3.597 23.3805 0 0 0
1032 3 23.3805 1.7985 25.179 0 0 0
872 3 26.9775 23.3805 25.179 0 0 0
618 3 28.776 1.7985 16.1865 0 0 0
414 3 32.373 19.7835 12.5895 0 0 0
14 3 34.1715 1.7985 21.582 0 0 0
2150 3 17.985 30.5745 26.9775 0 0 0
2722 3 10.791 12.5895 1.7985 0 0 0
3810 3 0.0 1.7985 16.1865 0 0 0
3381 3 7.194 32.373 17.985 0 0 0
246 3 32.373 5.3955 5.3955 0 0 0
450 3 32.373 23.3805 8.9925 0 0 0
1087 3 23.3805 7.194 5.3955 0 0 0
3447 3 1.7985 3.597 5.3955 0 0 0
3021 3 7.194 0.0 17.985 0 0 0
3834 3 0.0 5.3955 23.3805 0 0 0
300 3 30.5745 8.9925 14.388 0 0 0
3326 3 7.194 30.5745 5.3955 0 0 0
2760 3 8.9925 12.5895 32.373 0 0 0
2138 3 17.985 30.5745 16.1865 0 0 0
1906 3 17.985 8.9925 23.3805 0 0 0
950 3 28.776 30.5745 26.9775 0 0 0
2858 3 10.791 23.3805 16.1865 0 0 0
413 3 32.373 17.985 10.791 0 0 0
2042 3 17.985 23.3805 1.7985 0 0 0
2653 3 10.791 3.597 10.791 0 0 0
1098 3 25.179 8.9925 16.1865 0 0 0
2359 3 12.5895 10.791 34.1715 0 0 0
2560 3 12.5895 30.5745 32.373 0 0 0
1392 3 23.3805 34.1715 25.179 0 0 0
3040 3 5.3955 1.7985 32.373 0 0 0
477 3 32.373 21.582 32.373 0 0 0
595 3 30.5745 32.373 30.5745 0 0 0
2086 3 17.985 26.9775 5.3955 0 0 0
1580 3 19.7835 16.1865 14.388 0 0 0
2626 3 10.791 1.7985 23.3805 0 0 0
1571 3 19.7835 14.388 8.9925 0 0 0
1287 3 23.3805 25.179 5.3955 0 0 0
3638 3 3.597 19.7835 34.1715 0 0 0
3540 3 1.7985 12.5895 14.388 0 0 0
64 3 34.1715 12.5895 3.597 0 0 0
3990 3 0.0 34.1715 16.1865 0 0 0
1816 3 16.1865 1.7985 10.791 0 0 0
389 3 32.373 14.388 25.179 0 0 0
1908 3 16.1865 8.9925 21.582 0 0 0
2414 3 14.388 19.7835 12.5895 0 0 0
1872 3 16.1865 5.3955 25.179 0 0 0
991 3 26.9775 32.373 26.9775 0 0 0
2415 3 12.5895 17.985 12.5895 0 0 0
2896 3 8.9925 26.9775 10.791 0 0 0
1009 3 25.179 0.0 7.194 0 0 0
2213 3 14.388 0.0 10.791 0 0 0
44 3 34.1715 8.9925 3.597 0 0 0
3547 3 1.7985 10.791 23.3805 0 0 0
91 3 34.1715 14.388 19.7835 0 0 0
982 3 28.776 34.1715 19.7835 0 0 0
1740 3 19.7835 30.5745 14.388 0 0 0
2481 3 14.388 25.179 0.0 0 0 0
2495 3 12.5895 25.179 12.5895 0 0 0
462 3 32.373 23.3805 19.7835 0 0 0
3561 3 3.597 14.388 0.0 0 0 0
2932 3 8.9925 30.5745 7.194 0 0 0
501 3 32.373 25.179 17.985 0 0 0
857 3 28.776 21.582 14.388 0 0 0
1577 3 21.582 14.388 14.388 0 0 0
2828 3 8.9925 19.7835 21.582 0 0 0
115 3 34.1715 17.985 26.9775 0 0 0
3035 3 5.3955 0.0 30.5745 0 0 0
922 3 28.776 30.5745 1.7985 0 0 0
3863 3 0.0 10.791 3.597 0 0 0
2694 3 10.791 8.9925 12.5895 0 0 0
378 3 32.373 16.1865 16.1865 0 0 0
2192 3 16.1865 34.1715 25.179 0 0 0
1418 3 21.582 1.7985 16.1865 0 0 0
1526 3 21.582 12.5895 5.3955 0 0 0
313 3 32.373 7.194 28.776 0 0 0
2969 3 10.791 32.373 7.194 0 0 0
749 3 28.776 10.791 25.179 0 0 0
779 3 26.9775 14.388 16.1865 0 0 0
3313 3 7.194 25.179 28.776 0 0 0
2249 3 14.388 3.597 7.194 0 0 0
3238 3 7.194 19.7835 34.1715 0 0 0
2333 3 14.388 10.791 10.791 0 0 0
1275 3 23.3805 21.582 30.5745 0 0 0
1754 3 21.582 30.5745 30.5745 0 0 0
1915 3 16.1865 7.194 30.5745 0 0 0
3594 3 3.597 16.1865 30.5745 0 0 0
2603 3 8.9925 0.0 1.7985 0 0 0
1894 3 17.985 8.9925 12.5895 0 0 0
2606 3 10.791 1.7985 5.3955 0 0 0
1671 3 19.7835 21.582 26.9775 0 0 0
2845 3 10.791 21.582 3.597 0 0 0
744 3 26.9775 12.5895 17.985 0 0 0
866 3 28.776 23.3805 23.3805 0 0 0
704 3 26.9775 8.9925 17.985 0 0 0
213 3 32.373 0.0 10.791 0 0 0
2048 3 16.1865 23.3805 3.597 0 0 0
996 3 26.9775 34.1715 28.776 0 0 0
3525 3 3.597 10.791 3.597 0 0 0
3895 3 0.0 14.388 25.179 0 0 0
1125 3 25.179 10.791 3.597 0 0 0
1147 3 23.3805 10.791 23.3805 0 0 0
3435 3 1.7985 0.0 30.5745 0 0 0
136 3 34.1715 23.3805 25.179 0 0 0
2693 3 10.791 7.194 10.791 0 0 0
3402 3 3.597 1.7985 1.7985 0 0 0
2945 3 10.791 28.776 21.582 0 0 0
1075 3 23.3805 3.597 30.5745 0 0 0
867 3 26.9775 21.582 23.3805 0 0 0
3726 3 3.597 30.5745 5.3955 0 0 0
1102 3 25.179 8.9925 19.7835 0 0 0
3824 3 0.0 5.3955 5.3955 0 0 0
1468 3 19.7835 5.3955 21.582 0 0 0
606 3 28.776 1.7985 5.3955 0 0 0
402 3 32.373 19.7835 1.7985 0 0 0
636 3 26.9775 1.7985 28.776 0 0 0
225 3 32.373 0.0 21.582 0 0 0
2140 3 16.1865 30.5745 14.388 0 0 0
1815 3 16.1865 0.0 12.5895 0 0 0
2982 3 10.791 34.1715 19.7835 0 0 0
2640 3 8.9925 1.7985 32.373 0 0 0
143 3 34.1715 25.179 5.3955 0 0 0
3291 3 5.3955 25.179 8.9925 0 0 0
1605 3 21.582 17.985 3.597 0 0 0
3201 3 7.194 17.985 0.0 0 0 0
2554 3 14.388 30.5745 30.5745 0 0 0
2918 3 10.791 26.9775 34.1715 0 0 0
2260 3 12.5895 5.3955 14.388 0 0 0
740 3 26.9775 12.5895 14.388 0 0 0
1347 3 23.3805 28.776 23.3805 0 0 0
2695 3 8.9925 7.194 12.5895 0 0 0
1458 3 21.582 5.3955 16.1865 0 0 0
479 3 30.5745 21.582 34.1715 0 0 0
628 3 26.9775 1.7985 21.582 0 0 0
1135 3 23.3805 10.791 12.5895 0 0 0
3892 3 0.0 16.1865 19.7835 0 0 0
156 3 34.1715 26.9775 25.179 0 0 0
3180 3 5.3955 16.1865 14.388 0 0 0
333 3 32.373 10.791 10.791 0 0 0
493 3 32.373 25.179 10.791 0 0 0
571 3 30.5745 32.373 8.9925 0 0 0
1680 3 19.7835 23.3805 32.373 0 0 0
3957 3 0.0 25.179 28.776 0 0 0
3510 3 3.597 8.9925 26.9775 0 0 0
1442 3 21.582 5.3955 1.7985 0 0 0
2144 3 16.1865 30.5745 17.985 0 0 0
239 3 30.5745 0.0 34.1715 0 0 0
2903 3 8.9925 25.179 19.7835 0 0 0
904 3 26.9775 26.9775 17.985 0 0 0
1876 3 16.1865 5.3955 28.776 0 0 0
1155 3 23.3805 10.791 30.5745 0 0 0
832 3 26.9775 19.7835 25.179 0 0 0
1595 3 19.7835 14.388 30.5745 0 0 0
2142 3 17.985 30.5745 19.7835 0 0 0
2302 3 14.388 8.9925 19.7835 0 0 0
3054 3 7.194 5.3955 12.5895 0 0 0
3647 3 1.7985 21.582 5.3955 0 0 0
1040 3 23.3805 1.7985 32.373 0 0 0
304 3 30.5745 8.9925 17.985 0 0 0
1288 3 23.3805 26.9775 3.597 0 0 0
3833 3 0.0 3.597 21.582 0 0 0
3962 3 0.0 30.5745 1.7985 0 0 0
2335 3 12.5895 10.791 12.5895 0 0 0
2839 3 8.9925 17.985 34.1715 0 0 0
851 3 26.9775 21.582 8.9925 0 0 0
3308 3 5.3955 26.9775 21.582 0 0 0
2082 3 17.985 26.9775 1.7985 0 0 0
1714 3 21.582 26.9775 30.5745 0 0 0
1274 3 25.179 23.3805 30.5745 0 0 0
3798 3 3.597 34.1715 34.1715 0 0 0
2442 3 14.388 23.3805 1.7985 0 0 0
2869 3 10.791 21.582 25.179 0 0 0
1649 3 21.582 21.582 7.194 0 0 0
2505 3 14.388 25.179 21.582 0 0 0
2622 3 10.791 1.7985 19.7835 0 0 0
2965 3 10.791 32.373 3.597 0 0 0
3175 3 5.3955 14.388 12.5895 0 0 0
833 3 28.776 17.985 28.776 0 0 0
123 3 34.1715 21.582 5.3955 0 0 0
388 3 30.5745 16.1865 21.582 0 0 0
3518 3 3.597 8.9925 34.1715 0 0 0
3948 3 0.0 26.9775 12.5895 0 0 0
552 3 30.5745 30.5745 25.179 0 0 0
3134 3 7.194 12.5895 12.5895 0 0 0
2227 3 12.5895 0.0 23.3805 0 0 0
3185 3 7.194 14.388 21.582 0 0 0
2119 3 16.1865 25.179 34.1715 0 0 0
2979 3 8.9925 32.373 16.1865 0 0 0
169 3 34.1715 28.776 16.1865 0 0 0
1624 3 19.7835 19.7835 17.985 0 0 0
626 3 28.776 1.7985 23.3805 0 0 0
3064 3 5.3955 5.3955 17.985 0 0 0
820 3 26.9775 19.7835 14.388 0 0 0
530 3 32.373 30.5745 8.9925 0 0 0
976 3 26.9775 34.1715 10.791 0 0 0
1926 3 17.985 12.5895 5.3955 0 0 0
2955 3 8.9925 28.776 30.5745 0 0 0
1808 3 16.1865 1.7985 3.597 0 0 0
264 3 30.5745 5.3955 17.985 0 0 0
1727 3 19.7835 28.776 5.3955 0 0 0
1437 3 21.582 0.0 32.373 0 0 0
3904 3 0.0 19.7835 5.3955 0 0 0
1930 3 17.985 12.5895 8.9925 0 0 0
309 3 32.373 7.194 25.179 0 0 0
3229 3 7.194 17.985 25.179 0 0 0
3050 3 7.194 5.3955 8.9925 0 0 0
251 3 30.5745 3.597 8.9925 0 0 0
3584 3 1.7985 16.1865 17.985 0 0 0
734 3 28.776 12.5895 12.5895 0 0 0
1044 3 23.3805 5.3955 0.0 0 0 0
1374 3 25.179 34.1715 12.5895 0 0 0
1355 3 23.3805 28.776 30.5745 0 0 0
2725 3 10.791 10.791 3.597 0 0 0
3545 3 3.597 10.791 21.582 0 0 0
2309 3 14.388 7.194 25.179 0 0 0
1094 3 25.179 8.9925 12.5895 0 0 0
2350 3 14.388 12.5895 26.9775 0 0 0
142 3 34.1715 26.9775 0.0 0 0 0
3609 3 3.597 17.985 7.194 0 0 0
221 3 32.373 0.0 17.985 0 0 0
1618 3 21.582 19.7835 16.1865 0 0 0
2021 3 17.985 17.985 17.985 0 0 0
3044 3 5.3955 5.3955 0.0 0 0 0
3224 3 5.3955 19.7835 17.985 0 0 0
1661 3 21.582 21.582 17.985 0 0 0
3750 3 3.597 30.5745 26.9775 0 0 0
153 3 34.1715 25.179 23.3805 0 0 0
2508 3 12.5895 26.9775 21.582 0 0 0
1672 3 19.7835 23.3805 25.179 0 0 0
2403 3 12.5895 17.985 1.7985 0 0 0
3509 3 3.597 7.194 25.179 0 0 0
2911 3 8.9925 25.179 26.9775 0 0 0
1 3 34.1715 0.0 1.7985 0 0 0
2581 3 14.388 32.373 17.985 0 0 0
940 3 26.9775 30.5745 14.388 0 0 0
3929 3 0.0 21.582 14.388 0 0 0
2860 3 8.9925 23.3805 14.388 0 0 0
1529 3 21.582 10.791 7.194 0 0 0
2639 3 8.9925 0.0 34.1715 0 0 0
1017 3 25.179 0.0 14.388 0 0 0
3000 3 8.9925 34.1715 32.373 0 0 0
2736 3 8.9925 12.5895 10.791 0 0 0
3062 3 7.194 5.3955 19.7835 0 0 0
3974 3 0.0 30.5745 23.3805 0 0 0
3690 3 3.597 26.9775 8.9925 0 0 0
2055 3 16.1865 21.582 12.5895 0 0 0
3617 3 3.597 17.985 14.388 0 0 0
777 3 28.776 14.388 14.388 0 0 0
2710 3 10.791 8.9925 26.9775 0 0 0
2278 3 14.388 5.3955 34.1715 0 0 0
471 3 30.5745 21.582 26.9775 0 0 0
1471 3 19.7835 3.597 26.9775 0 0 0
2635 3 8.9925 0.0 30.5745 0 0 0
790 3 28.776 16.1865 26.9775 0 0 0
165 3 34.1715 28.776 8.9925 0 0 0
1881 3 17.985 7.194 0.0 0 0 0
3980 3 0.0 30.5745 34.1715 0 0 0
3165 3 7.194 14.388 3.597 0 0 0
741 3 28.776 10.791 17.985 0 0 0
315 3 30.5745 7.194 30.5745 0 0 0
3113 3 7.194 7.194 28.776 0 0 0
3935 3 0.0 21.582 25.179 0 0 0
1812 3 16.1865 1.7985 7.194 0 0 0
1233 3 25.179 17.985 28.776 0 0 0
207 3 30.5745 0.0 5.3955 0 0 0
1938 3 17.985 12.5895 16.1865 0 0 0
1457 3 21.582 3.597 14.388 0 0 0
2112 3 16.1865 26.9775 25.179 0 0 0
454 3 32.373 23.3805 12.5895 0 0 0
307 3 30.5745 7.194 23.3805 0 0 0
3109 3 7.194 7.194 25.179 0 0 0
2453 3 14.388 21.582 10.791 0 0 0
3081 3 7.194 7.194 0.0 0 0 0
3532 3 1.7985 12.5895 7.194 0 0 0
2902 3 10.791 26.9775 19.7835 0 0 0
1461 3 21.582 3.597 17.985 0 0 0
3406 3 3.597 1.7985 5.3955 0 0 0
920 3 26.9775 26.9775 32.373 0 0 0
1002 3 25.179 1.7985 1.7985 0 0 0
3495 3 1.7985 7.194 12.5895 0 0 0
172 3 34.1715 30.5745 17.985 0 0 0
469 3 32.373 21.582 25.179 0 0 0
2160 3 16.1865 30.5745 32.373 0 0 0
3893 3 0.0 14.388 21.582 0 0 0
1386 3 25.179 34.1715 23.3805 0 0 0
845 3 28.776 21.582 3.597 0 0 0
3718 3 3.597 26.9775 34.1715 0 0 0
1020 3 23.3805 1.7985 14.388 0 0 0
1888 3 16.1865 8.9925 3.597 0 0 0
2522 3 14.388 30.5745 1.7985 0 0 0
3592 3 1.7985 16.1865 25.179 0 0 0
2610 3 10.791 1.7985 8.9925 0 0 0
1381 3 25.179 32.373 17.985 0 0 0
812 3 26.9775 19.7835 7.194 0 0 0
3329 3 7.194 28.776 7.194 0 0 0
553 3 32.373 28.776 28.776 0 0 0
1555 3 19.7835 10.791 30.5745 0 0 0
751 3 26.9775 10.791 26.9775 0 0 0
2890 3 10.791 26.9775 8.9925 0 0 0
1336 3 23.3805 30.5745 10.791 0 0 0
763 3 26.9775 14.388 1.7985 0 0 0
3148 3 5.3955 12.5895 21.582 0 0 0
1202 3 25.179 19.7835 1.7985 0 0 0
215 3 30.5745 0.0 12.5895 0 0 0
2485 3 14.388 25.179 3.597 0 0 0
3114 3 7.194 8.9925 30.5745 0 0 0
132 3 34.1715 23.3805 17.985 0 0 0
1432 3 19.7835 1.7985 25.179 0 0 0
2804 3 8.9925 19.7835 0.0 0 0 0
1977 3 17.985 14.388 14.388 0 0 0
1256 3 23.3805 23.3805 10.791 0 0 0
2595 3 12.5895 32.373 30.5745 0 0 0
3544 3 1.7985 12.5895 17.985 0 0 0
3274 3 7.194 23.3805 30.5745 0 0 0
2625 3 10.791 0.0 21.582 0 0 0
1420 3 19.7835 1.7985 14.388 0 0 0
348 3 30.5745 12.5895 21.582 0 0 0
837 3 28.776 17.985 32.373 0 0 0
3340 3 5.3955 30.5745 14.388 0 0 0
3555 3 1.7985 10.791 30.5745 0 0 0
3453 3 3.597 3.597 10.791 0 0 0
3015 3 5.3955 0.0 12.5895 0 0 0
486 3 32.373 26.9775 5.3955 0 0 0
663 3 26.9775 3.597 19.7835 0 0 0
3784 3 1.7985 34.1715 17.985 0 0 0
762 3 28.776 16.1865 1.7985 0 0 0
2017 3 17.985 17.985 14.388 0 0 0
1640 3 19.7835 19.7835 32.373 0 0 0
233 3 32.373 0.0 28.776 0 0 0
2914 3 10.791 26.9775 30.5745 0 0 0
648 3 26.9775 5.3955 3.597 0 0 0
157 3 34.1715 25.179 30.5745 0 0 0
1646 3 21.582 23.3805 5.3955 0 0 0
878 3 28.776 23.3805 34.1715 0 0 0
2104 3 16.1865 26.9775 17.985 0 0 0
1488 3 19.7835 8.9925 3.597 0 0 0
2066 3 17.985 23.3805 23.3805 0 0 0
1423 3 19.7835 0.0 19.7835 0 0 0
1038 3 25.179 1.7985 34.1715 0 0 0
3837 3 0.0 3.597 28.776 0 0 0
3963 3 0.0 28.776 3.597 0 0 0
2130 3 17.985 30.5745 8.9925 0 0 0
2136 3 16.1865 30.5745 10.791 0 0 0
1463 3 19.7835 3.597 19.7835 0 0 0
3747 3 1.7985 28.776 23.3805 0 0 0
3219 3 5.3955 17.985 16.1865 0 0 0
560 3 30.5745 30.5745 32.373 0 0 0
3413 3 3.597 0.0 10.791 0 0 0
2016 3 16.1865 19.7835 10.791 0 0 0
1470 3 21.582 5.3955 26.9775 0 0 0
1187 3 23.3805 14.388 23.3805 0 0 0
3664 3 1.7985 23.3805 17.985 0 0 0
3955 3 0.0 25.179 25.179 0 0 0
362 3 32.373 16.1865 1.7985 0 0 0
3176 3 5.3955 16.1865 10.791 0 0 0
1829 3 17.985 0.0 25.179 0 0 0
2062 3 17.985 23.3805 19.7835 0 0 0
1606 3 21.582 19.7835 5.3955 0 0 0
3055 3 5.3955 3.597 12.5895 0 0 0
557 3 32.373 28.776 32.373 0 0 0
1426 3 21.582 1.7985 23.3805 0 0 0
521 3 32.373 28.776 0.0 0 0 0
3275 3 5.3955 21.582 30.5745 0 0 0
1130 3 25.179 12.5895 8.9925 0 0 0
2071 3 16.1865 21.582 26.9775 0 0 0
2027 3 16.1865 17.985 23.3805 0 0 0
3205 3 7.194 17.985 3.597 0 0 0
656 3 26.9775 5.3955 10.791 0 0 0
745 3 28.776 10.791 21.582 0 0 0
644 3 26.9775 5.3955 0.0 0 0 0
2747 3 8.9925 10.791 23.3805 0 0 0
2661 3 10.791 3.597 17.985 0 0 0
19 3 34.1715 0.0 34.1715 0 0 0
1429 3 21.582 0.0 25.179 0 0 0
3877 3 0.0 10.791 28.776 0 0 0
3116 3 5.3955 8.9925 28.776 0 0 0
979 3 26.9775 32.373 16.1865 0 0 0
1016 3 23.3805 1.7985 10.791 0 0 0
1731 3 19.7835 28.776 8.9925 0 0 0
3759 3 1.7985 28.776 34.1715 0 0 0
2498 3 14.388 26.9775 16.1865 0 0 0
1149 3 25.179 10.791 25.179 0 0 0
1039 3 23.3805 0.0 34.1715 0 0 0
3867 3 0.0 10.791 10.791 0 0 0
3407 3 1.7985 0.0 5.3955 0 0 0
3085 3 7.194 7.194 3.597 0 0 0
3888 3 0.0 16.1865 12.5895 0 0 0
3231 3 5.3955 17.985 26.9775 0 0 0
3870 3 0.0 12.5895 16.1865 0 0 0
171 3 34.1715 28.776 19.7835 0 0 0
2958 3 10.791 30.5745 34.1715 0 0 0
3216 3 5.3955 19.7835 10.791 0 0 0
3367 3 5.3955 32.373 5.3955 0 0 0
3927 3 0.0 21.582 10.791 0 0 0
2669 3 10.791 3.597 25.179 0 0 0
1987 3 16.1865 14.388 23.3805 0 0 0
2830 3 10.791 19.7835 26.9775 0 0 0
2926 3 10.791 30.5745 5.3955 0 0 0
3013 3 7.194 0.0 10.791 0 0 0
3096 3 5.3955 8.9925 10.791 0 0 0
2770 3 10.791 16.1865 8.9925 0 0 0
1163 3 23.3805 14.388 1.7985 0 0 0
3998 3 0.0 34.1715 30.5745 0 0 0
899 3 26.9775 25.179 16.1865 0 0 0
1416 3 19.7835 1.7985 10.791 0 0 0
3559 3 1.7985 10.791 34.1715 0 0 0
934 3 28.776 30.5745 12.5895 0 0 0
3306 3 7.194 26.9775 23.3805 0 0 0
3947 3 0.0 25.179 10.791 0 0 0
2188 3 16.1865 34.1715 21.582 0 0 0
783 3 26.9775 14.388 19.7835 0 0 0
131 3 34.1715 21.582 19.7835 0 0 0
1570 3 21.582 16.1865 8.9925 0 0 0
3042 3 7.194 5.3955 1.7985 0 0 0
2912 3 8.9925 26.9775 25.179 0 0 0
573 3 32.373 32.373 10.791 0 0 0
2807 3 8.9925 17.985 5.3955 0 0 0
2502 3 14.388 26.9775 19.7835 0 0 0
2986 3 10.791 34.1715 23.3805 0 0 0
1237 3 25.179 17.985 32.373 0 0 0
692 3 26.9775 8.9925 7.194 0 0 0
3177 3 7.194 14.388 14.388 0 0 0
453 3 32.373 21.582 10.791 0 0 0
1286 3 25.179 26.9775 5.3955 0 0 0
1138 3 25.179 12.5895 16.1865 0 0 0
3970 3 0.0 30.5745 16.1865 0 0 0
651 3 26.9775 3.597 8.9925 0 0 0
431 3 30.5745 17.985 26.9775 0 0 0
1792 3 19.7835 34.1715 25.179 0 0 0
32 3 34.1715 5.3955 17.985 0 0 0
3142 3 7.194 12.5895 19.7835 0 0 0
3343 3 5.3955 28.776 19.7835 0 0 0
1684 3 19.7835 26.9775 0.0 0 0 0
580 3 30.5745 34.1715 14.388 0 0 0
3857 3 0.0 7.194 28.776 0 0 0
2791 3 8.9925 14.388 26.9775 0 0 0
2705 3 10.791 7.194 21.582 0 0 0
3914 3 0.0 19.7835 23.3805 0 0 0
3423 3 1.7985 0.0 19.7835 0 0 0
2458 3 14.388 23.3805 16.1865 0 0 0
2893 3 10.791 25.179 10.791 0 0 0
3976 3 0.0 30.5745 26.9775 0 0 0
1703 3 19.7835 25.179 19.7835 0 0 0
351 3 30.5745 10.791 26.9775 0 0 0
1835 3 16.1865 0.0 30.5745 0 0 0
2397 3 14.388 14.388 32.373 0 0 0
2024 3 16.1865 19.7835 17.985 0 0 0
2908 3 8.9925 26.9775 21.582 0 0 0
1478 3 21.582 5.3955 34.1715 0 0 0
2541 3 14.388 28.776 17.985 0 0 0
518 3 32.373 26.9775 34.1715 0 0 0
1960 3 16.1865 12.5895 32.373 0 0 0
1073 3 25.179 3.597 28.776 0 0 0
482 3 32.373 26.9775 1.7985 0 0 0
1153 3 25.179 10.791 28.776 0 0 0
3667 3 1.7985 21.582 23.3805 0 0 0
906 3 28.776 26.9775 23.3805 0 0 0
92 3 34.1715 16.1865 17.985 0 0 0
1769 3 21.582 32.373 7.194 0 0 0
1006 3 25.179 1.7985 5.3955 0 0 0
1811 3 16.1865 0.0 8.9925 0 0 0
3579 3 1.7985 14.388 16.1865 0 0 0
2103 3 16.1865 25.179 19.7835 0 0 0
3222 3 7.194 19.7835 19.7835 0 0 0
2897 3 10.791 25.179 14.388 0 0 0
2822 3 10.791 19.7835 19.7835 0 0 0
859 3 26.9775 21.582 16.1865 0 0 0
232 3 30.5745 1.7985 25.179 0 0 0
1924 3 16.1865 12.5895 0.0 0 0 0
2519 3 12.5895 25.179 34.1715 0 0 0
3465 3 3.597 3.597 21.582 0 0 0
3997 3 0.0 32.373 28.776 0 0 0
319 3 30.5745 7.194 34.1715 0 0 0
828 3 26.9775 19.7835 21.582 0 0 0
6 3 34.1715 1.7985 7.194 0 0 0
1610 3 21.582 19.7835 8.9925 0 0 0
2846 3 10.791 23.3805 5.3955 0 0 0
2371 3 12.5895 14.388 8.9925 0 0 0
1340 3 23.3805 30.5745 14.388 0 0 0
3670 3 3.597 23.3805 26.9775 0 0 0
3887 3 0.0 14.388 10.791 0 0 0
2413 3 14.388 17.985 10.791 0 0 0
1958 3 17.985 12.5895 34.1715 0 0 0
2262 3 14.388 5.3955 19.7835 0 0 0
1524 3 19.7835 12.5895 0.0 0 0 0
1789 3 21.582 32.373 25.179 0 0 0
2961 3 10.791 32.373 0.0 0 0 0
410 3 32.373 19.7835 8.9925 0 0 0
1928 3 16.1865 12.5895 3.597 0 0 0
3227 3 5.3955 17.985 23.3805 0 0 0
3942 3 0.0 26.9775 1.7985 0 0 0
415 3 30.5745 17.985 12.5895 0 0 0
2624 3 8.9925 1.7985 17.985 0 0 0
1093 3 25.179 7.194 10.791 0 0 0
1744 3 19.7835 30.5745 17.985 0 0 0
3661 3 3.597 21.582 17.985 0 0 0
581 3 32.373 32.373 17.985 0 0 0
1029 3 25.179 0.0 25.179 0 0 0
327 3 30.5745 10.791 5.3955 0 0 0
2594 3 14.388 34.1715 30.5745 0 0 0
787 3 26.9775 14.388 23.3805 0 0 0
497 3 32.373 25.179 14.388 0 0 0
1833 3 17.985 0.0 28.776 0 0 0
695 3 26.9775 7.194 12.5895 0 0 0
3903 3 0.0 17.985 3.597 0 0 0
807 3 26.9775 17.985 5.3955 0 0 0
1140 3 23.3805 12.5895 14.388 0 0 0
3482 3 3.597 8.9925 1.7985 0 0 0
2353 3 14.388 10.791 28.776 0 0 0
3415 3 1.7985 0.0 12.5895 0 0 0
2552 3 12.5895 30.5745 25.179 0 0 0
1594 3 21.582 16.1865 30.5745 0 0 0
1559 3 19.7835 10.791 34.1715 0 0 0
1607 3 19.7835 17.985 5.3955 0 0 0
2980 3 8.9925 34.1715 14.388 0 0 0
3314 3 7.194 26.9775 30.5745 0 0 0
3779 3 1.7985 32.373 16.1865 0 0 0
2316 3 12.5895 8.9925 28.776 0 0 0
1071 3 23.3805 3.597 26.9775 0 0 0
2124 3 16.1865 30.5745 0.0 0 0 0
3351 3 5.3955 28.776 26.9775 0 0 0
2099 3 16.1865 25.179 16.1865 0 0 0
752 3 26.9775 12.5895 25.179 0 0 0
1008 3 23.3805 1.7985 3.597 0 0 0
3179 3 5.3955 14.388 16.1865 0 0 0
2093 3 17.985 25.179 10.791 0 0 0
2402 3 14.388 19.7835 1.7985 0 0 0
970 3 28.776 34.1715 8.9925 0 0 0
3212 3 5.3955 19.7835 7.194 0 0 0
3160 3 5.3955 12.5895 32.373 0 0 0
643 3 26.9775 3.597 1.7985 0 0 0
400 3 30.5745 16.1865 32.373 0 0 0
793 3 28.776 14.388 28.776 0 0 0
2411 3 12.5895 17.985 8.9925 0 0 0
1041 3 25.179 3.597 0.0 0 0 0
3551 3 1.7985 10.791 26.9775 0 0 0
3719 3 1.7985 25.179 34.1715 0 0 0
2223 3 12.5895 0.0 19.7835 0 0 0
3788 3 1.7985 34.1715 21.582 0 0 0
1870 3 17.985 5.3955 26.9775 0 0 0
2390 3 14.388 16.1865 26.9775 0 0 0
3675 3 1.7985 21.582 30.5745 0 0 0
2241 3 14.388 3.597 0.0 0 0 0
292 3 30.5745 8.9925 7.194 0 0 0
3686 3 3.597 26.9775 5.3955 0 0 0
1659 3 19.7835 21.582 16.1865 0 0 0
2668 3 8.9925 5.3955 21.582 0 0 0
3944 3 0.0 26.9775 5.3955 0 0 0
1831 3 16.1865 0.0 26.9775 0 0 0
2775 3 8.9925 14.388 12.5895 0 0 0
2796 3 8.9925 16.1865 28.776 0 0 0
1221 3 25.179 17.985 17.985 0 0 0
509 3 32.373 25.179 25.179 0 0 0
2548 3 12.5895 30.5745 21.582 0 0 0
2944 3 8.9925 30.5745 17.985 0 0 0
1474 3 21.582 5.3955 30.5745 0 0 0
1086 3 25.179 8.9925 5.3955 0 0 0
2011 3 16.1865 17.985 8.9925 0 0 0
1467 3 19.7835 3.597 23.3805 0 0 0
2920 3 8.9925 26.9775 32.373 0 0 0
3677 3 3.597 21.582 32.373 0 0 0
1345 3 25.179 28.776 21.582 0 0 0
3159 3 5.3955 10.791 34.1715 0 0 0
583 3 30.5745 32.373 19.7835 0 0 0
2584 3 12.5895 34.1715 17.985 0 0 0
633 3 28.776 0.0 28.776 0 0 0
238 3 32.373 1.7985 34.1715 0 0 0
2915 3 8.9925 25.179 30.5745 0 0 0
1944 3 16.1865 12.5895 17.985 0 0 0
2634 3 10.791 1.7985 30.5745 0 0 0
3802 3 0.0 1.7985 1.7985 0 0 0
3979 3 0.0 28.776 32.373 0 0 0
1225 3 25.179 17.985 21.582 0 0 0
195 3 34.1715 32.373 26.9775 0 0 0
3303 3 5.3955 25.179 19.7835 0 0 0
1046 3 25.179 5.3955 5.3955 0 0 0
3753 3 3.597 28.776 28.776 0 0 0
46 3 34.1715 8.9925 7.194 0 0 0
3246 3 7.194 23.3805 5.3955 0 0 0
285 3 32.373 7.194 3.597 0 0 0
3569 3 3.597 14.388 7.194 0 0 0
2240 3 12.5895 1.7985 32.373 0 0 0
1652 3 19.7835 23.3805 7.194 0 0 0
3573 3 3.597 14.388 10.791 0 0 0
2137 3 17.985 28.776 14.388 0 0 0
924 3 26.9775 30.5745 0.0 0 0 0
1188 3 23.3805 16.1865 21.582 0 0 0
3439 3 1.7985 0.0 34.1715 0 0 0
788 3 26.9775 16.1865 21.582 0 0 0
2728 3 8.9925 12.5895 3.597 0 0 0
3773 3 3.597 32.373 10.791 0 0 0
2146 3 17.985 30.5745 23.3805 0 0 0
617 3 28.776 0.0 14.388 0 0 0
3281 3 7.194 25.179 0.0 0 0 0
218 3 32.373 1.7985 16.1865 0 0 0
3911 3 0.0 17.985 17.985 0 0 0
2255 3 12.5895 3.597 12.5895 0 0 0
2451 3 12.5895 21.582 8.9925 0 0 0
2372 3 12.5895 16.1865 7.194 0 0 0
1455 3 19.7835 3.597 12.5895 0 0 0
3975 3 0.0 28.776 25.179 0 0 0
3310 3 7.194 26.9775 26.9775 0 0 0
3372 3 5.3955 34.1715 7.194 0 0 0
517 3 32.373 25.179 32.373 0 0 0
685 3 28.776 7.194 3.597 0 0 0
586 3 32.373 34.1715 23.3805 0 0 0
723 3 26.9775 10.791 1.7985 0 0 0
3158 3 7.194 12.5895 34.1715 0 0 0
603 3 26.9775 0.0 1.7985 0 0 0
1839 3 16.1865 0.0 34.1715 0 0 0
3204 3 5.3955 19.7835 0.0 0 0 0
2133 3 17.985 28.776 10.791 0 0 0
637 3 28.776 0.0 32.373 0 0 0
507 3 30.5745 25.179 23.3805 0 0 0
2280 3 12.5895 5.3955 32.373 0 0 0
1278 3 25.179 23.3805 34.1715 0 0 0
1786 3 21.582 34.1715 23.3805 0 0 0
892 3 26.9775 26.9775 7.194 0 0 0
3332 3 5.3955 30.5745 7.194 0 0 0
1583 3 19.7835 14.388 19.7835 0 0 0
2156 3 16.1865 30.5745 28.776 0 0 0
1508 3 19.7835 8.9925 21.582 0 0 0
2033 3 17.985 17.985 28.776 0 0 0
3669 3 3.597 21.582 25.179 0 0 0
2683 3 8.9925 7.194 1.7985 0 0 0
1517 3 21.582 7.194 32.373 0 0 0
3100 3 5.3955 8.9925 14.388 0 0 0
3153 3 7.194 10.791 28.776 0 0 0
942 3 28.776 30.5745 19.7835 0 0 0
82 3 34.1715 16.1865 0.0 0 0 0
3763 3 1.7985 32.373 1.7985 0 0 0
1983 3 16.1865 14.388 19.7835 0 0 0
3920 3 0.0 19.7835 34.1715 0 0 0
3615 3 1.7985 17.985 12.5895 0 0 0
3452 3 1.7985 5.3955 7.194 0 0 0
3840 3 0.0 5.3955 34.1715 0 0 0
785 3 28.776 14.388 21.582 0 0 0
1873 3 17.985 3.597 28.776 0 0 0
1311 3 23.3805 25.179 26.9775 0 0 0
3454 3 3.597 5.3955 12.5895 0 0 0
236 3 30.5745 1.7985 28.776 0 0 0
2929 3 10.791 28.776 7.194 0 0 0
3862 3 0.0 12.5895 1.7985 0 0 0
278 3 32.373 5.3955 34.1715 0 0 0
139 3 34.1715 21.582 34.1715 0 0 0
778 3 28.776 16.1865 16.1865 0 0 0
3383 3 5.3955 32.373 19.7835 0 0 0
870 3 28.776 23.3805 26.9775 0 0 0
3585 3 3.597 14.388 21.582 0 0 0
202 3 32.373 1.7985 1.7985 0 0 0
2243 3 12.5895 3.597 1.7985 0 0 0
2660 3 8.9925 5.3955 14.388 0 0 0
2143 3 16.1865 28.776 19.7835 0 0 0
2295 3 12.5895 7.194 12.5895 0 0 0
2063 3 16.1865 21.582 19.7835 0 0 0
28 3 34.1715 5.3955 10.791 0 0 0
3729 3 3.597 28.776 7.194 0 0 0
2881 3 10.791 25.179 0.0 0 0 0
211 3 30.5745 0.0 8.9925 0 0 0
2040 3 16.1865 19.7835 32.373 0 0 0
730 3 28.776 12.5895 8.9925 0 0 0
332 3 30.5745 12.5895 7.194 0 0 0
2981 3 10.791 32.373 17.985 0 0 0
577 3 32.373 32.373 14.388 0 0 0
931 3 26.9775 28.776 8.9925 0 0 0
3593 3 3.597 14.388 28.776 0 0 0
918 3 28.776 26.9775 34.1715 0 0 0
2704 3 8.9925 8.9925 17.985 0 0 0
3193 3 7.194 14.388 28.776 0 0 0
1449 3 21.582 3.597 7.194 0 0 0
324 3 30.5745 12.5895 0.0 0 0 0
3713 3 3.597 25.179 28.776 0 0 0
2630 3 10.791 1.7985 26.9775 0 0 0
405 3 32.373 17.985 3.597 0 0 0
1402 3 21.582 1.7985 1.7985 0 0 0
2325 3 14.388 10.791 3.597 0 0 0
1171 3 23.3805 14.388 8.9925 0 0 0
3820 3 0.0 1.7985 34.1715 0 0 0
3161 3 7.194 14.388 0.0 0 0 0
649 3 28.776 3.597 7.194 0 0 0
3665 3 3.597 21.582 21.582 0 0 0
1218 3 25.179 19.7835 16.1865 0 0 0
3707 3 1.7985 25.179 23.3805 0 0 0
177 3 34.1715 28.776 30.5745 0 0 0
2444 3 12.5895 23.3805 0.0 0 0 0
3463 3 1.7985 3.597 19.7835 0 0 0
682 3 28.776 8.9925 1.7985 0 0 0
1803 3 16.1865 0.0 1.7985 0 0 0
2738 3 10.791 12.5895 16.1865 0 0 0
3316 3 5.3955 26.9775 28.776 0 0 0
3077 3 7.194 3.597 32.373 0 0 0
697 3 28.776 7.194 14.388 0 0 0
1678 3 21.582 23.3805 34.1715 0 0 0
1192 3 23.3805 16.1865 25.179 0 0 0
1984 3 16.1865 16.1865 17.985 0 0 0
3166 3 7.194 16.1865 5.3955 0 0 0
3425 3 3.597 0.0 21.582 0 0 0
1642 3 21.582 23.3805 1.7985 0 0 0
616 3 26.9775 1.7985 10.791 0 0 0
3230 3 7.194 19.7835 26.9775 0 0 0
888 3 26.9775 26.9775 3.597 0 0 0
116 3 34.1715 19.7835 25.179 0 0 0
3410 3 3.597 1.7985 8.9925 0 0 0
328 3 30.5745 12.5895 3.597 0 0 0
329 3 32.373 10.791 7.194 0 0 0
1716 3 19.7835 26.9775 28.776 0 0 0
886 3 28.776 26.9775 5.3955 0 0 0
3474 3 3.597 5.3955 30.5745 0 0 0
2354 3 14.388 12.5895 30.5745 0 0 0
2812 3 8.9925 19.7835 7.194 0 0 0
2289 3 14.388 7.194 7.194 0 0 0
1453 3 21.582 3.597 10.791 0 0 0
2983 3 8.9925 32.373 19.7835 0 0 0
3637 3 3.597 17.985 32.373 0 0 0
3673 3 3.597 21.582 28.776 0 0 0
2433 3 14.388 17.985 28.776 0 0 0
642 3 28.776 5.3955 1.7985 0 0 0
1885 3 17.985 7.194 3.597 0 0 0
1103 3 23.3805 7.194 19.7835 0 0 0
2273 3 14.388 3.597 28.776 0 0 0
419 3 30.5745 17.985 16.1865 0 0 0
726 3 28.776 12.5895 5.3955 0 0 0
451 3 30.5745 21.582 8.9925 0 0 0
3168 3 5.3955 16.1865 3.597 0 0 0
1632 3 19.7835 19.7835 25.179 0 0 0
2181 3 17.985 32.373 17.985 0 0 0
831 3 26.9775 17.985 26.9775 0 0 0
3434 3 3.597 1.7985 30.5745 0 0 0
1700 3 19.7835 26.9775 14.388 0 0 0
1185 3 25.179 14.388 21.582 0 0 0
2446 3 14.388 23.3805 5.3955 0 0 0
2821 3 10.791 17.985 17.985 0 0 0
2013 3 17.985 17.985 10.791 0 0 0
1273 3 25.179 21.582 28.776 0 0 0
3417 3 3.597 0.0 14.388 0 0 0
1317 3 25.179 25.179 32.373 0 0 0
2168 3 16.1865 34.1715 3.597 0 0 0
1266 3 25.179 23.3805 23.3805 0 0 0
3575 3 1.7985 14.388 12.5895 0 0 0
459 3 30.5745 21.582 16.1865 0 0 0
2115 3 16.1865 25.179 30.5745 0 0 0
2898 3 10.791 26.9775 16.1865 0 0 0
1076 3 23.3805 5.3955 28.776 0 0 0
71 3 34.1715 10.791 19.7835 0 0 0
1542 3 21.582 12.5895 19.7835 0 0 0
1617 3 21.582 17.985 14.388 0 0 0
2879 3 8.9925 21.582 34.1715 0 0 0
3170 3 7.194 16.1865 8.9925 0 0 0
2773 3 10.791 14.388 10.791 0 0 0
94 3 34.1715 16.1865 21.582 0 0 0
1848 3 16.1865 5.3955 3.597 0 0 0
3808 3 0.0 1.7985 12.5895 0 0 0
344 3 30.5745 12.5895 17.985 0 0 0
2874 3 10.791 23.3805 30.5745 0 0 0
1173 3 25.179 14.388 10.791 0 0 0
3366 3 7.194 34.1715 5.3955 0 0 0
1360 3 23.3805 30.5745 32.373 0 0 0
2866 3 10.791 23.3805 23.3805 0 0 0
1240 3 23.3805 19.7835 32.373 0 0 0
1784 3 19.7835 34.1715 17.985 0 0 0
694 3 28.776 8.9925 12.5895 0 0 0
1798 3 21.582 34.1715 34.1715 0 0 0
308 3 30.5745 8.9925 21.582 0 0 0
3466 3 3.597 5.3955 23.3805 0 0 0
230 3 32.373 1.7985 26.9775 0 0 0
2303 3 12.5895 7.194 19.7835 0 0 0
3400 3 5.3955 34.1715 32.373 0 0 0
1245 3 25.179 21.582 3.597 0 0 0
2445 3 14.388 21.582 3.597 0 0 0
394 3 32.373 16.1865 30.5745 0 0 0
2950 3 10.791 30.5745 26.9775 0 0 0
2729 3 10.791 10.791 7.194 0 0 0
1175 3 23.3805 14.388 12.5895 0 0 0
152 3 34.1715 26.9775 17.985 0 0 0
3749 3 3.597 28.776 25.179 0 0 0
2792 3 8.9925 16.1865 25.179 0 0 0
2301 3 14.388 7.194 17.985 0 0 0
1289 3 25.179 25.179 7.194 0 0 0
712 3 26.9775 8.9925 25.179 0 0 0
276 3 30.5745 5.3955 28.776 0 0 0
1683 3 19.7835 25.179 1.7985 0 0 0
2714 3 10.791 8.9925 30.5745 0 0 0
1413 3 21.582 0.0 10.791 0 0 0
3253 3 7.194 21.582 10.791 0 0 0
367 3 30.5745 14.388 5.3955 0 0 0
3095 3 5.3955 7.194 12.5895 0 0 0
3087 3 5.3955 7.194 5.3955 0 0 0
1541 3 21.582 10.791 17.985 0 0 0
2200 3 16.1865 34.1715 32.373 0 0 0
2265 3 14.388 3.597 21.582 0 0 0
691 3 26.9775 7.194 8.9925 0 0 0
1638 3 21.582 19.7835 34.1715 0 0 0
1995 3 16.1865 14.388 30.5745 0 0 0
3083 3 5.3955 7.194 1.7985 0 0 0
1990 3 17.985 16.1865 26.9775 0 0 0
520 3 30.5745 26.9775 32.373 0 0 0
994 3 28.776 34.1715 30.5745 0 0 0
1999 3 16.1865 14.388 34.1715 0 0 0
466 3 32.373 23.3805 23.3805 0 0 0
1966 3 17.985 16.1865 5.3955 0 0 0
3404 3 1.7985 1.7985 0.0 0 0 0
3603 3 1.7985 17.985 1.7985 0 0 0
1424 3 19.7835 1.7985 17.985 0 0 0
1800 3 19.7835 34.1715 32.373 0 0 0
2238 3 14.388 1.7985 34.1715 0 0 0
2075 3 16.1865 21.582 30.5745 0 0 0
290 3 32.373 8.9925 8.9925 0 0 0
1623 3 19.7835 17.985 19.7835 0 0 0
2490 3 14.388 26.9775 8.9925 0 0 0
417 3 32.373 17.985 14.388 0 0 0
780 3 26.9775 16.1865 14.388 0 0 0
594 3 32.373 34.1715 30.5745 0 0 0
1834 3 17.985 1.7985 30.5745 0 0 0
3651 3 1.7985 21.582 8.9925 0 0 0
159 3 34.1715 25.179 34.1715 0 0 0
56 3 34.1715 8.9925 25.179 0 0 0
2028 3 16.1865 19.7835 21.582 0 0 0
1312 3 23.3805 26.9775 25.179 0 0 0
1916 3 16.1865 8.9925 28.776 0 0 0
1720 3 19.7835 26.9775 32.373 0 0 0
3991 3 0.0 32.373 17.985 0 0 0
3258 3 7.194 23.3805 16.1865 0 0 0
1395 3 23.3805 32.373 30.5745 0 0 0
2607 3 8.9925 0.0 5.3955 0 0 0
2412 3 12.5895 19.7835 7.194 0 0 0
2643 3 8.9925 3.597 1.7985 0 0 0
216 3 30.5745 1.7985 10.791 0 0 0
1843 3 16.1865 3.597 1.7985 0 0 0
2577 3 14.388 32.373 14.388 0 0 0
551 3 30.5745 28.776 26.9775 0 0 0
2766 3 10.791 16.1865 5.3955 0 0 0
2899 3 8.9925 25.179 16.1865 0 0 0
1373 3 25.179 32.373 10.791 0 0 0
782 3 28.776 16.1865 19.7835 0 0 0
1433 3 21.582 0.0 28.776 0 0 0
3228 3 5.3955 19.7835 21.582 0 0 0
2970 3 10.791 34.1715 8.9925 0 0 0
1655 3 19.7835 21.582 12.5895 0 0 0
1305 3 25.179 25.179 21.582 0 0 0
386 3 32.373 16.1865 23.3805 0 0 0
2512 3 12.5895 26.9775 25.179 0 0 0
2036 3 16.1865 19.7835 28.776 0 0 0
1688 3 19.7835 26.9775 3.597 0 0 0
1375 3 23.3805 32.373 12.5895 0 0 0
532 3 30.5745 30.5745 7.194 0 0 0
2509 3 14.388 25.179 25.179 0 0 0
1197 3 25.179 14.388 32.373 0 0 0
1760 3 19.7835 30.5745 32.373 0 0 0
1528 3 19.7835 12.5895 3.597 0 0 0
816 3 26.9775 19.7835 10.791 0 0 0
102 3 34.1715 19.7835 0.0 0 0 0
800 3 26.9775 16.1865 32.373 0 0 0
2177 3 17.985 32.373 14.388 0 0 0
339 3 30.5745 10.791 16.1865 0 0 0
2612 3 8.9925 1.7985 7.194 0 0 0
1589 3 21.582 14.388 25.179 0 0 0
3066 3 7.194 5.3955 23.3805 0 0 0
3317 3 7.194 25.179 32.373 0 0 0
3022 3 7.194 1.7985 19.7835 0 0 0
1723 3 19.7835 28.776 1.7985 0 0 0
3325 3 7.194 28.776 3.597 0 0 0
1550 3 21.582 12.5895 26.9775 0 0 0
3311 3 5.3955 25.179 26.9775 0 0 0
2132 3 16.1865 30.5745 7.194 0 0 0
750 3 28.776 12.5895 26.9775 0 0 0
1303 3 23.3805 25.179 19.7835 0 0 0
1325 3 25.179 28.776 3.597 0 0 0
2348 3 12.5895 12.5895 21.582 0 0 0
3237 3 7.194 17.985 32.373 0 0 0
2118 3 17.985 26.9775 34.1715 0 0 0
1585 3 21.582 14.388 21.582 0 0 0
1869 3 17.985 3.597 25.179 0 0 0
1603 3 19.7835 17.985 1.7985 0 0 0
438 3 32.373 19.7835 34.1715 0 0 0
1753 3 21.582 28.776 28.776 0 0 0
1626 3 21.582 19.7835 23.3805 0 0 0
3825 3 0.0 3.597 7.194 0 0 0
181 3 34.1715 32.373 1.7985 0 0 0
3699 3 1.7985 25.179 16.1865 0 0 0
1937 3 17.985 10.791 14.388 0 0 0
2407 3 12.5895 17.985 5.3955 0 0 0
2936 3 8.9925 30.5745 10.791 0 0 0
3591 3 1.7985 14.388 26.9775 0 0 0
1838 3 17.985 1.7985 34.1715 0 0 0
3057 3 7.194 3.597 14.388 0 0 0
2528 3 12.5895 30.5745 3.597 0 0 0
3572 3 1.7985 16.1865 7.194 0 0 0
1371 3 23.3805 32.373 8.9925 0 0 0
513 3 32.373 25.179 28.776 0 0 0
3982 3 0.0 34.1715 1.7985 0 0 0
1588 3 19.7835 16.1865 21.582 0 0 0
2182 3 17.985 34.1715 19.7835 0 0 0
1725 3 21.582 28.776 3.597 0 0 0
214 3 32.373 1.7985 12.5895 0 0 0
2724 3 8.9925 12.5895 0.0 0 0 0
1060 3 23.3805 5.3955 14.388 0 0 0
853 3 28.776 21.582 10.791 0 0 0
75 3 34.1715 10.791 26.9775 0 0 0
368 3 30.5745 16.1865 3.597 0 0 0
3666 3 3.597 23.3805 23.3805 0 0 0
2461 3 14.388 21.582 17.985 0 0 0
1365 3 25.179 32.373 3.597 0 0 0
3276 3 5.3955 23.3805 28.776 0 0 0
2217 3 14.388 0.0 14.388 0 0 0
3110 3 7.194 8.9925 26.9775 0 0 0
2730 3 10.791 12.5895 8.9925 0 0 0
2667 3 8.9925 3.597 23.3805 0 0 0
2338 3 14.388 12.5895 16.1865 0 0 0
1142 3 25.179 12.5895 19.7835 0 0 0
1797 3 21.582 32.373 32.373 0 0 0
1948 3 16.1865 12.5895 21.582 0 0 0
3951 3 0.0 25.179 17.985 0 0 0
3884 3 0.0 16.1865 5.3955 0 0 0
2209 3 14.388 0.0 7.194 0 0 0
3296 3 5.3955 26.9775 10.791 0 0 0
1004 3 23.3805 1.7985 0.0 0 0 0
298 3 32.373 8.9925 16.1865 0 0 0
2962 3 10.791 34.1715 1.7985 0 0 0
423 3 30.5745 17.985 19.7835 0 0 0
2909 3 10.791 25.179 25.179 0 0 0
2763 3 8.9925 14.388 1.7985 0 0 0
205 3 32.373 0.0 3.597 0 0 0
2993 3 10.791 32.373 28.776 0 0 0
865 3 28.776 21.582 21.582 0 0 0
3444 3 1.7985 5.3955 0.0 0 0 0
2252 3 12.5895 5.3955 7.194 0 0 0
597 3 32.373 32.373 32.373 0 0 0
1219 3 23.3805 17.985 16.1865 0 0 0
363 3 30.5745 14.388 1.7985 0 0 0
111 3 34.1715 17.985 19.7835 0 0 0
109 3 34.1715 17.985 16.1865 0 0 0
401 3 32.373 17.985 0.0 0 0 0
792 3 26.9775 16.1865 25.179 0 0 0
2873 3 10.791 21.582 28.776 0 0 0
1743 3 19.7835 28.776 19.7835 0 0 0
3683 3 1.7985 25.179 1.7985 0 0 0
2222 3 14.388 1.7985 19.7835 0 0 0
194 3 34.1715 34.1715 21.582 0 0 0
199 3 34.1715 32.373 34.1715 0 0 0
2947 3 8.9925 28.776 23.3805 0 0 0
863 3 26.9775 21.582 19.7835 0 0 0
170 3 34.1715 30.5745 14.388 0 0 0
2957 3 10.791 28.776 32.373 0 0 0
2719 3 8.9925 7.194 34.1715 0 0 0
2924 3 8.9925 30.5745 0.0 0 0 0
1970 3 17.985 16.1865 8.9925 0 0 0
3765 3 3.597 32.373 3.597 0 0 0
534 3 32.373 30.5745 12.5895 0 0 0
1400 3 23.3805 34.1715 32.373 0 0 0
1532 3 19.7835 12.5895 7.194 0 0 0
312 3 30.5745 8.9925 25.179 0 0 0
1104 3 23.3805 8.9925 17.985 0 0 0
1358 3 25.179 30.5745 34.1715 0 0 0
774 3 28.776 16.1865 12.5895 0 0 0
3391 3 5.3955 32.373 26.9775 0 0 0
1367 3 23.3805 32.373 5.3955 0 0 0
1058 3 25.179 5.3955 16.1865 0 0 0
988 3 26.9775 34.1715 21.582 0 0 0
1159 3 23.3805 10.791 34.1715 0 0 0
1599 3 19.7835 14.388 34.1715 0 0 0
834 3 28.776 19.7835 30.5745 0 0 0
907 3 26.9775 25.179 23.3805 0 0 0
359 3 30.5745 10.791 34.1715 0 0 0
2806 3 10.791 19.7835 5.3955 0 0 0
3910 3 0.0 19.7835 16.1865 0 0 0
576 3 30.5745 34.1715 10.791 0 0 0
3049 3 7.194 3.597 7.194 0 0 0
3475 3 1.7985 3.597 30.5745 0 0 0
3331 3 5.3955 28.776 8.9925 0 0 0
200 3 34.1715 34.1715 32.373 0 0 0
564 3 30.5745 34.1715 0.0 0 0 0
801 3 28.776 17.985 0.0 0 0 0
2067 3 16.1865 21.582 23.3805 0 0 0
2731 3 8.9925 10.791 8.9925 0 0 0
803 3 26.9775 17.985 1.7985 0 0 0
3538 3 3.597 12.5895 16.1865 0 0 0
237 3 32.373 0.0 32.373 0 0 0
766 3 28.776 16.1865 5.3955 0 0 0
1112 3 23.3805 8.9925 25.179 0 0 0
2043 3 16.1865 21.582 1.7985 0 0 0
2664 3 8.9925 5.3955 17.985 0 0 0
2145 3 17.985 28.776 21.582 0 0 0
3264 3 5.3955 23.3805 17.985 0 0 0
738 3 28.776 12.5895 16.1865 0 0 0
2476 3 12.5895 23.3805 28.776 0 0 0
748 3 26.9775 12.5895 21.582 0 0 0
2035 3 16.1865 17.985 30.5745 0 0 0
3781 3 3.597 32.373 17.985 0 0 0
2674 3 10.791 5.3955 30.5745 0 0 0
3252 3 5.3955 23.3805 7.194 0 0 0
753 3 28.776 10.791 28.776 0 0 0
2081 3 17.985 25.179 0.0 0 0 0
2877 3 10.791 21.582 32.373 0 0 0
1107 3 23.3805 7.194 23.3805 0 0 0
1315 3 23.3805 25.179 30.5745 0 0 0
1491 3 19.7835 7.194 8.9925 0 0 0
804 3 26.9775 19.7835 0.0 0 0 0
2847 3 8.9925 21.582 5.3955 0 0 0
1841 3 17.985 3.597 0.0 0 0 0
2544 3 12.5895 30.5745 17.985 0 0 0
3792 3 1.7985 34.1715 25.179 0 0 0
2596 3 12.5895 34.1715 28.776 0 0 0
1222 3 25.179 19.7835 19.7835 0 0 0
1414 3 21.582 1.7985 12.5895 0 0 0
1780 3 19.7835 34.1715 14.388 0 0 0
3039 3 5.3955 0.0 34.1715 0 0 0
1231 3 23.3805 17.985 26.9775 0 0 0
567 3 30.5745 32.373 5.3955 0 0 0
2685 3 10.791 7.194 3.597 0 0 0
1427 3 19.7835 0.0 23.3805 0 0 0
1810 3 17.985 1.7985 8.9925 0 0 0
3236 3 5.3955 19.7835 28.776 0 0 0
2271 3 12.5895 3.597 26.9775 0 0 0
1553 3 21.582 10.791 28.776 0 0 0
2079 3 16.1865 21.582 34.1715 0 0 0
3574 3 3.597 16.1865 12.5895 0 0 0
1643 3 19.7835 21.582 1.7985 0 0 0
3245 3 7.194 21.582 3.597 0 0 0
2147 3 16.1865 28.776 23.3805 0 0 0
938 3 28.776 30.5745 16.1865 0 0 0
1099 3 23.3805 7.194 16.1865 0 0 0
2540 3 12.5895 30.5745 14.388 0 0 0
2922 3 10.791 30.5745 1.7985 0 0 0
336 3 30.5745 12.5895 10.791 0 0 0
1621 3 21.582 17.985 17.985 0 0 0
2835 3 8.9925 17.985 30.5745 0 0 0
862 3 28.776 23.3805 19.7835 0 0 0
718 3 28.776 8.9925 34.1715 0 0 0
1871 3 16.1865 3.597 26.9775 0 0 0
1682 3 21.582 26.9775 1.7985 0 0 0
2841 3 10.791 21.582 0.0 0 0 0
1943 3 16.1865 10.791 19.7835 0 0 0
39 3 34.1715 3.597 34.1715 0 0 0
2832 3 8.9925 19.7835 25.179 0 0 0
2197 3 17.985 32.373 32.373 0 0 0
1920 3 16.1865 8.9925 32.373 0 0 0
3817 3 0.0 0.0 28.776 0 0 0
1285 3 25.179 25.179 3.597 0 0 0
24 3 34.1715 5.3955 3.597 0 0 0
3488 3 1.7985 8.9925 3.597 0 0 0
2558 3 14.388 30.5745 34.1715 0 0 0
2198 3 17.985 34.1715 34.1715 0 0 0
2185 3 17.985 32.373 21.582 0 0 0
12 3 34.1715 1.7985 17.985 0 0 0
2245 3 14.388 3.597 3.597 0 0 0
1774 3 21.582 34.1715 12.5895 0 0 0
2194 3 17.985 34.1715 30.5745 0 0 0
1868 3 16.1865 5.3955 21.582 0 0 0
1724 3 19.7835 30.5745 0.0 0 0 0
1616 3 19.7835 19.7835 10.791 0 0 0
1927 3 16.1865 10.791 5.3955 0 0 0
3616 3 1.7985 19.7835 10.791 0 0 0
3811 3 0.0 0.0 17.985 0 0 0
2173 3 17.985 32.373 10.791 0 0 0
1635 3 19.7835 17.985 30.5745 0 0 0
399 3 30.5745 14.388 34.1715 0 0 0
1705 3 21.582 25.179 21.582 0 0 0
1005 3 25.179 0.0 3.597 0 0 0
2681 3 10.791 7.194 0.0 0 0 0
3377 3 7.194 32.373 14.388 0 0 0
3791 3 1.7985 32.373 26.9775 0 0 0
3478 3 3.597 5.3955 34.1715 0 0 0
3674 3 3.597 23.3805 30.5745 0 0 0
3147 3 5.3955 10.791 23.3805 0 0 0
2621 3 10.791 0.0 17.985 0 0 0
3411 3 1.7985 0.0 8.9925 0 0 0
3813 3 0.0 0.0 21.582 0 0 0
1083 3 23.3805 7.194 1.7985 0 0 0
1234 3 25.179 19.7835 30.5745 0 0 0
2423 3 12.5895 17.985 19.7835 0 0 0
2491 3 12.5895 25.179 8.9925 0 0 0
2563 3 12.5895 32.373 1.7985 0 0 0
3073 3 7.194 3.597 28.776 0 0 0
2768 3 8.9925 16.1865 3.597 0 0 0
1991 3 16.1865 14.388 26.9775 0 0 0
902 3 28.776 26.9775 19.7835 0 0 0
1343 3 23.3805 28.776 19.7835 0 0 0
1677 3 21.582 21.582 32.373 0 0 0
160 3 34.1715 26.9775 32.373 0 0 0
987 3 26.9775 32.373 23.3805 0 0 0
1238 3 25.179 19.7835 34.1715 0 0 0
3420 3 1.7985 1.7985 14.388 0 0 0
2337 3 14.388 10.791 14.388 0 0 0
2868 3 8.9925 23.3805 21.582 0 0 0
1489 3 21.582 7.194 7.194 0 0 0
947 3 26.9775 28.776 23.3805 0 0 0
1108 3 23.3805 8.9925 21.582 0 0 0
1421 3 21.582 0.0 17.985 0 0 0
1556 3 19.7835 12.5895 28.776 0 0 0
1157 3 25.179 10.791 32.373 0 0 0
273 3 32.373 3.597 28.776 0 0 0
3414 3 3.597 1.7985 12.5895 0 0 0
3868 3 0.0 12.5895 12.5895 0 0 0
1462 3 21.582 5.3955 19.7835 0 0 0
2526 3 14.388 30.5745 5.3955 0 0 0
510 3 32.373 26.9775 26.9775 0 0 0
22 3 34.1715 5.3955 0.0 0 0 0
981 3 28.776 32.373 17.985 0 0 0
3876 3 0.0 12.5895 26.9775 0 0 0
206 3 32.373 1.7985 5.3955 0 0 0
3477 3 3.597 3.597 32.373 0 0 0
2895 3 8.9925 25.179 12.5895 0 0 0
1745 3 21.582 28.776 21.582 0 0 0
2702 3 10.791 8.9925 19.7835 0 0 0
1602 3 21.582 19.7835 1.7985 0 0 0
162 3 34.1715 30.5745 0.0 0 0 0
1406 3 21.582 1.7985 5.3955 0 0 0
2825 3 10.791 17.985 21.582 0 0 0
188 3 34.1715 34.1715 10.791 0 0 0
3626 3 3.597 19.7835 23.3805 0 0 0
3249 3 7.194 21.582 7.194 0 0 0
2441 3 14.388 21.582 0.0 0 0 0
2777 3 10.791 14.388 14.388 0 0 0
259 3 30.5745 3.597 16.1865 0 0 0
275 3 30.5745 3.597 30.5745 0 0 0
2426 3 14.388 19.7835 23.3805 0 0 0
2378 3 14.388 16.1865 16.1865 0 0 0
1056 3 23.3805 5.3955 10.791 0 0 0
3880 3 0.0 12.5895 34.1715 0 0 0
411 3 30.5745 17.985 8.9925 0 0 0
2199 3 16.1865 32.373 34.1715 0 0 0
911 3 26.9775 25.179 26.9775 0 0 0
365 3 32.373 14.388 3.597 0 0 0
2675 3 8.9925 3.597 30.5745 0 0 0
3778 3 3.597 34.1715 16.1865 0 0 0
3321 3 7.194 28.776 0.0 0 0 0
2578 3 14.388 34.1715 16.1865 0 0 0
874 3 28.776 23.3805 30.5745 0 0 0
3302 3 7.194 26.9775 19.7835 0 0 0
2339 3 12.5895 10.791 16.1865 0 0 0
196 3 34.1715 34.1715 25.179 0 0 0
3135 3 5.3955 10.791 12.5895 0 0 0
2212 3 12.5895 1.7985 7.194 0 0 0
58 3 34.1715 8.9925 28.776 0 0 0
542 3 32.373 30.5745 19.7835 0 0 0
3485 3 3.597 7.194 3.597 0 0 0
234 3 32.373 1.7985 30.5745 0 0 0
1339 3 23.3805 28.776 16.1865 0 0 0
2648 3 8.9925 5.3955 3.597 0 0 0
2002 3 17.985 19.7835 1.7985 0 0 0
1799 3 19.7835 32.373 34.1715 0 0 0
706 3 28.776 8.9925 23.3805 0 0 0
1830 3 17.985 1.7985 26.9775 0 0 0
1721 3 21.582 28.776 0.0 0 0 0
2334 3 14.388 12.5895 12.5895 0 0 0
3806 3 0.0 1.7985 8.9925 0 0 0
2672 3 8.9925 5.3955 25.179 0 0 0
659 3 26.9775 3.597 16.1865 0 0 0
316 3 30.5745 8.9925 28.776 0 0 0
1346 3 25.179 30.5745 23.3805 0 0 0
1817 3 17.985 0.0 14.388 0 0 0
1963 3 16.1865 14.388 1.7985 0 0 0
217 3 32.373 0.0 14.388 0 0 0
2299 3 12.5895 7.194 16.1865 0 0 0
1707 3 19.7835 25.179 23.3805 0 0 0
366 3 32.373 16.1865 5.3955 0 0 0
3969 3 0.0 28.776 14.388 0 0 0
369 3 32.373 14.388 7.194 0 0 0
2889 3 10.791 25.179 7.194 0 0 0
850 3 28.776 23.3805 8.9925 0 0 0
2072 3 16.1865 23.3805 25.179 0 0 0
3131 3 5.3955 10.791 8.9925 0 0 0
3098 3 7.194 8.9925 16.1865 0 0 0
2545 3 14.388 28.776 21.582 0 0 0
436 3 30.5745 19.7835 28.776 0 0 0
935 3 26.9775 28.776 12.5895 0 0 0
197 3 34.1715 32.373 30.5745 0 0 0
3215 3 5.3955 17.985 12.5895 0 0 0
2482 3 14.388 26.9775 1.7985 0 0 0
1318 3 25.179 26.9775 34.1715 0 0 0
818 3 28.776 19.7835 16.1865 0 0 0
2258 3 14.388 5.3955 16.1865 0 0 0
958 3 28.776 30.5745 34.1715 0 0 0
2129 3 17.985 28.776 7.194 0 0 0
3597 3 3.597 14.388 32.373 0 0 0
914 3 28.776 26.9775 30.5745 0 0 0
1316 3 23.3805 26.9775 28.776 0 0 0
2419 3 12.5895 17.985 16.1865 0 0 0
665 3 28.776 3.597 21.582 0 0 0
3507 3 1.7985 7.194 23.3805 0 0 0
3217 3 7.194 17.985 14.388 0 0 0
189 3 34.1715 32.373 16.1865 0 0 0
1575 3 19.7835 14.388 12.5895 0 0 0
848 3 26.9775 23.3805 3.597 0 0 0
1910 3 17.985 8.9925 26.9775 0 0 0
1351 3 23.3805 28.776 26.9775 0 0 0
3037 3 7.194 0.0 32.373 0 0 0
3427 3 1.7985 0.0 23.3805 0 0 0
856 3 26.9775 23.3805 10.791 0 0 0
535 3 30.5745 28.776 12.5895 0 0 0
3698 3 3.597 26.9775 16.1865 0 0 0
47 3 34.1715 7.194 12.5895 0 0 0
3270 3 7.194 23.3805 26.9775 0 0 0
2797 3 10.791 14.388 32.373 0 0 0
3522 3 3.597 12.5895 1.7985 0 0 0
1548 3 19.7835 12.5895 21.582 0 0 0
1957 3 17.985 10.791 32.373 0 0 0
1035 3 23.3805 0.0 30.5745 0 0 0
2776 3 8.9925 16.1865 10.791 0 0 0
1334 3 25.179 30.5745 12.5895 0 0 0
3557 3 3.597 10.791 32.373 0 0 0
3527 3 1.7985 10.791 5.3955 0 0 0
2907 3 8.9925 25.179 23.3805 0 0 0
3984 3 0.0 34.1715 5.3955 0 0 0
1531 3 19.7835 10.791 8.9925 0 0 0
2447 3 12.5895 21.582 5.3955 0 0 0
1069 3 25.179 3.597 25.179 0 0 0
3672 3 1.7985 23.3805 25.179 0 0 0
3127 3 5.3955 10.791 5.3955 0 0 0
2196 3 16.1865 34.1715 28.776 0 0 0
1747 3 19.7835 28.776 23.3805 0 0 0
1627 3 19.7835 17.985 23.3805 0 0 0
1217 3 25.179 17.985 14.388 0 0 0
326 3 32.373 12.5895 5.3955 0 0 0
2883 3 8.9925 25.179 1.7985 0 0 0
654 3 28.776 5.3955 12.5895 0 0 0
3197 3 7.194 14.388 32.373 0 0 0
2379 3 12.5895 14.388 16.1865 0 0 0
3780 3 1.7985 34.1715 14.388 0 0 0
2721 3 10.791 10.791 0.0 0 0 0
916 3 26.9775 26.9775 28.776 0 0 0
2110 3 17.985 26.9775 26.9775 0 0 0
2432 3 12.5895 19.7835 25.179 0 0 0
797 3 28.776 14.388 32.373 0 0 0
1574 3 21.582 16.1865 12.5895 0 0 0
117 3 34.1715 17.985 30.5745 0 0 0
2057 3 17.985 21.582 14.388 0 0 0
908 3 26.9775 26.9775 21.582 0 0 0
1742 3 21.582 30.5745 19.7835 0 0 0
2574 3 14.388 34.1715 12.5895 0 0 0
2740 3 8.9925 12.5895 14.388 0 0 0
3396 3 5.3955 34.1715 28.776 0 0 0
2538 3 14.388 30.5745 16.1865 0 0 0
962 3 28.776 34.1715 1.7985 0 0 0
956 3 26.9775 30.5745 28.776 0 0 0
3741 3 3.597 28.776 17.985 0 0 0
3268 3 5.3955 23.3805 21.582 0 0 0
1719 3 19.7835 25.179 34.1715 0 0 0
2434 3 14.388 19.7835 30.5745 0 0 0
1889 3 17.985 7.194 7.194 0 0 0
337 3 32.373 10.791 14.388 0 0 0
705 3 28.776 7.194 21.582 0 0 0
149 3 34.1715 25.179 16.1865 0 0 0
1942 3 17.985 12.5895 19.7835 0 0 0
2949 3 10.791 28.776 25.179 0 0 0
3375 3 5.3955 32.373 12.5895 0 0 0
3879 3 0.0 10.791 32.373 0 0 0
1045 3 25.179 3.597 3.597 0 0 0
2556 3 12.5895 30.5745 28.776 0 0 0
2937 3 10.791 28.776 14.388 0 0 0
1861 3 17.985 3.597 17.985 0 0 0
267 3 30.5745 3.597 23.3805 0 0 0
1565 3 21.582 14.388 3.597 0 0 0
1759 3 19.7835 28.776 34.1715 0 0 0
3232 3 5.3955 19.7835 25.179 0 0 0
1736 3 19.7835 30.5745 10.791 0 0 0
1120 3 23.3805 8.9925 32.373 0 0 0
3063 3 5.3955 3.597 19.7835 0 0 0
1214 3 25.179 19.7835 12.5895 0 0 0
2931 3 8.9925 28.776 8.9925 0 0 0
2288 3 12.5895 8.9925 3.597 0 0 0
89 3 34.1715 14.388 16.1865 0 0 0
3909 3 0.0 17.985 14.388 0 0 0
3933 3 0.0 21.582 21.582 0 0 0
30 3 34.1715 5.3955 14.388 0 0 0
1669 4 21.582 21.582 25.179 0 0 0
2065 4 17.985 21.582 21.582 0 0 0
1161 4 25.179 14.388 0.0 0 0 0
1964 4 16.1865 16.1865 0.0 0 0 0
435 4 30.5745 17.985 30.5745 0 0 0
2536 4 12.5895 30.5745 10.791 0 0 0
2518 4 14.388 26.9775 34.1715 0 0 0
3589 4 3.597 14.388 25.179 0 0 0
1279 4 23.3805 21.582 34.1715 0 0 0
1484 4 19.7835 8.9925 0.0 0 0 0
1178 4 25.179 16.1865 16.1865 0 0 0
1513 4 21.582 7.194 28.776 0 0 0
122 4 34.1715 23.3805 0.0 0 0 0
984 4 26.9775 34.1715 17.985 0 0 0
619 4 26.9775 0.0 16.1865 0 0 0
2809 4 10.791 17.985 7.194 0 0 0
3279 4 5.3955 21.582 34.1715 0 0 0
491 4 30.5745 25.179 8.9925 0 0 0
2885 4 10.791 25.179 3.597 0 0 0
125 4 34.1715 21.582 8.9925 0 0 0
2253 4 14.388 3.597 10.791 0 0 0
2 4 34.1715 1.7985 0.0 0 0 0
2311 4 12.5895 7.194 26.9775 0 0 0
2930 4 10.791 30.5745 8.9925 0 0 0
2175 4 16.1865 32.373 12.5895 0 0 0
2096 4 16.1865 26.9775 10.791 0 0 0
673 4 28.776 3.597 28.776 0 0 0
2384 4 12.5895 16.1865 17.985 0 0 0
562 4 32.373 34.1715 1.7985 0 0 0
3072 4 5.3955 5.3955 25.179 0 0 0
2972 4 8.9925 34.1715 7.194 0 0 0
1613 4 21.582 17.985 10.791 0 0 0
364 4 30.5745 16.1865 0.0 0 0 0
2486 4 14.388 26.9775 5.3955 0 0 0
3394 4 7.194 34.1715 30.5745 0 0 0
3187 4 5.3955 14.388 23.3805 0 0 0
1383 4 23.3805 32.373 19.7835 0 0 0
255 4 30.5745 3.597 12.5895 0 0 0
3470 4 3.597 5.3955 26.9775 0 0 0
282 4 32.373 8.9925 1.7985 0 0 0
3464 4 1.7985 5.3955 17.985 0 0 0
3473 4 3.597 3.597 28.776 0 0 0
1855 4 16.1865 3.597 12.5895 0 0 0
2285 4 14.388 7.194 3.597 0 0 0
2547 4 12.5895 28.776 23.3805 0 0 0
3827 4 0.0 3.597 10.791 0 0 0
470 4 32.373 23.3805 26.9775 0 0 0
3346 4 7.194 30.5745 23.3805 0 0 0
1849 4 17.985 3.597 7.194 0 0 0
2207 4 12.5895 0.0 5.3955 0 0 0
148 4 34.1715 26.9775 10.791 0 0 0
3460 4 1.7985 5.3955 14.388 0 0 0
2919 4 8.9925 25.179 34.1715 0 0 0
1097 4 25.179 7.194 14.388 0 0 0
2283 4 12.5895 7.194 1.7985 0 0 0
3946 4 0.0 26.9775 8.9925 0 0 0
2759 4 8.9925 10.791 34.1715 0 0 0
3596 4 1.7985 16.1865 28.776 0 0 0
3847 4 0.0 7.194 10.791 0 0 0
1874 4 17.985 5.3955 30.5745 0 0 0
3277 4 7.194 21.582 32.373 0 0 0
3286 4 7.194 26.9775 5.3955 0 0 0
2319 4 12.5895 7.194 34.1715 0 0 0
3738 4 3.597 30.5745 16.1865 0 0 0
3924 4 0.0 23.3805 5.3955 0 0 0
690 4 28.776 8.9925 8.9925 0 0 0
487 4 30.5745 25.179 5.3955 0 0 0
1644 4 19.7835 23.3805 0.0 0 0 0
3623 4 1.7985 17.985 19.7835 0 0 0
306 4 32.373 8.9925 23.3805 0 0 0
1472 4 19.7835 5.3955 25.179 0 0 0
1335 4 23.3805 28.776 12.5895 0 0 0
3542 4 3.597 12.5895 19.7835 0 0 0
1417 4 21.582 0.0 14.388 0 0 0
3794 4 3.597 34.1715 30.5745 0 0 0
526 4 32.373 30.5745 5.3955 0 0 0
3578 4 3.597 16.1865 16.1865 0 0 0
2764 4 8.9925 16.1865 0.0 0 0 0
3019 4 5.3955 0.0 16.1865 0 0 0
3613 4 3.597 17.985 10.791 0 0 0
2698 4 10.791 8.9925 16.1865 0 0 0
2709 4 10.791 7.194 25.179 0 0 0
1954 4 17.985 12.5895 30.5745 0 0 0
2689 4 10.791 7.194 7.194 0 0 0
3209 4 7.194 17.985 7.194 0 0 0
57 4 34.1715 7.194 30.5745 0 0 0
2513 4 14.388 25.179 28.776 0 0 0
3456 4 1.7985 5.3955 10.791 0 0 0
799 4 26.9775 14.388 34.1715 0 0 0
1194 4 25.179 16.1865 30.5745 0 0 0
767 4 26.9775 14.388 5.3955 0 0 0
1313 4 25.179 25.179 28.776 0 0 0
2984 4 8.9925 34.1715 17.985 0 0 0
824 4 26.9775 19.7835 17.985 0 0 0
2236 4 12.5895 1.7985 28.776 0 0 0
2707 4 8.9925 7.194 23.3805 0 0 0
849 4 28.776 21.582 7.194 0 0 0
3902 4 0.0 19.7835 1.7985 0 0 0
2884 4 8.9925 26.9775 0.0 0 0 0
1675 4 19.7835 21.582 30.5745 0 0 0
434 4 32.373 19.7835 30.5745 0 0 0
1143 4 23.3805 10.791 19.7835 0 0 0
1156 4 23.3805 12.5895 28.776 0 0 0
3612 4 1.7985 19.7835 7.194 0 0 0
1189 4 25.179 14.388 25.179 0 0 0
2956 4 8.9925 30.5745 28.776 0 0 0
2673 4 10.791 3.597 28.776 0 0 0
1757 4 21.582 28.776 32.373 0 0 0
2789 4 10.791 14.388 25.179 0 0 0
343 4 30.5745 10.791 19.7835 0 0 0
3743 4 1.7985 28.776 19.7835 0 0 0
2539 4 12.5895 28.776 16.1865 0 0 0
1551 4 19.7835 10.791 26.9775 0 0 0
2726 4 10.791 12.5895 5.3955 0 0 0
1986 4 17.985 16.1865 23.3805 0 0 0
3844 4 0.0 8.9925 5.3955 0 0 0
1530 4 21.582 12.5895 8.9925 0 0 0
42 4 34.1715 8.9925 0.0 0 0 0
2550 4 14.388 30.5745 26.9775 0 0 0
1886 4 17.985 8.9925 5.3955 0 0 0
155 4 34.1715 25.179 26.9775 0 0 0
2327 4 12.5895 10.791 5.3955 0 0 0
2061 4 17.985 21.582 17.985 0 0 0
2939 4 8.9925 28.776 16.1865 0 0 0
1498 4 21.582 8.9925 16.1865 0 0 0
638 4 28.776 1.7985 34.1715 0 0 0
701 4 28.776 7.194 17.985 0 0 0
1879 4 16.1865 3.597 34.1715 0 0 0
1887 4 16.1865 7.194 5.3955 0 0 0
1361 4 25.179 32.373 0.0 0 0 0
1329 4 25.179 28.776 7.194 0 0 0
3070 4 7.194 5.3955 26.9775 0 0 0
2941 4 10.791 28.776 17.985 0 0 0
3805 4 0.0 0.0 7.194 0 0 0
2116 4 16.1865 26.9775 28.776 0 0 0
3078 4 7.194 5.3955 34.1715 0 0 0
2561 4 14.388 32.373 0.0 0 0 0
358 4 32.373 12.5895 34.1715 0 0 0
3416 4 1.7985 1.7985 10.791 0 0 0
1679 4 19.7835 21.582 34.1715 0 0 0
2510 4 14.388 26.9775 26.9775 0 0 0
346 4 32.373 12.5895 23.3805 0 0 0
9 4 34.1715 0.0 16.1865 0 0 0
3195 4 5.3955 14.388 30.5745 0 0 0
3248 4 5.3955 23.3805 3.597 0 0 0
3355 4 5.3955 28.776 30.5745 0 0 0
2967 4 8.9925 32.373 5.3955 0 0 0
2098 4 17.985 26.9775 16.1865 0 0 0
2517 4 14.388 25.179 32.373 0 0 0
2948 4 8.9925 30.5745 21.582 0 0 0
2464 4 12.5895 23.3805 17.985 0 0 0
3481 4 3.597 7.194 0.0 0 0 0
1801 4 17.985 0.0 0.0 0 0 0
1929 4 17.985 10.791 7.194 0 0 0
1337 4 25.179 28.776 14.388 0 0 0
1598 4 21.582 16.1865 34.1715 0 0 0
543 4 30.5745 28.776 19.7835 0 0 0
2666 4 10.791 5.3955 23.3805 0 0 0
383 4 30.5745 14.388 19.7835 0 0 0
1827 4 16.1865 0.0 23.3805 0 0 0
3198 4 7.194 16.1865 34.1715 0 0 0
3985 4 0.0 32.373 7.194 0 0 0
3986 4 0.0 34.1715 8.9925 0 0 0
3629 4 3.597 17.985 25.179 0 0 0
927 4 26.9775 28.776 5.3955 0 0 0
905 4 28.776 25.179 21.582 0 0 0
428 4 30.5745 19.7835 21.582 0 0 0
3766 4 3.597 34.1715 5.3955 0 0 0
1412 4 19.7835 1.7985 7.194 0 0 0
269 4 32.373 3.597 25.179 0 0 0
3405 4 3.597 0.0 3.597 0 0 0
992 4 26.9775 34.1715 25.179 0 0 0
2127 4 16.1865 28.776 5.3955 0 0 0
2816 4 8.9925 19.7835 10.791 0 0 0
3601 4 3.597 17.985 0.0 0 0 0
3191 4 5.3955 14.388 26.9775 0 0 0
3804 4 0.0 1.7985 5.3955 0 0 0
2275 4 12.5895 3.597 30.5745 0 0 0
775 4 26.9775 14.388 12.5895 0 0 0
1342 4 25.179 30.5745 19.7835 0 0 0
2641 4 10.791 3.597 0.0 0 0 0
1244 4 23.3805 23.3805 0.0 0 0 0
2586 4 14.388 34.1715 23.3805 0 0 0
563 4 30.5745 32.373 1.7985 0 0 0
2480 4 12.5895 23.3805 32.373 0 0 0
2665 4 10.791 3.597 21.582 0 0 0
465 4 32.373 21.582 21.582 0 0 0
1597 4 21.582 14.388 32.373 0 0 0
3737 4 3.597 28.776 14.388 0 0 0
2537 4 14.388 28.776 14.388 0 0 0
3956 4 0.0 26.9775 26.9775 0 0 0
3925 4 0.0 21.582 7.194 0 0 0
1049 4 25.179 3.597 7.194 0 0 0
572 4 30.5745 34.1715 7.194 0 0 0
1933 4 17.985 10.791 10.791 0 0 0
2802 4 10.791 19.7835 1.7985 0 0 0
2135 4 16.1865 28.776 12.5895 0 0 0
3688 4 1.7985 26.9775 3.597 0 0 0
3966 4 0.0 30.5745 8.9925 0 0 0
588 4 30.5745 34.1715 21.582 0 0 0
646 4 28.776 5.3955 5.3955 0 0 0
3020 4 5.3955 1.7985 14.388 0 0 0
1647 4 19.7835 21.582 5.3955 0 0 0
2786 4 10.791 16.1865 23.3805 0 0 0
784 4 26.9775 16.1865 17.985 0 0 0
2787 4 8.9925 14.388 23.3805 0 0 0
3999 4 0.0 32.373 32.373 0 0 0
1139 4 23.3805 10.791 16.1865 0 0 0
971 4 26.9775 32.373 8.9925 0 0 0
3520 4 1.7985 8.9925 32.373 0 0 0
3631 4 1.7985 17.985 26.9775 0 0 0
1788 4 19.7835 34.1715 21.582 0 0 0
1183 4 23.3805 14.388 19.7835 0 0 0
3960 4 0.0 26.9775 34.1715 0 0 0
3263 4 5.3955 21.582 19.7835 0 0 0
114 4 34.1715 19.7835 21.582 0 0 0
1198 4 25.179 16.1865 34.1715 0 0 0
3829 4 0.0 3.597 14.388 0 0 0
226 4 32.373 1.7985 23.3805 0 0 0
2901 4 10.791 25.179 17.985 0 0 0
2824 4 8.9925 19.7835 17.985 0 0 0
2364 4 12.5895 16.1865 0.0 0 0 0
496 4 30.5745 26.9775 10.791 0 0 0
3345 4 7.194 28.776 21.582 0 0 0
2202 4 14.388 1.7985 1.7985 0 0 0
2567 4 12.5895 32.373 5.3955 0 0 0
2178 4 17.985 34.1715 16.1865 0 0 0
2745 4 10.791 10.791 21.582 0 0 0
380 4 30.5745 16.1865 14.388 0 0 0
3689 4 3.597 25.179 7.194 0 0 0
2139 4 16.1865 28.776 16.1865 0 0 0
3188 4 5.3955 16.1865 21.582 0 0 0
1364 4 23.3805 34.1715 0.0 0 0 0
2572 4 12.5895 34.1715 7.194 0 0 0
2230 4 14.388 1.7985 26.9775 0 0 0
524 4 30.5745 30.5745 0.0 0 0 0
1388 4 23.3805 34.1715 21.582 0 0 0
499 4 30.5745 25.179 16.1865 0 0 0
2250 4 14.388 5.3955 8.9925 0 0 0
3449 4 3.597 3.597 7.194 0 0 0
1806 4 17.985 1.7985 5.3955 0 0 0
1486 4 21.582 8.9925 5.3955 0 0 0
3894 4 0.0 16.1865 23.3805 0 0 0
1863 4 16.1865 3.597 19.7835 0 0 0
3320 4 5.3955 26.9775 32.373 0 0 0
1636 4 19.7835 19.7835 28.776 0 0 0
2712 4 8.9925 8.9925 25.179 0 0 0
80 4 34.1715 12.5895 32.373 0 0 0
2025 4 17.985 17.985 21.582 0 0 0
1148 4 23.3805 12.5895 21.582 0 0 0
2152 4 16.1865 30.5745 25.179 0 0 0
3103 4 5.3955 7.194 19.7835 0 0 0
2396 4 12.5895 16.1865 28.776 0 0 0
2120 4 16.1865 26.9775 32.373 0 0 0
2870 4 10.791 23.3805 26.9775 0 0 0
1609 4 21.582 17.985 7.194 0 0 0
2239 4 12.5895 0.0 34.1715 0 0 0
2494 4 14.388 26.9775 12.5895 0 0 0
325 4 32.373 10.791 3.597 0 0 0
220 4 30.5745 1.7985 14.388 0 0 0
604 4 26.9775 1.7985 0.0 0 0 0
376 4 30.5745 16.1865 10.791 0 0 0
154 4 34.1715 26.9775 21.582 0 0 0
2916 4 8.9925 26.9775 28.776 0 0 0
1106 4 25.179 8.9925 23.3805 0 0 0
1145 4 25.179 10.791 21.582 0 0 0
1376 4 23.3805 34.1715 10.791 0 0 0
2633 4 10.791 0.0 28.776 0 0 0
287 4 30.5745 7.194 5.3955 0 0 0
699 4 26.9775 7.194 16.1865 0 0 0
2923 4 8.9925 28.776 1.7985 0 0 0
1576 4 19.7835 16.1865 10.791 0 0 0
999 4 26.9775 32.373 34.1715 0 0 0
2049 4 17.985 21.582 7.194 0 0 0
1735 4 19.7835 28.776 12.5895 0 0 0
1932 4 16.1865 12.5895 7.194 0 0 0
2208 4 12.5895 1.7985 3.597 0 0 0
2037 4 17.985 17.985 32.373 0 0 0
1259 4 23.3805 21.582 16.1865 0 0 0
396 4 30.5745 16.1865 28.776 0 0 0
2680 4 8.9925 5.3955 32.373 0 0 0
720 4 26.9775 8.9925 32.373 0 0 0
3694 4 3.597 26.9775 12.5895 0 0 0
1131 4 23.3805 10.791 8.9925 0 0 0
3757 4 3.597 28.776 32.373 0 0 0
3059 4 5.3955 3.597 16.1865 0 0 0
2121 4 17.985 28.776 0.0 0 0 0
2840 4 8.9925 19.7835 32.373 0 0 0
554 4 32.373 30.5745 30.5745 0 0 0
105 4 34.1715 17.985 8.9925 0 0 0
909 4 28.776 25.179 25.179 0 0 0
2568 4 12.5895 34.1715 3.597 0 0 0
2496 4 12.5895 26.9775 10.791 0 0 0
1460 4 19.7835 5.3955 14.388 0 0 0
2389 4 14.388 14.388 25.179 0 0 0
1170 4 25.179 16.1865 8.9925 0 0 0
1255 4 23.3805 21.582 12.5895 0 0 0
3208 4 5.3955 19.7835 3.597 0 0 0
3945 4 0.0 25.179 7.194 0 0 0
2331 4 12.5895 10.791 8.9925 0 0 0
23 4 34.1715 3.597 5.3955 0 0 0
936 4 26.9775 30.5745 10.791 0 0 0
1380 4 23.3805 34.1715 14.388 0 0 0
2468 4 12.5895 23.3805 21.582 0 0 0
3812 4 0.0 1.7985 19.7835 0 0 0
2953 4 10.791 28.776 28.776 0 0 0
2281 4 14.388 7.194 0.0 0 0 0
568 4 30.5745 34.1715 3.597 0 0 0
1262 4 25.179 23.3805 19.7835 0 0 0
29 4 34.1715 3.597 16.1865 0 0 0
2326 4 14.388 12.5895 5.3955 0 0 0
1280 4 23.3805 23.3805 32.373 0 0 0
3652 4 1.7985 23.3805 7.194 0 0 0
3300 4 5.3955 26.9775 14.388 0 0 0
377 4 32.373 14.388 14.388 0 0 0
37 4 34.1715 3.597 30.5745 0 0 0
3940 4 0.0 23.3805 34.1715 0 0 0
1781 4 21.582 32.373 17.985 0 0 0
3247 4 5.3955 21.582 5.3955 0 0 0
2256 4 12.5895 5.3955 10.791 0 0 0
2703 4 8.9925 7.194 19.7835 0 0 0
1694 4 21.582 26.9775 12.5895 0 0 0
3487 4 1.7985 7.194 5.3955 0 0 0
2034 4 17.985 19.7835 30.5745 0 0 0
2651 4 8.9925 3.597 8.9925 0 0 0
1865 4 17.985 3.597 21.582 0 0 0
241 4 32.373 3.597 0.0 0 0 0
2906 4 10.791 26.9775 23.3805 0 0 0
3752 4 1.7985 30.5745 25.179 0 0 0
1229 4 25.179 17.985 25.179 0 0 0
2754 4 10.791 12.5895 30.5745 0 0 0
2516 4 12.5895 26.9775 28.776 0 0 0
447 4 30.5745 21.582 5.3955 0 0 0
3953 4 0.0 25.179 21.582 0 0 0
59 4 34.1715 7.194 34.1715 0 0 0
274 4 32.373 5.3955 30.5745 0 0 0
765 4 28.776 14.388 3.597 0 0 0
2191 4 16.1865 32.373 26.9775 0 0 0
3497 4 3.597 7.194 14.388 0 0 0
635 4 26.9775 0.0 30.5745 0 0 0
3047 4 5.3955 3.597 5.3955 0 0 0
2946 4 10.791 30.5745 23.3805 0 0 0
2757 4 10.791 10.791 32.373 0 0 0
2292 4 12.5895 8.9925 7.194 0 0 0
3727 4 1.7985 28.776 5.3955 0 0 0
299 4 30.5745 7.194 16.1865 0 0 0
2865 4 10.791 21.582 21.582 0 0 0
3433 4 3.597 0.0 28.776 0 0 0
430 4 32.373 19.7835 26.9775 0 0 0
674 4 28.776 5.3955 30.5745 0 0 0
2386 4 14.388 16.1865 23.3805 0 0 0
1321 4 25.179 28.776 0.0 0 0 0
1306 4 25.179 26.9775 23.3805 0 0 0
381 4 32.373 14.388 17.985 0 0 0
3364 4 5.3955 34.1715 0.0 0 0 0
754 4 28.776 12.5895 30.5745 0 0 0
1629 4 21.582 17.985 25.179 0 0 0
62 4 34.1715 12.5895 0.0 0 0 0
2427 4 12.5895 17.985 23.3805 0 0 0
3553 4 3.597 10.791 28.776 0 0 0
3363 4 5.3955 32.373 1.7985 0 0 0
2876 4 8.9925 23.3805 28.776 0 0 0
1154 4 25.179 12.5895 30.5745 0 0 0
283 4 30.5745 7.194 1.7985 0 0 0
1333 4 25.179 28.776 10.791 0 0 0
100 4 34.1715 16.1865 32.373 0 0 0
2611 4 8.9925 0.0 8.9925 0 0 0
2469 4 14.388 21.582 25.179 0 0 0
1914 4 17.985 8.9925 30.5745 0 0 0
3610 4 3.597 19.7835 8.9925 0 0 0
1880 4 16.1865 5.3955 32.373 0 0 0
3928 4 0.0 23.3805 12.5895 0 0 0
2532 4 12.5895 30.5745 7.194 0 0 0
548 4 30.5745 30.5745 21.582 0 0 0
1042 4 25.179 5.3955 1.7985 0 0 0
1584 4 19.7835 16.1865 17.985 0 0 0
1968 4 16.1865 16.1865 3.597 0 0 0
3760 4 1.7985 30.5745 32.373 0 0 0
3634 4 3.597 19.7835 30.5745 0 0 0
1674 4 21.582 23.3805 30.5745 0 0 0
3851 4 0.0 7.194 17.985 0 0 0
639 4 26.9775 0.0 34.1715 0 0 0
3233 4 7.194 17.985 28.776 0 0 0
404 4 30.5745 19.7835 0.0 0 0 0
2794 4 10.791 16.1865 30.5745 0 0 0
448 4 30.5745 23.3805 3.597 0 0 0
422 4 32.373 19.7835 19.7835 0 0 0
3075 4 5.3955 3.597 30.5745 0 0 0
3441 4 3.597 3.597 0.0 0 0 0
2158 4 17.985 30.5745 34.1715 0 0 0
104 4 34.1715 19.7835 3.597 0 0 0
514 4 32.373 26.9775 30.5745 0 0 0
3409 4 3.597 0.0 7.194 0 0 0
714 4 28.776 8.9925 30.5745 0 0 0
2205 4 14.388 0.0 3.597 0 0 0
2406 4 14.388 19.7835 5.3955 0 0 0
1454 4 21.582 5.3955 12.5895 0 0 0
3120 4 5.3955 8.9925 32.373 0 0 0
746 4 28.776 12.5895 23.3805 0 0 0
3735 4 1.7985 28.776 12.5895 0 0 0
2015 4 16.1865 17.985 12.5895 0 0 0
3199 4 5.3955 14.388 34.1715 0 0 0
3178 4 7.194 16.1865 16.1865 0 0 0
2193 4 17.985 32.373 28.776 0 0 0
3640 4 1.7985 19.7835 32.373 0 0 0
1359 4 23.3805 28.776 34.1715 0 0 0
736 4 26.9775 12.5895 10.791 0 0 0
66 4 34.1715 12.5895 7.194 0 0 0
1820 4 16.1865 1.7985 14.388 0 0 0
175 4 34.1715 28.776 26.9775 0 0 0
3850 4 0.0 8.9925 16.1865 0 0 0
3492 4 1.7985 8.9925 7.194 0 0 0
1354 4 25.179 30.5745 30.5745 0 0 0
2861 4 10.791 21.582 17.985 0 0 0
978 4 28.776 34.1715 16.1865 0 0 0
2047 4 16.1865 21.582 5.3955 0 0 0
928 4 26.9775 30.5745 3.597 0 0 0
808 4 26.9775 19.7835 3.597 0 0 0
1711 4 19.7835 25.179 26.9775 0 0 0
2814 4 10.791 19.7835 12.5895 0 0 0
3018 4 7.194 1.7985 16.1865 0 0 0
3353 4 7.194 28.776 28.776 0 0 0
1767 4 19.7835 32.373 5.3955 0 0 0
119 4 34.1715 17.985 34.1715 0 0 0
1296 4 23.3805 26.9775 10.791 0 0 0
252 4 30.5745 5.3955 7.194 0 0 0
2465 4 14.388 21.582 21.582 0 0 0
1919 4 16.1865 7.194 34.1715 0 0 0
3723 4 1.7985 28.776 1.7985 0 0 0
1500 4 19.7835 8.9925 14.388 0 0 0
3017 4 7.194 0.0 14.388 0 0 0
2257 4 14.388 3.597 14.388 0 0 0
1117 4 25.179 7.194 32.373 0 0 0
537 4 32.373 28.776 14.388 0 0 0
3715 4 1.7985 25.179 30.5745 0 0 0
2308 4 12.5895 8.9925 21.582 0 0 0
1903 4 16.1865 7.194 19.7835 0 0 0
2655 4 8.9925 3.597 12.5895 0 0 0
2990 4 10.791 34.1715 26.9775 0 0 0
964 4 26.9775 34.1715 0.0 0 0 0
1065 4 25.179 3.597 21.582 0 0 0
953 4 28.776 28.776 28.776 0 0 0
716 4 26.9775 8.9925 28.776 0 0 0
2820 4 8.9925 19.7835 14.388 0 0 0
3207 4 5.3955 17.985 5.3955 0 0 0
2092 4 16.1865 26.9775 7.194 0 0 0
286 4 32.373 8.9925 5.3955 0 0 0
3678 4 3.597 23.3805 34.1715 0 0 0
1169 4 25.179 14.388 7.194 0 0 0
2781 4 10.791 14.388 17.985 0 0 0
167 4 34.1715 28.776 12.5895 0 0 0
3566 4 3.597 16.1865 5.3955 0 0 0
600 4 30.5745 34.1715 32.373 0 0 0
1965 4 17.985 14.388 3.597 0 0 0
1860 4 16.1865 5.3955 14.388 0 0 0
1324 4 23.3805 30.5745 0.0 0 0 0
3479 4 1.7985 3.597 34.1715 0 0 0
1687 4 19.7835 25.179 5.3955 0 0 0
295 4 30.5745 7.194 12.5895 0 0 0
3506 4 3.597 8.9925 23.3805 0 0 0
398 4 32.373 16.1865 34.1715 0 0 0
2741 4 10.791 10.791 17.985 0 0 0
1620 4 19.7835 19.7835 14.388 0 0 0
3799 4 1.7985 32.373 34.1715 0 0 0
3546 4 3.597 12.5895 23.3805 0 0 0
2645 4 10.791 3.597 3.597 0 0 0
3458 4 3.597 5.3955 16.1865 0 0 0
2266 4 14.388 5.3955 23.3805 0 0 0
1936 4 16.1865 12.5895 10.791 0 0 0
1121 4 25.179 10.791 0.0 0 0 0
611 4 26.9775 0.0 8.9925 0 0 0
3653 4 3.597 21.582 10.791 0 0 0
2529 4 14.388 28.776 7.194 0 0 0
3915 4 0.0 17.985 25.179 0 0 0
1136 4 23.3805 12.5895 10.791 0 0 0
1568 4 19.7835 16.1865 3.597 0 0 0
2952 4 8.9925 30.5745 25.179 0 0 0
2999 4 8.9925 32.373 34.1715 0 0 0
2504 4 12.5895 26.9775 17.985 0 0 0
2818 4 10.791 19.7835 16.1865 0 0 0
3803 4 0.0 0.0 3.597 0 0 0
1895 4 16.1865 7.194 12.5895 0 0 0
969 4 28.776 32.373 7.194 0 0 0
1370 4 25.179 34.1715 8.9925 0 0 0
1612 4 19.7835 19.7835 7.194 0 0 0
2247 4 12.5895 3.597 5.3955 0 0 0
3387 4 5.3955 32.373 23.3805 0 0 0
3854 4 0.0 8.9925 23.3805 0 0 0
2012 4 16.1865 19.7835 7.194 0 0 0
7 4 34.1715 0.0 12.5895 0 0 0
3611 4 1.7985 17.985 8.9925 0 0 0
2203 4 12.5895 0.0 1.7985 0 0 0
464 4 30.5745 23.3805 17.985 0 0 0
2450 4 14.388 23.3805 8.9925 0 0 0
2743 4 8.9925 10.791 19.7835 0 0 0
2658 4 10.791 5.3955 16.1865 0 0 0
3442 4 3.597 5.3955 1.7985 0 0 0
3725 4 3.597 28.776 3.597 0 0 0
2284 4 12.5895 8.9925 0.0 0 0 0
2608 4 8.9925 1.7985 3.597 0 0 0
2424 4 12.5895 19.7835 17.985 0 0 0
3234 4 7.194 19.7835 30.5745 0 0 0
1401 4 21.582 0.0 0.0 0 0 0
3461 4 3.597 3.597 17.985 0 0 0
2987 4 8.9925 32.373 23.3805 0 0 0
2270 4 14.388 5.3955 26.9775 0 0 0
3144 4 5.3955 12.5895 17.985 0 0 0
174 4 34.1715 30.5745 21.582 0 0 0
2988 4 8.9925 34.1715 21.582 0 0 0
1047 4 23.3805 3.597 5.3955 0 0 0
676 4 26.9775 5.3955 28.776 0 0 0
3554 4 3.597 12.5895 30.5745 0 0 0
2604 4 8.9925 1.7985 0.0 0 0 0
4000 4 0.0 34.1715 34.1715 0 0 0
3828 4 0.0 5.3955 12.5895 0 0 0
890 4 28.776 26.9775 8.9925 0 0 0
1653 4 21.582 21.582 10.791 0 0 0
397 4 32.373 14.388 32.373 0 0 0
825 4 28.776 17.985 21.582 0 0 0
3696 4 1.7985 26.9775 10.791 0 0 0
1152 4 23.3805 12.5895 25.179 0 0 0
2811 4 8.9925 17.985 8.9925 0 0 0
830 4 28.776 19.7835 26.9775 0 0 0
3514 4 3.597 8.9925 30.5745 0 0 0
881 4 28.776 25.179 0.0 0 0 0
1785 4 21.582 32.373 21.582 0 0 0
3223 4 5.3955 17.985 19.7835 0 0 0
2774 4 10.791 16.1865 12.5895 0 0 0
805 4 28.776 17.985 3.597 0 0 0
2834 4 10.791 19.7835 30.5745 0 0 0
1586 4 21.582 16.1865 23.3805 0 0 0
989 4 28.776 32.373 25.179 0 0 0
2392 4 12.5895 16.1865 25.179 0 0 0
2569 4 14.388 32.373 7.194 0 0 0
253 4 32.373 3.597 10.791 0 0 0
3265 4 7.194 21.582 21.582 0 0 0
2700 4 8.9925 8.9925 14.388 0 0 0
1749 4 21.582 28.776 25.179 0 0 0
653 4 28.776 3.597 10.791 0 0 0
1063 4 23.3805 3.597 19.7835 0 0 0
1665 4 21.582 21.582 21.582 0 0 0
2167 4 16.1865 32.373 5.3955 0 0 0
1114 4 25.179 8.9925 30.5745 0 0 0
3315 4 5.3955 25.179 30.5745 0 0 0
3842 4 0.0 8.9925 1.7985 0 0 0
1000 4 26.9775 34.1715 32.373 0 0 0
840 4 26.9775 19.7835 32.373 0 0 0
370 4 32.373 16.1865 8.9925 0 0 0
1490 4 21.582 8.9925 8.9925 0 0 0
2878 4 10.791 23.3805 34.1715 0 0 0
2571 4 12.5895 32.373 8.9925 0 0 0
3118 4 7.194 8.9925 34.1715 0 0 0
3293 4 7.194 25.179 10.791 0 0 0
2307 4 12.5895 7.194 23.3805 0 0 0
658 4 28.776 5.3955 16.1865 0 0 0
903 4 26.9775 25.179 19.7835 0 0 0
561 4 32.373 32.373 0.0 0 0 0
1805 4 17.985 0.0 3.597 0 0 0
2282 4 14.388 8.9925 1.7985 0 0 0
2151 4 16.1865 28.776 26.9775 0 0 0
709 4 28.776 7.194 25.179 0 0 0
1520 4 19.7835 8.9925 32.373 0 0 0
1668 4 19.7835 23.3805 21.582 0 0 0
77 4 34.1715 10.791 30.5745 0 0 0
3787 4 1.7985 32.373 23.3805 0 0 0
1284 4 23.3805 26.9775 0.0 0 0 0
2992 4 8.9925 34.1715 25.179 0 0 0
3790 4 3.597 34.1715 26.9775 0 0 0
2343 4 12.5895 10.791 19.7835 0 0 0
599 4 30.5745 32.373 34.1715 0 0 0
427 4 30.5745 17.985 23.3805 0 0 0
2169 4 17.985 32.373 7.194 0 0 0
406 4 32.373 19.7835 5.3955 0 0 0
3816 4 0.0 1.7985 26.9775 0 0 0
1527 4 19.7835 10.791 5.3955 0 0 0
786 4 28.776 16.1865 23.3805 0 0 0
3548 4 1.7985 12.5895 21.582 0 0 0
76 4 34.1715 12.5895 25.179 0 0 0
3755 4 1.7985 28.776 30.5745 0 0 0
672 4 26.9775 5.3955 25.179 0 0 0
755 4 26.9775 10.791 30.5745 0 0 0
995 4 26.9775 32.373 30.5745 0 0 0
1592 4 19.7835 16.1865 25.179 0 0 0
1497 4 21.582 7.194 14.388 0 0 0
1066 4 25.179 5.3955 23.3805 0 0 0
3354 4 7.194 30.5745 30.5745 0 0 0
2593 4 14.388 32.373 28.776 0 0 0
3093 4 7.194 7.194 10.791 0 0 0
3676 4 1.7985 23.3805 28.776 0 0 0
2416 4 12.5895 19.7835 10.791 0 0 0
631 4 26.9775 0.0 26.9775 0 0 0
2784 4 8.9925 16.1865 17.985 0 0 0
3537 4 3.597 10.791 14.388 0 0 0
1923 4 16.1865 10.791 1.7985 0 0 0
2355 4 12.5895 10.791 30.5745 0 0 0
1338 4 25.179 30.5745 16.1865 0 0 0
2435 4 12.5895 17.985 30.5745 0 0 0
3558 4 3.597 12.5895 34.1715 0 0 0
503 4 30.5745 25.179 19.7835 0 0 0
2195 4 16.1865 32.373 30.5745 0 0 0
3740 4 1.7985 30.5745 14.388 0 0 0
3067 4 5.3955 3.597 23.3805 0 0 0
650 4 28.776 5.3955 8.9925 0 0 0
1969 4 17.985 14.388 7.194 0 0 0
3680 4 1.7985 23.3805 32.373 0 0 0
724 4 26.9775 12.5895 0.0 0 0 0
2646 4 10.791 5.3955 5.3955 0 0 0
3989 4 0.0 32.373 14.388 0 0 0
3660 4 1.7985 23.3805 14.388 0 0 0
95 4 34.1715 14.388 26.9775 0 0 0
3855 4 0.0 7.194 25.179 0 0 0
492 4 30.5745 26.9775 7.194 0 0 0
3138 4 7.194 12.5895 16.1865 0 0 0
747 4 26.9775 10.791 23.3805 0 0 0
268 4 30.5745 5.3955 21.582 0 0 0
3736 4 1.7985 30.5745 10.791 0 0 0
168 4 34.1715 30.5745 10.791 0 0 0
1750 4 21.582 30.5745 26.9775 0 0 0
584 4 30.5745 34.1715 17.985 0 0 0
3846 4 0.0 8.9925 8.9925 0 0 0
2733 4 10.791 10.791 10.791 0 0 0
1791 4 19.7835 32.373 26.9775 0 0 0
2523 4 12.5895 28.776 1.7985 0 0 0
3926 4 0.0 23.3805 8.9925 0 0 0
1300 4 23.3805 26.9775 14.388 0 0 0
2925 4 10.791 28.776 3.597 0 0 0
1519 4 19.7835 7.194 34.1715 0 0 0
257 4 32.373 3.597 14.388 0 0 0
3878 4 0.0 12.5895 30.5745 0 0 0
3046 4 7.194 5.3955 5.3955 0 0 0
280 4 30.5745 5.3955 32.373 0 0 0
1181 4 25.179 14.388 17.985 0 0 0
3958 4 0.0 26.9775 30.5745 0 0 0
2697 4 10.791 7.194 14.388 0 0 0
1182 4 25.179 16.1865 19.7835 0 0 0
2614 4 10.791 1.7985 12.5895 0 0 0
3992 4 0.0 34.1715 19.7835 0 0 0
1269 4 25.179 21.582 25.179 0 0 0
2778 4 10.791 16.1865 16.1865 0 0 0
2826 4 10.791 19.7835 23.3805 0 0 0
3952 4 0.0 26.9775 19.7835 0 0 0
1852 4 16.1865 5.3955 7.194 0 0 0
794 4 28.776 16.1865 30.5745 0 0 0
854 4 28.776 23.3805 12.5895 0 0 0
1001 4 25.179 0.0 0.0 0 0 0
96 4 34.1715 16.1865 25.179 0 0 0
1089 4 25.179 7.194 7.194 0 0 0
3543 4 1.7985 10.791 19.7835 0 0 0
531 4 30.5745 28.776 8.9925 0 0 0
20 4 34.1715 1.7985 32.373 0 0 0
342 4 32.373 12.5895 19.7835 0 0 0
3587 4 1.7985 14.388 23.3805 0 0 0
1411 4 19.7835 0.0 8.9925 0 0 0
1882 4 17.985 8.9925 1.7985 0 0 0
2867 4 8.9925 21.582 23.3805 0 0 0
917 4 28.776 25.179 32.373 0 0 0
1717 4 21.582 25.179 32.373 0 0 0
2628 4 8.9925 1.7985 21.582 0 0 0
3831 4 0.0 3.597 17.985 0 0 0
2670 4 10.791 5.3955 26.9775 0 0 0
98 4 34.1715 16.1865 28.776 0 0 0
3243 4 5.3955 21.582 1.7985 0 0 0
2570 4 14.388 34.1715 8.9925 0 0 0
3088 4 5.3955 8.9925 3.597 0 0 0
90 4 34.1715 16.1865 14.388 0 0 0
3362 4 7.194 34.1715 1.7985 0 0 0
802 4 28.776 19.7835 1.7985 0 0 0
1109 4 25.179 7.194 25.179 0 0 0
3684 4 1.7985 26.9775 0.0 0 0 0
1268 4 23.3805 23.3805 21.582 0 0 0
678 4 28.776 5.3955 34.1715 0 0 0
925 4 28.776 28.776 3.597 0 0 0
2084 4 16.1865 26.9775 0.0 0 0 0
2038 4 17.985 19.7835 34.1715 0 0 0
1123 4 23.3805 10.791 1.7985 0 0 0
2234 4 14.388 1.7985 30.5745 0 0 0
1249 4 25.179 21.582 7.194 0 0 0
1404 4 19.7835 1.7985 0.0 0 0 0
3562 4 3.597 16.1865 1.7985 0 0 0
3919 4 0.0 17.985 32.373 0 0 0
3921 4 0.0 21.582 0.0 0 0 0
3048 4 5.3955 5.3955 3.597 0 0 0
3635 4 1.7985 17.985 30.5745 0 0 0
1866 4 17.985 5.3955 23.3805 0 0 0
1070 4 25.179 5.3955 26.9775 0 0 0
245 4 32.373 3.597 3.597 0 0 0
3658 4 3.597 23.3805 16.1865 0 0 0
3267 4 5.3955 21.582 23.3805 0 0 0
3437 4 3.597 0.0 32.373 0 0 0
1581 4 21.582 14.388 17.985 0 0 0
2225 4 14.388 0.0 21.582 0 0 0
912 4 26.9775 26.9775 25.179 0 0 0
3154 4 7.194 12.5895 30.5745 0 0 0
2650 4 10.791 5.3955 8.9925 0 0 0
2989 4 10.791 32.373 25.179 0 0 0
2888 4 8.9925 26.9775 3.597 0 0 0
3468 4 1.7985 5.3955 21.582 0 0 0
1464 4 19.7835 5.3955 17.985 0 0 0
1396 4 23.3805 34.1715 28.776 0 0 0
3322 4 7.194 30.5745 1.7985 0 0 0
3938 4 0.0 23.3805 30.5745 0 0 0
877 4 28.776 21.582 32.373 0 0 0
3285 4 7.194 25.179 3.597 0 0 0
3526 4 3.597 12.5895 5.3955 0 0 0
2211 4 12.5895 0.0 8.9925 0 0 0
2617 4 10.791 0.0 14.388 0 0 0
2056 4 16.1865 23.3805 10.791 0 0 0
519 4 30.5745 25.179 34.1715 0 0 0
345 4 32.373 10.791 21.582 0 0 0
2436 4 12.5895 19.7835 28.776 0 0 0
2609 4 10.791 0.0 7.194 0 0 0
3251 4 5.3955 21.582 8.9925 0 0 0
2020 4 16.1865 19.7835 14.388 0 0 0
2587 4 12.5895 32.373 23.3805 0 0 0
2109 4 17.985 25.179 25.179 0 0 0
3770 4 3.597 34.1715 8.9925 0 0 0
1110 4 25.179 8.9925 26.9775 0 0 0
827 4 26.9775 17.985 23.3805 0 0 0
677 4 28.776 3.597 32.373 0 0 0
2001 4 17.985 17.985 0.0 0 0 0
861 4 28.776 21.582 17.985 0 0 0
3860 4 0.0 8.9925 34.1715 0 0 0
550 4 32.373 30.5745 26.9775 0 0 0
1549 4 21.582 10.791 25.179 0 0 0
3137 4 7.194 10.791 14.388 0 0 0
3681 4 3.597 25.179 0.0 0 0 0
3272 4 5.3955 23.3805 25.179 0 0 0
1151 4 23.3805 10.791 26.9775 0 0 0
3480 4 1.7985 5.3955 32.373 0 0 0
3536 4 1.7985 12.5895 10.791 0 0 0
1533 4 21.582 10.791 10.791 0 0 0
84 4 34.1715 16.1865 3.597 0 0 0
1206 4 25.179 19.7835 5.3955 0 0 0
3378 4 7.194 34.1715 16.1865 0 0 0
1090 4 25.179 8.9925 8.9925 0 0 0
500 4 30.5745 26.9775 14.388 0 0 0
1516 4 19.7835 8.9925 28.776 0 0 0
3577 4 3.597 14.388 14.388 0 0 0
1544 4 19.7835 12.5895 17.985 0 0 0
3239 4 5.3955 17.985 34.1715 0 0 0
3853 4 0.0 7.194 21.582 0 0 0
666 4 28.776 5.3955 23.3805 0 0 0
3918 4 0.0 19.7835 30.5745 0 0 0
17 4 34.1715 0.0 30.5745 0 0 0
3639 4 1.7985 17.985 34.1715 0 0 0
392 4 30.5745 16.1865 25.179 0 0 0
2287 4 12.5895 7.194 5.3955 0 0 0
1440 4 19.7835 1.7985 32.373 0 0 0
3262 4 7.194 23.3805 19.7835 0 0 0
3722 4 3.597 30.5745 1.7985 0 0 0
2928 4 8.9925 30.5745 3.597 0 0 0
1510 4 21.582 8.9925 26.9775 0 0 0
3995 4 0.0 32.373 25.179 0 0 0
3793 4 3.597 32.373 28.776 0 0 0
671 4 26.9775 3.597 26.9775 0 0 0
412 4 30.5745 19.7835 7.194 0 0 0
3530 4 3.597 12.5895 8.9925 0 0 0
1989 4 17.985 14.388 25.179 0 0 0
331 4 30.5745 10.791 8.9925 0 0 0
1294 4 25.179 26.9775 12.5895 0 0 0
3192 4 5.3955 16.1865 25.179 0 0 0
2795 4 8.9925 14.388 30.5745 0 0 0
641 4 28.776 3.597 0.0 0 0 0
3724 4 1.7985 30.5745 0.0 0 0 0
3588 4 1.7985 16.1865 21.582 0 0 0
3732 4 1.7985 30.5745 7.194 0 0 0
2229 4 14.388 0.0 25.179 0 0 0
110 4 34.1715 19.7835 14.388 0 0 0
1230 4 25.179 19.7835 26.9775 0 0 0
2094 4 17.985 26.9775 12.5895 0 0 0
1883 4 16.1865 7.194 1.7985 0 0 0
1105 4 25.179 7.194 21.582 0 0 0
3344 4 5.3955 30.5745 17.985 0 0 0
1670 4 21.582 23.3805 26.9775 0 0 0
502 4 32.373 26.9775 19.7835 0 0 0
742 4 28.776 12.5895 19.7835 0 0 0
3365 4 7.194 32.373 3.597 0 0 0
3539 4 1.7985 10.791 16.1865 0 0 0
1378 4 25.179 34.1715 16.1865 0 0 0
2190 4 17.985 34.1715 26.9775 0 0 0
897 4 28.776 25.179 14.388 0 0 0
3524 4 1.7985 12.5895 0.0 0 0 0
2838 4 10.791 19.7835 34.1715 0 0 0
941 4 28.776 28.776 17.985 0 0 0
661 4 28.776 3.597 17.985 0 0 0
433 4 32.373 17.985 28.776 0 0 0
1239 4 23.3805 17.985 34.1715 0 0 0
858 4 28.776 23.3805 16.1865 0 0 0
2277 4 14.388 3.597 32.373 0 0 0
703 4 26.9775 7.194 19.7835 0 0 0
2788 4 8.9925 16.1865 21.582 0 0 0
13 4 34.1715 0.0 23.3805 0 0 0
2974 4 10.791 34.1715 12.5895 0 0 0
2431 4 12.5895 17.985 26.9775 0 0 0
223 4 30.5745 0.0 19.7835 0 0 0
1557 4 21.582 10.791 32.373 0 0 0
2921 4 10.791 28.776 0.0 0 0 0
3431 4 1.7985 0.0 26.9775 0 0 0
3795 4 1.7985 32.373 30.5745 0 0 0
2477 4 14.388 21.582 32.373 0 0 0
1658 4 21.582 23.3805 16.1865 0 0 0
3900 4 0.0 16.1865 34.1715 0 0 0
1362 4 25.179 34.1715 1.7985 0 0 0
1554 4 21.582 12.5895 30.5745 0 0 0
960 4 26.9775 30.5745 32.373 0 0 0
1116 4 23.3805 8.9925 28.776 0 0 0
3220 4 5.3955 19.7835 14.388 0 0 0
546 4 32.373 30.5745 23.3805 0 0 0
1250 4 25.179 23.3805 8.9925 0 0 0
719 4 26.9775 7.194 34.1715 0 0 0
1902 4 17.985 8.9925 19.7835 0 0 0
3090 4 7.194 8.9925 8.9925 0 0 0
1443 4 19.7835 3.597 1.7985 0 0 0
2459 4 12.5895 21.582 16.1865 0 0 0
613 4 28.776 0.0 10.791 0 0 0
190 4 34.1715 34.1715 14.388 0 0 0
3356 4 5.3955 30.5745 28.776 0 0 0
686 4 28.776 8.9925 5.3955 0 0 0
8 5 34.1715 1.7985 10.791 0 0 0
10 5 34.1715 1.7985 14.388 0 0 0
15 5 34.1715 0.0 26.9775 0 0 0
21 5 34.1715 3.597 1.7985 0 0 0
33 5 34.1715 3.597 23.3805 0 0 0
36 5 34.1715 5.3955 25.179 0 0 0
41 5 34.1715 7.194 1.7985 0 0 0
50 5 34.1715 8.9925 14.388 0 0 0
55 5 34.1715 7.194 26.9775 0 0 0
60 5 34.1715 8.9925 32.373 0 0 0
61 5 34.1715 10.791 1.7985 0 0 0
63 5 34.1715 10.791 5.3955 0 0 0
67 5 34.1715 10.791 12.5895 0 0 0
70 5 34.1715 12.5895 14.388 0 0 0
73 5 34.1715 10.791 23.3805 0 0 0
78 5 34.1715 12.5895 28.776 0 0 0
81 5 34.1715 14.388 1.7985 0 0 0
97 5 34.1715 14.388 30.5745 0 0 0
101 5 34.1715 17.985 1.7985 0 0 0
108 5 34.1715 19.7835 10.791 0 0 0
113 5 34.1715 17.985 23.3805 0 0 0
120 5 34.1715 19.7835 32.373 0 0 0
121 5 34.1715 21.582 1.7985 0 0 0
127 5 34.1715 21.582 12.5895 0 0 0
129 5 34.1715 21.582 16.1865 0 0 0
130 5 34.1715 23.3805 14.388 0 0 0
135 5 34.1715 21.582 26.9775 0 0 0
138 5 34.1715 23.3805 28.776 0 0 0
140 5 34.1715 23.3805 32.373 0 0 0
144 5 34.1715 26.9775 3.597 0 0 0
147 5 34.1715 25.179 12.5895 0 0 0
158 5 34.1715 26.9775 28.776 0 0 0
163 5 34.1715 28.776 5.3955 0 0 0
176 5 34.1715 30.5745 25.179 0 0 0
183 5 34.1715 32.373 5.3955 0 0 0
184 5 34.1715 34.1715 3.597 0 0 0
193 5 34.1715 32.373 23.3805 0 0 0
201 5 32.373 0.0 0.0 0 0 0
203 5 30.5745 0.0 1.7985 0 0 0
204 5 30.5745 1.7985 0.0 0 0 0
210 5 32.373 1.7985 8.9925 0 0 0
228 5 30.5745 1.7985 21.582 0 0 0
242 5 32.373 5.3955 1.7985 0 0 0
247 5 30.5745 3.597 5.3955 0 0 0
249 5 32.373 3.597 7.194 0 0 0
250 5 32.373 5.3955 8.9925 0 0 0
254 5 32.373 5.3955 12.5895 0 0 0
258 5 32.373 5.3955 16.1865 0 0 0
261 5 32.373 3.597 17.985 0 0 0
263 5 30.5745 3.597 19.7835 0 0 0
265 5 32.373 3.597 21.582 0 0 0
266 5 32.373 5.3955 23.3805 0 0 0
293 5 32.373 7.194 10.791 0 0 0
296 5 30.5745 8.9925 10.791 0 0 0
297 5 32.373 7.194 14.388 0 0 0
302 5 32.373 8.9925 19.7835 0 0 0
310 5 32.373 8.9925 26.9775 0 0 0
311 5 30.5745 7.194 26.9775 0 0 0
314 5 32.373 8.9925 30.5745 0 0 0
318 5 32.373 8.9925 34.1715 0 0 0
320 5 30.5745 8.9925 32.373 0 0 0
335 5 30.5745 10.791 12.5895 0 0 0
340 5 30.5745 12.5895 14.388 0 0 0
347 5 30.5745 10.791 23.3805 0 0 0
350 5 32.373 12.5895 26.9775 0 0 0
353 5 32.373 10.791 28.776 0 0 0
355 5 30.5745 10.791 30.5745 0 0 0
360 5 30.5745 12.5895 32.373 0 0 0
361 5 32.373 14.388 0.0 0 0 0
372 5 30.5745 16.1865 7.194 0 0 0
382 5 32.373 16.1865 19.7835 0 0 0
385 5 32.373 14.388 21.582 0 0 0
387 5 30.5745 14.388 23.3805 0 0 0
391 5 30.5745 14.388 26.9775 0 0 0
395 5 30.5745 14.388 30.5745 0 0 0
403 5 30.5745 17.985 1.7985 0 0 0
408 5 30.5745 19.7835 3.597 0 0 0
409 5 32.373 17.985 7.194 0 0 0
424 5 30.5745 19.7835 17.985 0 0 0
426 5 32.373 19.7835 23.3805 0 0 0
429 5 32.373 17.985 25.179 0 0 0
443 5 30.5745 21.582 1.7985 0 0 0
444 5 30.5745 23.3805 0.0 0 0 0
445 5 32.373 21.582 3.597 0 0 0
449 5 32.373 21.582 7.194 0 0 0
452 5 30.5745 23.3805 7.194 0 0 0
458 5 32.373 23.3805 16.1865 0 0 0
461 5 32.373 21.582 17.985 0 0 0
463 5 30.5745 21.582 19.7835 0 0 0
468 5 30.5745 23.3805 21.582 0 0 0
475 5 30.5745 21.582 30.5745 0 0 0
478 5 32.373 23.3805 34.1715 0 0 0
480 5 30.5745 23.3805 32.373 0 0 0
485 5 32.373 25.179 3.597 0 0 0
490 5 32.373 26.9775 8.9925 0 0 0
495 5 30.5745 25.179 12.5895 0 0 0
511 5 30.5745 25.179 26.9775 0 0 0
515 5 30.5745 25.179 30.5745 0 0 0
516 5 30.5745 26.9775 28.776 0 0 0
522 5 32.373 30.5745 1.7985 0 0 0
523 5 30.5745 28.776 1.7985 0 0 0
525 5 32.373 28.776 3.597 0 0 0
527 5 30.5745 28.776 5.3955 0 0 0
528 5 30.5745 30.5745 3.597 0 0 0
533 5 32.373 28.776 10.791 0 0 0
536 5 30.5745 30.5745 10.791 0 0 0
541 5 32.373 28.776 17.985 0 0 0
544 5 30.5745 30.5745 17.985 0 0 0
549 5 32.373 28.776 25.179 0 0 0
555 5 30.5745 28.776 30.5745 0 0 0
566 5 32.373 34.1715 5.3955 0 0 0
574 5 32.373 34.1715 12.5895 0 0 0
578 5 32.373 34.1715 16.1865 0 0 0
592 5 30.5745 34.1715 25.179 0 0 0
593 5 32.373 32.373 28.776 0 0 0
601 5 28.776 0.0 0.0 0 0 0
602 5 28.776 1.7985 1.7985 0 0 0
607 5 26.9775 0.0 5.3955 0 0 0
608 5 26.9775 1.7985 3.597 0 0 0
612 5 26.9775 1.7985 7.194 0 0 0
620 5 26.9775 1.7985 14.388 0 0 0
621 5 28.776 0.0 17.985 0 0 0
625 5 28.776 0.0 21.582 0 0 0
627 5 26.9775 0.0 23.3805 0 0 0
630 5 28.776 1.7985 26.9775 0 0 0
645 5 28.776 3.597 3.597 0 0 0
647 5 26.9775 3.597 5.3955 0 0 0
655 5 26.9775 3.597 12.5895 0 0 0
668 5 26.9775 5.3955 21.582 0 0 0
675 5 26.9775 3.597 30.5745 0 0 0
679 5 26.9775 3.597 34.1715 0 0 0
683 5 26.9775 7.194 1.7985 0 0 0
689 5 28.776 7.194 7.194 0 0 0
693 5 28.776 7.194 10.791 0 0 0
698 5 28.776 8.9925 16.1865 0 0 0
700 5 26.9775 8.9925 14.388 0 0 0
702 5 28.776 8.9925 19.7835 0 0 0
707 5 26.9775 7.194 23.3805 0 0 0
708 5 26.9775 8.9925 21.582 0 0 0
715 5 26.9775 7.194 30.5745 0 0 0
725 5 28.776 10.791 3.597 0 0 0
727 5 26.9775 10.791 5.3955 0 0 0
729 5 28.776 10.791 7.194 0 0 0
731 5 26.9775 10.791 8.9925 0 0 0
735 5 26.9775 10.791 12.5895 0 0 0
756 5 26.9775 12.5895 28.776 0 0 0
759 5 26.9775 10.791 34.1715 0 0 0
768 5 26.9775 16.1865 3.597 0 0 0
769 5 28.776 14.388 7.194 0 0 0
770 5 28.776 16.1865 8.9925 0 0 0
771 5 26.9775 14.388 8.9925 0 0 0
772 5 26.9775 16.1865 7.194 0 0 0
773 5 28.776 14.388 10.791 0 0 0
781 5 28.776 14.388 17.985 0 0 0
791 5 26.9775 14.388 26.9775 0 0 0
795 5 26.9775 14.388 30.5745 0 0 0
817 5 28.776 17.985 14.388 0 0 0
822 5 28.776 19.7835 19.7835 0 0 0
829 5 28.776 17.985 25.179 0 0 0
836 5 26.9775 19.7835 28.776 0 0 0
838 5 28.776 19.7835 34.1715 0 0 0
843 5 26.9775 21.582 1.7985 0 0 0
844 5 26.9775 23.3805 0.0 0 0 0
852 5 26.9775 23.3805 7.194 0 0 0
855 5 26.9775 21.582 12.5895 0 0 0
868 5 26.9775 23.3805 21.582 0 0 0
879 5 26.9775 21.582 34.1715 0 0 0
883 5 26.9775 25.179 1.7985 0 0 0
884 5 26.9775 26.9775 0.0 0 0 0
889 5 28.776 25.179 7.194 0 0 0
891 5 26.9775 25.179 8.9925 0 0 0
893 5 28.776 25.179 10.791 0 0 0
894 5 28.776 26.9775 12.5895 0 0 0
895 5 26.9775 25.179 12.5895 0 0 0
898 5 28.776 26.9775 16.1865 0 0 0
913 5 28.776 25.179 28.776 0 0 0
915 5 26.9775 25.179 30.5745 0 0 0
919 5 26.9775 25.179 34.1715 0 0 0
933 5 28.776 28.776 10.791 0 0 0
937 5 28.776 28.776 14.388 0 0 0
945 5 28.776 28.776 21.582 0 0 0
959 5 26.9775 28.776 34.1715 0 0 0
961 5 28.776 32.373 0.0 0 0 0
963 5 26.9775 32.373 1.7985 0 0 0
965 5 28.776 32.373 3.597 0 0 0
968 5 26.9775 34.1715 3.597 0 0 0
972 5 26.9775 34.1715 7.194 0 0 0
973 5 28.776 32.373 10.791 0 0 0
974 5 28.776 34.1715 12.5895 0 0 0
980 5 26.9775 34.1715 14.388 0 0 0
983 5 26.9775 32.373 19.7835 0 0 0
993 5 28.776 32.373 28.776 0 0 0
997 5 28.776 32.373 32.373 0 0 0
1013 5 25.179 0.0 10.791 0 0 0
1025 5 25.179 0.0 21.582 0 0 0
1028 5 23.3805 1.7985 21.582 0 0 0
1030 5 25.179 1.7985 26.9775 0 0 0
1034 5 25.179 1.7985 30.5745 0 0 0
1037 5 25.179 0.0 32.373 0 0 0
1043 5 23.3805 3.597 1.7985 0 0 0
1048 5 23.3805 5.3955 3.597 0 0 0
1050 5 25.179 5.3955 8.9925 0 0 0
1051 5 23.3805 3.597 8.9925 0 0 0
1053 5 25.179 3.597 10.791 0 0 0
1061 5 25.179 3.597 17.985 0 0 0
1062 5 25.179 5.3955 19.7835 0 0 0
1067 5 23.3805 3.597 23.3805 0 0 0
1068 5 23.3805 5.3955 21.582 0 0 0
1079 5 23.3805 3.597 34.1715 0 0 0
1080 5 23.3805 5.3955 32.373 0 0 0
1081 5 25.179 7.194 0.0 0 0 0
1085 5 25.179 7.194 3.597 0 0 0
1092 5 23.3805 8.9925 7.194 0 0 0
1115 5 23.3805 7.194 30.5745 0 0 0
1118 5 25.179 8.9925 34.1715 0 0 0
1124 5 23.3805 12.5895 0.0 0 0 0
1132 5 23.3805 12.5895 7.194 0 0 0
1137 5 25.179 10.791 14.388 0 0 0
1144 5 23.3805 12.5895 17.985 0 0 0
1158 5 25.179 12.5895 34.1715 0 0 0
1160 5 23.3805 12.5895 32.373 0 0 0
1162 5 25.179 16.1865 1.7985 0 0 0
1164 5 23.3805 16.1865 0.0 0 0 0
1168 5 23.3805 16.1865 3.597 0 0 0
1172 5 23.3805 16.1865 7.194 0 0 0
1177 5 25.179 14.388 14.388 0 0 0
1179 5 23.3805 14.388 16.1865 0 0 0
1193 5 25.179 14.388 28.776 0 0 0
1201 5 25.179 17.985 0.0 0 0 0
1204 5 23.3805 19.7835 0.0 0 0 0
1208 5 23.3805 19.7835 3.597 0 0 0
1209 5 25.179 17.985 7.194 0 0 0
1215 5 23.3805 17.985 12.5895 0 0 0
1216 5 23.3805 19.7835 10.791 0 0 0
1235 5 23.3805 17.985 30.5745 0 0 0
1236 5 23.3805 19.7835 28.776 0 0 0
1241 5 25.179 21.582 0.0 0 0 0
1246 5 25.179 23.3805 5.3955 0 0 0
1247 5 23.3805 21.582 5.3955 0 0 0
1257 5 25.179 21.582 14.388 0 0 0
1258 5 25.179 23.3805 16.1865 0 0 0
1261 5 25.179 21.582 17.985 0 0 0
1267 5 23.3805 21.582 23.3805 0 0 0
1271 5 23.3805 21.582 26.9775 0 0 0
1272 5 23.3805 23.3805 25.179 0 0 0
1276 5 23.3805 23.3805 28.776 0 0 0
1281 5 25.179 25.179 0.0 0 0 0
1282 5 25.179 26.9775 1.7985 0 0 0
1283 5 23.3805 25.179 1.7985 0 0 0
1299 5 23.3805 25.179 16.1865 0 0 0
1301 5 25.179 25.179 17.985 0 0 0
1302 5 25.179 26.9775 19.7835 0 0 0
1314 5 25.179 26.9775 30.5745 0 0 0
1322 5 25.179 30.5745 1.7985 0 0 0
1323 5 23.3805 28.776 1.7985 0 0 0
1328 5 23.3805 30.5745 3.597 0 0 0
1330 5 25.179 30.5745 8.9925 0 0 0
1331 5 23.3805 28.776 8.9925 0 0 0
1332 5 23.3805 30.5745 7.194 0 0 0
1341 5 25.179 28.776 17.985 0 0 0
1344 5 23.3805 30.5745 17.985 0 0 0
1363 5 23.3805 32.373 1.7985 0 0 0
1372 5 23.3805 34.1715 7.194 0 0 0
1377 5 25.179 32.373 14.388 0 0 0
1379 5 23.3805 32.373 16.1865 0 0 0
1385 5 25.179 32.373 21.582 0 0 0
1389 5 25.179 32.373 25.179 0 0 0
1390 5 25.179 34.1715 26.9775 0 0 0
1391 5 23.3805 32.373 26.9775 0 0 0
1394 5 25.179 34.1715 30.5745 0 0 0
1397 5 25.179 32.373 32.373 0 0 0
1407 5 19.7835 0.0 5.3955 0 0 0
1425 5 21.582 0.0 21.582 0 0 0
1430 5 21.582 1.7985 26.9775 0 0 0
1441 5 21.582 3.597 0.0 0 0 0
1444 5 19.7835 5.3955 0.0 0 0 0
1447 5 19.7835 3.597 5.3955 0 0 0
1448 5 19.7835 5.3955 3.597 0 0 0
1456 5 19.7835 5.3955 10.791 0 0 0
1465 5 21.582 3.597 21.582 0 0 0
1466 5 21.582 5.3955 23.3805 0 0 0
1475 5 19.7835 3.597 30.5745 0 0 0
1480 5 19.7835 5.3955 32.373 0 0 0
1483 5 19.7835 7.194 1.7985 0 0 0
1485 5 21.582 7.194 3.597 0 0 0
1493 5 21.582 7.194 10.791 0 0 0
1495 5 19.7835 7.194 12.5895 0 0 0
1496 5 19.7835 8.9925 10.791 0 0 0
1499 5 19.7835 7.194 16.1865 0 0 0
1501 5 21.582 7.194 17.985 0 0 0
1503 5 19.7835 7.194 19.7835 0 0 0
1504 5 19.7835 8.9925 17.985 0 0 0
1511 5 19.7835 7.194 26.9775 0 0 0
1512 5 19.7835 8.9925 25.179 0 0 0
1514 5 21.582 8.9925 30.5745 0 0 0
1515 5 19.7835 7.194 30.5745 0 0 0
1518 5 21.582 8.9925 34.1715 0 0 0
1534 5 21.582 12.5895 12.5895 0 0 0
1535 5 19.7835 10.791 12.5895 0 0 0
1537 5 21.582 10.791 14.388 0 0 0
1538 5 21.582 12.5895 16.1865 0 0 0
1545 5 21.582 10.791 21.582 0 0 0
1560 5 19.7835 12.5895 32.373 0 0 0
1561 5 21.582 14.388 0.0 0 0 0
1562 5 21.582 16.1865 1.7985 0 0 0
1563 5 19.7835 14.388 1.7985 0 0 0
1564 5 19.7835 16.1865 0.0 0 0 0
1566 5 21.582 16.1865 5.3955 0 0 0
1573 5 21.582 14.388 10.791 0 0 0
1578 5 21.582 16.1865 16.1865 0 0 0
1582 5 21.582 16.1865 19.7835 0 0 0
1590 5 21.582 16.1865 26.9775 0 0 0
1591 5 19.7835 14.388 26.9775 0 0 0
1596 5 19.7835 16.1865 28.776 0 0 0
1604 5 19.7835 19.7835 0.0 0 0 0
1608 5 19.7835 19.7835 3.597 0 0 0
1614 5 21.582 19.7835 12.5895 0 0 0
1622 5 21.582 19.7835 19.7835 0 0 0
1631 5 19.7835 17.985 26.9775 0 0 0
1634 5 21.582 19.7835 30.5745 0 0 0
1637 5 21.582 17.985 32.373 0 0 0
1639 5 19.7835 17.985 34.1715 0 0 0
1641 5 21.582 21.582 0.0 0 0 0
1648 5 19.7835 23.3805 3.597 0 0 0
1656 5 19.7835 23.3805 10.791 0 0 0
1657 5 21.582 21.582 14.388 0 0 0
1660 5 19.7835 23.3805 14.388 0 0 0
1663 5 19.7835 21.582 19.7835 0 0 0
1666 5 21.582 23.3805 23.3805 0 0 0
1689 5 21.582 25.179 7.194 0 0 0
1690 5 21.582 26.9775 8.9925 0 0 0
1691 5 19.7835 25.179 8.9925 0 0 0
1692 5 19.7835 26.9775 7.194 0 0 0
1695 5 19.7835 25.179 12.5895 0 0 0
1697 5 21.582 25.179 14.388 0 0 0
1699 5 19.7835 25.179 16.1865 0 0 0
1706 5 21.582 26.9775 23.3805 0 0 0
1709 5 21.582 25.179 25.179 0 0 0
1710 5 21.582 26.9775 26.9775 0 0 0
1713 5 21.582 25.179 28.776 0 0 0
1715 5 19.7835 25.179 30.5745 0 0 0
1726 5 21.582 30.5745 5.3955 0 0 0
1729 5 21.582 28.776 7.194 0 0 0
1734 5 21.582 30.5745 12.5895 0 0 0
1739 5 19.7835 28.776 16.1865 0 0 0
1741 5 21.582 28.776 17.985 0 0 0
1746 5 21.582 30.5745 23.3805 0 0 0
1748 5 19.7835 30.5745 21.582 0 0 0
1765 5 21.582 32.373 3.597 0 0 0
1766 5 21.582 34.1715 5.3955 0 0 0
1773 5 21.582 32.373 10.791 0 0 0
1775 5 19.7835 32.373 12.5895 0 0 0
1776 5 19.7835 34.1715 10.791 0 0 0
1778 5 21.582 34.1715 16.1865 0 0 0
1783 5 19.7835 32.373 19.7835 0 0 0
1787 5 19.7835 32.373 23.3805 0 0 0
1802 5 17.985 1.7985 1.7985 0 0 0
1814 5 17.985 1.7985 12.5895 0 0 0
1818 5 17.985 1.7985 16.1865 0 0 0
1819 5 16.1865 0.0 16.1865 0 0 0
1821 5 17.985 0.0 17.985 0 0 0
1823 5 16.1865 0.0 19.7835 0 0 0
1824 5 16.1865 1.7985 17.985 0 0 0
1825 5 17.985 0.0 21.582 0 0 0
1832 5 16.1865 1.7985 25.179 0 0 0
1836 5 16.1865 1.7985 28.776 0 0 0
1842 5 17.985 5.3955 1.7985 0 0 0
1844 5 16.1865 5.3955 0.0 0 0 0
1845 5 17.985 3.597 3.597 0 0 0
1846 5 17.985 5.3955 5.3955 0 0 0
1847 5 16.1865 3.597 5.3955 0 0 0
1853 5 17.985 3.597 10.791 0 0 0
1854 5 17.985 5.3955 12.5895 0 0 0
1856 5 16.1865 5.3955 10.791 0 0 0
1857 5 17.985 3.597 14.388 0 0 0
1878 5 17.985 5.3955 34.1715 0 0 0
1890 5 17.985 8.9925 8.9925 0 0 0
1891 5 16.1865 7.194 8.9925 0 0 0
1893 5 17.985 7.194 10.791 0 0 0
1898 5 17.985 8.9925 16.1865 0 0 0
1904 5 16.1865 8.9925 17.985 0 0 0
1909 5 17.985 7.194 25.179 0 0 0
1911 5 16.1865 7.194 26.9775 0 0 0
1917 5 17.985 7.194 32.373 0 0 0
1922 5 17.985 12.5895 1.7985 0 0 0
1925 5 17.985 10.791 3.597 0 0 0
1934 5 17.985 12.5895 12.5895 0 0 0
1947 5 16.1865 10.791 23.3805 0 0 0
1949 5 17.985 10.791 25.179 0 0 0
1952 5 16.1865 12.5895 25.179 0 0 0
1956 5 16.1865 12.5895 28.776 0 0 0
1959 5 16.1865 10.791 34.1715 0 0 0
1967 5 16.1865 14.388 5.3955 0 0 0
1974 5 17.985 16.1865 12.5895 0 0 0
1975 5 16.1865 14.388 12.5895 0 0 0
1979 5 16.1865 14.388 16.1865 0 0 0
1982 5 17.985 16.1865 19.7835 0 0 0
1988 5 16.1865 16.1865 21.582 0 0 0
1997 5 17.985 14.388 32.373 0 0 0
2000 5 16.1865 16.1865 32.373 0 0 0
2003 5 16.1865 17.985 1.7985 0 0 0
2004 5 16.1865 19.7835 0.0 0 0 0
2005 5 17.985 17.985 3.597 0 0 0
2014 5 17.985 19.7835 12.5895 0 0 0
2018 5 17.985 19.7835 16.1865 0 0 0
2023 5 16.1865 17.985 19.7835 0 0 0
2026 5 17.985 19.7835 23.3805 0 0 0
2029 5 17.985 17.985 25.179 0 0 0
2039 5 16.1865 17.985 34.1715 0 0 0
2041 5 17.985 21.582 0.0 0 0 0
2045 5 17.985 21.582 3.597 0 0 0
2050 5 17.985 23.3805 8.9925 0 0 0
2052 5 16.1865 23.3805 7.194 0 0 0
2064 5 16.1865 23.3805 17.985 0 0 0
2068 5 16.1865 23.3805 21.582 0 0 0
2069 5 17.985 21.582 25.179 0 0 0
2076 5 16.1865 23.3805 28.776 0 0 0
2077 5 17.985 21.582 32.373 0 0 0
2080 5 16.1865 23.3805 32.373 0 0 0
2083 5 16.1865 25.179 1.7985 0 0 0
2087 5 16.1865 25.179 5.3955 0 0 0
2088 5 16.1865 26.9775 3.597 0 0 0
2089 5 17.985 25.179 7.194 0 0 0
2090 5 17.985 26.9775 8.9925 0 0 0
2095 5 16.1865 25.179 12.5895 0 0 0
2097 5 17.985 25.179 14.388 0 0 0
2102 5 17.985 26.9775 19.7835 0 0 0
2106 5 17.985 26.9775 23.3805 0 0 0
2107 5 16.1865 25.179 23.3805 0 0 0
2117 5 17.985 25.179 32.373 0 0 0
2123 5 16.1865 28.776 1.7985 0 0 0
2126 5 17.985 30.5745 5.3955 0 0 0
2134 5 17.985 30.5745 12.5895 0 0 0
2149 5 17.985 28.776 25.179 0 0 0
2157 5 17.985 28.776 32.373 0 0 0
2165 5 17.985 32.373 3.597 0 0 0
2166 5 17.985 34.1715 5.3955 0 0 0
2172 5 16.1865 34.1715 7.194 0 0 0
2176 5 16.1865 34.1715 10.791 0 0 0
2179 5 16.1865 32.373 16.1865 0 0 0
2189 5 17.985 32.373 25.179 0 0 0
2201 5 14.388 0.0 0.0 0 0 0
2210 5 14.388 1.7985 8.9925 0 0 0
2215 5 12.5895 0.0 12.5895 0 0 0
2218 5 14.388 1.7985 16.1865 0 0 0
2219 5 12.5895 0.0 16.1865 0 0 0
2226 5 14.388 1.7985 23.3805 0 0 0
2233 5 14.388 0.0 28.776 0 0 0
2246 5 14.388 5.3955 5.3955 0 0 0
2251 5 12.5895 3.597 8.9925 0 0 0
2259 5 12.5895 3.597 16.1865 0 0 0
2263 5 12.5895 3.597 19.7835 0 0 0
2269 5 14.388 3.597 25.179 0 0 0
2274 5 14.388 5.3955 30.5745 0 0 0
2279 5 12.5895 3.597 34.1715 0 0 0
2290 5 14.388 8.9925 8.9925 0 0 0
2291 5 12.5895 7.194 8.9925 0 0 0
2298 5 14.388 8.9925 16.1865 0 0 0
2300 5 12.5895 8.9925 14.388 0 0 0
2304 5 12.5895 8.9925 17.985 0 0 0
2306 5 14.388 8.9925 23.3805 0 0 0
2310 5 14.388 8.9925 26.9775 0 0 0
2313 5 14.388 7.194 28.776 0 0 0
2314 5 14.388 8.9925 30.5745 0 0 0
2315 5 12.5895 7.194 30.5745 0 0 0
2317 5 14.388 7.194 32.373 0 0 0
2321 5 14.388 10.791 0.0 0 0 0
2324 5 12.5895 12.5895 0.0 0 0 0
2329 5 14.388 10.791 7.194 0 0 0
2330 5 14.388 12.5895 8.9925 0 0 0
2336 5 12.5895 12.5895 10.791 0 0 0
2340 5 12.5895 12.5895 14.388 0 0 0
2341 5 14.388 10.791 17.985 0 0 0
2344 5 12.5895 12.5895 17.985 0 0 0
2345 5 14.388 10.791 21.582 0 0 0
2346 5 14.388 12.5895 23.3805 0 0 0
2349 5 14.388 10.791 25.179 0 0 0
2351 5 12.5895 10.791 26.9775 0 0 0
2352 5 12.5895 12.5895 25.179 0 0 0
2358 5 14.388 12.5895 34.1715 0 0 0
2360 5 12.5895 12.5895 32.373 0 0 0
2361 5 14.388 14.388 0.0 0 0 0
2363 5 12.5895 14.388 1.7985 0 0 0
2367 5 12.5895 14.388 5.3955 0 0 0
2369 5 14.388 14.388 7.194 0 0 0
2373 5 14.388 14.388 10.791 0 0 0
2374 5 14.388 16.1865 12.5895 0 0 0
2375 5 12.5895 14.388 12.5895 0 0 0
2376 5 12.5895 16.1865 10.791 0 0 0
2377 5 14.388 14.388 14.388 0 0 0
2387 5 12.5895 14.388 23.3805 0 0 0
2395 5 12.5895 14.388 30.5745 0 0 0
2401 5 14.388 17.985 0.0 0 0 0
2404 5 12.5895 19.7835 0.0 0 0 0
2418 5 14.388 19.7835 16.1865 0 0 0
2420 5 12.5895 19.7835 14.388 0 0 0
2421 5 14.388 17.985 17.985 0 0 0
2428 5 12.5895 19.7835 21.582 0 0 0
2429 5 14.388 17.985 25.179 0 0 0
2430 5 14.388 19.7835 26.9775 0 0 0
2438 5 14.388 19.7835 34.1715 0 0 0
2439 5 12.5895 17.985 34.1715 0 0 0
2443 5 12.5895 21.582 1.7985 0 0 0
2448 5 12.5895 23.3805 3.597 0 0 0
2449 5 14.388 21.582 7.194 0 0 0
2455 5 12.5895 21.582 12.5895 0 0 0
2460 5 12.5895 23.3805 14.388 0 0 0
2466 5 14.388 23.3805 23.3805 0 0 0
2471 5 12.5895 21.582 26.9775 0 0 0
2472 5 12.5895 23.3805 25.179 0 0 0
2473 5 14.388 21.582 28.776 0 0 0
2474 5 14.388 23.3805 30.5745 0 0 0
2475 5 12.5895 21.582 30.5745 0 0 0
2483 5 12.5895 25.179 1.7985 0 0 0
2492 5 12.5895 26.9775 7.194 0 0 0
2499 5 12.5895 25.179 16.1865 0 0 0
2506 5 14.388 26.9775 23.3805 0 0 0
2514 5 14.388 26.9775 30.5745 0 0 0
2524 5 12.5895 30.5745 0.0 0 0 0
2527 5 12.5895 28.776 5.3955 0 0 0
2534 5 14.388 30.5745 12.5895 0 0 0
2549 5 14.388 28.776 25.179 0 0 0
2551 5 12.5895 28.776 26.9775 0 0 0
2553 5 14.388 28.776 28.776 0 0 0
2555 5 12.5895 28.776 30.5745 0 0 0
2559 5 12.5895 28.776 34.1715 0 0 0
2565 5 14.388 32.373 3.597 0 0 0
2573 5 14.388 32.373 10.791 0 0 0
2575 5 12.5895 32.373 12.5895 0 0 0
2576 5 12.5895 34.1715 10.791 0 0 0
2580 5 12.5895 34.1715 14.388 0 0 0
2583 5 12.5895 32.373 19.7835 0 0 0
2585 5 14.388 32.373 21.582 0 0 0
2588 5 12.5895 34.1715 21.582 0 0 0
2590 5 14.388 34.1715 26.9775 0 0 0
2598 5 14.388 34.1715 34.1715 0 0 0
2600 5 12.5895 34.1715 32.373 0 0 0
2601 5 10.791 0.0 0.0 0 0 0
2613 5 10.791 0.0 10.791 0 0 0
2632 5 8.9925 1.7985 25.179 0 0 0
2647 5 8.9925 3.597 5.3955 0 0 0
2649 5 10.791 3.597 7.194 0 0 0
2652 5 8.9925 5.3955 7.194 0 0 0
2654 5 10.791 5.3955 12.5895 0 0 0
2656 5 8.9925 5.3955 10.791 0 0 0
2657 5 10.791 3.597 14.388 0 0 0
2659 5 8.9925 3.597 16.1865 0 0 0
2676 5 8.9925 5.3955 28.776 0 0 0
2679 5 8.9925 3.597 34.1715 0 0 0
2688 5 8.9925 8.9925 3.597 0 0 0
2690 5 10.791 8.9925 8.9925 0 0 0
2699 5 8.9925 7.194 16.1865 0 0 0
2708 5 8.9925 8.9925 21.582 0 0 0
2711 5 8.9925 7.194 26.9775 0 0 0
2713 5 10.791 7.194 28.776 0 0 0
2716 5 8.9925 8.9925 28.776 0 0 0
2718 5 10.791 8.9925 34.1715 0 0 0
2732 5 8.9925 12.5895 7.194 0 0 0
2734 5 10.791 12.5895 12.5895 0 0 0
2735 5 8.9925 10.791 12.5895 0 0 0
2737 5 10.791 10.791 14.388 0 0 0
2744 5 8.9925 12.5895 17.985 0 0 0
2748 5 8.9925 12.5895 21.582 0 0 0
2750 5 10.791 12.5895 26.9775 0 0 0
2752 5 8.9925 12.5895 25.179 0 0 0
2755 5 8.9925 10.791 30.5745 0 0 0
2756 5 8.9925 12.5895 28.776 0 0 0
2761 5 10.791 14.388 0.0 0 0 0
2762 5 10.791 16.1865 1.7985 0 0 0
2767 5 8.9925 14.388 5.3955 0 0 0
2771 5 8.9925 14.388 8.9925 0 0 0
2772 5 8.9925 16.1865 7.194 0 0 0
2780 5 8.9925 16.1865 14.388 0 0 0
2783 5 8.9925 14.388 19.7835 0 0 0
2785 5 10.791 14.388 21.582 0 0 0
2790 5 10.791 16.1865 26.9775 0 0 0
2793 5 10.791 14.388 28.776 0 0 0
2800 5 8.9925 16.1865 32.373 0 0 0
2801 5 10.791 17.985 0.0 0 0 0
2805 5 10.791 17.985 3.597 0 0 0
2810 5 10.791 19.7835 8.9925 0 0 0
2813 5 10.791 17.985 10.791 0 0 0
2823 5 8.9925 17.985 19.7835 0 0 0
2827 5 8.9925 17.985 23.3805 0 0 0
2833 5 10.791 17.985 28.776 0 0 0
2837 5 10.791 17.985 32.373 0 0 0
2843 5 8.9925 21.582 1.7985 0 0 0
2848 5 8.9925 23.3805 3.597 0 0 0
2849 5 10.791 21.582 7.194 0 0 0
2850 5 10.791 23.3805 8.9925 0 0 0
2851 5 8.9925 21.582 8.9925 0 0 0
2853 5 10.791 21.582 10.791 0 0 0
2854 5 10.791 23.3805 12.5895 0 0 0
2857 5 10.791 21.582 14.388 0 0 0
2859 5 8.9925 21.582 16.1865 0 0 0
2871 5 8.9925 21.582 26.9775 0 0 0
2880 5 8.9925 23.3805 32.373 0 0 0
2887 5 8.9925 25.179 5.3955 0 0 0
2900 5 8.9925 26.9775 14.388 0 0 0
2910 5 10.791 26.9775 26.9775 0 0 0
2917 5 10.791 25.179 32.373 0 0 0
2927 5 8.9925 28.776 5.3955 0 0 0
2935 5 8.9925 28.776 12.5895 0 0 0
2940 5 8.9925 30.5745 14.388 0 0 0
2942 5 10.791 30.5745 19.7835 0 0 0
2943 5 8.9925 28.776 19.7835 0 0 0
2960 5 8.9925 30.5745 32.373 0 0 0
2963 5 8.9925 32.373 1.7985 0 0 0
2968 5 8.9925 34.1715 3.597 0 0 0
2976 5 8.9925 34.1715 10.791 0 0 0
2977 5 10.791 32.373 14.388 0 0 0
2978 5 10.791 34.1715 16.1865 0 0 0
2995 5 8.9925 32.373 30.5745 0 0 0
2996 5 8.9925 34.1715 28.776 0 0 0
2997 5 10.791 32.373 32.373 0 0 0
3002 5 7.194 1.7985 1.7985 0 0 0
3003 5 5.3955 0.0 1.7985 0 0 0
3005 5 7.194 0.0 3.597 0 0 0
3009 5 7.194 0.0 7.194 0 0 0
3010 5 7.194 1.7985 8.9925 0 0 0
3016 5 5.3955 1.7985 10.791 0 0 0
3023 5 5.3955 0.0 19.7835 0 0 0
3028 5 5.3955 1.7985 21.582 0 0 0
3029 5 7.194 0.0 25.179 0 0 0
3031 5 5.3955 0.0 26.9775 0 0 0
3033 5 7.194 0.0 28.776 0 0 0
3038 5 7.194 1.7985 34.1715 0 0 0
3045 5 7.194 3.597 3.597 0 0 0
3051 5 5.3955 3.597 8.9925 0 0 0
3060 5 5.3955 5.3955 14.388 0 0 0
3069 5 7.194 3.597 25.179 0 0 0
3074 5 7.194 5.3955 30.5745 0 0 0
3079 5 5.3955 3.597 34.1715 0 0 0
3080 5 5.3955 5.3955 32.373 0 0 0
3082 5 7.194 8.9925 1.7985 0 0 0
3086 5 7.194 8.9925 5.3955 0 0 0
3097 5 7.194 7.194 14.388 0 0 0
3101 5 7.194 7.194 17.985 0 0 0
3102 5 7.194 8.9925 19.7835 0 0 0
3105 5 7.194 7.194 21.582 0 0 0
3115 5 5.3955 7.194 30.5745 0 0 0
3117 5 7.194 7.194 32.373 0 0 0
3121 5 7.194 10.791 0.0 0 0 0
3123 5 5.3955 10.791 1.7985 0 0 0
3124 5 5.3955 12.5895 0.0 0 0 0
3125 5 7.194 10.791 3.597 0 0 0
3128 5 5.3955 12.5895 3.597 0 0 0
3129 5 7.194 10.791 7.194 0 0 0
3132 5 5.3955 12.5895 7.194 0 0 0
3133 5 7.194 10.791 10.791 0 0 0
3136 5 5.3955 12.5895 10.791 0 0 0
3139 5 5.3955 10.791 16.1865 0 0 0
3145 5 7.194 10.791 21.582 0 0 0
3149 5 7.194 10.791 25.179 0 0 0
3152 5 5.3955 12.5895 25.179 0 0 0
3155 5 5.3955 10.791 30.5745 0 0 0
3163 5 5.3955 14.388 1.7985 0 0 0
3164 5 5.3955 16.1865 0.0 0 0 0
3167 5 5.3955 14.388 5.3955 0 0 0
3171 5 5.3955 14.388 8.9925 0 0 0
3172 5 5.3955 16.1865 7.194 0 0 0
3181 5 7.194 14.388 17.985 0 0 0
3202 5 7.194 19.7835 1.7985 0 0 0
3211 5 5.3955 17.985 8.9925 0 0 0
3213 5 7.194 17.985 10.791 0 0 0
3218 5 7.194 19.7835 16.1865 0 0 0
3235 5 5.3955 17.985 30.5745 0 0 0
3240 5 5.3955 19.7835 32.373 0 0 0
3241 5 7.194 21.582 0.0 0 0 0
3244 5 5.3955 23.3805 0.0 0 0 0
3259 5 5.3955 21.582 16.1865 0 0 0
3260 5 5.3955 23.3805 14.388 0 0 0
3261 5 7.194 21.582 17.985 0 0 0
3282 5 7.194 26.9775 1.7985 0 0 0
3284 5 5.3955 26.9775 0.0 0 0 0
3288 5 5.3955 26.9775 3.597 0 0 0
3294 5 7.194 26.9775 12.5895 0 0 0
3297 5 7.194 25.179 14.388 0 0 0
3298 5 7.194 26.9775 16.1865 0 0 0
3301 5 7.194 25.179 17.985 0 0 0
3312 5 5.3955 26.9775 25.179 0 0 0
3319 5 5.3955 25.179 34.1715 0 0 0
3328 5 5.3955 30.5745 3.597 0 0 0
3335 5 5.3955 28.776 12.5895 0 0 0
3339 5 5.3955 28.776 16.1865 0 0 0
3341 5 7.194 28.776 17.985 0 0 0
3347 5 5.3955 28.776 23.3805 0 0 0
3349 5 7.194 28.776 25.179 0 0 0
3352 5 5.3955 30.5745 25.179 0 0 0
3357 5 7.194 28.776 32.373 0 0 0
3358 5 7.194 30.5745 34.1715 0 0 0
3360 5 5.3955 30.5745 32.373 0 0 0
3369 5 7.194 32.373 7.194 0 0 0
3371 5 5.3955 32.373 8.9925 0 0 0
3373 5 7.194 32.373 10.791 0 0 0
3412 5 1.7985 1.7985 7.194 0 0 0
3418 5 3.597 1.7985 16.1865 0 0 0
3419 5 1.7985 0.0 16.1865 0 0 0
3421 5 3.597 0.0 17.985 0 0 0
3426 5 3.597 1.7985 23.3805 0 0 0
3432 5 1.7985 1.7985 25.179 0 0 0
3436 5 1.7985 1.7985 28.776 0 0 0
3445 5 3.597 3.597 3.597 0 0 0
3448 5 1.7985 5.3955 3.597 0 0 0
3450 5 3.597 5.3955 8.9925 0 0 0
3457 5 3.597 3.597 14.388 0 0 0
3459 5 1.7985 3.597 16.1865 0 0 0
3462 5 3.597 5.3955 19.7835 0 0 0
3476 5 1.7985 5.3955 28.776 0 0 0
3484 5 1.7985 8.9925 0.0 0 0 0
3490 5 3.597 8.9925 8.9925 0 0 0
3493 5 3.597 7.194 10.791 0 0 0
3496 5 1.7985 8.9925 10.791 0 0 0
3499 5 1.7985 7.194 16.1865 0 0 0
3503 5 1.7985 7.194 19.7835 0 0 0
3505 5 3.597 7.194 21.582 0 0 0
3508 5 1.7985 8.9925 21.582 0 0 0
3513 5 3.597 7.194 28.776 0 0 0
3517 5 3.597 7.194 32.373 0 0 0
3519 5 1.7985 7.194 34.1715 0 0 0
3521 5 3.597 10.791 0.0 0 0 0
3523 5 1.7985 10.791 1.7985 0 0 0
3528 5 1.7985 12.5895 3.597 0 0 0
3529 5 3.597 10.791 7.194 0 0 0
3531 5 1.7985 10.791 8.9925 0 0 0
3533 5 3.597 10.791 10.791 0 0 0
3534 5 3.597 12.5895 12.5895 0 0 0
3549 5 3.597 10.791 25.179 0 0 0
3563 5 1.7985 14.388 1.7985 0 0 0
3564 5 1.7985 16.1865 0.0 0 0 0
3565 5 3.597 14.388 3.597 0 0 0
3570 5 3.597 16.1865 8.9925 0 0 0
3583 5 1.7985 14.388 19.7835 0 0 0
3586 5 3.597 16.1865 23.3805 0 0 0
3590 5 3.597 16.1865 26.9775 0 0 0
3598 5 3.597 16.1865 34.1715 0 0 0
3599 5 1.7985 14.388 34.1715 0 0 0
3600 5 1.7985 16.1865 32.373 0 0 0
3602 5 3.597 19.7835 1.7985 0 0 0
3604 5 1.7985 19.7835 0.0 0 0 0
3605 5 3.597 17.985 3.597 0 0 0
3606 5 3.597 19.7835 5.3955 0 0 0
3608 5 1.7985 19.7835 3.597 0 0 0
3618 5 3.597 19.7835 16.1865 0 0 0
3625 5 3.597 17.985 21.582 0 0 0
3627 5 1.7985 17.985 23.3805 0 0 0
3633 5 3.597 17.985 28.776 0 0 0
3644 5 1.7985 23.3805 0.0 0 0 0
3649 5 3.597 21.582 7.194 0 0 0
3655 5 1.7985 21.582 12.5895 0 0 0
3659 5 1.7985 21.582 16.1865 0 0 0
3685 5 3.597 25.179 3.597 0 0 0
3693 5 3.597 25.179 10.791 0 0 0
3697 5 3.597 25.179 14.388 0 0 0
3702 5 3.597 26.9775 19.7835 0 0 0
3704 5 1.7985 26.9775 17.985 0 0 0
3705 5 3.597 25.179 21.582 0 0 0
3708 5 1.7985 26.9775 21.582 0 0 0
3710 5 3.597 26.9775 26.9775 0 0 0
3711 5 1.7985 25.179 26.9775 0 0 0
3712 5 1.7985 26.9775 25.179 0 0 0
3716 5 1.7985 26.9775 28.776 0 0 0
3717 5 3.597 25.179 32.373 0 0 0
3720 5 1.7985 26.9775 32.373 0 0 0
3721 5 3.597 28.776 0.0 0 0 0
3728 5 1.7985 30.5745 3.597 0 0 0
3730 5 3.597 30.5745 8.9925 0 0 0
3733 5 3.597 28.776 10.791 0 0 0
3739 5 1.7985 28.776 16.1865 0 0 0
3748 5 1.7985 30.5745 21.582 0 0 0
3756 5 1.7985 30.5745 28.776 0 0 0
3758 5 3.597 30.5745 34.1715 0 0 0
3761 5 3.597 32.373 0.0 0 0 0
3762 5 3.597 34.1715 1.7985 0 0 0
3768 5 1.7985 34.1715 3.597 0 0 0
3771 5 1.7985 32.373 8.9925 0 0 0
3777 5 3.597 32.373 14.388 0 0 0
3782 5 3.597 34.1715 19.7835 0 0 0
3783 5 1.7985 32.373 19.7835 0 0 0
3785 5 3.597 32.373 21.582 0 0 0
3789 5 3.597 32.373 25.179 0 0 0
3797 5 3.597 32.373 32.373 0 0 0
3800 5 1.7985 34.1715 32.373 0 0 0
3809 5 0.0 0.0 14.388 0 0 0
3814 5 0.0 1.7985 23.3805 0 0 0
3818 5 0.0 1.7985 30.5745 0 0 0
3821 5 0.0 3.597 0.0 0 0 0
3830 5 0.0 5.3955 16.1865 0 0 0
3832 5 0.0 5.3955 19.7835 0 0 0
3835 5 0.0 3.597 25.179 0 0 0
3836 5 0.0 5.3955 26.9775 0 0 0
3841 5 0.0 7.194 0.0 0 0 0
3843 5 0.0 7.194 3.597 0 0 0
3849 5 0.0 7.194 14.388 0 0 0
3865 5 0.0 10.791 7.194 0 0 0
3871 5 0.0 10.791 17.985 0 0 0
3874 5 0.0 12.5895 23.3805 0 0 0
3881 5 0.0 14.388 0.0 0 0 0
3882 5 0.0 16.1865 1.7985 0 0 0
3883 5 0.0 14.388 3.597 0 0 0
3890 5 0.0 16.1865 16.1865 0 0 0
3896 5 0.0 16.1865 26.9775 0 0 0
3905 5 0.0 17.985 7.194 0 0 0
3907 5 0.0 17.985 10.791 0 0 0
3912 5 0.0 19.7835 19.7835 0 0 0
3913 5 0.0 17.985 21.582 0 0 0
3917 5 0.0 17.985 28.776 0 0 0
3923 5 0.0 21.582 3.597 0 0 0
3936 5 0.0 23.3805 26.9775 0 0 0
3941 5 0.0 25.179 0.0 0 0 0
3943 5 0.0 25.179 3.597 0 0 0
3949 5 0.0 25.179 14.388 0 0 0
3954 5 0.0 26.9775 23.3805 0 0 0
3971 5 0.0 28.776 17.985 0 0 0
3981 5 0.0 32.373 0.0 0 0 0
3987 5 0.0 32.373 10.791 0 0 0
3988 5 0.0 34.1715 12.5895 0 0 0
3994 5 0.0 34.1715 23.3805 0 0 0
