LAMMPS data file via write_data version 30 Jul 2021 timestep = 0
4000 atoms
5 atom types
0 35.97 xlo xhi
0 35.97 ylo yhi
0 35.97 zlo zhi
0.0 0.0 0.0 xy xz yz
 
Masses
 
1 1.0
2 2.0
3 3.0
4 4.0
5 5.0
 
Atoms  # atomic
 
3929 1 0.0 21.582 14.388 0 0 0
3058 1 7.194 5.3955 16.1865 0 0 0
3368 1 5.3955 34.1715 3.597 0 0 0
2871 1 8.9925 21.582 26.9775 0 0 0
268 1 30.5745 5.3955 21.582 0 0 0
1492 1 19.7835 8.9925 7.194 0 0 0
1958 1 17.985 12.5895 34.1715 0 0 0
2603 1 8.9925 0.0 1.7985 0 0 0
5 1 34.1715 0.0 8.9925 0 0 0
2574 1 14.388 34.1715 12.5895 0 0 0
3343 1 5.3955 28.776 19.7835 0 0 0
3581 1 3.597 14.388 17.985 0 0 0
391 1 30.5745 14.388 26.9775 0 0 0
3501 1 3.597 7.194 17.985 0 0 0
2651 1 8.9925 3.597 8.9925 0 0 0
3302 1 7.194 26.9775 19.7835 0 0 0
334 1 32.373 12.5895 12.5895 0 0 0
1940 1 16.1865 12.5895 14.388 0 0 0
1025 1 25.179 0.0 21.582 0 0 0
2412 1 12.5895 19.7835 7.194 0 0 0
1303 1 23.3805 25.179 19.7835 0 0 0
230 1 32.373 1.7985 26.9775 0 0 0
435 1 30.5745 17.985 30.5745 0 0 0
2589 1 14.388 32.373 25.179 0 0 0
2121 1 17.985 28.776 0.0 0 0 0
604 1 26.9775 1.7985 0.0 0 0 0
2352 1 12.5895 12.5895 25.179 0 0 0
2729 1 10.791 10.791 7.194 0 0 0
3220 1 5.3955 19.7835 14.388 0 0 0
59 1 34.1715 7.194 34.1715 0 0 0
582 1 32.373 34.1715 19.7835 0 0 0
3337 1 7.194 28.776 14.388 0 0 0
2396 1 12.5895 16.1865 28.776 0 0 0
272 1 30.5745 5.3955 25.179 0 0 0
2469 1 14.388 21.582 25.179 0 0 0
3039 1 5.3955 0.0 34.1715 0 0 0
541 1 32.373 28.776 17.985 0 0 0
2677 1 10.791 3.597 32.373 0 0 0
1304 1 23.3805 26.9775 17.985 0 0 0
3491 1 1.7985 7.194 8.9925 0 0 0
2874 1 10.791 23.3805 30.5745 0 0 0
2436 1 12.5895 19.7835 28.776 0 0 0
1207 1 23.3805 17.985 5.3955 0 0 0
171 1 34.1715 28.776 19.7835 0 0 0
752 1 26.9775 12.5895 25.179 0 0 0
2978 1 10.791 34.1715 16.1865 0 0 0
3472 1 1.7985 5.3955 25.179 0 0 0
1449 1 21.582 3.597 7.194 0 0 0
1216 1 23.3805 19.7835 10.791 0 0 0
2731 1 8.9925 10.791 8.9925 0 0 0
938 1 28.776 30.5745 16.1865 0 0 0
876 1 26.9775 23.3805 28.776 0 0 0
2304 1 12.5895 8.9925 17.985 0 0 0
1160 1 23.3805 12.5895 32.373 0 0 0
1382 1 25.179 34.1715 19.7835 0 0 0
3576 1 1.7985 16.1865 10.791 0 0 0
371 1 30.5745 14.388 8.9925 0 0 0
1509 1 21.582 7.194 25.179 0 0 0
2307 1 12.5895 7.194 23.3805 0 0 0
71 1 34.1715 10.791 19.7835 0 0 0
816 1 26.9775 19.7835 10.791 0 0 0
1978 1 17.985 16.1865 16.1865 0 0 0
1268 1 23.3805 23.3805 21.582 0 0 0
328 1 30.5745 12.5895 3.597 0 0 0
1887 1 16.1865 7.194 5.3955 0 0 0
3852 1 0.0 8.9925 19.7835 0 0 0
1416 1 19.7835 1.7985 10.791 0 0 0
1175 1 23.3805 14.388 12.5895 0 0 0
3538 1 3.597 12.5895 16.1865 0 0 0
1820 1 16.1865 1.7985 14.388 0 0 0
3105 1 7.194 7.194 21.582 0 0 0
1834 1 17.985 1.7985 30.5745 0 0 0
772 1 26.9775 16.1865 7.194 0 0 0
2796 1 8.9925 16.1865 28.776 0 0 0
1837 1 17.985 0.0 32.373 0 0 0
280 1 30.5745 5.3955 32.373 0 0 0
997 1 28.776 32.373 32.373 0 0 0
3972 1 0.0 30.5745 19.7835 0 0 0
3405 1 3.597 0.0 3.597 0 0 0
2639 1 8.9925 0.0 34.1715 0 0 0
2656 1 8.9925 5.3955 10.791 0 0 0
42 1 34.1715 8.9925 0.0 0 0 0
3744 1 1.7985 30.5745 17.985 0 0 0
40 1 34.1715 5.3955 32.373 0 0 0
3702 1 3.597 26.9775 19.7835 0 0 0
458 1 32.373 23.3805 16.1865 0 0 0
3546 1 3.597 12.5895 23.3805 0 0 0
3336 1 5.3955 30.5745 10.791 0 0 0
1632 1 19.7835 19.7835 25.179 0 0 0
2942 1 10.791 30.5745 19.7835 0 0 0
862 1 28.776 23.3805 19.7835 0 0 0
314 1 32.373 8.9925 30.5745 0 0 0
2420 1 12.5895 19.7835 14.388 0 0 0
1966 1 17.985 16.1865 5.3955 0 0 0
1706 1 21.582 26.9775 23.3805 0 0 0
933 1 28.776 28.776 10.791 0 0 0
1683 1 19.7835 25.179 1.7985 0 0 0
137 1 34.1715 21.582 30.5745 0 0 0
2006 1 17.985 19.7835 5.3955 0 0 0
3325 1 7.194 28.776 3.597 0 0 0
3467 1 1.7985 3.597 23.3805 0 0 0
2806 1 10.791 19.7835 5.3955 0 0 0
307 1 30.5745 7.194 23.3805 0 0 0
737 1 28.776 10.791 14.388 0 0 0
3060 1 5.3955 5.3955 14.388 0 0 0
528 1 30.5745 30.5745 3.597 0 0 0
2220 1 12.5895 1.7985 14.388 0 0 0
1147 1 23.3805 10.791 23.3805 0 0 0
1615 1 19.7835 17.985 12.5895 0 0 0
3440 1 1.7985 1.7985 32.373 0 0 0
75 1 34.1715 10.791 26.9775 0 0 0
3043 1 5.3955 3.597 1.7985 0 0 0
3620 1 1.7985 19.7835 14.388 0 0 0
1190 1 25.179 16.1865 26.9775 0 0 0
1152 1 23.3805 12.5895 25.179 0 0 0
837 1 28.776 17.985 32.373 0 0 0
389 1 32.373 14.388 25.179 0 0 0
3061 1 7.194 3.597 17.985 0 0 0
2608 1 8.9925 1.7985 3.597 0 0 0
1194 1 25.179 16.1865 30.5745 0 0 0
567 1 30.5745 32.373 5.3955 0 0 0
641 1 28.776 3.597 0.0 0 0 0
575 1 30.5745 32.373 12.5895 0 0 0
2920 1 8.9925 26.9775 32.373 0 0 0
1855 1 16.1865 3.597 12.5895 0 0 0
2855 1 8.9925 21.582 12.5895 0 0 0
1392 1 23.3805 34.1715 25.179 0 0 0
2795 1 8.9925 14.388 30.5745 0 0 0
2611 1 8.9925 0.0 8.9925 0 0 0
2742 1 10.791 12.5895 19.7835 0 0 0
3462 1 3.597 5.3955 19.7835 0 0 0
1050 1 25.179 5.3955 8.9925 0 0 0
380 1 30.5745 16.1865 14.388 0 0 0
2233 1 14.388 0.0 28.776 0 0 0
626 1 28.776 1.7985 23.3805 0 0 0
1954 1 17.985 12.5895 30.5745 0 0 0
3318 1 7.194 26.9775 34.1715 0 0 0
1617 1 21.582 17.985 14.388 0 0 0
3449 1 3.597 3.597 7.194 0 0 0
3138 1 7.194 12.5895 16.1865 0 0 0
3493 1 3.597 7.194 10.791 0 0 0
2489 1 14.388 25.179 7.194 0 0 0
3653 1 3.597 21.582 10.791 0 0 0
1006 1 25.179 1.7985 5.3955 0 0 0
2882 1 10.791 26.9775 1.7985 0 0 0
1649 1 21.582 21.582 7.194 0 0 0
2666 1 10.791 5.3955 23.3805 0 0 0
548 1 30.5745 30.5745 21.582 0 0 0
843 1 26.9775 21.582 1.7985 0 0 0
1432 1 19.7835 1.7985 25.179 0 0 0
1745 1 21.582 28.776 21.582 0 0 0
666 1 28.776 5.3955 23.3805 0 0 0
3730 1 3.597 30.5745 8.9925 0 0 0
1950 1 17.985 12.5895 26.9775 0 0 0
3421 1 3.597 0.0 17.985 0 0 0
3980 1 0.0 30.5745 34.1715 0 0 0
2438 1 14.388 19.7835 34.1715 0 0 0
317 1 32.373 7.194 32.373 0 0 0
2163 1 16.1865 32.373 1.7985 0 0 0
152 1 34.1715 26.9775 17.985 0 0 0
3112 1 5.3955 8.9925 25.179 0 0 0
2096 1 16.1865 26.9775 10.791 0 0 0
3404 1 1.7985 1.7985 0.0 0 0 0
924 1 26.9775 30.5745 0.0 0 0 0
3860 1 0.0 8.9925 34.1715 0 0 0
1888 1 16.1865 8.9925 3.597 0 0 0
2671 1 8.9925 3.597 26.9775 0 0 0
1605 1 21.582 17.985 3.597 0 0 0
433 1 32.373 17.985 28.776 0 0 0
556 1 30.5745 30.5745 28.776 0 0 0
1707 1 19.7835 25.179 23.3805 0 0 0
1294 1 25.179 26.9775 12.5895 0 0 0
1269 1 25.179 21.582 25.179 0 0 0
913 1 28.776 25.179 28.776 0 0 0
86 1 34.1715 16.1865 7.194 0 0 0
3933 1 0.0 21.582 21.582 0 0 0
2836 1 8.9925 19.7835 28.776 0 0 0
757 1 28.776 10.791 32.373 0 0 0
1650 1 21.582 23.3805 8.9925 0 0 0
3255 1 5.3955 21.582 12.5895 0 0 0
191 1 34.1715 32.373 19.7835 0 0 0
2247 1 12.5895 3.597 5.3955 0 0 0
1249 1 25.179 21.582 7.194 0 0 0
123 1 34.1715 21.582 5.3955 0 0 0
2037 1 17.985 17.985 32.373 0 0 0
3768 1 1.7985 34.1715 3.597 0 0 0
2616 1 8.9925 1.7985 10.791 0 0 0
3497 1 3.597 7.194 14.388 0 0 0
3249 1 7.194 21.582 7.194 0 0 0
1292 1 23.3805 26.9775 7.194 0 0 0
2292 1 12.5895 8.9925 7.194 0 0 0
3294 1 7.194 26.9775 12.5895 0 0 0
476 1 30.5745 23.3805 28.776 0 0 0
3445 1 3.597 3.597 3.597 0 0 0
593 1 32.373 32.373 28.776 0 0 0
820 1 26.9775 19.7835 14.388 0 0 0
2887 1 8.9925 25.179 5.3955 0 0 0
74 1 34.1715 12.5895 21.582 0 0 0
2974 1 10.791 34.1715 12.5895 0 0 0
44 1 34.1715 8.9925 3.597 0 0 0
122 1 34.1715 23.3805 0.0 0 0 0
3687 1 1.7985 25.179 5.3955 0 0 0
1122 1 25.179 12.5895 1.7985 0 0 0
3204 1 5.3955 19.7835 0.0 0 0 0
1044 1 23.3805 5.3955 0.0 0 0 0
72 1 34.1715 12.5895 17.985 0 0 0
2045 1 17.985 21.582 3.597 0 0 0
1741 1 21.582 28.776 17.985 0 0 0
2432 1 12.5895 19.7835 25.179 0 0 0
3819 1 0.0 0.0 32.373 0 0 0
2421 1 14.388 17.985 17.985 0 0 0
1661 1 21.582 21.582 17.985 0 0 0
3070 1 7.194 5.3955 26.9775 0 0 0
3069 1 7.194 3.597 25.179 0 0 0
3988 1 0.0 34.1715 12.5895 0 0 0
66 1 34.1715 12.5895 7.194 0 0 0
1663 1 19.7835 21.582 19.7835 0 0 0
3199 1 5.3955 14.388 34.1715 0 0 0
2100 1 16.1865 26.9775 14.388 0 0 0
928 1 26.9775 30.5745 3.597 0 0 0
2125 1 17.985 28.776 3.597 0 0 0
3800 1 1.7985 34.1715 32.373 0 0 0
3774 1 3.597 34.1715 12.5895 0 0 0
163 1 34.1715 28.776 5.3955 0 0 0
3603 1 1.7985 17.985 1.7985 0 0 0
271 1 30.5745 3.597 26.9775 0 0 0
2816 1 8.9925 19.7835 10.791 0 0 0
3648 1 1.7985 23.3805 3.597 0 0 0
3214 1 7.194 19.7835 12.5895 0 0 0
2546 1 14.388 30.5745 23.3805 0 0 0
2445 1 14.388 21.582 3.597 0 0 0
1437 1 21.582 0.0 32.373 0 0 0
2604 1 8.9925 1.7985 0.0 0 0 0
382 1 32.373 16.1865 19.7835 0 0 0
374 1 32.373 16.1865 12.5895 0 0 0
2928 1 8.9925 30.5745 3.597 0 0 0
776 1 26.9775 16.1865 10.791 0 0 0
3367 1 5.3955 32.373 5.3955 0 0 0
1757 1 21.582 28.776 32.373 0 0 0
1948 1 16.1865 12.5895 21.582 0 0 0
2325 1 14.388 10.791 3.597 0 0 0
3370 1 7.194 34.1715 8.9925 0 0 0
1333 1 25.179 28.776 10.791 0 0 0
605 1 28.776 0.0 3.597 0 0 0
31 1 34.1715 3.597 19.7835 0 0 0
2777 1 10.791 14.388 14.388 0 0 0
1327 1 23.3805 28.776 5.3955 0 0 0
3891 1 0.0 14.388 17.985 0 0 0
3865 1 0.0 10.791 7.194 0 0 0
1354 1 25.179 30.5745 30.5745 0 0 0
3152 1 5.3955 12.5895 25.179 0 0 0
3123 1 5.3955 10.791 1.7985 0 0 0
629 1 28.776 0.0 25.179 0 0 0
182 1 34.1715 34.1715 0.0 0 0 0
3699 1 1.7985 25.179 16.1865 0 0 0
496 2 30.5745 26.9775 10.791 0 0 0
2185 2 17.985 32.373 21.582 0 0 0
2149 2 17.985 28.776 25.179 0 0 0
1846 2 17.985 5.3955 5.3955 0 0 0
1735 2 19.7835 28.776 12.5895 0 0 0
3222 2 7.194 19.7835 19.7835 0 0 0
54 2 34.1715 8.9925 21.582 0 0 0
3339 2 5.3955 28.776 16.1865 0 0 0
3872 2 0.0 12.5895 19.7835 0 0 0
2039 2 16.1865 17.985 34.1715 0 0 0
1518 2 21.582 8.9925 34.1715 0 0 0
1316 2 23.3805 26.9775 28.776 0 0 0
1528 2 19.7835 12.5895 3.597 0 0 0
3388 2 5.3955 34.1715 21.582 0 0 0
1938 2 17.985 12.5895 16.1865 0 0 0
1195 2 23.3805 14.388 30.5745 0 0 0
2168 2 16.1865 34.1715 3.597 0 0 0
3028 2 5.3955 1.7985 21.582 0 0 0
1158 2 25.179 12.5895 34.1715 0 0 0
3672 2 1.7985 23.3805 25.179 0 0 0
1527 2 19.7835 10.791 5.3955 0 0 0
799 2 26.9775 14.388 34.1715 0 0 0
3785 2 3.597 32.373 21.582 0 0 0
2031 2 16.1865 17.985 26.9775 0 0 0
3104 2 5.3955 8.9925 17.985 0 0 0
347 2 30.5745 10.791 23.3805 0 0 0
3979 2 0.0 28.776 32.373 0 0 0
2116 2 16.1865 26.9775 28.776 0 0 0
1061 2 25.179 3.597 17.985 0 0 0
2086 2 17.985 26.9775 5.3955 0 0 0
1810 2 17.985 1.7985 8.9925 0 0 0
2873 2 10.791 21.582 28.776 0 0 0
2306 2 14.388 8.9925 23.3805 0 0 0
1156 2 23.3805 12.5895 28.776 0 0 0
1079 2 23.3805 3.597 34.1715 0 0 0
3008 2 5.3955 1.7985 3.597 0 0 0
3779 2 1.7985 32.373 16.1865 0 0 0
1105 2 25.179 7.194 21.582 0 0 0
2308 2 12.5895 8.9925 21.582 0 0 0
1182 2 25.179 16.1865 19.7835 0 0 0
22 2 34.1715 5.3955 0.0 0 0 0
732 2 26.9775 12.5895 7.194 0 0 0
2583 2 12.5895 32.373 19.7835 0 0 0
348 2 30.5745 12.5895 21.582 0 0 0
3117 2 7.194 7.194 32.373 0 0 0
1024 2 23.3805 1.7985 17.985 0 0 0
3320 2 5.3955 26.9775 32.373 0 0 0
3539 2 1.7985 10.791 16.1865 0 0 0
3542 2 3.597 12.5895 19.7835 0 0 0
3600 2 1.7985 16.1865 32.373 0 0 0
2613 2 10.791 0.0 10.791 0 0 0
1092 2 23.3805 8.9925 7.194 0 0 0
3902 2 0.0 19.7835 1.7985 0 0 0
2944 2 8.9925 30.5745 17.985 0 0 0
3945 2 0.0 25.179 7.194 0 0 0
546 2 32.373 30.5745 23.3805 0 0 0
1121 2 25.179 10.791 0.0 0 0 0
1724 2 19.7835 30.5745 0.0 0 0 0
2688 2 8.9925 8.9925 3.597 0 0 0
3044 2 5.3955 5.3955 0.0 0 0 0
1886 2 17.985 8.9925 5.3955 0 0 0
3155 2 5.3955 10.791 30.5745 0 0 0
988 2 26.9775 34.1715 21.582 0 0 0
1535 2 19.7835 10.791 12.5895 0 0 0
315 2 30.5745 7.194 30.5745 0 0 0
2197 2 17.985 32.373 32.373 0 0 0
678 2 28.776 5.3955 34.1715 0 0 0
3103 2 5.3955 7.194 19.7835 0 0 0
3984 2 0.0 34.1715 5.3955 0 0 0
1520 2 19.7835 8.9925 32.373 0 0 0
329 2 32.373 10.791 7.194 0 0 0
1640 2 19.7835 19.7835 32.373 0 0 0
1326 2 25.179 30.5745 5.3955 0 0 0
2746 2 10.791 12.5895 23.3805 0 0 0
3500 2 1.7985 8.9925 14.388 0 0 0
3139 2 5.3955 10.791 16.1865 0 0 0
3826 2 0.0 5.3955 8.9925 0 0 0
1126 2 25.179 12.5895 5.3955 0 0 0
2556 2 12.5895 30.5745 28.776 0 0 0
2487 2 12.5895 25.179 5.3955 0 0 0
1691 2 19.7835 25.179 8.9925 0 0 0
3140 2 5.3955 12.5895 14.388 0 0 0
210 2 32.373 1.7985 8.9925 0 0 0
993 2 28.776 32.373 28.776 0 0 0
3930 2 0.0 23.3805 16.1865 0 0 0
688 2 26.9775 8.9925 3.597 0 0 0
3127 2 5.3955 10.791 5.3955 0 0 0
3363 2 5.3955 32.373 1.7985 0 0 0
3518 2 3.597 8.9925 34.1715 0 0 0
3432 2 1.7985 1.7985 25.179 0 0 0
2675 2 8.9925 3.597 30.5745 0 0 0
2997 2 10.791 32.373 32.373 0 0 0
859 2 26.9775 21.582 16.1865 0 0 0
265 2 32.373 3.597 21.582 0 0 0
3748 2 1.7985 30.5745 21.582 0 0 0
1849 2 17.985 3.597 7.194 0 0 0
1611 2 19.7835 17.985 8.9925 0 0 0
2932 2 8.9925 30.5745 7.194 0 0 0
536 2 30.5745 30.5745 10.791 0 0 0
1255 2 23.3805 21.582 12.5895 0 0 0
1185 2 25.179 14.388 21.582 0 0 0
1908 2 16.1865 8.9925 21.582 0 0 0
2759 2 8.9925 10.791 34.1715 0 0 0
3084 2 5.3955 8.9925 0.0 0 0 0
3722 2 3.597 30.5745 1.7985 0 0 0
53 2 34.1715 7.194 23.3805 0 0 0
3453 2 3.597 3.597 10.791 0 0 0
1666 2 21.582 23.3805 23.3805 0 0 0
1996 2 16.1865 16.1865 28.776 0 0 0
296 2 30.5745 8.9925 10.791 0 0 0
1103 2 23.3805 7.194 19.7835 0 0 0
973 2 28.776 32.373 10.791 0 0 0
2842 2 10.791 23.3805 1.7985 0 0 0
1163 2 23.3805 14.388 1.7985 0 0 0
2763 2 8.9925 14.388 1.7985 0 0 0
3450 2 3.597 5.3955 8.9925 0 0 0
2455 2 12.5895 21.582 12.5895 0 0 0
3678 2 3.597 23.3805 34.1715 0 0 0
484 2 30.5745 26.9775 0.0 0 0 0
586 2 32.373 34.1715 23.3805 0 0 0
782 2 28.776 16.1865 19.7835 0 0 0
2697 2 10.791 7.194 14.388 0 0 0
1665 2 21.582 21.582 21.582 0 0 0
2919 2 8.9925 25.179 34.1715 0 0 0
1594 2 21.582 16.1865 30.5745 0 0 0
434 2 32.373 19.7835 30.5745 0 0 0
1228 2 23.3805 19.7835 21.582 0 0 0
3601 2 3.597 17.985 0.0 0 0 0
2917 2 10.791 25.179 32.373 0 0 0
173 2 34.1715 28.776 23.3805 0 0 0
1063 2 23.3805 3.597 19.7835 0 0 0
437 2 32.373 17.985 32.373 0 0 0
2495 2 12.5895 25.179 12.5895 0 0 0
2930 2 10.791 30.5745 8.9925 0 0 0
3478 2 3.597 5.3955 34.1715 0 0 0
284 2 30.5745 8.9925 0.0 0 0 0
1131 2 23.3805 10.791 8.9925 0 0 0
2406 2 14.388 19.7835 5.3955 0 0 0
402 2 32.373 19.7835 1.7985 0 0 0
34 2 34.1715 5.3955 21.582 0 0 0
948 2 26.9775 30.5745 21.582 0 0 0
3241 2 7.194 21.582 0.0 0 0 0
3959 2 0.0 25.179 32.373 0 0 0
198 2 34.1715 34.1715 28.776 0 0 0
2964 2 8.9925 34.1715 0.0 0 0 0
3365 2 7.194 32.373 3.597 0 0 0
670 2 28.776 5.3955 26.9775 0 0 0
1378 2 25.179 34.1715 16.1865 0 0 0
3876 2 0.0 12.5895 26.9775 0 0 0
1498 2 21.582 8.9925 16.1865 0 0 0
2141 2 17.985 28.776 17.985 0 0 0
207 2 30.5745 0.0 5.3955 0 0 0
1306 2 25.179 26.9775 23.3805 0 0 0
1495 2 19.7835 7.194 12.5895 0 0 0
1192 2 23.3805 16.1865 25.179 0 0 0
2488 2 12.5895 26.9775 3.597 0 0 0
1944 2 16.1865 12.5895 17.985 0 0 0
287 2 30.5745 7.194 5.3955 0 0 0
882 2 28.776 26.9775 1.7985 0 0 0
643 2 26.9775 3.597 1.7985 0 0 0
1331 2 23.3805 28.776 8.9925 0 0 0
2819 2 8.9925 17.985 16.1865 0 0 0
358 2 32.373 12.5895 34.1715 0 0 0
872 2 26.9775 23.3805 25.179 0 0 0
426 2 32.373 19.7835 23.3805 0 0 0
677 2 28.776 3.597 32.373 0 0 0
1390 2 25.179 34.1715 26.9775 0 0 0
566 2 32.373 34.1715 5.3955 0 0 0
2691 2 8.9925 7.194 8.9925 0 0 0
1727 2 19.7835 28.776 5.3955 0 0 0
1703 2 19.7835 25.179 19.7835 0 0 0
801 2 28.776 17.985 0.0 0 0 0
2430 2 14.388 19.7835 26.9775 0 0 0
2183 2 16.1865 32.373 19.7835 0 0 0
2135 2 16.1865 28.776 12.5895 0 0 0
153 2 34.1715 25.179 23.3805 0 0 0
3072 2 5.3955 5.3955 25.179 0 0 0
113 2 34.1715 17.985 23.3805 0 0 0
3856 2 0.0 8.9925 26.9775 0 0 0
2947 2 8.9925 28.776 23.3805 0 0 0
3202 2 7.194 19.7835 1.7985 0 0 0
2970 2 10.791 34.1715 8.9925 0 0 0
2295 2 12.5895 7.194 12.5895 0 0 0
70 2 34.1715 12.5895 14.388 0 0 0
2280 2 12.5895 5.3955 32.373 0 0 0
323 2 30.5745 10.791 1.7985 0 0 0
588 2 30.5745 34.1715 21.582 0 0 0
591 2 30.5745 32.373 26.9775 0 0 0
1032 2 23.3805 1.7985 25.179 0 0 0
270 2 32.373 5.3955 26.9775 0 0 0
1237 2 25.179 17.985 32.373 0 0 0
2114 2 17.985 26.9775 30.5745 0 0 0
1230 2 25.179 19.7835 26.9775 0 0 0
3236 2 5.3955 19.7835 28.776 0 0 0
963 2 26.9775 32.373 1.7985 0 0 0
1845 2 17.985 3.597 3.597 0 0 0
2157 2 17.985 28.776 32.373 0 0 0
526 2 32.373 30.5745 5.3955 0 0 0
1734 2 21.582 30.5745 12.5895 0 0 0
3952 2 0.0 26.9775 19.7835 0 0 0
3148 2 5.3955 12.5895 21.582 0 0 0
2540 2 12.5895 30.5745 14.388 0 0 0
564 2 30.5745 34.1715 0.0 0 0 0
3002 2 7.194 1.7985 1.7985 0 0 0
1902 2 17.985 8.9925 19.7835 0 0 0
3134 2 7.194 12.5895 12.5895 0 0 0
2088 2 16.1865 26.9775 3.597 0 0 0
1417 2 21.582 0.0 14.388 0 0 0
3919 2 0.0 17.985 32.373 0 0 0
1721 2 21.582 28.776 0.0 0 0 0
2872 2 8.9925 23.3805 25.179 0 0 0
849 2 28.776 21.582 7.194 0 0 0
1789 2 21.582 32.373 25.179 0 0 0
558 2 32.373 30.5745 34.1715 0 0 0
1210 2 25.179 19.7835 8.9925 0 0 0
143 2 34.1715 25.179 5.3955 0 0 0
1047 2 23.3805 3.597 5.3955 0 0 0
1574 2 21.582 16.1865 12.5895 0 0 0
2733 2 10.791 10.791 10.791 0 0 0
3437 2 3.597 0.0 32.373 0 0 0
3786 2 3.597 34.1715 23.3805 0 0 0
895 2 26.9775 25.179 12.5895 0 0 0
3025 2 7.194 0.0 21.582 0 0 0
3230 2 7.194 19.7835 26.9775 0 0 0
1447 2 19.7835 3.597 5.3955 0 0 0
983 2 26.9775 32.373 19.7835 0 0 0
2329 2 14.388 10.791 7.194 0 0 0
1059 2 23.3805 3.597 16.1865 0 0 0
3987 2 0.0 32.373 10.791 0 0 0
886 2 28.776 26.9775 5.3955 0 0 0
11 2 34.1715 0.0 19.7835 0 0 0
423 2 30.5745 17.985 19.7835 0 0 0
3664 2 1.7985 23.3805 17.985 0 0 0
422 2 32.373 19.7835 19.7835 0 0 0
912 2 26.9775 26.9775 25.179 0 0 0
3559 2 1.7985 10.791 34.1715 0 0 0
1007 2 23.3805 0.0 5.3955 0 0 0
3079 2 5.3955 3.597 34.1715 0 0 0
1184 2 23.3805 16.1865 17.985 0 0 0
2398 2 14.388 16.1865 34.1715 0 0 0
2360 2 12.5895 12.5895 32.373 0 0 0
1503 2 19.7835 7.194 19.7835 0 0 0
3211 2 5.3955 17.985 8.9925 0 0 0
897 2 28.776 25.179 14.388 0 0 0
999 2 26.9775 32.373 34.1715 0 0 0
3636 2 1.7985 19.7835 28.776 0 0 0
3606 2 3.597 19.7835 5.3955 0 0 0
3406 2 3.597 1.7985 5.3955 0 0 0
101 2 34.1715 17.985 1.7985 0 0 0
3960 2 0.0 26.9775 34.1715 0 0 0
3435 2 1.7985 0.0 30.5745 0 0 0
2399 2 12.5895 14.388 34.1715 0 0 0
2251 2 12.5895 3.597 8.9925 0 0 0
305 2 32.373 7.194 21.582 0 0 0
2129 2 17.985 28.776 7.194 0 0 0
1798 2 21.582 34.1715 34.1715 0 0 0
2429 2 14.388 17.985 25.179 0 0 0
3695 2 1.7985 25.179 12.5895 0 0 0
1743 2 19.7835 28.776 19.7835 0 0 0
2288 2 12.5895 8.9925 3.597 0 0 0
1720 2 19.7835 26.9775 32.373 0 0 0
3578 2 3.597 16.1865 16.1865 0 0 0
1397 2 25.179 32.373 32.373 0 0 0
393 2 32.373 14.388 28.776 0 0 0
3776 2 1.7985 34.1715 10.791 0 0 0
168 2 34.1715 30.5745 10.791 0 0 0
134 2 34.1715 23.3805 21.582 0 0 0
318 2 32.373 8.9925 34.1715 0 0 0
189 2 34.1715 32.373 16.1865 0 0 0
162 2 34.1715 30.5745 0.0 0 0 0
2670 2 10.791 5.3955 26.9775 0 0 0
1419 2 19.7835 0.0 16.1865 0 0 0
610 2 28.776 1.7985 8.9925 0 0 0
2851 2 8.9925 21.582 8.9925 0 0 0
705 2 28.776 7.194 21.582 0 0 0
2275 2 12.5895 3.597 30.5745 0 0 0
505 2 32.373 25.179 21.582 0 0 0
2626 2 10.791 1.7985 23.3805 0 0 0
2303 2 12.5895 7.194 19.7835 0 0 0
2548 2 12.5895 30.5745 21.582 0 0 0
1383 2 23.3805 32.373 19.7835 0 0 0
1275 2 23.3805 21.582 30.5745 0 0 0
2876 2 8.9925 23.3805 28.776 0 0 0
1089 2 25.179 7.194 7.194 0 0 0
330 2 32.373 12.5895 8.9925 0 0 0
2023 2 16.1865 17.985 19.7835 0 0 0
2988 2 8.9925 34.1715 21.582 0 0 0
3053 2 7.194 3.597 10.791 0 0 0
2992 2 8.9925 34.1715 25.179 0 0 0
3397 2 7.194 32.373 32.373 0 0 0
699 2 26.9775 7.194 16.1865 0 0 0
2120 2 16.1865 26.9775 32.373 0 0 0
1895 2 16.1865 7.194 12.5895 0 0 0
260 2 30.5745 5.3955 14.388 0 0 0
2638 2 10.791 1.7985 34.1715 0 0 0
3386 2 7.194 34.1715 23.3805 0 0 0
2572 2 12.5895 34.1715 7.194 0 0 0
2711 2 8.9925 7.194 26.9775 0 0 0
3494 2 3.597 8.9925 12.5895 0 0 0
1340 2 23.3805 30.5745 14.388 0 0 0
1203 2 23.3805 17.985 1.7985 0 0 0
2104 2 16.1865 26.9775 17.985 0 0 0
3108 2 5.3955 8.9925 21.582 0 0 0
1570 2 21.582 16.1865 8.9925 0 0 0
544 2 30.5745 30.5745 17.985 0 0 0
1719 2 19.7835 25.179 34.1715 0 0 0
1104 2 23.3805 8.9925 17.985 0 0 0
3868 2 0.0 12.5895 12.5895 0 0 0
1804 2 16.1865 1.7985 0.0 0 0 0
520 2 30.5745 26.9775 32.373 0 0 0
2287 2 12.5895 7.194 5.3955 0 0 0
245 2 32.373 3.597 3.597 0 0 0
3877 2 0.0 10.791 28.776 0 0 0
1011 2 23.3805 0.0 8.9925 0 0 0
3416 2 1.7985 1.7985 10.791 0 0 0
3660 2 1.7985 23.3805 14.388 0 0 0
2907 2 8.9925 25.179 23.3805 0 0 0
1993 2 17.985 14.388 28.776 0 0 0
2133 2 17.985 28.776 10.791 0 0 0
1752 2 19.7835 30.5745 25.179 0 0 0
3640 2 1.7985 19.7835 32.373 0 0 0
308 2 30.5745 8.9925 21.582 0 0 0
1277 2 25.179 21.582 32.373 0 0 0
1035 2 23.3805 0.0 30.5745 0 0 0
1472 2 19.7835 5.3955 25.179 0 0 0
815 2 26.9775 17.985 12.5895 0 0 0
700 2 26.9775 8.9925 14.388 0 0 0
2148 2 16.1865 30.5745 21.582 0 0 0
2660 2 8.9925 5.3955 14.388 0 0 0
2025 2 17.985 17.985 21.582 0 0 0
994 2 28.776 34.1715 30.5745 0 0 0
2143 2 16.1865 28.776 19.7835 0 0 0
3863 2 0.0 10.791 3.597 0 0 0
1033 2 25.179 0.0 28.776 0 0 0
3740 2 1.7985 30.5745 14.388 0 0 0
2290 2 14.388 8.9925 8.9925 0 0 0
1257 2 25.179 21.582 14.388 0 0 0
1576 2 19.7835 16.1865 10.791 0 0 0
2097 2 17.985 25.179 14.388 0 0 0
2877 2 10.791 21.582 32.373 0 0 0
2446 2 14.388 23.3805 5.3955 0 0 0
2838 2 10.791 19.7835 34.1715 0 0 0
1202 2 25.179 19.7835 1.7985 0 0 0
2890 2 10.791 26.9775 8.9925 0 0 0
3677 2 3.597 21.582 32.373 0 0 0
2318 2 14.388 8.9925 34.1715 0 0 0
351 2 30.5745 10.791 26.9775 0 0 0
1971 2 16.1865 14.388 8.9925 0 0 0
2223 2 12.5895 0.0 19.7835 0 0 0
1911 2 16.1865 7.194 26.9775 0 0 0
1342 2 25.179 30.5745 19.7835 0 0 0
432 2 30.5745 19.7835 25.179 0 0 0
955 2 26.9775 28.776 30.5745 0 0 0
3711 2 1.7985 25.179 26.9775 0 0 0
3165 2 7.194 14.388 3.597 0 0 0
3275 2 5.3955 21.582 30.5745 0 0 0
3473 2 3.597 3.597 28.776 0 0 0
2115 2 16.1865 25.179 30.5745 0 0 0
1351 2 23.3805 28.776 26.9775 0 0 0
1373 2 25.179 32.373 10.791 0 0 0
176 2 34.1715 30.5745 25.179 0 0 0
3781 2 3.597 32.373 17.985 0 0 0
3424 2 1.7985 1.7985 17.985 0 0 0
2945 2 10.791 28.776 21.582 0 0 0
3359 2 5.3955 28.776 34.1715 0 0 0
3396 2 5.3955 34.1715 28.776 0 0 0
2623 2 8.9925 0.0 19.7835 0 0 0
3690 2 3.597 26.9775 8.9925 0 0 0
620 2 26.9775 1.7985 14.388 0 0 0
658 2 28.776 5.3955 16.1865 0 0 0
2350 2 14.388 12.5895 26.9775 0 0 0
2127 2 16.1865 28.776 5.3955 0 0 0
1100 2 23.3805 8.9925 14.388 0 0 0
2773 2 10.791 14.388 10.791 0 0 0
900 2 26.9775 26.9775 14.388 0 0 0
1253 2 25.179 21.582 10.791 0 0 0
3327 2 5.3955 28.776 5.3955 0 0 0
3354 2 7.194 30.5745 30.5745 0 0 0
205 2 32.373 0.0 3.597 0 0 0
3419 2 1.7985 0.0 16.1865 0 0 0
1864 2 16.1865 5.3955 17.985 0 0 0
1433 2 21.582 0.0 28.776 0 0 0
1362 2 25.179 34.1715 1.7985 0 0 0
930 2 28.776 30.5745 8.9925 0 0 0
2810 2 10.791 19.7835 8.9925 0 0 0
111 2 34.1715 17.985 19.7835 0 0 0
252 2 30.5745 5.3955 7.194 0 0 0
1444 2 19.7835 5.3955 0.0 0 0 0
529 2 32.373 28.776 7.194 0 0 0
322 2 32.373 12.5895 1.7985 0 0 0
2522 2 14.388 30.5745 1.7985 0 0 0
2612 2 8.9925 1.7985 7.194 0 0 0
1606 2 21.582 19.7835 5.3955 0 0 0
747 2 26.9775 10.791 23.3805 0 0 0
2929 2 10.791 28.776 7.194 0 0 0
174 2 34.1715 30.5745 21.582 0 0 0
2409 2 14.388 17.985 7.194 0 0 0
3196 2 5.3955 16.1865 28.776 0 0 0
927 2 26.9775 28.776 5.3955 0 0 0
2198 2 17.985 34.1715 34.1715 0 0 0
3883 2 0.0 14.388 3.597 0 0 0
3168 2 5.3955 16.1865 3.597 0 0 0
1325 2 25.179 28.776 3.597 0 0 0
461 2 32.373 21.582 17.985 0 0 0
1530 2 21.582 12.5895 8.9925 0 0 0
1690 2 21.582 26.9775 8.9925 0 0 0
3273 2 7.194 21.582 28.776 0 0 0
1628 2 19.7835 19.7835 21.582 0 0 0
1240 2 23.3805 19.7835 32.373 0 0 0
2382 2 14.388 16.1865 19.7835 0 0 0
172 2 34.1715 30.5745 17.985 0 0 0
766 2 28.776 16.1865 5.3955 0 0 0
1637 2 21.582 17.985 32.373 0 0 0
3459 2 1.7985 3.597 16.1865 0 0 0
2832 2 8.9925 19.7835 25.179 0 0 0
778 2 28.776 16.1865 16.1865 0 0 0
2878 2 10.791 23.3805 34.1715 0 0 0
1945 2 17.985 10.791 21.582 0 0 0
2413 2 14.388 17.985 10.791 0 0 0
3938 2 0.0 23.3805 30.5745 0 0 0
1188 2 23.3805 16.1865 21.582 0 0 0
3045 2 7.194 3.597 3.597 0 0 0
1542 2 21.582 12.5895 19.7835 0 0 0
1332 2 23.3805 30.5745 7.194 0 0 0
385 2 32.373 14.388 21.582 0 0 0
887 2 26.9775 25.179 5.3955 0 0 0
1848 2 16.1865 5.3955 3.597 0 0 0
3570 2 3.597 16.1865 8.9925 0 0 0
2081 2 17.985 25.179 0.0 0 0 0
3499 2 1.7985 7.194 16.1865 0 0 0
1093 2 25.179 7.194 10.791 0 0 0
3994 2 0.0 34.1715 23.3805 0 0 0
995 2 26.9775 32.373 30.5745 0 0 0
510 2 32.373 26.9775 26.9775 0 0 0
1357 2 25.179 28.776 32.373 0 0 0
2142 2 17.985 30.5745 19.7835 0 0 0
3064 2 5.3955 5.3955 17.985 0 0 0
2968 2 8.9925 34.1715 3.597 0 0 0
848 2 26.9775 23.3805 3.597 0 0 0
618 2 28.776 1.7985 16.1865 0 0 0
3075 2 5.3955 3.597 30.5745 0 0 0
1765 2 21.582 32.373 3.597 0 0 0
708 2 26.9775 8.9925 21.582 0 0 0
1480 2 19.7835 5.3955 32.373 0 0 0
784 2 26.9775 16.1865 17.985 0 0 0
109 2 34.1715 17.985 16.1865 0 0 0
3879 2 0.0 10.791 32.373 0 0 0
1881 2 17.985 7.194 0.0 0 0 0
707 2 26.9775 7.194 23.3805 0 0 0
1558 2 21.582 12.5895 34.1715 0 0 0
139 2 34.1715 21.582 34.1715 0 0 0
979 2 26.9775 32.373 16.1865 0 0 0
530 2 32.373 30.5745 8.9925 0 0 0
2771 2 8.9925 14.388 8.9925 0 0 0
2486 2 14.388 26.9775 5.3955 0 0 0
2957 2 10.791 28.776 32.373 0 0 0
2869 2 10.791 21.582 25.179 0 0 0
1451 2 19.7835 3.597 8.9925 0 0 0
3607 2 1.7985 17.985 5.3955 0 0 0
158 2 34.1715 26.9775 28.776 0 0 0
540 2 30.5745 30.5745 14.388 0 0 0
3469 2 3.597 3.597 25.179 0 0 0
764 2 26.9775 16.1865 0.0 0 0 0
1739 2 19.7835 28.776 16.1865 0 0 0
262 2 32.373 5.3955 19.7835 0 0 0
1552 2 19.7835 12.5895 25.179 0 0 0
1409 2 21.582 0.0 7.194 0 0 0
2282 2 14.388 8.9925 1.7985 0 0 0
3986 2 0.0 34.1715 8.9925 0 0 0
514 2 32.373 26.9775 30.5745 0 0 0
3057 2 7.194 3.597 14.388 0 0 0
1648 2 19.7835 23.3805 3.597 0 0 0
3187 2 5.3955 14.388 23.3805 0 0 0
241 2 32.373 3.597 0.0 0 0 0
3773 2 3.597 32.373 10.791 0 0 0
861 2 28.776 21.582 17.985 0 0 0
2573 2 14.388 32.373 10.791 0 0 0
2391 2 12.5895 14.388 26.9775 0 0 0
410 2 32.373 19.7835 8.9925 0 0 0
150 2 34.1715 26.9775 14.388 0 0 0
2091 2 16.1865 25.179 8.9925 0 0 0
718 2 28.776 8.9925 34.1715 0 0 0
2407 2 12.5895 17.985 5.3955 0 0 0
2203 2 12.5895 0.0 1.7985 0 0 0
3154 2 7.194 12.5895 30.5745 0 0 0
3083 2 5.3955 7.194 1.7985 0 0 0
3197 2 7.194 14.388 32.373 0 0 0
842 2 28.776 23.3805 1.7985 0 0 0
2013 2 17.985 17.985 10.791 0 0 0
1101 2 25.179 7.194 17.985 0 0 0
3528 2 1.7985 12.5895 3.597 0 0 0
235 2 30.5745 0.0 30.5745 0 0 0
2529 2 14.388 28.776 7.194 0 0 0
2787 2 8.9925 14.388 23.3805 0 0 0
894 2 28.776 26.9775 12.5895 0 0 0
934 2 28.776 30.5745 12.5895 0 0 0
1481 2 21.582 7.194 0.0 0 0 0
3833 2 0.0 3.597 21.582 0 0 0
129 2 34.1715 21.582 16.1865 0 0 0
1212 2 23.3805 19.7835 7.194 0 0 0
2969 2 10.791 32.373 7.194 0 0 0
3605 2 3.597 17.985 3.597 0 0 0
689 2 28.776 7.194 7.194 0 0 0
1229 2 25.179 17.985 25.179 0 0 0
1054 2 25.179 5.3955 12.5895 0 0 0
2720 2 8.9925 8.9925 32.373 0 0 0
231 2 30.5745 0.0 26.9775 0 0 0
3169 2 7.194 14.388 7.194 0 0 0
2705 2 10.791 7.194 21.582 0 0 0
3380 2 5.3955 34.1715 14.388 0 0 0
3381 2 7.194 32.373 17.985 0 0 0
3524 2 1.7985 12.5895 0.0 0 0 0
2054 2 17.985 23.3805 12.5895 0 0 0
2122 2 17.985 30.5745 1.7985 0 0 0
823 2 26.9775 17.985 19.7835 0 0 0
1321 2 25.179 28.776 0.0 0 0 0
2536 2 12.5895 30.5745 10.791 0 0 0
3775 2 1.7985 32.373 12.5895 0 0 0
1429 2 21.582 0.0 25.179 0 0 0
3903 2 0.0 17.985 3.597 0 0 0
470 2 32.373 23.3805 26.9775 0 0 0
2580 2 12.5895 34.1715 14.388 0 0 0
1090 2 25.179 8.9925 8.9925 0 0 0
2476 2 12.5895 23.3805 28.776 0 0 0
339 2 30.5745 10.791 16.1865 0 0 0
667 2 26.9775 3.597 23.3805 0 0 0
2839 2 8.9925 17.985 34.1715 0 0 0
2169 2 17.985 32.373 7.194 0 0 0
644 2 26.9775 5.3955 0.0 0 0 0
1222 2 25.179 19.7835 19.7835 0 0 0
921 2 28.776 28.776 0.0 0 0 0
2768 2 8.9925 16.1865 3.597 0 0 0
2105 2 17.985 25.179 21.582 0 0 0
2401 2 14.388 17.985 0.0 0 0 0
2041 2 17.985 21.582 0.0 0 0 0
3616 2 1.7985 19.7835 10.791 0 0 0
3483 2 1.7985 7.194 1.7985 0 0 0
2162 2 17.985 34.1715 1.7985 0 0 0
1438 2 21.582 1.7985 34.1715 0 0 0
1174 2 25.179 16.1865 12.5895 0 0 0
3963 2 0.0 28.776 3.597 0 0 0
2600 2 12.5895 34.1715 32.373 0 0 0
107 2 34.1715 17.985 12.5895 0 0 0
2428 2 12.5895 19.7835 21.582 0 0 0
261 2 32.373 3.597 17.985 0 0 0
3738 2 3.597 30.5745 16.1865 0 0 0
3295 2 5.3955 25.179 12.5895 0 0 0
922 2 28.776 30.5745 1.7985 0 0 0
3829 2 0.0 3.597 14.388 0 0 0
2253 2 14.388 3.597 10.791 0 0 0
2541 2 14.388 28.776 17.985 0 0 0
1517 2 21.582 7.194 32.373 0 0 0
2387 2 12.5895 14.388 23.3805 0 0 0
297 2 32.373 7.194 14.388 0 0 0
1023 2 23.3805 0.0 19.7835 0 0 0
3451 2 1.7985 3.597 8.9925 0 0 0
2376 2 12.5895 16.1865 10.791 0 0 0
1554 2 21.582 12.5895 30.5745 0 0 0
2552 2 12.5895 30.5745 25.179 0 0 0
1140 2 23.3805 12.5895 14.388 0 0 0
1247 2 23.3805 21.582 5.3955 0 0 0
636 2 26.9775 1.7985 28.776 0 0 0
3291 2 5.3955 25.179 8.9925 0 0 0
188 2 34.1715 34.1715 10.791 0 0 0
2201 2 14.388 0.0 0.0 0 0 0
366 2 32.373 16.1865 5.3955 0 0 0
256 2 30.5745 5.3955 10.791 0 0 0
1394 2 25.179 34.1715 30.5745 0 0 0
2696 2 8.9925 8.9925 10.791 0 0 0
78 2 34.1715 12.5895 28.776 0 0 0
1215 2 23.3805 17.985 12.5895 0 0 0
415 2 30.5745 17.985 12.5895 0 0 0
1621 2 21.582 17.985 17.985 0 0 0
90 2 34.1715 16.1865 14.388 0 0 0
719 2 26.9775 7.194 34.1715 0 0 0
1896 2 16.1865 8.9925 10.791 0 0 0
3481 2 3.597 7.194 0.0 0 0 0
3263 2 5.3955 21.582 19.7835 0 0 0
1635 2 19.7835 17.985 30.5745 0 0 0
1345 2 25.179 28.776 21.582 0 0 0
727 2 26.9775 10.791 5.3955 0 0 0
487 2 30.5745 25.179 5.3955 0 0 0
3688 2 1.7985 26.9775 3.597 0 0 0
1515 2 19.7835 7.194 30.5745 0 0 0
595 2 30.5745 32.373 30.5745 0 0 0
465 2 32.373 21.582 21.582 0 0 0
3772 2 1.7985 34.1715 7.194 0 0 0
2327 2 12.5895 10.791 5.3955 0 0 0
687 2 26.9775 7.194 5.3955 0 0 0
1714 2 21.582 26.9775 30.5745 0 0 0
1400 2 23.3805 34.1715 32.373 0 0 0
485 2 32.373 25.179 3.597 0 0 0
3662 2 3.597 23.3805 19.7835 0 0 0
2301 2 14.388 7.194 17.985 0 0 0
675 2 26.9775 3.597 30.5745 0 0 0
1468 2 19.7835 5.3955 21.582 0 0 0
3637 2 3.597 17.985 32.373 0 0 0
2260 2 12.5895 5.3955 14.388 0 0 0
3805 2 0.0 0.0 7.194 0 0 0
662 2 28.776 5.3955 19.7835 0 0 0
3866 2 0.0 12.5895 8.9925 0 0 0
498 2 32.373 26.9775 16.1865 0 0 0
3850 2 0.0 8.9925 16.1865 0 0 0
1071 2 23.3805 3.597 26.9775 0 0 0
3708 2 1.7985 26.9775 21.582 0 0 0
1840 2 16.1865 1.7985 32.373 0 0 0
276 2 30.5745 5.3955 28.776 0 0 0
1372 2 23.3805 34.1715 7.194 0 0 0
985 2 28.776 32.373 21.582 0 0 0
1863 2 16.1865 3.597 19.7835 0 0 0
3486 2 3.597 8.9925 5.3955 0 0 0
1631 3 19.7835 17.985 26.9775 0 0 0
2633 3 10.791 0.0 28.776 0 0 0
3916 3 0.0 19.7835 26.9775 0 0 0
1244 3 23.3805 23.3805 0.0 0 0 0
2790 3 10.791 16.1865 26.9775 0 0 0
3797 3 3.597 32.373 32.373 0 0 0
804 3 26.9775 19.7835 0.0 0 0 0
3147 3 5.3955 10.791 23.3805 0 0 0
810 3 28.776 19.7835 8.9925 0 0 0
1883 3 16.1865 7.194 1.7985 0 0 0
3965 3 0.0 28.776 7.194 0 0 0
2456 3 12.5895 23.3805 10.791 0 0 0
2913 3 10.791 25.179 28.776 0 0 0
1476 3 19.7835 5.3955 28.776 0 0 0
2800 3 8.9925 16.1865 32.373 0 0 0
1068 3 23.3805 5.3955 21.582 0 0 0
3186 3 7.194 16.1865 23.3805 0 0 0
4 3 34.1715 1.7985 3.597 0 0 0
117 3 34.1715 17.985 30.5745 0 0 0
3319 3 5.3955 25.179 34.1715 0 0 0
1393 3 25.179 32.373 28.776 0 0 0
1258 3 25.179 23.3805 16.1865 0 0 0
2597 3 14.388 32.373 32.373 0 0 0
696 3 26.9775 8.9925 10.791 0 0 0
67 3 34.1715 10.791 12.5895 0 0 0
1933 3 17.985 10.791 10.791 0 0 0
627 3 26.9775 0.0 23.3805 0 0 0
796 3 26.9775 16.1865 28.776 0 0 0
880 3 26.9775 23.3805 32.373 0 0 0
2151 3 16.1865 28.776 26.9775 0 0 0
1685 3 21.582 25.179 3.597 0 0 0
1279 3 23.3805 21.582 34.1715 0 0 0
187 3 34.1715 32.373 12.5895 0 0 0
2543 3 12.5895 28.776 19.7835 0 0 0
1395 3 23.3805 32.373 30.5745 0 0 0
613 3 28.776 0.0 10.791 0 0 0
802 3 28.776 19.7835 1.7985 0 0 0
1525 3 21.582 10.791 3.597 0 0 0
3973 3 0.0 28.776 21.582 0 0 0
1162 3 25.179 16.1865 1.7985 0 0 0
327 3 30.5745 10.791 5.3955 0 0 0
1179 3 23.3805 14.388 16.1865 0 0 0
2662 3 10.791 5.3955 19.7835 0 0 0
771 3 26.9775 14.388 8.9925 0 0 0
2259 3 12.5895 3.597 16.1865 0 0 0
2252 3 12.5895 5.3955 7.194 0 0 0
2951 3 8.9925 28.776 26.9775 0 0 0
1369 3 25.179 32.373 7.194 0 0 0
3766 3 3.597 34.1715 5.3955 0 0 0
3239 3 5.3955 17.985 34.1715 0 0 0
3268 3 5.3955 23.3805 21.582 0 0 0
2478 3 14.388 23.3805 34.1715 0 0 0
1380 3 23.3805 34.1715 14.388 0 0 0
1660 3 19.7835 23.3805 14.388 0 0 0
84 3 34.1715 16.1865 3.597 0 0 0
161 3 34.1715 28.776 1.7985 0 0 0
3176 3 5.3955 16.1865 10.791 0 0 0
213 3 32.373 0.0 10.791 0 0 0
981 3 28.776 32.373 17.985 0 0 0
3778 3 3.597 34.1715 16.1865 0 0 0
1066 3 25.179 5.3955 23.3805 0 0 0
1283 3 23.3805 25.179 1.7985 0 0 0
2191 3 16.1865 32.373 26.9775 0 0 0
445 3 32.373 21.582 3.597 0 0 0
3074 3 7.194 5.3955 30.5745 0 0 0
2576 3 12.5895 34.1715 10.791 0 0 0
1482 3 21.582 8.9925 1.7985 0 0 0
3441 3 3.597 3.597 0.0 0 0 0
1762 3 21.582 34.1715 1.7985 0 0 0
2267 3 12.5895 3.597 23.3805 0 0 0
3179 3 5.3955 14.388 16.1865 0 0 0
32 3 34.1715 5.3955 17.985 0 0 0
3005 3 7.194 0.0 3.597 0 0 0
910 3 28.776 26.9775 26.9775 0 0 0
785 3 28.776 14.388 21.582 0 0 0
3686 3 3.597 26.9775 5.3955 0 0 0
2206 3 14.388 1.7985 5.3955 0 0 0
2499 3 12.5895 25.179 16.1865 0 0 0
506 3 32.373 26.9775 23.3805 0 0 0
759 3 26.9775 10.791 34.1715 0 0 0
3387 3 5.3955 32.373 23.3805 0 0 0
1749 3 21.582 28.776 25.179 0 0 0
3628 3 1.7985 19.7835 21.582 0 0 0
1522 3 21.582 12.5895 1.7985 0 0 0
652 3 26.9775 5.3955 7.194 0 0 0
2724 3 8.9925 12.5895 0.0 0 0 0
2150 3 17.985 30.5745 26.9775 0 0 0
508 3 30.5745 26.9775 21.582 0 0 0
2962 3 10.791 34.1715 1.7985 0 0 0
2884 3 8.9925 26.9775 0.0 0 0 0
2384 3 12.5895 16.1865 17.985 0 0 0
363 3 30.5745 14.388 1.7985 0 0 0
1914 3 17.985 8.9925 30.5745 0 0 0
2722 3 10.791 12.5895 1.7985 0 0 0
3921 3 0.0 21.582 0.0 0 0 0
1039 3 23.3805 0.0 34.1715 0 0 0
1718 3 21.582 26.9775 34.1715 0 0 0
321 3 32.373 10.791 0.0 0 0 0
3056 3 5.3955 5.3955 10.791 0 0 0
2459 3 12.5895 21.582 16.1865 0 0 0
3125 3 7.194 10.791 3.597 0 0 0
2698 3 10.791 8.9925 16.1865 0 0 0
1698 3 21.582 26.9775 16.1865 0 0 0
3023 3 5.3955 0.0 19.7835 0 0 0
2861 3 10.791 21.582 17.985 0 0 0
2544 3 12.5895 30.5745 17.985 0 0 0
3471 3 1.7985 3.597 26.9775 0 0 0
1668 3 19.7835 23.3805 21.582 0 0 0
763 3 26.9775 14.388 1.7985 0 0 0
2027 3 16.1865 17.985 23.3805 0 0 0
1973 3 17.985 14.388 10.791 0 0 0
2305 3 14.388 7.194 21.582 0 0 0
953 3 28.776 28.776 28.776 0 0 0
2298 3 14.388 8.9925 16.1865 0 0 0
2648 3 8.9925 5.3955 3.597 0 0 0
3465 3 3.597 3.597 21.582 0 0 0
3631 3 1.7985 17.985 26.9775 0 0 0
1578 3 21.582 16.1865 16.1865 0 0 0
2064 3 16.1865 23.3805 17.985 0 0 0
3621 3 3.597 17.985 17.985 0 0 0
3549 3 3.597 10.791 25.179 0 0 0
2334 3 14.388 12.5895 12.5895 0 0 0
2781 3 10.791 14.388 17.985 0 0 0
2111 3 16.1865 25.179 26.9775 0 0 0
1046 3 25.179 5.3955 5.3955 0 0 0
1675 3 19.7835 21.582 30.5745 0 0 0
3300 3 5.3955 26.9775 14.388 0 0 0
3385 3 7.194 32.373 21.582 0 0 0
2271 3 12.5895 3.597 26.9775 0 0 0
1164 3 23.3805 16.1865 0.0 0 0 0
2417 3 14.388 17.985 14.388 0 0 0
3183 3 5.3955 14.388 19.7835 0 0 0
1619 3 19.7835 17.985 16.1865 0 0 0
1012 3 23.3805 1.7985 7.194 0 0 0
3915 3 0.0 17.985 25.179 0 0 0
2706 3 10.791 8.9925 23.3805 0 0 0
2852 3 8.9925 23.3805 7.194 0 0 0
3213 3 7.194 17.985 10.791 0 0 0
356 3 30.5745 12.5895 28.776 0 0 0
2276 3 12.5895 5.3955 28.776 0 0 0
2938 3 10.791 30.5745 16.1865 0 0 0
3610 3 3.597 19.7835 8.9925 0 0 0
2217 3 14.388 0.0 14.388 0 0 0
278 3 32.373 5.3955 34.1715 0 0 0
1143 3 23.3805 10.791 19.7835 0 0 0
1141 3 25.179 10.791 17.985 0 0 0
1111 3 23.3805 7.194 26.9775 0 0 0
1166 3 25.179 16.1865 5.3955 0 0 0
2444 3 12.5895 23.3805 0.0 0 0 0
3520 3 1.7985 8.9925 32.373 0 0 0
671 3 26.9775 3.597 26.9775 0 0 0
2043 3 16.1865 21.582 1.7985 0 0 0
1763 3 19.7835 32.373 1.7985 0 0 0
2952 3 8.9925 30.5745 25.179 0 0 0
1057 3 25.179 3.597 14.388 0 0 0
2757 3 10.791 10.791 32.373 0 0 0
2822 3 10.791 19.7835 19.7835 0 0 0
1489 3 21.582 7.194 7.194 0 0 0
3598 3 3.597 16.1865 34.1715 0 0 0
1636 3 19.7835 19.7835 28.776 0 0 0
1677 3 21.582 21.582 32.373 0 0 0
706 3 28.776 8.9925 23.3805 0 0 0
1768 3 19.7835 34.1715 3.597 0 0 0
1003 3 23.3805 0.0 1.7985 0 0 0
440 3 30.5745 19.7835 32.373 0 0 0
1932 3 16.1865 12.5895 7.194 0 0 0
2070 3 17.985 23.3805 26.9775 0 0 0
1038 3 25.179 1.7985 34.1715 0 0 0
2333 3 14.388 10.791 10.791 0 0 0
2502 3 14.388 26.9775 19.7835 0 0 0
2912 3 8.9925 26.9775 25.179 0 0 0
98 3 34.1715 16.1865 28.776 0 0 0
1271 3 23.3805 21.582 26.9775 0 0 0
324 3 30.5745 12.5895 0.0 0 0 0
1112 3 23.3805 8.9925 25.179 0 0 0
1596 3 19.7835 16.1865 28.776 0 0 0
1862 3 17.985 5.3955 19.7835 0 0 0
471 3 30.5745 21.582 26.9775 0 0 0
2490 3 14.388 26.9775 8.9925 0 0 0
1997 3 17.985 14.388 32.373 0 0 0
1769 3 21.582 32.373 7.194 0 0 0
3787 3 1.7985 32.373 23.3805 0 0 0
1524 3 19.7835 12.5895 0.0 0 0 0
2995 3 8.9925 32.373 30.5745 0 0 0
1256 3 23.3805 23.3805 10.791 0 0 0
1943 3 16.1865 10.791 19.7835 0 0 0
2324 3 12.5895 12.5895 0.0 0 0 0
128 3 34.1715 23.3805 10.791 0 0 0
3410 3 3.597 1.7985 8.9925 0 0 0
2605 3 10.791 0.0 3.597 0 0 0
3624 3 1.7985 19.7835 17.985 0 0 0
37 3 34.1715 3.597 30.5745 0 0 0
768 3 26.9775 16.1865 3.597 0 0 0
2725 3 10.791 10.791 3.597 0 0 0
3321 3 7.194 28.776 0.0 0 0 0
3617 3 3.597 17.985 14.388 0 0 0
1318 3 25.179 26.9775 34.1715 0 0 0
1138 3 25.179 12.5895 16.1865 0 0 0
3783 3 1.7985 32.373 19.7835 0 0 0
3614 3 3.597 19.7835 12.5895 0 0 0
867 3 26.9775 21.582 23.3805 0 0 0
85 3 34.1715 14.388 8.9925 0 0 0
731 3 26.9775 10.791 8.9925 0 0 0
3821 3 0.0 3.597 0.0 0 0 0
989 3 28.776 32.373 25.179 0 0 0
1440 3 19.7835 1.7985 32.373 0 0 0
378 3 32.373 16.1865 16.1865 0 0 0
181 3 34.1715 32.373 1.7985 0 0 0
1824 3 16.1865 1.7985 17.985 0 0 0
1027 3 23.3805 0.0 23.3805 0 0 0
1125 3 25.179 10.791 3.597 0 0 0
3862 3 0.0 12.5895 1.7985 0 0 0
1308 3 23.3805 26.9775 21.582 0 0 0
767 3 26.9775 14.388 5.3955 0 0 0
642 3 28.776 5.3955 1.7985 0 0 0
3796 3 1.7985 34.1715 28.776 0 0 0
1717 3 21.582 25.179 32.373 0 0 0
931 3 26.9775 28.776 8.9925 0 0 0
1436 3 19.7835 1.7985 28.776 0 0 0
2016 3 16.1865 19.7835 10.791 0 0 0
3729 3 3.597 28.776 7.194 0 0 0
36 3 34.1715 5.3955 25.179 0 0 0
219 3 30.5745 0.0 16.1865 0 0 0
1338 3 25.179 30.5745 16.1865 0 0 0
3905 3 0.0 17.985 7.194 0 0 0
559 3 30.5745 28.776 34.1715 0 0 0
1264 3 23.3805 23.3805 17.985 0 0 0
400 3 30.5745 16.1865 32.373 0 0 0
3495 3 1.7985 7.194 12.5895 0 0 0
3839 3 0.0 3.597 32.373 0 0 0
3448 3 1.7985 5.3955 3.597 0 0 0
1927 3 16.1865 10.791 5.3955 0 0 0
1098 3 25.179 8.9925 16.1865 0 0 0
3937 3 0.0 21.582 28.776 0 0 0
1266 3 25.179 23.3805 23.3805 0 0 0
429 3 32.373 17.985 25.179 0 0 0
2231 3 12.5895 0.0 26.9775 0 0 0
3144 3 5.3955 12.5895 17.985 0 0 0
3971 3 0.0 28.776 17.985 0 0 0
3301 3 7.194 25.179 17.985 0 0 0
2095 3 16.1865 25.179 12.5895 0 0 0
2057 3 17.985 21.582 14.388 0 0 0
3564 3 1.7985 16.1865 0.0 0 0 0
3181 3 7.194 14.388 17.985 0 0 0
2967 3 8.9925 32.373 5.3955 0 0 0
1407 3 19.7835 0.0 5.3955 0 0 0
1519 3 19.7835 7.194 34.1715 0 0 0
2504 3 12.5895 26.9775 17.985 0 0 0
751 3 26.9775 10.791 26.9775 0 0 0
1493 3 21.582 7.194 10.791 0 0 0
914 3 28.776 26.9775 30.5745 0 0 0
637 3 28.776 0.0 32.373 0 0 0
436 3 30.5745 19.7835 28.776 0 0 0
2090 3 17.985 26.9775 8.9925 0 0 0
2278 3 14.388 5.3955 34.1715 0 0 0
1465 3 21.582 3.597 21.582 0 0 0
338 3 32.373 12.5895 16.1865 0 0 0
1861 3 17.985 3.597 17.985 0 0 0
2769 3 10.791 14.388 7.194 0 0 0
257 3 32.373 3.597 14.388 0 0 0
1463 3 19.7835 3.597 19.7835 0 0 0
3102 3 7.194 8.9925 19.7835 0 0 0
1689 3 21.582 25.179 7.194 0 0 0
2530 3 14.388 30.5745 8.9925 0 0 0
665 3 28.776 3.597 21.582 0 0 0
925 3 28.776 28.776 3.597 0 0 0
3118 3 7.194 8.9925 34.1715 0 0 0
2167 3 16.1865 32.373 5.3955 0 0 0
335 3 30.5745 10.791 12.5895 0 0 0
2470 3 14.388 23.3805 26.9775 0 0 0
3439 3 1.7985 0.0 34.1715 0 0 0
2972 3 8.9925 34.1715 7.194 0 0 0
2075 3 16.1865 21.582 30.5745 0 0 0
978 3 28.776 34.1715 16.1865 0 0 0
1434 3 21.582 1.7985 30.5745 0 0 0
3556 3 1.7985 12.5895 28.776 0 0 0
3521 3 3.597 10.791 0.0 0 0 0
2046 3 17.985 23.3805 5.3955 0 0 0
3431 3 1.7985 0.0 26.9775 0 0 0
1695 3 19.7835 25.179 12.5895 0 0 0
2577 3 14.388 32.373 14.388 0 0 0
1939 3 16.1865 10.791 16.1865 0 0 0
690 3 28.776 8.9925 8.9925 0 0 0
2841 3 10.791 21.582 0.0 0 0 0
2160 3 16.1865 30.5745 32.373 0 0 0
3349 3 7.194 28.776 25.179 0 0 0
3710 3 3.597 26.9775 26.9775 0 0 0
2641 3 10.791 3.597 0.0 0 0 0
1709 3 21.582 25.179 25.179 0 0 0
383 3 30.5745 14.388 19.7835 0 0 0
2569 3 14.388 32.373 7.194 0 0 0
3553 3 3.597 10.791 28.776 0 0 0
254 3 32.373 5.3955 12.5895 0 0 0
1178 3 25.179 16.1865 16.1865 0 0 0
3931 3 0.0 21.582 17.985 0 0 0
2568 3 12.5895 34.1715 3.597 0 0 0
3373 3 7.194 32.373 10.791 0 0 0
2966 3 10.791 34.1715 5.3955 0 0 0
2240 3 12.5895 1.7985 32.373 0 0 0
2257 3 14.388 3.597 14.388 0 0 0
3492 3 1.7985 8.9925 7.194 0 0 0
1346 3 25.179 30.5745 23.3805 0 0 0
1816 3 16.1865 1.7985 10.791 0 0 0
2636 3 8.9925 1.7985 28.776 0 0 0
755 3 26.9775 10.791 30.5745 0 0 0
838 3 28.776 19.7835 34.1715 0 0 0
446 3 32.373 23.3805 5.3955 0 0 0
645 3 28.776 3.597 3.597 0 0 0
1196 3 23.3805 16.1865 28.776 0 0 0
2113 3 17.985 25.179 28.776 0 0 0
1592 3 19.7835 16.1865 25.179 0 0 0
102 3 34.1715 19.7835 0.0 0 0 0
3371 3 5.3955 32.373 8.9925 0 0 0
3942 3 0.0 26.9775 1.7985 0 0 0
2239 3 12.5895 0.0 34.1715 0 0 0
2679 3 8.9925 3.597 34.1715 0 0 0
2044 3 16.1865 23.3805 0.0 0 0 0
269 3 32.373 3.597 25.179 0 0 0
3536 3 1.7985 12.5895 10.791 0 0 0
2751 3 8.9925 10.791 26.9775 0 0 0
1728 3 19.7835 30.5745 3.597 0 0 0
2071 3 16.1865 21.582 26.9775 0 0 0
3588 3 1.7985 16.1865 21.582 0 0 0
2750 3 10.791 12.5895 26.9775 0 0 0
2592 3 12.5895 34.1715 25.179 0 0 0
3141 3 7.194 10.791 17.985 0 0 0
2770 3 10.791 16.1865 8.9925 0 0 0
3452 3 1.7985 5.3955 7.194 0 0 0
3116 3 5.3955 8.9925 28.776 0 0 0
2132 3 16.1865 30.5745 7.194 0 0 0
3573 3 3.597 14.388 10.791 0 0 0
3398 3 7.194 34.1715 34.1715 0 0 0
1485 3 21.582 7.194 3.597 0 0 0
1272 3 23.3805 23.3805 25.179 0 0 0
417 3 32.373 17.985 14.388 0 0 0
3914 3 0.0 19.7835 23.3805 0 0 0
1995 3 16.1865 14.388 30.5745 0 0 0
2188 3 16.1865 34.1715 21.582 0 0 0
1541 3 21.582 10.791 17.985 0 0 0
1127 3 23.3805 10.791 5.3955 0 0 0
309 3 32.373 7.194 25.179 0 0 0
2124 3 16.1865 30.5745 0.0 0 0 0
118 3 34.1715 19.7835 28.776 0 0 0
3669 3 3.597 21.582 25.179 0 0 0
840 3 26.9775 19.7835 32.373 0 0 0
1915 3 16.1865 7.194 30.5745 0 0 0
3225 3 7.194 17.985 21.582 0 0 0
742 3 28.776 12.5895 19.7835 0 0 0
377 3 32.373 14.388 14.388 0 0 0
3532 3 1.7985 12.5895 7.194 0 0 0
3243 3 5.3955 21.582 1.7985 0 0 0
3874 3 0.0 12.5895 23.3805 0 0 0
2889 3 10.791 25.179 7.194 0 0 0
3946 3 0.0 26.9775 8.9925 0 0 0
871 3 26.9775 21.582 26.9775 0 0 0
1843 3 16.1865 3.597 1.7985 0 0 0
2474 3 14.388 23.3805 30.5745 0 0 0
1366 3 25.179 34.1715 5.3955 0 0 0
3455 3 1.7985 3.597 12.5895 0 0 0
3770 3 3.597 34.1715 8.9925 0 0 0
273 3 32.373 3.597 28.776 0 0 0
2523 3 12.5895 28.776 1.7985 0 0 0
664 3 26.9775 5.3955 17.985 0 0 0
2618 3 10.791 1.7985 16.1865 0 0 0
1278 3 25.179 23.3805 34.1715 0 0 0
1153 3 25.179 10.791 28.776 0 0 0
3344 3 5.3955 30.5745 17.985 0 0 0
3287 3 5.3955 25.179 5.3955 0 0 0
438 3 32.373 19.7835 34.1715 0 0 0
2835 3 8.9925 17.985 30.5745 0 0 0
1135 3 23.3805 10.791 12.5895 0 0 0
237 3 32.373 0.0 32.373 0 0 0
2661 3 10.791 3.597 17.985 0 0 0
2497 3 14.388 25.179 14.388 0 0 0
615 3 26.9775 0.0 12.5895 0 0 0
2862 3 10.791 23.3805 19.7835 0 0 0
2018 3 17.985 19.7835 16.1865 0 0 0
1284 3 23.3805 26.9775 0.0 0 0 0
225 3 32.373 0.0 21.582 0 0 0
494 3 32.373 26.9775 12.5895 0 0 0
1760 3 19.7835 30.5745 32.373 0 0 0
991 3 26.9775 32.373 26.9775 0 0 0
860 3 26.9775 23.3805 14.388 0 0 0
650 3 28.776 5.3955 8.9925 0 0 0
1379 3 23.3805 32.373 16.1865 0 0 0
2854 3 10.791 23.3805 12.5895 0 0 0
3505 3 3.597 7.194 21.582 0 0 0
1510 3 21.582 8.9925 26.9775 0 0 0
1805 3 17.985 0.0 3.597 0 0 0
1245 3 25.179 21.582 3.597 0 0 0
2313 3 14.388 7.194 28.776 0 0 0
1355 3 23.3805 28.776 30.5745 0 0 0
1879 3 16.1865 3.597 34.1715 0 0 0
2170 3 17.985 34.1715 8.9925 0 0 0
2261 3 14.388 3.597 17.985 0 0 0
2351 3 12.5895 10.791 26.9775 0 0 0
1343 3 23.3805 28.776 19.7835 0 0 0
1923 3 16.1865 10.791 1.7985 0 0 0
3737 3 3.597 28.776 14.388 0 0 0
1652 3 19.7835 23.3805 7.194 0 0 0
3967 3 0.0 28.776 10.791 0 0 0
1929 3 17.985 10.791 7.194 0 0 0
1252 3 23.3805 23.3805 7.194 0 0 0
2440 3 12.5895 19.7835 32.373 0 0 0
1730 3 21.582 30.5745 8.9925 0 0 0
974 3 28.776 34.1715 12.5895 0 0 0
2270 3 14.388 5.3955 26.9775 0 0 0
2405 3 14.388 17.985 3.597 0 0 0
1312 3 23.3805 26.9775 25.179 0 0 0
369 3 32.373 14.388 7.194 0 0 0
2985 3 10.791 32.373 21.582 0 0 0
3007 3 5.3955 0.0 5.3955 0 0 0
3280 3 5.3955 23.3805 32.373 0 0 0
608 3 26.9775 1.7985 3.597 0 0 0
2356 3 12.5895 12.5895 28.776 0 0 0
2542 3 14.388 30.5745 19.7835 0 0 0
2761 3 10.791 14.388 0.0 0 0 0
2083 3 16.1865 25.179 1.7985 0 0 0
197 3 34.1715 32.373 30.5745 0 0 0
2886 3 10.791 26.9775 5.3955 0 0 0
806 3 28.776 19.7835 5.3955 0 0 0
3003 3 5.3955 0.0 1.7985 0 0 0
1320 3 23.3805 26.9775 32.373 0 0 0
94 3 34.1715 16.1865 21.582 0 0 0
1872 3 16.1865 5.3955 25.179 0 0 0
3088 3 5.3955 8.9925 3.597 0 0 0
1402 3 21.582 1.7985 1.7985 0 0 0
3191 3 5.3955 14.388 26.9775 0 0 0
578 3 32.373 34.1715 16.1865 0 0 0
2803 3 8.9925 17.985 1.7985 0 0 0
1494 3 21.582 8.9925 12.5895 0 0 0
1898 3 17.985 8.9925 16.1865 0 0 0
3092 3 5.3955 8.9925 7.194 0 0 0
1413 3 21.582 0.0 10.791 0 0 0
2534 3 14.388 30.5745 12.5895 0 0 0
3164 3 5.3955 16.1865 0.0 0 0 0
896 3 26.9775 26.9775 10.791 0 0 0
1490 3 21.582 8.9925 8.9925 0 0 0
2467 3 12.5895 21.582 23.3805 0 0 0
2172 3 16.1865 34.1715 7.194 0 0 0
1221 3 25.179 17.985 17.985 0 0 0
3920 3 0.0 19.7835 34.1715 0 0 0
2230 3 14.388 1.7985 26.9775 0 0 0
1219 3 23.3805 17.985 16.1865 0 0 0
2263 3 12.5895 3.597 19.7835 0 0 0
103 3 34.1715 17.985 5.3955 0 0 0
1532 3 19.7835 12.5895 7.194 0 0 0
2394 3 14.388 16.1865 30.5745 0 0 0
3041 3 7.194 3.597 0.0 0 0 0
1904 3 16.1865 8.9925 17.985 0 0 0
728 3 26.9775 12.5895 3.597 0 0 0
282 3 32.373 8.9925 1.7985 0 0 0
6 3 34.1715 1.7985 7.194 0 0 0
3272 3 5.3955 23.3805 25.179 0 0 0
2793 3 10.791 14.388 28.776 0 0 0
1873 3 17.985 3.597 28.776 0 0 0
3124 3 5.3955 12.5895 0.0 0 0 0
854 3 28.776 23.3805 12.5895 0 0 0
3830 3 0.0 5.3955 16.1865 0 0 0
1115 3 23.3805 7.194 30.5745 0 0 0
2418 3 14.388 19.7835 16.1865 0 0 0
2480 3 12.5895 23.3805 32.373 0 0 0
281 3 32.373 7.194 0.0 0 0 0
2668 3 8.9925 5.3955 21.582 0 0 0
1841 3 17.985 3.597 0.0 0 0 0
355 3 30.5745 10.791 30.5745 0 0 0
576 3 30.5745 34.1715 10.791 0 0 0
3372 3 5.3955 34.1715 7.194 0 0 0
2503 3 12.5895 25.179 19.7835 0 0 0
968 3 26.9775 34.1715 3.597 0 0 0
1531 3 19.7835 10.791 8.9925 0 0 0
3051 3 5.3955 3.597 8.9925 0 0 0
1807 3 16.1865 0.0 5.3955 0 0 0
319 3 30.5745 7.194 34.1715 0 0 0
1359 3 23.3805 28.776 34.1715 0 0 0
2955 3 8.9925 28.776 30.5745 0 0 0
3172 3 5.3955 16.1865 7.194 0 0 0
3037 3 7.194 0.0 32.373 0 0 0
1067 3 23.3805 3.597 23.3805 0 0 0
825 3 28.776 17.985 21.582 0 0 0
2980 3 8.9925 34.1715 14.388 0 0 0
3943 3 0.0 25.179 3.597 0 0 0
2739 3 8.9925 10.791 16.1865 0 0 0
704 3 26.9775 8.9925 17.985 0 0 0
140 3 34.1715 23.3805 32.373 0 0 0
2847 3 8.9925 21.582 5.3955 0 0 0
781 3 28.776 14.388 17.985 0 0 0
2032 3 16.1865 19.7835 25.179 0 0 0
682 3 28.776 8.9925 1.7985 0 0 0
2323 3 12.5895 10.791 1.7985 0 0 0
3997 3 0.0 32.373 28.776 0 0 0
2960 3 8.9925 30.5745 32.373 0 0 0
455 3 30.5745 21.582 12.5895 0 0 0
3048 3 5.3955 5.3955 3.597 0 0 0
3062 3 7.194 5.3955 19.7835 0 0 0
2134 3 17.985 30.5745 12.5895 0 0 0
890 3 28.776 26.9775 8.9925 0 0 0
3143 3 5.3955 10.791 19.7835 0 0 0
1062 3 25.179 5.3955 19.7835 0 0 0
3082 3 7.194 8.9925 1.7985 0 0 0
2338 3 14.388 12.5895 16.1865 0 0 0
3683 3 1.7985 25.179 1.7985 0 0 0
20 3 34.1715 1.7985 32.373 0 0 0
3227 3 5.3955 17.985 23.3805 0 0 0
2734 3 10.791 12.5895 12.5895 0 0 0
1548 3 19.7835 12.5895 21.582 0 0 0
3350 3 7.194 30.5745 26.9775 0 0 0
2434 3 14.388 19.7835 30.5745 0 0 0
1477 3 21.582 3.597 32.373 0 0 0
3907 3 0.0 17.985 10.791 0 0 0
661 3 28.776 3.597 17.985 0 0 0
3718 3 3.597 26.9775 34.1715 0 0 0
1991 3 16.1865 14.388 26.9775 0 0 0
2532 3 12.5895 30.5745 7.194 0 0 0
2888 3 8.9925 26.9775 3.597 0 0 0
17 3 34.1715 0.0 30.5745 0 0 0
1776 3 19.7835 34.1715 10.791 0 0 0
10 3 34.1715 1.7985 14.388 0 0 0
3049 3 7.194 3.597 7.194 0 0 0
3645 3 3.597 21.582 3.597 0 0 0
2747 3 8.9925 10.791 23.3805 0 0 0
3806 3 0.0 1.7985 8.9925 0 0 0
2891 3 8.9925 25.179 8.9925 0 0 0
3859 3 0.0 7.194 32.373 0 0 0
2895 3 8.9925 25.179 12.5895 0 0 0
533 3 32.373 28.776 10.791 0 0 0
1464 3 19.7835 5.3955 17.985 0 0 0
3004 3 5.3955 1.7985 0.0 0 0 0
2182 3 17.985 34.1715 19.7835 0 0 0
3970 3 0.0 30.5745 16.1865 0 0 0
1512 3 19.7835 8.9925 25.179 0 0 0
2563 3 12.5895 32.373 1.7985 0 0 0
266 3 32.373 5.3955 23.3805 0 0 0
2716 3 8.9925 8.9925 28.776 0 0 0
326 3 32.373 12.5895 5.3955 0 0 0
3210 3 7.194 19.7835 8.9925 0 0 0
2049 3 17.985 21.582 7.194 0 0 0
1715 3 19.7835 25.179 30.5745 0 0 0
419 3 30.5745 17.985 16.1865 0 0 0
2262 3 14.388 5.3955 19.7835 0 0 0
3488 3 1.7985 8.9925 3.597 0 0 0
1585 3 21.582 14.388 21.582 0 0 0
2158 3 17.985 30.5745 34.1715 0 0 0
2740 3 8.9925 12.5895 14.388 0 0 0
2264 3 12.5895 5.3955 17.985 0 0 0
878 3 28.776 23.3805 34.1715 0 0 0
3080 3 5.3955 5.3955 32.373 0 0 0
1731 3 19.7835 28.776 8.9925 0 0 0
2976 3 8.9925 34.1715 10.791 0 0 0
242 3 32.373 5.3955 1.7985 0 0 0
132 3 34.1715 23.3805 17.985 0 0 0
2241 3 14.388 3.597 0.0 0 0 0
2443 3 12.5895 21.582 1.7985 0 0 0
3150 3 7.194 12.5895 26.9775 0 0 0
486 3 32.373 26.9775 5.3955 0 0 0
3673 3 3.597 21.582 28.776 0 0 0
1871 3 16.1865 3.597 26.9775 0 0 0
3882 3 0.0 16.1865 1.7985 0 0 0
1747 3 19.7835 28.776 23.3805 0 0 0
1511 3 19.7835 7.194 26.9775 0 0 0
2728 3 8.9925 12.5895 3.597 0 0 0
1425 3 21.582 0.0 21.582 0 0 0
1375 3 23.3805 32.373 12.5895 0 0 0
1627 3 19.7835 17.985 23.3805 0 0 0
1469 3 21.582 3.597 25.179 0 0 0
2507 3 12.5895 25.179 23.3805 0 0 0
2359 3 12.5895 10.791 34.1715 0 0 0
1614 3 21.582 19.7835 12.5895 0 0 0
3654 3 3.597 23.3805 12.5895 0 0 0
1010 3 25.179 1.7985 8.9925 0 0 0
1274 3 25.179 23.3805 30.5745 0 0 0
221 3 32.373 0.0 17.985 0 0 0
870 3 28.776 23.3805 26.9775 0 0 0
1705 3 21.582 25.179 21.582 0 0 0
2586 3 14.388 34.1715 23.3805 0 0 0
1031 3 23.3805 0.0 26.9775 0 0 0
2320 3 12.5895 8.9925 32.373 0 0 0
1335 3 23.3805 28.776 12.5895 0 0 0
1484 3 19.7835 8.9925 0.0 0 0 0
1563 3 19.7835 14.388 1.7985 0 0 0
3245 3 7.194 21.582 3.597 0 0 0
2674 3 10.791 5.3955 30.5745 0 0 0
3407 3 1.7985 0.0 5.3955 0 0 0
1571 3 19.7835 14.388 8.9925 0 0 0
3993 3 0.0 32.373 21.582 0 0 0
3548 3 1.7985 12.5895 21.582 0 0 0
3825 3 0.0 3.597 7.194 0 0 0
1942 3 17.985 12.5895 19.7835 0 0 0
196 3 34.1715 34.1715 25.179 0 0 0
3871 3 0.0 10.791 17.985 0 0 0
341 3 32.373 10.791 17.985 0 0 0
507 3 30.5745 25.179 23.3805 0 0 0
3162 3 7.194 16.1865 1.7985 0 0 0
2965 3 10.791 32.373 3.597 0 0 0
428 3 30.5745 19.7835 21.582 0 0 0
3130 3 7.194 12.5895 8.9925 0 0 0
227 3 30.5745 0.0 23.3805 0 0 0
3313 3 7.194 25.179 28.776 0 0 0
3022 3 7.194 1.7985 19.7835 0 0 0
3276 3 5.3955 23.3805 28.776 0 0 0
3215 3 5.3955 17.985 12.5895 0 0 0
748 3 26.9775 12.5895 21.582 0 0 0
814 3 28.776 19.7835 12.5895 0 0 0
2949 3 10.791 28.776 25.179 0 0 0
1856 3 16.1865 5.3955 10.791 0 0 0
62 3 34.1715 12.5895 0.0 0 0 0
935 3 26.9775 28.776 12.5895 0 0 0
424 3 30.5745 19.7835 17.985 0 0 0
3460 3 1.7985 5.3955 14.388 0 0 0
2894 3 10.791 26.9775 12.5895 0 0 0
2646 3 10.791 5.3955 5.3955 0 0 0
3348 3 5.3955 30.5745 21.582 0 0 0
1827 3 16.1865 0.0 23.3805 0 0 0
3277 3 7.194 21.582 32.373 0 0 0
2020 3 16.1865 19.7835 14.388 0 0 0
2850 3 10.791 23.3805 8.9925 0 0 0
2993 3 10.791 32.373 28.776 0 0 0
3161 3 7.194 14.388 0.0 0 0 0
135 3 34.1715 21.582 26.9775 0 0 0
770 3 28.776 16.1865 8.9925 0 0 0
1961 3 17.985 14.388 0.0 0 0 0
1951 3 16.1865 10.791 26.9775 0 0 0
3659 3 1.7985 21.582 16.1865 0 0 0
3743 3 1.7985 28.776 19.7835 0 0 0
639 3 26.9775 0.0 34.1715 0 0 0
2866 3 10.791 23.3805 23.3805 0 0 0
3033 3 7.194 0.0 28.776 0 0 0
1263 3 23.3805 21.582 19.7835 0 0 0
992 3 26.9775 34.1715 25.179 0 0 0
259 3 30.5745 3.597 16.1865 0 0 0
2971 3 8.9925 32.373 8.9925 0 0 0
1064 3 23.3805 5.3955 17.985 0 0 0
1955 3 16.1865 10.791 30.5745 0 0 0
2893 3 10.791 25.179 10.791 0 0 0
3163 3 5.3955 14.388 1.7985 0 0 0
649 3 28.776 3.597 7.194 0 0 0
1309 3 25.179 25.179 25.179 0 0 0
398 3 32.373 16.1865 34.1715 0 0 0
2293 3 14.388 7.194 10.791 0 0 0
2250 3 14.388 5.3955 8.9925 0 0 0
1364 3 23.3805 34.1715 0.0 0 0 0
3557 3 3.597 10.791 32.373 0 0 0
3219 3 5.3955 17.985 16.1865 0 0 0
2246 3 14.388 5.3955 5.3955 0 0 0
1322 3 25.179 30.5745 1.7985 0 0 0
3200 3 5.3955 16.1865 32.373 0 0 0
2383 3 12.5895 14.388 19.7835 0 0 0
2314 3 14.388 8.9925 30.5745 0 0 0
1589 3 21.582 14.388 25.179 0 0 0
2628 3 8.9925 1.7985 21.582 0 0 0
1208 3 23.3805 19.7835 3.597 0 0 0
2152 3 16.1865 30.5745 25.179 0 0 0
1934 3 17.985 12.5895 12.5895 0 0 0
2846 3 10.791 23.3805 5.3955 0 0 0
1521 3 21.582 10.791 0.0 0 0 0
2686 3 10.791 8.9925 5.3955 0 0 0
395 3 30.5745 14.388 30.5745 0 0 0
698 3 28.776 8.9925 16.1865 0 0 0
2578 3 14.388 34.1715 16.1865 0 0 0
2719 3 8.9925 7.194 34.1715 0 0 0
1139 3 23.3805 10.791 16.1865 0 0 0
1486 3 21.582 8.9925 5.3955 0 0 0
3523 3 1.7985 10.791 1.7985 0 0 0
3784 3 1.7985 34.1715 17.985 0 0 0
3646 3 3.597 23.3805 5.3955 0 0 0
3875 3 0.0 10.791 25.179 0 0 0
1450 3 21.582 5.3955 8.9925 0 0 0
881 3 28.776 25.179 0.0 0 0 0
1513 3 21.582 7.194 28.776 0 0 0
1097 3 25.179 7.194 14.388 0 0 0
1782 3 21.582 34.1715 19.7835 0 0 0
1662 3 21.582 23.3805 19.7835 0 0 0
2758 3 10.791 12.5895 34.1715 0 0 0
787 3 26.9775 14.388 23.3805 0 0 0
3071 3 5.3955 3.597 26.9775 0 0 0
110 3 34.1715 19.7835 14.388 0 0 0
2174 3 17.985 34.1715 12.5895 0 0 0
233 3 32.373 0.0 28.776 0 0 0
452 3 30.5745 23.3805 7.194 0 0 0
1634 3 21.582 19.7835 30.5745 0 0 0
1711 3 19.7835 25.179 26.9775 0 0 0
599 3 30.5745 32.373 34.1715 0 0 0
3392 3 5.3955 34.1715 25.179 0 0 0
2786 3 10.791 16.1865 23.3805 0 0 0
2948 3 8.9925 30.5745 21.582 0 0 0
2821 3 10.791 17.985 17.985 0 0 0
2379 3 12.5895 14.388 16.1865 0 0 0
3751 3 1.7985 28.776 26.9775 0 0 0
2788 3 8.9925 16.1865 21.582 0 0 0
411 3 30.5745 17.985 8.9925 0 0 0
3799 3 1.7985 32.373 34.1715 0 0 0
1148 3 23.3805 12.5895 21.582 0 0 0
1189 3 25.179 14.388 25.179 0 0 0
2681 3 10.791 7.194 0.0 0 0 0
3377 3 7.194 32.373 14.388 0 0 0
1545 3 21.582 10.791 21.582 0 0 0
2300 3 12.5895 8.9925 14.388 0 0 0
3552 3 1.7985 12.5895 25.179 0 0 0
138 3 34.1715 23.3805 28.776 0 0 0
3851 3 0.0 7.194 17.985 0 0 0
723 3 26.9775 10.791 1.7985 0 0 0
41 3 34.1715 7.194 1.7985 0 0 0
1738 3 21.582 30.5745 16.1865 0 0 0
1110 3 25.179 8.9925 26.9775 0 0 0
3753 3 3.597 28.776 28.776 0 0 0
3296 3 5.3955 26.9775 10.791 0 0 0
2140 3 16.1865 30.5745 14.388 0 0 0
3252 3 5.3955 23.3805 7.194 0 0 0
3012 3 5.3955 1.7985 7.194 0 0 0
1030 3 25.179 1.7985 26.9775 0 0 0
178 3 34.1715 30.5745 28.776 0 0 0
2321 3 14.388 10.791 0.0 0 0 0
1017 3 25.179 0.0 14.388 0 0 0
3822 3 0.0 5.3955 1.7985 0 0 0
2539 3 12.5895 28.776 16.1865 0 0 0
1726 3 21.582 30.5745 5.3955 0 0 0
489 3 32.373 25.179 7.194 0 0 0
3764 3 1.7985 34.1715 0.0 0 0 0
1922 3 17.985 12.5895 1.7985 0 0 0
1075 3 23.3805 3.597 30.5745 0 0 0
1099 3 23.3805 7.194 16.1865 0 0 0
325 3 32.373 10.791 3.597 0 0 0
1384 3 23.3805 34.1715 17.985 0 0 0
1470 3 21.582 5.3955 26.9775 0 0 0
403 3 30.5745 17.985 1.7985 0 0 0
2649 3 10.791 3.597 7.194 0 0 0
2400 3 12.5895 16.1865 32.373 0 0 0
9 3 34.1715 0.0 16.1865 0 0 0
3461 3 3.597 3.597 17.985 0 0 0
1658 3 21.582 23.3805 16.1865 0 0 0
1225 3 25.179 17.985 21.582 0 0 0
3982 3 0.0 34.1715 1.7985 0 0 0
3719 3 1.7985 25.179 34.1715 0 0 0
2202 3 14.388 1.7985 1.7985 0 0 0
2756 3 8.9925 12.5895 28.776 0 0 0
570 3 32.373 34.1715 8.9925 0 0 0
3519 3 1.7985 7.194 34.1715 0 0 0
2465 3 14.388 21.582 21.582 0 0 0
3810 3 0.0 1.7985 16.1865 0 0 0
1890 3 17.985 8.9925 8.9925 0 0 0
929 3 28.776 28.776 7.194 0 0 0
1907 3 16.1865 7.194 23.3805 0 0 0
1427 3 19.7835 0.0 23.3805 0 0 0
1779 3 19.7835 32.373 16.1865 0 0 0
3927 3 0.0 21.582 10.791 0 0 0
1123 3 23.3805 10.791 1.7985 0 0 0
1133 3 25.179 10.791 10.791 0 0 0
3544 3 1.7985 12.5895 17.985 0 0 0
3703 3 1.7985 25.179 19.7835 0 0 0
3558 3 3.597 12.5895 34.1715 0 0 0
2077 3 17.985 21.582 32.373 0 0 0
3311 3 5.3955 25.179 26.9775 0 0 0
954 3 28.776 30.5745 30.5745 0 0 0
2181 3 17.985 32.373 17.985 0 0 0
2371 3 12.5895 14.388 8.9925 0 0 0
3884 3 0.0 16.1865 5.3955 0 0 0
1655 3 19.7835 21.582 12.5895 0 0 0
2451 3 12.5895 21.582 8.9925 0 0 0
3555 3 1.7985 10.791 30.5745 0 0 0
669 3 28.776 3.597 25.179 0 0 0
414 3 32.373 19.7835 12.5895 0 0 0
482 3 32.373 26.9775 1.7985 0 0 0
3572 3 1.7985 16.1865 7.194 0 0 0
515 3 30.5745 25.179 30.5745 0 0 0
2344 3 12.5895 12.5895 17.985 0 0 0
3206 3 7.194 19.7835 5.3955 0 0 0
1171 3 23.3805 14.388 8.9925 0 0 0
646 3 28.776 5.3955 5.3955 0 0 0
3898 3 0.0 16.1865 30.5745 0 0 0
2588 3 12.5895 34.1715 21.582 0 0 0
805 3 28.776 17.985 3.597 0 0 0
2772 3 8.9925 16.1865 7.194 0 0 0
3353 3 7.194 28.776 28.776 0 0 0
534 3 32.373 30.5745 12.5895 0 0 0
1795 3 19.7835 32.373 30.5745 0 0 0
1952 3 16.1865 12.5895 25.179 0 0 0
3267 3 5.3955 21.582 23.3805 0 0 0
453 3 32.373 21.582 10.791 0 0 0
1102 3 25.179 8.9925 19.7835 0 0 0
594 3 32.373 34.1715 30.5745 0 0 0
2249 3 14.388 3.597 7.194 0 0 0
2310 3 14.388 8.9925 26.9775 0 0 0
3996 3 0.0 34.1715 26.9775 0 0 0
1644 3 19.7835 23.3805 0.0 0 0 0
3476 3 1.7985 5.3955 28.776 0 0 0
2243 3 12.5895 3.597 1.7985 0 0 0
1998 3 17.985 16.1865 34.1715 0 0 0
2509 3 14.388 25.179 25.179 0 0 0
367 3 30.5745 14.388 5.3955 0 0 0
3681 3 3.597 25.179 0.0 0 0 0
3334 3 7.194 30.5745 12.5895 0 0 0
3591 3 1.7985 14.388 26.9775 0 0 0
2627 3 8.9925 0.0 23.3805 0 0 0
826 3 28.776 19.7835 23.3805 0 0 0
2449 3 14.388 21.582 7.194 0 0 0
1891 3 16.1865 7.194 8.9925 0 0 0
3052 3 5.3955 5.3955 7.194 0 0 0
2525 3 14.388 28.776 3.597 0 0 0
1616 3 19.7835 19.7835 10.791 0 0 0
3174 3 7.194 16.1865 12.5895 0 0 0
2825 3 10.791 17.985 21.582 0 0 0
2380 3 12.5895 16.1865 14.388 0 0 0
553 3 32.373 28.776 28.776 0 0 0
3333 3 7.194 28.776 10.791 0 0 0
1756 3 19.7835 30.5745 28.776 0 0 0
1291 3 23.3805 25.179 8.9925 0 0 0
2481 3 14.388 25.179 0.0 0 0 0
3297 3 7.194 25.179 14.388 0 0 0
3845 3 0.0 7.194 7.194 0 0 0
1004 3 23.3805 1.7985 0.0 0 0 0
1599 3 19.7835 14.388 34.1715 0 0 0
2106 3 17.985 26.9775 23.3805 0 0 0
2987 3 8.9925 32.373 23.3805 0 0 0
3428 3 1.7985 1.7985 21.582 0 0 0
2767 3 8.9925 14.388 5.3955 0 0 0
3721 3 3.597 28.776 0.0 0 0 0
3899 3 0.0 14.388 32.373 0 0 0
3671 3 1.7985 21.582 26.9775 0 0 0
502 3 32.373 26.9775 19.7835 0 0 0
3212 3 5.3955 19.7835 7.194 0 0 0
2905 3 10.791 25.179 21.582 0 0 0
1544 3 19.7835 12.5895 17.985 0 0 0
2794 3 10.791 16.1865 30.5745 0 0 0
1001 3 25.179 0.0 0.0 0 0 0
619 3 26.9775 0.0 16.1865 0 0 0
2815 3 8.9925 17.985 12.5895 0 0 0
2226 3 14.388 1.7985 23.3805 0 0 0
302 3 32.373 8.9925 19.7835 0 0 0
298 3 32.373 8.9925 16.1865 0 0 0
3346 3 7.194 30.5745 23.3805 0 0 0
141 3 34.1715 25.179 1.7985 0 0 0
2602 3 10.791 1.7985 1.7985 0 0 0
1020 3 23.3805 1.7985 14.388 0 0 0
1358 3 25.179 30.5745 34.1715 0 0 0
3264 3 5.3955 23.3805 17.985 0 0 0
248 3 30.5745 5.3955 3.597 0 0 0
2078 3 17.985 23.3805 34.1715 0 0 0
3944 3 0.0 26.9775 5.3955 0 0 0
3793 3 3.597 32.373 28.776 0 0 0
3798 3 3.597 34.1715 34.1715 0 0 0
1341 3 25.179 28.776 17.985 0 0 0
2524 3 12.5895 30.5745 0.0 0 0 0
1028 3 23.3805 1.7985 21.582 0 0 0
1595 3 19.7835 14.388 30.5745 0 0 0
295 3 30.5745 7.194 12.5895 0 0 0
753 3 28.776 10.791 28.776 0 0 0
199 3 34.1715 32.373 34.1715 0 0 0
2738 3 10.791 12.5895 16.1865 0 0 0
832 3 26.9775 19.7835 25.179 0 0 0
2765 3 10.791 14.388 3.597 0 0 0
2637 3 10.791 0.0 32.373 0 0 0
703 3 26.9775 7.194 19.7835 0 0 0
2315 3 12.5895 7.194 30.5745 0 0 0
2748 3 8.9925 12.5895 21.582 0 0 0
3679 3 1.7985 21.582 34.1715 0 0 0
1543 3 19.7835 10.791 19.7835 0 0 0
21 3 34.1715 3.597 1.7985 0 0 0
3217 3 7.194 17.985 14.388 0 0 0
3436 3 1.7985 1.7985 28.776 0 0 0
3881 3 0.0 14.388 0.0 0 0 0
3949 3 0.0 25.179 14.388 0 0 0
170 3 34.1715 30.5745 14.388 0 0 0
2248 3 12.5895 5.3955 3.597 0 0 0
1909 3 17.985 7.194 25.179 0 0 0
2291 3 12.5895 7.194 8.9925 0 0 0
2008 3 16.1865 19.7835 3.597 0 0 0
244 3 30.5745 5.3955 0.0 0 0 0
223 3 30.5745 0.0 19.7835 0 0 0
1200 3 23.3805 16.1865 32.373 0 0 0
1937 3 17.985 10.791 14.388 0 0 0
555 3 30.5745 28.776 30.5745 0 0 0
2676 3 8.9925 5.3955 28.776 0 0 0
2238 3 14.388 1.7985 34.1715 0 0 0
1352 3 23.3805 30.5745 25.179 0 0 0
3258 3 7.194 23.3805 16.1865 0 0 0
303 3 30.5745 7.194 19.7835 0 0 0
2285 3 14.388 7.194 3.597 0 0 0
966 3 28.776 34.1715 5.3955 0 0 0
3823 3 0.0 3.597 3.597 0 0 0
130 3 34.1715 23.3805 14.388 0 0 0
3299 3 5.3955 25.179 16.1865 0 0 0
565 3 32.373 32.373 3.597 0 0 0
2829 3 10.791 17.985 25.179 0 0 0
88 3 34.1715 16.1865 10.791 0 0 0
2659 3 8.9925 3.597 16.1865 0 0 0
3629 3 3.597 17.985 25.179 0 0 0
1118 3 25.179 8.9925 34.1715 0 0 0
2927 3 8.9925 28.776 5.3955 0 0 0
1812 3 16.1865 1.7985 7.194 0 0 0
1755 3 19.7835 28.776 30.5745 0 0 0
1925 3 17.985 10.791 3.597 0 0 0
2510 3 14.388 26.9775 26.9775 0 0 0
3928 3 0.0 23.3805 12.5895 0 0 0
1014 3 25.179 1.7985 12.5895 0 0 0
809 3 28.776 17.985 7.194 0 0 0
513 3 32.373 25.179 28.776 0 0 0
91 3 34.1715 14.388 19.7835 0 0 0
797 3 28.776 14.388 32.373 0 0 0
474 3 32.373 23.3805 30.5745 0 0 0
2900 3 8.9925 26.9775 14.388 0 0 0
609 3 28.776 0.0 7.194 0 0 0
277 3 32.373 3.597 32.373 0 0 0
712 3 26.9775 8.9925 25.179 0 0 0
2072 3 16.1865 23.3805 25.179 0 0 0
756 3 26.9775 12.5895 28.776 0 0 0
144 3 34.1715 26.9775 3.597 0 0 0
211 3 30.5745 0.0 8.9925 0 0 0
2219 3 12.5895 0.0 16.1865 0 0 0
3098 3 7.194 8.9925 16.1865 0 0 0
1979 3 16.1865 14.388 16.1865 0 0 0
2309 3 14.388 7.194 25.179 0 0 0
1197 3 25.179 14.388 32.373 0 0 0
217 3 32.373 0.0 14.388 0 0 0
215 3 30.5745 0.0 12.5895 0 0 0
1965 3 17.985 14.388 3.597 0 0 0
3910 3 0.0 19.7835 16.1865 0 0 0
3747 3 1.7985 28.776 23.3805 0 0 0
3861 3 0.0 10.791 0.0 0 0 0
49 3 34.1715 7.194 16.1865 0 0 0
3244 3 5.3955 23.3805 0.0 0 0 0
3312 3 5.3955 26.9775 25.179 0 0 0
1262 3 25.179 23.3805 19.7835 0 0 0
2493 3 14.388 25.179 10.791 0 0 0
3309 3 7.194 25.179 25.179 0 0 0
3063 3 5.3955 3.597 19.7835 0 0 0
1609 3 21.582 17.985 7.194 0 0 0
2732 3 8.9925 12.5895 7.194 0 0 0
1261 3 25.179 21.582 17.985 0 0 0
3121 3 7.194 10.791 0.0 0 0 0
3195 3 5.3955 14.388 30.5745 0 0 0
180 3 34.1715 30.5745 32.373 0 0 0
800 3 26.9775 16.1865 32.373 0 0 0
3858 3 0.0 8.9925 30.5745 0 0 0
157 3 34.1715 25.179 30.5745 0 0 0
1771 3 19.7835 32.373 8.9925 0 0 0
337 3 32.373 10.791 14.388 0 0 0
1144 3 23.3805 12.5895 17.985 0 0 0
780 3 26.9775 16.1865 14.388 0 0 0
2450 3 14.388 23.3805 8.9925 0 0 0
916 3 26.9775 26.9775 28.776 0 0 0
1781 3 21.582 32.373 17.985 0 0 0
858 3 28.776 23.3805 16.1865 0 0 0
3741 3 3.597 28.776 17.985 0 0 0
2575 3 12.5895 32.373 12.5895 0 0 0
3129 3 7.194 10.791 7.194 0 0 0
3583 3 1.7985 14.388 19.7835 0 0 0
3958 3 0.0 26.9775 30.5745 0 0 0
1232 3 23.3805 19.7835 25.179 0 0 0
919 3 26.9775 25.179 34.1715 0 0 0
2857 3 10.791 21.582 14.388 0 0 0
56 3 34.1715 8.9925 25.179 0 0 0
3909 3 0.0 17.985 14.388 0 0 0
1826 3 17.985 1.7985 23.3805 0 0 0
2065 3 17.985 21.582 21.582 0 0 0
2537 3 14.388 28.776 14.388 0 0 0
2034 3 17.985 19.7835 30.5745 0 0 0
52 3 34.1715 8.9925 17.985 0 0 0
1041 3 25.179 3.597 0.0 0 0 0
1236 3 23.3805 19.7835 28.776 0 0 0
2856 3 8.9925 23.3805 10.791 0 0 0
48 3 34.1715 8.9925 10.791 0 0 0
3097 3 7.194 7.194 14.388 0 0 0
2802 3 10.791 19.7835 1.7985 0 0 0
2717 3 10.791 7.194 32.373 0 0 0
2423 3 12.5895 17.985 19.7835 0 0 0
1839 3 16.1865 0.0 34.1715 0 0 0
2585 3 14.388 32.373 21.582 0 0 0
1363 3 23.3805 32.373 1.7985 0 0 0
1729 3 21.582 28.776 7.194 0 0 0
2289 3 14.388 7.194 7.194 0 0 0
2561 3 14.388 32.373 0.0 0 0 0
3955 3 0.0 25.179 25.179 0 0 0
918 3 28.776 26.9775 34.1715 0 0 0
1313 3 25.179 25.179 28.776 0 0 0
1878 3 17.985 5.3955 34.1715 0 0 0
299 3 30.5745 7.194 16.1865 0 0 0
2909 3 10.791 25.179 25.179 0 0 0
2775 3 8.9925 14.388 12.5895 0 0 0
3328 3 5.3955 30.5745 3.597 0 0 0
1116 3 23.3805 8.9925 28.776 0 0 0
1956 3 16.1865 12.5895 28.776 0 0 0
408 3 30.5745 19.7835 3.597 0 0 0
3887 3 0.0 14.388 10.791 0 0 0
1680 3 19.7835 23.3805 32.373 0 0 0
2175 3 16.1865 32.373 12.5895 0 0 0
2375 3 12.5895 14.388 12.5895 0 0 0
730 3 28.776 12.5895 8.9925 0 0 0
2864 3 8.9925 23.3805 17.985 0 0 0
100 3 34.1715 16.1865 32.373 0 0 0
493 3 32.373 25.179 10.791 0 0 0
2565 3 14.388 32.373 3.597 0 0 0
944 3 26.9775 30.5745 17.985 0 0 0
1818 3 17.985 1.7985 16.1865 0 0 0
167 3 34.1715 28.776 12.5895 0 0 0
2808 3 8.9925 19.7835 3.597 0 0 0
1422 3 21.582 1.7985 19.7835 0 0 0
2453 3 14.388 21.582 10.791 0 0 0
488 3 30.5745 26.9775 3.597 0 0 0
1155 3 23.3805 10.791 30.5745 0 0 0
3790 3 3.597 34.1715 26.9775 0 0 0
1452 3 19.7835 5.3955 7.194 0 0 0
1959 3 16.1865 10.791 34.1715 0 0 0
2702 3 10.791 8.9925 19.7835 0 0 0
80 3 34.1715 12.5895 32.373 0 0 0
2040 3 16.1865 19.7835 32.373 0 0 0
3466 3 3.597 5.3955 23.3805 0 0 0
1282 3 25.179 26.9775 1.7985 0 0 0
1504 3 19.7835 8.9925 17.985 0 0 0
1443 3 19.7835 3.597 1.7985 0 0 0
3803 3 0.0 0.0 3.597 0 0 0
1295 3 23.3805 25.179 12.5895 0 0 0
3426 3 3.597 1.7985 23.3805 0 0 0
258 3 32.373 5.3955 16.1865 0 0 0
3015 3 5.3955 0.0 12.5895 0 0 0
3575 3 1.7985 14.388 12.5895 0 0 0
3340 3 5.3955 30.5745 14.388 0 0 0
846 3 28.776 23.3805 5.3955 0 0 0
3995 3 0.0 32.373 25.179 0 0 0
1597 3 21.582 14.388 32.373 0 0 0
2774 3 10.791 16.1865 12.5895 0 0 0
2989 3 10.791 32.373 25.179 0 0 0
2336 3 12.5895 12.5895 10.791 0 0 0
562 3 32.373 34.1715 1.7985 0 0 0
1967 3 16.1865 14.388 5.3955 0 0 0
234 3 32.373 1.7985 30.5745 0 0 0
3223 3 5.3955 17.985 19.7835 0 0 0
3522 3 3.597 12.5895 1.7985 0 0 0
833 3 28.776 17.985 28.776 0 0 0
2843 3 8.9925 21.582 1.7985 0 0 0
2643 3 8.9925 3.597 1.7985 0 0 0
3323 3 5.3955 28.776 1.7985 0 0 0
1361 3 25.179 32.373 0.0 0 0 0
179 3 34.1715 28.776 34.1715 0 0 0
1713 3 21.582 25.179 28.776 0 0 0
946 3 28.776 30.5745 23.3805 0 0 0
372 3 30.5745 16.1865 7.194 0 0 0
3259 3 5.3955 21.582 16.1865 0 0 0
1547 3 19.7835 10.791 23.3805 0 0 0
2943 3 8.9925 28.776 19.7835 0 0 0
3464 3 1.7985 5.3955 17.985 0 0 0
855 3 26.9775 21.582 12.5895 0 0 0
1584 3 19.7835 16.1865 17.985 0 0 0
1534 3 21.582 12.5895 12.5895 0 0 0
701 3 28.776 7.194 17.985 0 0 0
51 3 34.1715 7.194 19.7835 0 0 0
1408 3 19.7835 1.7985 3.597 0 0 0
462 3 32.373 23.3805 19.7835 0 0 0
3086 3 7.194 8.9925 5.3955 0 0 0
1365 3 25.179 32.373 3.597 0 0 0
3510 3 3.597 8.9925 26.9775 0 0 0
1199 3 23.3805 14.388 34.1715 0 0 0
3999 3 0.0 32.373 32.373 0 0 0
467 3 30.5745 21.582 23.3805 0 0 0
2066 3 17.985 23.3805 23.3805 0 0 0
26 3 34.1715 5.3955 7.194 0 0 0
2599 3 12.5895 32.373 34.1715 0 0 0
38 3 34.1715 5.3955 28.776 0 0 0
2210 3 14.388 1.7985 8.9925 0 0 0
1428 3 19.7835 1.7985 21.582 0 0 0
3293 3 7.194 25.179 10.791 0 0 0
939 3 26.9775 28.776 16.1865 0 0 0
654 3 28.776 5.3955 12.5895 0 0 0
3848 3 0.0 8.9925 12.5895 0 0 0
851 3 26.9775 21.582 8.9925 0 0 0
2297 3 14.388 7.194 14.388 0 0 0
1921 3 17.985 10.791 0.0 0 0 0
1475 3 19.7835 3.597 30.5745 0 0 0
2144 3 16.1865 30.5745 17.985 0 0 0
3032 3 5.3955 1.7985 25.179 0 0 0
1913 3 17.985 7.194 28.776 0 0 0
3709 3 3.597 25.179 25.179 0 0 0
3050 3 7.194 5.3955 8.9925 0 0 0
2390 3 14.388 16.1865 26.9775 0 0 0
3090 3 7.194 8.9925 8.9925 0 0 0
1002 3 25.179 1.7985 1.7985 0 0 0
1746 3 21.582 30.5745 23.3805 0 0 0
2200 3 16.1865 34.1715 32.373 0 0 0
1083 3 23.3805 7.194 1.7985 0 0 0
2700 3 8.9925 8.9925 14.388 0 0 0
1722 3 21.582 30.5745 1.7985 0 0 0
2042 3 17.985 23.3805 1.7985 0 0 0
3745 3 3.597 28.776 21.582 0 0 0
1445 3 21.582 3.597 3.597 0 0 0
3759 3 1.7985 28.776 34.1715 0 0 0
3430 3 3.597 1.7985 26.9775 0 0 0
30 3 34.1715 5.3955 14.388 0 0 0
3456 3 1.7985 5.3955 10.791 0 0 0
1770 3 21.582 34.1715 8.9925 0 0 0
621 3 28.776 0.0 17.985 0 0 0
996 3 26.9775 34.1715 28.776 0 0 0
1446 3 21.582 5.3955 5.3955 0 0 0
1761 3 21.582 32.373 0.0 0 0 0
750 3 28.776 12.5895 26.9775 0 0 0
1591 3 19.7835 14.388 26.9775 0 0 0
3068 3 5.3955 5.3955 21.582 0 0 0
2234 3 14.388 1.7985 30.5745 0 0 0
2256 3 12.5895 5.3955 10.791 0 0 0
2620 3 8.9925 1.7985 14.388 0 0 0
1559 3 19.7835 10.791 34.1715 0 0 0
300 3 30.5745 8.9925 14.388 0 0 0
2332 3 12.5895 12.5895 7.194 0 0 0
1582 3 21.582 16.1865 19.7835 0 0 0
397 3 32.373 14.388 32.373 0 0 0
3281 3 7.194 25.179 0.0 0 0 0
1319 3 23.3805 25.179 34.1715 0 0 0
1557 3 21.582 10.791 32.373 0 0 0
1146 3 25.179 12.5895 23.3805 0 0 0
980 3 26.9775 34.1715 14.388 0 0 0
3723 3 1.7985 28.776 1.7985 0 0 0
2026 3 17.985 19.7835 23.3805 0 0 0
3248 3 5.3955 23.3805 3.597 0 0 0
743 3 26.9775 10.791 19.7835 0 0 0
1399 3 23.3805 32.373 34.1715 0 0 0
1370 3 25.179 34.1715 8.9925 0 0 0
2367 3 12.5895 14.388 5.3955 0 0 0
3780 3 1.7985 34.1715 14.388 0 0 0
289 3 32.373 7.194 7.194 0 0 0
572 3 30.5745 34.1715 7.194 0 0 0
2048 3 16.1865 23.3805 3.597 0 0 0
1388 3 23.3805 34.1715 21.582 0 0 0
729 3 28.776 10.791 7.194 0 0 0
1055 3 23.3805 3.597 12.5895 0 0 0
3814 3 0.0 1.7985 23.3805 0 0 0
2937 3 10.791 28.776 14.388 0 0 0
2370 3 14.388 16.1865 8.9925 0 0 0
3447 3 1.7985 3.597 5.3955 0 0 0
543 3 30.5745 28.776 19.7835 0 0 0
1124 3 23.3805 12.5895 0.0 0 0 0
3038 3 7.194 1.7985 34.1715 0 0 0
1759 3 19.7835 28.776 34.1715 0 0 0
2258 3 14.388 5.3955 16.1865 0 0 0
3322 3 7.194 30.5745 1.7985 0 0 0
511 3 30.5745 25.179 26.9775 0 0 0
3034 3 7.194 1.7985 30.5745 0 0 0
1106 3 25.179 8.9925 23.3805 0 0 0
2187 3 16.1865 32.373 23.3805 0 0 0
891 3 26.9775 25.179 8.9925 0 0 0
3194 3 7.194 16.1865 30.5745 0 0 0
3728 3 1.7985 30.5745 3.597 0 0 0
2801 3 10.791 17.985 0.0 0 0 0
695 3 26.9775 7.194 12.5895 0 0 0
3073 3 7.194 3.597 28.776 0 0 0
1145 3 25.179 10.791 21.582 0 0 0
2237 3 14.388 0.0 32.373 0 0 0
841 3 28.776 21.582 0.0 0 0 0
2454 3 14.388 23.3805 12.5895 0 0 0
3221 3 7.194 17.985 17.985 0 0 0
1426 3 21.582 1.7985 23.3805 0 0 0
3286 3 7.194 26.9775 5.3955 0 0 0
2196 3 16.1865 34.1715 28.776 0 0 0
936 3 26.9775 30.5745 10.791 0 0 0
2069 3 17.985 21.582 25.179 0 0 0
229 3 32.373 0.0 25.179 0 0 0
790 3 28.776 16.1865 26.9775 0 0 0
1687 3 19.7835 25.179 5.3955 0 0 0
2883 3 8.9925 25.179 1.7985 0 0 0
1466 3 21.582 5.3955 23.3805 0 0 0
3159 3 5.3955 10.791 34.1715 0 0 0
3024 3 5.3955 1.7985 17.985 0 0 0
3547 3 1.7985 10.791 23.3805 0 0 0
561 3 32.373 32.373 0.0 0 0 0
1488 3 19.7835 8.9925 3.597 0 0 0
3011 3 5.3955 0.0 8.9925 0 0 0
1019 3 23.3805 0.0 16.1865 0 0 0
2953 3 10.791 28.776 28.776 0 0 0
1406 3 21.582 1.7985 5.3955 0 0 0
1094 3 25.179 8.9925 12.5895 0 0 0
3734 3 3.597 30.5745 12.5895 0 0 0
3824 3 0.0 5.3955 5.3955 0 0 0
3099 3 5.3955 7.194 16.1865 0 0 0
1806 3 17.985 1.7985 5.3955 0 0 0
2642 3 10.791 5.3955 1.7985 0 0 0
724 3 26.9775 12.5895 0.0 0 0 0
2984 3 8.9925 34.1715 17.985 0 0 0
1217 3 25.179 17.985 14.388 0 0 0
2986 3 10.791 34.1715 23.3805 0 0 0
2892 3 8.9925 26.9775 7.194 0 0 0
1797 3 21.582 32.373 32.373 0 0 0
3568 3 1.7985 16.1865 3.597 0 0 0
3326 3 7.194 30.5745 5.3955 0 0 0
2694 3 10.791 8.9925 12.5895 0 0 0
263 3 30.5745 3.597 19.7835 0 0 0
1267 3 23.3805 21.582 23.3805 0 0 0
1884 3 16.1865 8.9925 0.0 0 0 0
1688 3 19.7835 26.9775 3.597 0 0 0
2848 3 8.9925 23.3805 3.597 0 0 0
3100 3 5.3955 8.9925 14.388 0 0 0
3378 3 7.194 34.1715 16.1865 0 0 0
2205 3 14.388 0.0 3.597 0 0 0
1300 3 23.3805 26.9775 14.388 0 0 0
2302 3 14.388 8.9925 19.7835 0 0 0
1684 3 19.7835 26.9775 0.0 0 0 0
628 3 26.9775 1.7985 21.582 0 0 0
3579 3 1.7985 14.388 16.1865 0 0 0
3676 3 1.7985 23.3805 28.776 0 0 0
3376 3 5.3955 34.1715 10.791 0 0 0
1167 3 23.3805 14.388 5.3955 0 0 0
1467 3 19.7835 3.597 23.3805 0 0 0
3382 3 7.194 34.1715 19.7835 0 0 0
1523 3 19.7835 10.791 1.7985 0 0 0
592 3 30.5745 34.1715 25.179 0 0 0
1389 3 25.179 32.373 25.179 0 0 0
279 3 30.5745 3.597 34.1715 0 0 0
3423 3 1.7985 0.0 19.7835 0 0 0
3705 3 3.597 25.179 21.582 0 0 0
1638 3 21.582 19.7835 34.1715 0 0 0
384 3 30.5745 16.1865 17.985 0 0 0
1415 3 19.7835 0.0 12.5895 0 0 0
1692 3 19.7835 26.9775 7.194 0 0 0
873 3 28.776 21.582 28.776 0 0 0
3682 3 3.597 26.9775 1.7985 0 0 0
1533 3 21.582 10.791 10.791 0 0 0
1026 3 25.179 1.7985 23.3805 0 0 0
590 3 32.373 34.1715 26.9775 0 0 0
3 3 34.1715 0.0 5.3955 0 0 0
2736 3 8.9925 12.5895 10.791 0 0 0
2828 3 8.9925 19.7835 21.582 0 0 0
3357 3 7.194 28.776 32.373 0 0 0
1317 3 25.179 25.179 32.373 0 0 0
875 3 26.9775 21.582 30.5745 0 0 0
200 3 34.1715 34.1715 32.373 0 0 0
3356 3 5.3955 30.5745 28.776 0 0 0
1168 3 23.3805 16.1865 3.597 0 0 0
1984 3 16.1865 16.1865 17.985 0 0 0
208 3 30.5745 1.7985 3.597 0 0 0
3081 3 7.194 7.194 0.0 0 0 0
2035 3 16.1865 17.985 30.5745 0 0 0
3106 3 7.194 8.9925 23.3805 0 0 0
3530 3 3.597 12.5895 8.9925 0 0 0
525 3 32.373 28.776 3.597 0 0 0
3400 3 5.3955 34.1715 32.373 0 0 0
2215 3 12.5895 0.0 12.5895 0 0 0
607 3 26.9775 0.0 5.3955 0 0 0
3126 3 7.194 12.5895 5.3955 0 0 0
2545 3 14.388 28.776 21.582 0 0 0
3586 3 3.597 16.1865 23.3805 0 0 0
1980 3 16.1865 16.1865 14.388 0 0 0
1198 3 25.179 16.1865 34.1715 0 0 0
1505 3 21.582 7.194 21.582 0 0 0
2723 3 8.9925 10.791 1.7985 0 0 0
304 3 30.5745 8.9925 17.985 0 0 0
2762 3 10.791 16.1865 1.7985 0 0 0
2017 3 17.985 17.985 14.388 0 0 0
124 3 34.1715 23.3805 3.597 0 0 0
1772 3 19.7835 34.1715 7.194 0 0 0
3246 3 7.194 23.3805 5.3955 0 0 0
2789 3 10.791 14.388 25.179 0 0 0
1150 3 25.179 12.5895 26.9775 0 0 0
3414 3 3.597 1.7985 12.5895 0 0 0
839 3 26.9775 17.985 34.1715 0 0 0
1287 3 23.3805 25.179 5.3955 0 0 0
3765 3 3.597 32.373 3.597 0 0 0
1374 3 25.179 34.1715 12.5895 0 0 0
2914 3 10.791 26.9775 30.5745 0 0 0
1758 3 21.582 30.5745 34.1715 0 0 0
2176 3 16.1865 34.1715 10.791 0 0 0
1431 3 19.7835 0.0 26.9775 0 0 0
127 3 34.1715 21.582 12.5895 0 0 0
2521 3 14.388 28.776 0.0 0 0 0
2063 3 16.1865 21.582 19.7835 0 0 0
3956 3 0.0 26.9775 26.9775 0 0 0
1990 3 17.985 16.1865 26.9775 0 0 0
1830 3 17.985 1.7985 26.9775 0 0 0
3551 3 1.7985 10.791 26.9775 0 0 0
1828 3 16.1865 1.7985 21.582 0 0 0
2392 3 12.5895 16.1865 25.179 0 0 0
1506 3 21.582 8.9925 23.3805 0 0 0
2165 3 17.985 32.373 3.597 0 0 0
3545 3 3.597 10.791 21.582 0 0 0
3175 3 5.3955 14.388 12.5895 0 0 0
1016 3 23.3805 1.7985 10.791 0 0 0
2687 3 8.9925 7.194 5.3955 0 0 0
466 3 32.373 23.3805 23.3805 0 0 0
1564 3 19.7835 16.1865 0.0 0 0 0
8 3 34.1715 1.7985 10.791 0 0 0
3218 3 7.194 19.7835 16.1865 0 0 0
1391 3 23.3805 32.373 26.9775 0 0 0
2355 3 12.5895 10.791 30.5745 0 0 0
375 3 30.5745 14.388 12.5895 0 0 0
681 3 28.776 7.194 0.0 0 0 0
3265 3 7.194 21.582 21.582 0 0 0
1323 3 23.3805 28.776 1.7985 0 0 0
2377 3 14.388 14.388 14.388 0 0 0
2002 3 17.985 19.7835 1.7985 0 0 0
2431 3 12.5895 17.985 26.9775 0 0 0
1702 3 21.582 26.9775 19.7835 0 0 0
1653 3 21.582 21.582 10.791 0 0 0
368 3 30.5745 16.1865 3.597 0 0 0
492 3 30.5745 26.9775 7.194 0 0 0
2516 3 12.5895 26.9775 28.776 0 0 0
1969 3 17.985 14.388 7.194 0 0 0
2926 3 10.791 30.5745 5.3955 0 0 0
1604 3 19.7835 19.7835 0.0 0 0 0
3335 3 5.3955 28.776 12.5895 0 0 0
2630 3 10.791 1.7985 26.9775 0 0 0
972 3 26.9775 34.1715 7.194 0 0 0
2779 3 8.9925 14.388 16.1865 0 0 0
2804 3 8.9925 19.7835 0.0 0 0 0
1656 3 19.7835 23.3805 10.791 0 0 0
3818 3 0.0 1.7985 30.5745 0 0 0
2189 3 17.985 32.373 25.179 0 0 0
951 3 26.9775 28.776 26.9775 0 0 0
2551 3 12.5895 28.776 26.9775 0 0 0
907 3 26.9775 25.179 23.3805 0 0 0
46 3 34.1715 8.9925 7.194 0 0 0
3266 4 7.194 23.3805 23.3805 0 0 0
2194 4 17.985 34.1715 30.5745 0 0 0
3347 4 5.3955 28.776 23.3805 0 0 0
3533 4 3.597 10.791 10.791 0 0 0
947 4 26.9775 28.776 23.3805 0 0 0
1569 4 21.582 14.388 7.194 0 0 0
3651 4 1.7985 21.582 8.9925 0 0 0
3393 4 7.194 32.373 28.776 0 0 0
600 4 30.5745 34.1715 32.373 0 0 0
499 4 30.5745 25.179 16.1865 0 0 0
625 4 28.776 0.0 21.582 0 0 0
3185 4 7.194 14.388 21.582 0 0 0
3964 4 0.0 30.5745 5.3955 0 0 0
1783 4 19.7835 32.373 19.7835 0 0 0
3401 4 3.597 0.0 0.0 0 0 0
3998 4 0.0 34.1715 30.5745 0 0 0
769 4 28.776 14.388 7.194 0 0 0
3270 4 7.194 23.3805 26.9775 0 0 0
2056 4 16.1865 23.3805 10.791 0 0 0
3256 4 5.3955 23.3805 10.791 0 0 0
2117 4 17.985 25.179 32.373 0 0 0
2468 4 12.5895 23.3805 21.582 0 0 0
598 4 32.373 34.1715 34.1715 0 0 0
3480 4 1.7985 5.3955 32.373 0 0 0
3961 4 0.0 28.776 0.0 0 0 0
3725 4 3.597 28.776 3.597 0 0 0
893 4 28.776 25.179 10.791 0 0 0
364 4 30.5745 16.1865 0.0 0 0 0
1633 4 21.582 17.985 28.776 0 0 0
3180 4 5.3955 16.1865 14.388 0 0 0
616 4 26.9775 1.7985 10.791 0 0 0
388 4 30.5745 16.1865 21.582 0 0 0
2875 4 8.9925 21.582 30.5745 0 0 0
1405 4 21.582 0.0 3.597 0 0 0
267 4 30.5745 3.597 23.3805 0 0 0
149 4 34.1715 25.179 16.1865 0 0 0
3934 4 0.0 23.3805 23.3805 0 0 0
1114 4 25.179 8.9925 30.5745 0 0 0
3976 4 0.0 30.5745 26.9775 0 0 0
1411 4 19.7835 0.0 8.9925 0 0 0
175 4 34.1715 28.776 26.9775 0 0 0
2093 4 17.985 25.179 10.791 0 0 0
2059 4 16.1865 21.582 16.1865 0 0 0
1538 4 21.582 12.5895 16.1865 0 0 0
481 4 32.373 25.179 0.0 0 0 0
3941 4 0.0 25.179 0.0 0 0 0
460 4 30.5745 23.3805 14.388 0 0 0
638 4 28.776 1.7985 34.1715 0 0 0
204 4 30.5745 1.7985 0.0 0 0 0
212 4 30.5745 1.7985 7.194 0 0 0
788 4 26.9775 16.1865 21.582 0 0 0
2294 4 14.388 8.9925 12.5895 0 0 0
1774 4 21.582 34.1715 12.5895 0 0 0
292 4 30.5745 8.9925 7.194 0 0 0
1401 4 21.582 0.0 0.0 0 0 0
523 4 30.5745 28.776 1.7985 0 0 0
1398 4 25.179 34.1715 34.1715 0 0 0
480 4 30.5745 23.3805 32.373 0 0 0
3587 4 1.7985 14.388 23.3805 0 0 0
1181 4 25.179 14.388 17.985 0 0 0
1233 4 25.179 17.985 28.776 0 0 0
1310 4 25.179 26.9775 26.9775 0 0 0
3815 4 0.0 0.0 25.179 0 0 0
1227 4 23.3805 17.985 23.3805 0 0 0
3853 4 0.0 7.194 21.582 0 0 0
777 4 28.776 14.388 14.388 0 0 0
1172 4 23.3805 16.1865 7.194 0 0 0
1935 4 16.1865 10.791 12.5895 0 0 0
3571 4 1.7985 14.388 8.9925 0 0 0
2594 4 14.388 34.1715 30.5745 0 0 0
166 4 34.1715 30.5745 7.194 0 0 0
2397 4 14.388 14.388 32.373 0 0 0
1801 4 17.985 0.0 0.0 0 0 0
3391 4 5.3955 32.373 26.9775 0 0 0
1794 4 21.582 34.1715 30.5745 0 0 0
2961 4 10.791 32.373 0.0 0 0 0
2281 4 14.388 7.194 0.0 0 0 0
404 4 30.5745 19.7835 0.0 0 0 0
359 4 30.5745 10.791 34.1715 0 0 0
2378 4 14.388 16.1865 16.1865 0 0 0
283 4 30.5745 7.194 1.7985 0 0 0
464 4 30.5745 23.3805 17.985 0 0 0
477 4 32.373 21.582 32.373 0 0 0
1353 4 25.179 28.776 28.776 0 0 0
1367 4 23.3805 32.373 5.3955 0 0 0
1442 4 21.582 5.3955 1.7985 0 0 0
1029 4 25.179 0.0 25.179 0 0 0
154 4 34.1715 26.9775 21.582 0 0 0
2372 4 12.5895 16.1865 7.194 0 0 0
1642 4 21.582 23.3805 1.7985 0 0 0
2936 4 8.9925 30.5745 10.791 0 0 0
1880 4 16.1865 5.3955 32.373 0 0 0
2975 4 8.9925 32.373 12.5895 0 0 0
2130 4 17.985 30.5745 8.9925 0 0 0
1960 4 16.1865 12.5895 32.373 0 0 0
3832 4 0.0 5.3955 19.7835 0 0 0
1814 4 17.985 1.7985 12.5895 0 0 0
630 4 28.776 1.7985 26.9775 0 0 0
3384 4 5.3955 34.1715 17.985 0 0 0
1579 4 19.7835 14.388 16.1865 0 0 0
2036 4 16.1865 19.7835 28.776 0 0 0
3282 4 7.194 26.9775 1.7985 0 0 0
3303 4 5.3955 25.179 19.7835 0 0 0
587 4 30.5745 32.373 23.3805 0 0 0
3502 4 3.597 8.9925 19.7835 0 0 0
2019 4 16.1865 17.985 16.1865 0 0 0
3503 4 1.7985 7.194 19.7835 0 0 0
3869 4 0.0 10.791 14.388 0 0 0
2110 4 17.985 26.9775 26.9775 0 0 0
3838 4 0.0 5.3955 30.5745 0 0 0
2131 4 16.1865 28.776 8.9925 0 0 0
1693 4 21.582 25.179 10.791 0 0 0
3506 4 3.597 8.9925 23.3805 0 0 0
547 4 30.5745 28.776 23.3805 0 0 0
3566 4 3.597 16.1865 5.3955 0 0 0
1074 4 25.179 5.3955 30.5745 0 0 0
3107 4 5.3955 7.194 23.3805 0 0 0
1659 4 19.7835 21.582 16.1865 0 0 0
2745 4 10.791 10.791 21.582 0 0 0
563 4 30.5745 32.373 1.7985 0 0 0
2579 4 12.5895 32.373 16.1865 0 0 0
1142 4 25.179 12.5895 19.7835 0 0 0
274 4 32.373 5.3955 30.5745 0 0 0
1815 4 16.1865 0.0 12.5895 0 0 0
1926 4 17.985 12.5895 5.3955 0 0 0
2946 4 10.791 30.5745 23.3805 0 0 0
396 4 30.5745 16.1865 28.776 0 0 0
1540 4 19.7835 12.5895 14.388 0 0 0
87 4 34.1715 14.388 12.5895 0 0 0
3757 4 3.597 28.776 32.373 0 0 0
2299 4 12.5895 7.194 16.1865 0 0 0
3613 4 3.597 17.985 10.791 0 0 0
3128 4 5.3955 12.5895 3.597 0 0 0
3046 4 7.194 5.3955 5.3955 0 0 0
674 4 28.776 5.3955 30.5745 0 0 0
2519 4 12.5895 25.179 34.1715 0 0 0
975 4 26.9775 32.373 12.5895 0 0 0
2598 4 14.388 34.1715 34.1715 0 0 0
1360 4 23.3805 30.5745 32.373 0 0 0
1251 4 23.3805 21.582 8.9925 0 0 0
3788 4 1.7985 34.1715 21.582 0 0 0
3091 4 5.3955 7.194 8.9925 0 0 0
2996 4 8.9925 34.1715 28.776 0 0 0
3900 4 0.0 16.1865 34.1715 0 0 0
1187 4 23.3805 14.388 23.3805 0 0 0
2085 4 17.985 25.179 3.597 0 0 0
3316 4 5.3955 26.9775 28.776 0 0 0
1623 4 19.7835 17.985 19.7835 0 0 0
2619 4 8.9925 0.0 16.1865 0 0 0
19 4 34.1715 0.0 34.1715 0 0 0
2853 4 10.791 21.582 10.791 0 0 0
290 4 32.373 8.9925 8.9925 0 0 0
2361 4 14.388 14.388 0.0 0 0 0
2782 4 10.791 16.1865 19.7835 0 0 0
3991 4 0.0 32.373 17.985 0 0 0
1096 4 23.3805 8.9925 10.791 0 0 0
3724 4 1.7985 30.5745 0.0 0 0 0
2805 4 10.791 17.985 3.597 0 0 0
2809 4 10.791 17.985 7.194 0 0 0
115 4 34.1715 17.985 26.9775 0 0 0
3604 4 1.7985 19.7835 0.0 0 0 0
3873 4 0.0 10.791 21.582 0 0 0
3889 4 0.0 14.388 14.388 0 0 0
1109 4 25.179 7.194 25.179 0 0 0
2335 4 12.5895 10.791 12.5895 0 0 0
1043 4 23.3805 3.597 1.7985 0 0 0
3136 4 5.3955 12.5895 10.791 0 0 0
3438 4 3.597 1.7985 34.1715 0 0 0
3642 4 3.597 23.3805 1.7985 0 0 0
1556 4 19.7835 12.5895 28.776 0 0 0
2617 4 10.791 0.0 14.388 0 0 0
3666 4 3.597 23.3805 23.3805 0 0 0
1674 4 21.582 23.3805 30.5745 0 0 0
1931 4 16.1865 10.791 8.9925 0 0 0
2699 4 8.9925 7.194 16.1865 0 0 0
142 4 34.1715 26.9775 0.0 0 0 0
2844 4 8.9925 23.3805 0.0 0 0 0
420 4 30.5745 19.7835 14.388 0 0 0
3317 4 7.194 25.179 32.373 0 0 0
2192 4 16.1865 34.1715 25.179 0 0 0
301 4 32.373 7.194 17.985 0 0 0
2683 4 8.9925 7.194 1.7985 0 0 0
3122 4 7.194 12.5895 1.7985 0 0 0
1651 4 19.7835 21.582 8.9925 0 0 0
2214 4 14.388 1.7985 12.5895 0 0 0
1983 4 16.1865 14.388 19.7835 0 0 0
407 4 30.5745 17.985 5.3955 0 0 0
3188 4 5.3955 16.1865 21.582 0 0 0
209 4 32.373 0.0 7.194 0 0 0
3096 4 5.3955 8.9925 10.791 0 0 0
1113 4 25.179 7.194 28.776 0 0 0
2273 4 14.388 3.597 28.776 0 0 0
1733 4 21.582 28.776 10.791 0 0 0
479 4 30.5745 21.582 34.1715 0 0 0
1613 4 21.582 17.985 10.791 0 0 0
725 4 28.776 10.791 3.597 0 0 0
3409 4 3.597 0.0 7.194 0 0 0
2137 4 17.985 28.776 14.388 0 0 0
3968 4 0.0 30.5745 12.5895 0 0 0
2798 4 10.791 16.1865 34.1715 0 0 0
58 4 34.1715 8.9925 28.776 0 0 0
1754 4 21.582 30.5745 30.5745 0 0 0
3247 4 5.3955 21.582 5.3955 0 0 0
2981 4 10.791 32.373 17.985 0 0 0
2228 4 12.5895 1.7985 21.582 0 0 0
2865 4 10.791 21.582 21.582 0 0 0
2225 4 14.388 0.0 21.582 0 0 0
754 4 28.776 12.5895 30.5745 0 0 0
1430 4 21.582 1.7985 26.9775 0 0 0
3918 4 0.0 19.7835 30.5745 0 0 0
3792 4 1.7985 34.1715 25.179 0 0 0
3713 4 3.597 25.179 28.776 0 0 0
672 4 26.9775 5.3955 25.179 0 0 0
1877 4 17.985 3.597 32.373 0 0 0
2001 4 17.985 17.985 0.0 0 0 0
25 4 34.1715 3.597 8.9925 0 0 0
3446 4 3.597 5.3955 5.3955 0 0 0
2834 4 10.791 19.7835 30.5745 0 0 0
923 4 26.9775 28.776 1.7985 0 0 0
2713 4 10.791 7.194 28.776 0 0 0
710 4 28.776 8.9925 26.9775 0 0 0
545 4 32.373 28.776 21.582 0 0 0
1205 4 25.179 17.985 3.597 0 0 0
2896 4 8.9925 26.9775 10.791 0 0 0
1974 4 17.985 16.1865 12.5895 0 0 0
3193 4 7.194 14.388 28.776 0 0 0
1193 4 25.179 14.388 28.776 0 0 0
2564 4 12.5895 34.1715 0.0 0 0 0
1778 4 21.582 34.1715 16.1865 0 0 0
2939 4 8.9925 28.776 16.1865 0 0 0
2108 4 16.1865 26.9775 21.582 0 0 0
16 4 34.1715 1.7985 25.179 0 0 0
834 4 28.776 19.7835 30.5745 0 0 0
2982 4 10.791 34.1715 19.7835 0 0 0
79 4 34.1715 10.791 34.1715 0 0 0
1924 4 16.1865 12.5895 0.0 0 0 0
971 4 26.9775 32.373 8.9925 0 0 0
2483 4 12.5895 25.179 1.7985 0 0 0
2665 4 10.791 3.597 21.582 0 0 0
984 4 26.9775 34.1715 17.985 0 0 0
1566 4 21.582 16.1865 5.3955 0 0 0
3535 4 1.7985 10.791 12.5895 0 0 0
216 4 30.5745 1.7985 10.791 0 0 0
552 4 30.5745 30.5745 25.179 0 0 0
3253 4 7.194 21.582 10.791 0 0 0
43 4 34.1715 7.194 5.3955 0 0 0
370 4 32.373 16.1865 8.9925 0 0 0
1704 4 19.7835 26.9775 17.985 0 0 0
3689 4 3.597 25.179 7.194 0 0 0
1682 4 21.582 26.9775 1.7985 0 0 0
2173 4 17.985 32.373 10.791 0 0 0
2491 4 12.5895 25.179 8.9925 0 0 0
3948 4 0.0 26.9775 12.5895 0 0 0
2859 4 8.9925 21.582 16.1865 0 0 0
713 4 28.776 7.194 28.776 0 0 0
2109 4 17.985 25.179 25.179 0 0 0
2609 4 10.791 0.0 7.194 0 0 0
624 4 26.9775 1.7985 17.985 0 0 0
1577 4 21.582 14.388 14.388 0 0 0
735 4 26.9775 10.791 12.5895 0 0 0
2485 4 14.388 25.179 3.597 0 0 0
819 4 26.9775 17.985 16.1865 0 0 0
3633 4 3.597 17.985 28.776 0 0 0
2657 4 10.791 3.597 14.388 0 0 0
1748 4 19.7835 30.5745 21.582 0 0 0
3017 4 7.194 0.0 14.388 0 0 0
3208 4 5.3955 19.7835 3.597 0 0 0
3298 4 7.194 26.9775 16.1865 0 0 0
3953 4 0.0 25.179 21.582 0 0 0
2650 4 10.791 5.3955 8.9925 0 0 0
892 4 26.9775 26.9775 7.194 0 0 0
3565 4 3.597 14.388 3.597 0 0 0
1021 4 25.179 0.0 17.985 0 0 0
2735 4 8.9925 10.791 12.5895 0 0 0
2216 4 12.5895 1.7985 10.791 0 0 0
1858 4 17.985 5.3955 16.1865 0 0 0
159 4 34.1715 25.179 34.1715 0 0 0
1120 4 23.3805 8.9925 32.373 0 0 0
2119 4 16.1865 25.179 34.1715 0 0 0
3791 4 1.7985 32.373 26.9775 0 0 0
3120 4 5.3955 8.9925 32.373 0 0 0
830 4 28.776 19.7835 26.9775 0 0 0
3042 4 7.194 5.3955 1.7985 0 0 0
3306 4 7.194 26.9775 23.3805 0 0 0
3310 4 7.194 26.9775 26.9775 0 0 0
425 4 32.373 17.985 21.582 0 0 0
3885 4 0.0 14.388 7.194 0 0 0
2218 4 14.388 1.7985 16.1865 0 0 0
232 4 30.5745 1.7985 25.179 0 0 0
3390 4 7.194 34.1715 26.9775 0 0 0
1128 4 23.3805 12.5895 3.597 0 0 0
1009 4 25.179 0.0 7.194 0 0 0
3418 4 3.597 1.7985 16.1865 0 0 0
3795 4 1.7985 32.373 30.5745 0 0 0
344 4 30.5745 12.5895 17.985 0 0 0
2103 4 16.1865 25.179 19.7835 0 0 0
3761 4 3.597 32.373 0.0 0 0 0
1161 4 25.179 14.388 0.0 0 0 0
2526 4 14.388 30.5745 5.3955 0 0 0
2177 4 17.985 32.373 14.388 0 0 0
1976 4 16.1865 16.1865 10.791 0 0 0
531 4 30.5745 28.776 8.9925 0 0 0
2098 4 17.985 26.9775 16.1865 0 0 0
3878 4 0.0 12.5895 30.5745 0 0 0
3463 4 1.7985 3.597 19.7835 0 0 0
2682 4 10.791 8.9925 1.7985 0 0 0
1742 4 21.582 30.5745 19.7835 0 0 0
353 4 32.373 10.791 28.776 0 0 0
3897 4 0.0 14.388 28.776 0 0 0
2527 4 12.5895 28.776 5.3955 0 0 0
2033 4 17.985 17.985 28.776 0 0 0
1700 4 19.7835 26.9775 14.388 0 0 0
361 4 32.373 14.388 0.0 0 0 0
738 4 28.776 12.5895 16.1865 0 0 0
1598 4 21.582 16.1865 34.1715 0 0 0
116 4 34.1715 19.7835 25.179 0 0 0
2038 4 17.985 19.7835 34.1715 0 0 0
3369 4 7.194 32.373 7.194 0 0 0
1458 4 21.582 5.3955 16.1865 0 0 0
3644 4 1.7985 23.3805 0.0 0 0 0
1970 4 17.985 16.1865 8.9925 0 0 0
1678 4 21.582 23.3805 34.1715 0 0 0
2506 4 14.388 26.9775 23.3805 0 0 0
2755 4 8.9925 10.791 30.5745 0 0 0
3841 4 0.0 7.194 0.0 0 0 0
47 4 34.1715 7.194 12.5895 0 0 0
2030 4 17.985 19.7835 26.9775 0 0 0
3563 4 1.7985 14.388 1.7985 0 0 0
1889 4 17.985 7.194 7.194 0 0 0
656 4 26.9775 5.3955 10.791 0 0 0
2820 4 8.9925 19.7835 14.388 0 0 0
2458 4 14.388 23.3805 16.1865 0 0 0
3094 4 7.194 8.9925 12.5895 0 0 0
786 4 28.776 16.1865 23.3805 0 0 0
1790 4 21.582 34.1715 26.9775 0 0 0
957 4 28.776 28.776 32.373 0 0 0
491 4 30.5745 25.179 8.9925 0 0 0
468 4 30.5745 23.3805 21.582 0 0 0
746 4 28.776 12.5895 23.3805 0 0 0
1314 4 25.179 26.9775 30.5745 0 0 0
3170 4 7.194 16.1865 8.9925 0 0 0
457 4 32.373 21.582 14.388 0 0 0
3362 4 7.194 34.1715 1.7985 0 0 0
1368 4 23.3805 34.1715 3.597 0 0 0
3095 4 5.3955 7.194 12.5895 0 0 0
3990 4 0.0 34.1715 16.1865 0 0 0
2760 4 8.9925 12.5895 32.373 0 0 0
3638 4 3.597 19.7835 34.1715 0 0 0
3541 4 3.597 10.791 17.985 0 0 0
990 4 28.776 34.1715 26.9775 0 0 0
3912 4 0.0 19.7835 19.7835 0 0 0
847 4 26.9775 21.582 5.3955 0 0 0
1078 4 25.179 5.3955 34.1715 0 0 0
1868 4 16.1865 5.3955 21.582 0 0 0
501 4 32.373 25.179 17.985 0 0 0
2184 4 16.1865 34.1715 17.985 0 0 0
3693 4 3.597 25.179 10.791 0 0 0
573 4 32.373 32.373 10.791 0 0 0
3087 4 5.3955 7.194 5.3955 0 0 0
183 4 34.1715 32.373 5.3955 0 0 0
3226 4 7.194 19.7835 23.3805 0 0 0
3619 4 1.7985 17.985 16.1865 0 0 0
2484 4 12.5895 26.9775 0.0 0 0 0
648 4 26.9775 5.3955 3.597 0 0 0
3789 4 3.597 32.373 25.179 0 0 0
1273 4 25.179 21.582 28.776 0 0 0
2785 4 10.791 14.388 21.582 0 0 0
1526 4 21.582 12.5895 5.3955 0 0 0
2721 4 10.791 10.791 0.0 0 0 0
733 4 28.776 10.791 10.791 0 0 0
2312 4 12.5895 8.9925 25.179 0 0 0
112 4 34.1715 19.7835 17.985 0 0 0
3584 4 1.7985 16.1865 17.985 0 0 0
3274 4 7.194 23.3805 30.5745 0 0 0
1629 4 21.582 17.985 25.179 0 0 0
1905 4 17.985 7.194 21.582 0 0 0
3966 4 0.0 30.5745 8.9925 0 0 0
2595 4 12.5895 32.373 30.5745 0 0 0
2437 4 14.388 17.985 32.373 0 0 0
2003 4 16.1865 17.985 1.7985 0 0 0
2403 4 12.5895 17.985 1.7985 0 0 0
655 4 26.9775 3.597 12.5895 0 0 0
2553 4 14.388 28.776 28.776 0 0 0
3957 4 0.0 25.179 28.776 0 0 0
1819 4 16.1865 0.0 16.1865 0 0 0
3742 4 3.597 30.5745 19.7835 0 0 0
577 4 32.373 32.373 14.388 0 0 0
734 4 28.776 12.5895 12.5895 0 0 0
721 4 28.776 10.791 0.0 0 0 0
264 4 30.5745 5.3955 17.985 0 0 0
2513 4 14.388 25.179 28.776 0 0 0
504 4 30.5745 26.9775 17.985 0 0 0
2207 4 12.5895 0.0 5.3955 0 0 0
885 4 28.776 25.179 3.597 0 0 0
475 4 30.5745 21.582 30.5745 0 0 0
740 4 26.9775 12.5895 14.388 0 0 0
2632 4 8.9925 1.7985 25.179 0 0 0
2050 4 17.985 23.3805 8.9925 0 0 0
762 4 28.776 16.1865 1.7985 0 0 0
1753 4 21.582 28.776 28.776 0 0 0
1537 4 21.582 10.791 14.388 0 0 0
3496 4 1.7985 8.9925 10.791 0 0 0
1435 4 19.7835 0.0 30.5745 0 0 0
1780 4 19.7835 34.1715 14.388 0 0 0
3649 4 3.597 21.582 7.194 0 0 0
2319 4 12.5895 7.194 34.1715 0 0 0
709 4 28.776 7.194 25.179 0 0 0
77 4 34.1715 10.791 30.5745 0 0 0
151 4 34.1715 25.179 19.7835 0 0 0
3580 4 1.7985 16.1865 14.388 0 0 0
331 4 30.5745 10.791 8.9925 0 0 0
3109 4 7.194 7.194 25.179 0 0 0
443 4 30.5745 21.582 1.7985 0 0 0
2099 4 16.1865 25.179 16.1865 0 0 0
3668 4 1.7985 23.3805 21.582 0 0 0
1672 4 19.7835 23.3805 25.179 0 0 0
3332 4 5.3955 30.5745 7.194 0 0 0
342 4 32.373 12.5895 19.7835 0 0 0
421 4 32.373 17.985 17.985 0 0 0
3279 4 5.3955 21.582 34.1715 0 0 0
760 4 26.9775 12.5895 32.373 0 0 0
1836 4 16.1865 1.7985 28.776 0 0 0
3531 4 1.7985 10.791 8.9925 0 0 0
2475 4 12.5895 21.582 30.5745 0 0 0
960 4 26.9775 30.5745 32.373 0 0 0
2547 4 12.5895 28.776 23.3805 0 0 0
1679 4 19.7835 21.582 34.1715 0 0 0
2528 4 12.5895 30.5745 3.597 0 0 0
2923 4 8.9925 28.776 1.7985 0 0 0
3537 4 3.597 10.791 14.388 0 0 0
3969 4 0.0 28.776 14.388 0 0 0
2457 4 14.388 21.582 14.388 0 0 0
2918 4 10.791 26.9775 34.1715 0 0 0
1457 4 21.582 3.597 14.388 0 0 0
3379 4 5.3955 32.373 16.1865 0 0 0
2386 4 14.388 16.1865 23.3805 0 0 0
3394 4 7.194 34.1715 30.5745 0 0 0
336 4 30.5745 12.5895 10.791 0 0 0
490 4 32.373 26.9775 8.9925 0 0 0
571 4 30.5745 32.373 8.9925 0 0 0
3534 4 3.597 12.5895 12.5895 0 0 0
1982 4 17.985 16.1865 19.7835 0 0 0
2212 4 12.5895 1.7985 7.194 0 0 0
1396 4 23.3805 34.1715 28.776 0 0 0
1250 4 25.179 23.3805 8.9925 0 0 0
2349 4 14.388 10.791 25.179 0 0 0
982 4 28.776 34.1715 19.7835 0 0 0
3485 4 3.597 7.194 3.597 0 0 0
2448 4 12.5895 23.3805 3.597 0 0 0
3512 4 1.7985 8.9925 25.179 0 0 0
714 4 28.776 8.9925 30.5745 0 0 0
1788 4 19.7835 34.1715 21.582 0 0 0
2647 4 8.9925 3.597 5.3955 0 0 0
2011 4 16.1865 17.985 8.9925 0 0 0
3706 4 3.597 26.9775 23.3805 0 0 0
1276 4 23.3805 23.3805 28.776 0 0 0
720 4 26.9775 8.9925 32.373 0 0 0
2244 4 12.5895 5.3955 0.0 0 0 0
1387 4 23.3805 32.373 23.3805 0 0 0
1238 4 25.179 19.7835 34.1715 0 0 0
1441 4 21.582 3.597 0.0 0 0 0
1157 4 25.179 10.791 32.373 0 0 0
1483 4 19.7835 7.194 1.7985 0 0 0
2068 4 16.1865 23.3805 21.582 0 0 0
220 4 30.5745 1.7985 14.388 0 0 0
3257 4 7.194 21.582 14.388 0 0 0
3224 4 5.3955 19.7835 17.985 0 0 0
1647 4 19.7835 21.582 5.3955 0 0 0
93 4 34.1715 14.388 23.3805 0 0 0
3513 4 3.597 7.194 28.776 0 0 0
2460 4 12.5895 23.3805 14.388 0 0 0
3836 4 0.0 5.3955 26.9775 0 0 0
441 4 32.373 21.582 0.0 0 0 0
1080 4 23.3805 5.3955 32.373 0 0 0
96 4 34.1715 16.1865 25.179 0 0 0
222 4 32.373 1.7985 19.7835 0 0 0
634 4 28.776 1.7985 30.5745 0 0 0
1876 4 16.1865 5.3955 28.776 0 0 0
1211 4 23.3805 17.985 8.9925 0 0 0
3716 4 1.7985 26.9775 28.776 0 0 0
3647 4 1.7985 21.582 5.3955 0 0 0
527 4 30.5745 28.776 5.3955 0 0 0
1838 4 17.985 1.7985 34.1715 0 0 0
3066 4 7.194 5.3955 23.3805 0 0 0
1136 4 23.3805 12.5895 10.791 0 0 0
1716 4 19.7835 26.9775 28.776 0 0 0
1424 4 19.7835 1.7985 17.985 0 0 0
1013 4 25.179 0.0 10.791 0 0 0
589 4 32.373 32.373 25.179 0 0 0
320 4 30.5745 8.9925 32.373 0 0 0
2954 4 10.791 30.5745 30.5745 0 0 0
1095 4 23.3805 7.194 12.5895 0 0 0
1418 4 21.582 1.7985 16.1865 0 0 0
2389 4 14.388 14.388 25.179 0 0 0
2554 4 14.388 30.5745 30.5745 0 0 0
2764 4 8.9925 16.1865 0.0 0 0 0
2471 4 12.5895 21.582 26.9775 0 0 0
2505 4 14.388 25.179 21.582 0 0 0
2977 4 10.791 32.373 14.388 0 0 0
3611 4 1.7985 17.985 8.9925 0 0 0
3594 4 3.597 16.1865 30.5745 0 0 0
3314 4 7.194 26.9775 30.5745 0 0 0
659 4 26.9775 3.597 16.1865 0 0 0
349 4 32.373 10.791 25.179 0 0 0
2331 4 12.5895 10.791 8.9925 0 0 0
722 4 28.776 12.5895 1.7985 0 0 0
937 4 28.776 28.776 14.388 0 0 0
2924 4 8.9925 30.5745 0.0 0 0 0
1119 4 23.3805 7.194 34.1715 0 0 0
3516 4 1.7985 8.9925 28.776 0 0 0
2242 4 14.388 5.3955 1.7985 0 0 0
121 4 34.1715 21.582 1.7985 0 0 0
1643 4 19.7835 21.582 1.7985 0 0 0
2840 4 8.9925 19.7835 32.373 0 0 0
3076 4 5.3955 5.3955 28.776 0 0 0
448 4 30.5745 23.3805 3.597 0 0 0
239 4 30.5745 0.0 34.1715 0 0 0
73 4 34.1715 10.791 23.3805 0 0 0
3857 4 0.0 7.194 28.776 0 0 0
3562 4 3.597 16.1865 1.7985 0 0 0
2266 4 14.388 5.3955 23.3805 0 0 0
2279 4 12.5895 3.597 34.1715 0 0 0
2621 4 10.791 0.0 17.985 0 0 0
2991 4 8.9925 32.373 26.9775 0 0 0
2614 4 10.791 1.7985 12.5895 0 0 0
1248 4 23.3805 23.3805 3.597 0 0 0
852 4 26.9775 23.3805 7.194 0 0 0
1455 4 19.7835 3.597 12.5895 0 0 0
360 4 30.5745 12.5895 32.373 0 0 0
3111 4 5.3955 7.194 26.9775 0 0 0
744 4 26.9775 12.5895 17.985 0 0 0
2903 4 8.9925 25.179 19.7835 0 0 0
856 4 26.9775 23.3805 10.791 0 0 0
228 4 30.5745 1.7985 21.582 0 0 0
3893 4 0.0 14.388 21.582 0 0 0
2402 4 14.388 19.7835 1.7985 0 0 0
2714 4 10.791 8.9925 30.5745 0 0 0
2737 4 10.791 10.791 14.388 0 0 0
3189 4 7.194 14.388 25.179 0 0 0
2990 4 10.791 34.1715 26.9775 0 0 0
1957 4 17.985 10.791 32.373 0 0 0
316 4 30.5745 8.9925 28.776 0 0 0
3240 4 5.3955 19.7835 32.373 0 0 0
2741 4 10.791 10.791 17.985 0 0 0
2567 4 12.5895 32.373 5.3955 0 0 0
2708 4 8.9925 8.9925 21.582 0 0 0
2477 4 14.388 21.582 32.373 0 0 0
865 4 28.776 21.582 21.582 0 0 0
773 4 28.776 14.388 10.791 0 0 0
2462 4 14.388 23.3805 19.7835 0 0 0
194 4 34.1715 34.1715 21.582 0 0 0
1328 4 23.3805 30.5745 3.597 0 0 0
1302 4 25.179 26.9775 19.7835 0 0 0
2473 4 14.388 21.582 28.776 0 0 0
1844 4 16.1865 5.3955 0.0 0 0 0
125 4 34.1715 21.582 8.9925 0 0 0
1421 4 21.582 0.0 17.985 0 0 0
1500 4 19.7835 8.9925 14.388 0 0 0
3190 4 7.194 16.1865 26.9775 0 0 0
791 4 26.9775 14.388 26.9775 0 0 0
1750 4 21.582 30.5745 26.9775 0 0 0
1191 4 23.3805 14.388 26.9775 0 0 0
2712 4 8.9925 8.9925 25.179 0 0 0
2145 4 17.985 28.776 21.582 0 0 0
2374 4 14.388 16.1865 12.5895 0 0 0
3237 4 7.194 17.985 32.373 0 0 0
3652 4 1.7985 23.3805 7.194 0 0 0
3585 4 3.597 14.388 21.582 0 0 0
2496 4 12.5895 26.9775 10.791 0 0 0
2 4 34.1715 1.7985 0.0 0 0 0
680 4 26.9775 5.3955 32.373 0 0 0
2021 4 17.985 17.985 17.985 0 0 0
2084 4 16.1865 26.9775 0.0 0 0 0
2341 4 14.388 10.791 17.985 0 0 0
2879 4 8.9925 21.582 34.1715 0 0 0
95 4 34.1715 14.388 26.9775 0 0 0
2339 4 12.5895 10.791 16.1865 0 0 0
1337 4 25.179 28.776 14.388 0 0 0
509 4 32.373 25.179 25.179 0 0 0
2596 4 12.5895 34.1715 28.776 0 0 0
3160 4 5.3955 12.5895 32.373 0 0 0
1850 4 17.985 5.3955 8.9925 0 0 0
3794 4 3.597 34.1715 30.5745 0 0 0
1671 4 19.7835 21.582 26.9775 0 0 0
1260 4 23.3805 23.3805 14.388 0 0 0
560 4 30.5745 30.5745 32.373 0 0 0
2284 4 12.5895 8.9925 0.0 0 0 0
3135 4 5.3955 10.791 12.5895 0 0 0
3229 4 7.194 17.985 25.179 0 0 0
2902 4 10.791 26.9775 19.7835 0 0 0
3156 4 5.3955 12.5895 28.776 0 0 0
3009 4 7.194 0.0 7.194 0 0 0
2171 4 16.1865 32.373 8.9925 0 0 0
3110 4 7.194 8.9925 26.9775 0 0 0
3360 4 5.3955 30.5745 32.373 0 0 0
3641 4 3.597 21.582 0.0 0 0 0
2358 4 14.388 12.5895 34.1715 0 0 0
812 4 26.9775 19.7835 7.194 0 0 0
1916 4 16.1865 8.9925 28.776 0 0 0
2340 4 12.5895 12.5895 14.388 0 0 0
3101 4 7.194 7.194 17.985 0 0 0
653 4 28.776 3.597 10.791 0 0 0
2092 4 16.1865 26.9775 7.194 0 0 0
3612 4 1.7985 19.7835 7.194 0 0 0
2441 4 14.388 21.582 0.0 0 0 0
822 4 28.776 19.7835 19.7835 0 0 0
2082 4 17.985 26.9775 1.7985 0 0 0
3752 4 1.7985 30.5745 25.179 0 0 0
3975 4 0.0 28.776 25.179 0 0 0
3602 4 3.597 19.7835 1.7985 0 0 0
2615 4 8.9925 0.0 12.5895 0 0 0
1040 4 23.3805 1.7985 32.373 0 0 0
2635 4 8.9925 0.0 30.5745 0 0 0
3623 4 1.7985 17.985 19.7835 0 0 0
1412 4 19.7835 1.7985 7.194 0 0 0
3697 4 3.597 25.179 14.388 0 0 0
2227 4 12.5895 0.0 23.3805 0 0 0
692 4 26.9775 8.9925 7.194 0 0 0
1060 4 23.3805 5.3955 14.388 0 0 0
1602 4 21.582 19.7835 1.7985 0 0 0
3433 4 3.597 0.0 28.776 0 0 0
413 4 32.373 17.985 10.791 0 0 0
247 4 30.5745 3.597 5.3955 0 0 0
3777 4 3.597 32.373 14.388 0 0 0
3769 4 3.597 32.373 7.194 0 0 0
1056 4 23.3805 5.3955 10.791 0 0 0
2209 4 14.388 0.0 7.194 0 0 0
1903 4 16.1865 7.194 19.7835 0 0 0
1992 4 16.1865 16.1865 25.179 0 0 0
1037 4 25.179 0.0 32.373 0 0 0
2911 4 8.9925 25.179 26.9775 0 0 0
601 4 28.776 0.0 0.0 0 0 0
3609 4 3.597 17.985 7.194 0 0 0
3658 4 3.597 23.3805 16.1865 0 0 0
1000 4 26.9775 34.1715 32.373 0 0 0
2410 4 14.388 19.7835 8.9925 0 0 0
3331 4 5.3955 28.776 8.9925 0 0 0
554 4 32.373 30.5745 30.5745 0 0 0
821 4 28.776 17.985 17.985 0 0 0
3643 4 1.7985 21.582 1.7985 0 0 0
597 4 32.373 32.373 32.373 0 0 0
3035 4 5.3955 0.0 30.5745 0 0 0
83 4 34.1715 14.388 5.3955 0 0 0
964 4 26.9775 34.1715 0.0 0 0 0
3808 4 0.0 1.7985 12.5895 0 0 0
2199 4 16.1865 32.373 34.1715 0 0 0
3146 4 7.194 12.5895 23.3805 0 0 0
857 4 28.776 21.582 14.388 0 0 0
2555 4 12.5895 28.776 30.5745 0 0 0
1618 4 21.582 19.7835 16.1865 0 0 0
596 4 30.5745 34.1715 28.776 0 0 0
2425 4 14.388 17.985 21.582 0 0 0
2601 4 10.791 0.0 0.0 0 0 0
829 4 28.776 17.985 25.179 0 0 0
2593 4 14.388 32.373 28.776 0 0 0
3026 4 7.194 1.7985 23.3805 0 0 0
3698 4 3.597 26.9775 16.1865 0 0 0
676 4 26.9775 5.3955 28.776 0 0 0
1134 4 25.179 12.5895 12.5895 0 0 0
2322 4 14.388 12.5895 1.7985 0 0 0
104 4 34.1715 19.7835 3.597 0 0 0
1242 4 25.179 23.3805 1.7985 0 0 0
1462 4 21.582 5.3955 19.7835 0 0 0
381 4 32.373 14.388 17.985 0 0 0
65 4 34.1715 10.791 8.9925 0 0 0
1385 4 25.179 32.373 21.582 0 0 0
1832 4 16.1865 1.7985 25.179 0 0 0
1129 4 25.179 10.791 7.194 0 0 0
1448 4 19.7835 5.3955 3.597 0 0 0
998 4 28.776 34.1715 34.1715 0 0 0
2274 4 14.388 5.3955 30.5745 0 0 0
2591 4 12.5895 32.373 26.9775 0 0 0
3763 4 1.7985 32.373 1.7985 0 0 0
2549 4 14.388 28.776 25.179 0 0 0
863 4 26.9775 21.582 19.7835 0 0 0
926 4 28.776 30.5745 5.3955 0 0 0
694 4 28.776 8.9925 12.5895 0 0 0
3917 4 0.0 17.985 28.776 0 0 0
2342 4 14.388 12.5895 19.7835 0 0 0
1108 4 23.3805 8.9925 21.582 0 0 0
3657 4 3.597 21.582 14.388 0 0 0
2112 4 16.1865 26.9775 25.179 0 0 0
3913 4 0.0 17.985 21.582 0 0 0
131 4 34.1715 21.582 19.7835 0 0 0
2190 4 17.985 34.1715 26.9775 0 0 0
2015 4 16.1865 17.985 12.5895 0 0 0
3834 4 0.0 5.3955 23.3805 0 0 0
3962 4 0.0 30.5745 1.7985 0 0 0
2941 4 10.791 28.776 17.985 0 0 0
332 4 30.5745 12.5895 7.194 0 0 0
2369 4 14.388 14.388 7.194 0 0 0
2823 4 8.9925 17.985 19.7835 0 0 0
3675 4 1.7985 21.582 30.5745 0 0 0
2415 4 12.5895 17.985 12.5895 0 0 0
3399 4 5.3955 32.373 34.1715 0 0 0
828 4 26.9775 19.7835 21.582 0 0 0
3166 4 7.194 16.1865 5.3955 0 0 0
845 4 28.776 21.582 3.597 0 0 0
3922 4 0.0 23.3805 1.7985 0 0 0
831 4 26.9775 17.985 26.9775 0 0 0
1737 4 21.582 28.776 14.388 0 0 0
2232 4 12.5895 1.7985 25.179 0 0 0
3750 4 3.597 30.5745 26.9775 0 0 0
3487 4 1.7985 7.194 5.3955 0 0 0
156 4 34.1715 26.9775 25.179 0 0 0
2010 4 17.985 19.7835 8.9925 0 0 0
1865 4 17.985 3.597 21.582 0 0 0
3315 4 5.3955 25.179 30.5745 0 0 0
1725 4 21.582 28.776 3.597 0 0 0
3358 4 7.194 30.5745 34.1715 0 0 0
1501 4 21.582 7.194 17.985 0 0 0
3269 4 7.194 21.582 25.179 0 0 0
293 4 32.373 7.194 10.791 0 0 0
2363 4 12.5895 14.388 1.7985 0 0 0
306 4 32.373 8.9925 23.3805 0 0 0
1 5 34.1715 0.0 1.7985 0 0 0
7 5 34.1715 0.0 12.5895 0 0 0
12 5 34.1715 1.7985 17.985 0 0 0
13 5 34.1715 0.0 23.3805 0 0 0
14 5 34.1715 1.7985 21.582 0 0 0
15 5 34.1715 0.0 26.9775 0 0 0
18 5 34.1715 1.7985 28.776 0 0 0
23 5 34.1715 3.597 5.3955 0 0 0
24 5 34.1715 5.3955 3.597 0 0 0
27 5 34.1715 3.597 12.5895 0 0 0
28 5 34.1715 5.3955 10.791 0 0 0
29 5 34.1715 3.597 16.1865 0 0 0
33 5 34.1715 3.597 23.3805 0 0 0
35 5 34.1715 3.597 26.9775 0 0 0
39 5 34.1715 3.597 34.1715 0 0 0
45 5 34.1715 7.194 8.9925 0 0 0
50 5 34.1715 8.9925 14.388 0 0 0
55 5 34.1715 7.194 26.9775 0 0 0
57 5 34.1715 7.194 30.5745 0 0 0
60 5 34.1715 8.9925 32.373 0 0 0
61 5 34.1715 10.791 1.7985 0 0 0
63 5 34.1715 10.791 5.3955 0 0 0
64 5 34.1715 12.5895 3.597 0 0 0
68 5 34.1715 12.5895 10.791 0 0 0
69 5 34.1715 10.791 16.1865 0 0 0
76 5 34.1715 12.5895 25.179 0 0 0
81 5 34.1715 14.388 1.7985 0 0 0
82 5 34.1715 16.1865 0.0 0 0 0
89 5 34.1715 14.388 16.1865 0 0 0
92 5 34.1715 16.1865 17.985 0 0 0
97 5 34.1715 14.388 30.5745 0 0 0
99 5 34.1715 14.388 34.1715 0 0 0
105 5 34.1715 17.985 8.9925 0 0 0
106 5 34.1715 19.7835 7.194 0 0 0
108 5 34.1715 19.7835 10.791 0 0 0
114 5 34.1715 19.7835 21.582 0 0 0
119 5 34.1715 17.985 34.1715 0 0 0
120 5 34.1715 19.7835 32.373 0 0 0
126 5 34.1715 23.3805 7.194 0 0 0
133 5 34.1715 21.582 23.3805 0 0 0
136 5 34.1715 23.3805 25.179 0 0 0
145 5 34.1715 25.179 8.9925 0 0 0
146 5 34.1715 26.9775 7.194 0 0 0
147 5 34.1715 25.179 12.5895 0 0 0
148 5 34.1715 26.9775 10.791 0 0 0
155 5 34.1715 25.179 26.9775 0 0 0
160 5 34.1715 26.9775 32.373 0 0 0
164 5 34.1715 30.5745 3.597 0 0 0
165 5 34.1715 28.776 8.9925 0 0 0
169 5 34.1715 28.776 16.1865 0 0 0
177 5 34.1715 28.776 30.5745 0 0 0
184 5 34.1715 34.1715 3.597 0 0 0
185 5 34.1715 32.373 8.9925 0 0 0
186 5 34.1715 34.1715 7.194 0 0 0
190 5 34.1715 34.1715 14.388 0 0 0
192 5 34.1715 34.1715 17.985 0 0 0
193 5 34.1715 32.373 23.3805 0 0 0
195 5 34.1715 32.373 26.9775 0 0 0
201 5 32.373 0.0 0.0 0 0 0
202 5 32.373 1.7985 1.7985 0 0 0
203 5 30.5745 0.0 1.7985 0 0 0
206 5 32.373 1.7985 5.3955 0 0 0
214 5 32.373 1.7985 12.5895 0 0 0
218 5 32.373 1.7985 16.1865 0 0 0
224 5 30.5745 1.7985 17.985 0 0 0
226 5 32.373 1.7985 23.3805 0 0 0
236 5 30.5745 1.7985 28.776 0 0 0
238 5 32.373 1.7985 34.1715 0 0 0
240 5 30.5745 1.7985 32.373 0 0 0
243 5 30.5745 3.597 1.7985 0 0 0
246 5 32.373 5.3955 5.3955 0 0 0
249 5 32.373 3.597 7.194 0 0 0
250 5 32.373 5.3955 8.9925 0 0 0
251 5 30.5745 3.597 8.9925 0 0 0
253 5 32.373 3.597 10.791 0 0 0
255 5 30.5745 3.597 12.5895 0 0 0
275 5 30.5745 3.597 30.5745 0 0 0
285 5 32.373 7.194 3.597 0 0 0
286 5 32.373 8.9925 5.3955 0 0 0
288 5 30.5745 8.9925 3.597 0 0 0
291 5 30.5745 7.194 8.9925 0 0 0
294 5 32.373 8.9925 12.5895 0 0 0
310 5 32.373 8.9925 26.9775 0 0 0
311 5 30.5745 7.194 26.9775 0 0 0
312 5 30.5745 8.9925 25.179 0 0 0
313 5 32.373 7.194 28.776 0 0 0
333 5 32.373 10.791 10.791 0 0 0
340 5 30.5745 12.5895 14.388 0 0 0
343 5 30.5745 10.791 19.7835 0 0 0
345 5 32.373 10.791 21.582 0 0 0
346 5 32.373 12.5895 23.3805 0 0 0
350 5 32.373 12.5895 26.9775 0 0 0
352 5 30.5745 12.5895 25.179 0 0 0
354 5 32.373 12.5895 30.5745 0 0 0
357 5 32.373 10.791 32.373 0 0 0
362 5 32.373 16.1865 1.7985 0 0 0
365 5 32.373 14.388 3.597 0 0 0
373 5 32.373 14.388 10.791 0 0 0
376 5 30.5745 16.1865 10.791 0 0 0
379 5 30.5745 14.388 16.1865 0 0 0
386 5 32.373 16.1865 23.3805 0 0 0
387 5 30.5745 14.388 23.3805 0 0 0
390 5 32.373 16.1865 26.9775 0 0 0
392 5 30.5745 16.1865 25.179 0 0 0
394 5 32.373 16.1865 30.5745 0 0 0
399 5 30.5745 14.388 34.1715 0 0 0
401 5 32.373 17.985 0.0 0 0 0
405 5 32.373 17.985 3.597 0 0 0
406 5 32.373 19.7835 5.3955 0 0 0
409 5 32.373 17.985 7.194 0 0 0
412 5 30.5745 19.7835 7.194 0 0 0
416 5 30.5745 19.7835 10.791 0 0 0
418 5 32.373 19.7835 16.1865 0 0 0
427 5 30.5745 17.985 23.3805 0 0 0
430 5 32.373 19.7835 26.9775 0 0 0
431 5 30.5745 17.985 26.9775 0 0 0
439 5 30.5745 17.985 34.1715 0 0 0
442 5 32.373 23.3805 1.7985 0 0 0
444 5 30.5745 23.3805 0.0 0 0 0
447 5 30.5745 21.582 5.3955 0 0 0
449 5 32.373 21.582 7.194 0 0 0
450 5 32.373 23.3805 8.9925 0 0 0
451 5 30.5745 21.582 8.9925 0 0 0
454 5 32.373 23.3805 12.5895 0 0 0
456 5 30.5745 23.3805 10.791 0 0 0
459 5 30.5745 21.582 16.1865 0 0 0
463 5 30.5745 21.582 19.7835 0 0 0
469 5 32.373 21.582 25.179 0 0 0
472 5 30.5745 23.3805 25.179 0 0 0
473 5 32.373 21.582 28.776 0 0 0
478 5 32.373 23.3805 34.1715 0 0 0
483 5 30.5745 25.179 1.7985 0 0 0
495 5 30.5745 25.179 12.5895 0 0 0
497 5 32.373 25.179 14.388 0 0 0
500 5 30.5745 26.9775 14.388 0 0 0
503 5 30.5745 25.179 19.7835 0 0 0
512 5 30.5745 26.9775 25.179 0 0 0
516 5 30.5745 26.9775 28.776 0 0 0
517 5 32.373 25.179 32.373 0 0 0
518 5 32.373 26.9775 34.1715 0 0 0
519 5 30.5745 25.179 34.1715 0 0 0
521 5 32.373 28.776 0.0 0 0 0
522 5 32.373 30.5745 1.7985 0 0 0
524 5 30.5745 30.5745 0.0 0 0 0
532 5 30.5745 30.5745 7.194 0 0 0
535 5 30.5745 28.776 12.5895 0 0 0
537 5 32.373 28.776 14.388 0 0 0
538 5 32.373 30.5745 16.1865 0 0 0
539 5 30.5745 28.776 16.1865 0 0 0
542 5 32.373 30.5745 19.7835 0 0 0
549 5 32.373 28.776 25.179 0 0 0
550 5 32.373 30.5745 26.9775 0 0 0
551 5 30.5745 28.776 26.9775 0 0 0
557 5 32.373 28.776 32.373 0 0 0
568 5 30.5745 34.1715 3.597 0 0 0
569 5 32.373 32.373 7.194 0 0 0
574 5 32.373 34.1715 12.5895 0 0 0
579 5 30.5745 32.373 16.1865 0 0 0
580 5 30.5745 34.1715 14.388 0 0 0
581 5 32.373 32.373 17.985 0 0 0
583 5 30.5745 32.373 19.7835 0 0 0
584 5 30.5745 34.1715 17.985 0 0 0
585 5 32.373 32.373 21.582 0 0 0
602 5 28.776 1.7985 1.7985 0 0 0
603 5 26.9775 0.0 1.7985 0 0 0
606 5 28.776 1.7985 5.3955 0 0 0
611 5 26.9775 0.0 8.9925 0 0 0
612 5 26.9775 1.7985 7.194 0 0 0
614 5 28.776 1.7985 12.5895 0 0 0
617 5 28.776 0.0 14.388 0 0 0
622 5 28.776 1.7985 19.7835 0 0 0
623 5 26.9775 0.0 19.7835 0 0 0
631 5 26.9775 0.0 26.9775 0 0 0
632 5 26.9775 1.7985 25.179 0 0 0
633 5 28.776 0.0 28.776 0 0 0
635 5 26.9775 0.0 30.5745 0 0 0
640 5 26.9775 1.7985 32.373 0 0 0
647 5 26.9775 3.597 5.3955 0 0 0
651 5 26.9775 3.597 8.9925 0 0 0
657 5 28.776 3.597 14.388 0 0 0
660 5 26.9775 5.3955 14.388 0 0 0
663 5 26.9775 3.597 19.7835 0 0 0
668 5 26.9775 5.3955 21.582 0 0 0
673 5 28.776 3.597 28.776 0 0 0
679 5 26.9775 3.597 34.1715 0 0 0
683 5 26.9775 7.194 1.7985 0 0 0
684 5 26.9775 8.9925 0.0 0 0 0
685 5 28.776 7.194 3.597 0 0 0
686 5 28.776 8.9925 5.3955 0 0 0
691 5 26.9775 7.194 8.9925 0 0 0
693 5 28.776 7.194 10.791 0 0 0
697 5 28.776 7.194 14.388 0 0 0
702 5 28.776 8.9925 19.7835 0 0 0
711 5 26.9775 7.194 26.9775 0 0 0
715 5 26.9775 7.194 30.5745 0 0 0
716 5 26.9775 8.9925 28.776 0 0 0
717 5 28.776 7.194 32.373 0 0 0
726 5 28.776 12.5895 5.3955 0 0 0
736 5 26.9775 12.5895 10.791 0 0 0
739 5 26.9775 10.791 16.1865 0 0 0
741 5 28.776 10.791 17.985 0 0 0
745 5 28.776 10.791 21.582 0 0 0
749 5 28.776 10.791 25.179 0 0 0
758 5 28.776 12.5895 34.1715 0 0 0
761 5 28.776 14.388 0.0 0 0 0
765 5 28.776 14.388 3.597 0 0 0
774 5 28.776 16.1865 12.5895 0 0 0
775 5 26.9775 14.388 12.5895 0 0 0
779 5 26.9775 14.388 16.1865 0 0 0
783 5 26.9775 14.388 19.7835 0 0 0
789 5 28.776 14.388 25.179 0 0 0
792 5 26.9775 16.1865 25.179 0 0 0
793 5 28.776 14.388 28.776 0 0 0
794 5 28.776 16.1865 30.5745 0 0 0
795 5 26.9775 14.388 30.5745 0 0 0
798 5 28.776 16.1865 34.1715 0 0 0
803 5 26.9775 17.985 1.7985 0 0 0
807 5 26.9775 17.985 5.3955 0 0 0
808 5 26.9775 19.7835 3.597 0 0 0
811 5 26.9775 17.985 8.9925 0 0 0
813 5 28.776 17.985 10.791 0 0 0
817 5 28.776 17.985 14.388 0 0 0
818 5 28.776 19.7835 16.1865 0 0 0
824 5 26.9775 19.7835 17.985 0 0 0
827 5 26.9775 17.985 23.3805 0 0 0
835 5 26.9775 17.985 30.5745 0 0 0
836 5 26.9775 19.7835 28.776 0 0 0
844 5 26.9775 23.3805 0.0 0 0 0
850 5 28.776 23.3805 8.9925 0 0 0
853 5 28.776 21.582 10.791 0 0 0
864 5 26.9775 23.3805 17.985 0 0 0
866 5 28.776 23.3805 23.3805 0 0 0
868 5 26.9775 23.3805 21.582 0 0 0
869 5 28.776 21.582 25.179 0 0 0
874 5 28.776 23.3805 30.5745 0 0 0
877 5 28.776 21.582 32.373 0 0 0
879 5 26.9775 21.582 34.1715 0 0 0
883 5 26.9775 25.179 1.7985 0 0 0
884 5 26.9775 26.9775 0.0 0 0 0
888 5 26.9775 26.9775 3.597 0 0 0
889 5 28.776 25.179 7.194 0 0 0
898 5 28.776 26.9775 16.1865 0 0 0
899 5 26.9775 25.179 16.1865 0 0 0
901 5 28.776 25.179 17.985 0 0 0
902 5 28.776 26.9775 19.7835 0 0 0
903 5 26.9775 25.179 19.7835 0 0 0
904 5 26.9775 26.9775 17.985 0 0 0
905 5 28.776 25.179 21.582 0 0 0
906 5 28.776 26.9775 23.3805 0 0 0
908 5 26.9775 26.9775 21.582 0 0 0
909 5 28.776 25.179 25.179 0 0 0
911 5 26.9775 25.179 26.9775 0 0 0
915 5 26.9775 25.179 30.5745 0 0 0
917 5 28.776 25.179 32.373 0 0 0
920 5 26.9775 26.9775 32.373 0 0 0
932 5 26.9775 30.5745 7.194 0 0 0
940 5 26.9775 30.5745 14.388 0 0 0
941 5 28.776 28.776 17.985 0 0 0
942 5 28.776 30.5745 19.7835 0 0 0
943 5 26.9775 28.776 19.7835 0 0 0
945 5 28.776 28.776 21.582 0 0 0
949 5 28.776 28.776 25.179 0 0 0
950 5 28.776 30.5745 26.9775 0 0 0
952 5 26.9775 30.5745 25.179 0 0 0
956 5 26.9775 30.5745 28.776 0 0 0
958 5 28.776 30.5745 34.1715 0 0 0
959 5 26.9775 28.776 34.1715 0 0 0
961 5 28.776 32.373 0.0 0 0 0
962 5 28.776 34.1715 1.7985 0 0 0
965 5 28.776 32.373 3.597 0 0 0
967 5 26.9775 32.373 5.3955 0 0 0
969 5 28.776 32.373 7.194 0 0 0
970 5 28.776 34.1715 8.9925 0 0 0
976 5 26.9775 34.1715 10.791 0 0 0
977 5 28.776 32.373 14.388 0 0 0
986 5 28.776 34.1715 23.3805 0 0 0
987 5 26.9775 32.373 23.3805 0 0 0
1005 5 25.179 0.0 3.597 0 0 0
1008 5 23.3805 1.7985 3.597 0 0 0
1015 5 23.3805 0.0 12.5895 0 0 0
1018 5 25.179 1.7985 16.1865 0 0 0
1022 5 25.179 1.7985 19.7835 0 0 0
1034 5 25.179 1.7985 30.5745 0 0 0
1036 5 23.3805 1.7985 28.776 0 0 0
1042 5 25.179 5.3955 1.7985 0 0 0
1045 5 25.179 3.597 3.597 0 0 0
1048 5 23.3805 5.3955 3.597 0 0 0
1049 5 25.179 3.597 7.194 0 0 0
1051 5 23.3805 3.597 8.9925 0 0 0
1052 5 23.3805 5.3955 7.194 0 0 0
1053 5 25.179 3.597 10.791 0 0 0
1058 5 25.179 5.3955 16.1865 0 0 0
1065 5 25.179 3.597 21.582 0 0 0
1069 5 25.179 3.597 25.179 0 0 0
1070 5 25.179 5.3955 26.9775 0 0 0
1072 5 23.3805 5.3955 25.179 0 0 0
1073 5 25.179 3.597 28.776 0 0 0
1076 5 23.3805 5.3955 28.776 0 0 0
1077 5 25.179 3.597 32.373 0 0 0
1081 5 25.179 7.194 0.0 0 0 0
1082 5 25.179 8.9925 1.7985 0 0 0
1084 5 23.3805 8.9925 0.0 0 0 0
1085 5 25.179 7.194 3.597 0 0 0
1086 5 25.179 8.9925 5.3955 0 0 0
1087 5 23.3805 7.194 5.3955 0 0 0
1088 5 23.3805 8.9925 3.597 0 0 0
1091 5 23.3805 7.194 8.9925 0 0 0
1107 5 23.3805 7.194 23.3805 0 0 0
1117 5 25.179 7.194 32.373 0 0 0
1130 5 25.179 12.5895 8.9925 0 0 0
1132 5 23.3805 12.5895 7.194 0 0 0
1137 5 25.179 10.791 14.388 0 0 0
1149 5 25.179 10.791 25.179 0 0 0
1151 5 23.3805 10.791 26.9775 0 0 0
1154 5 25.179 12.5895 30.5745 0 0 0
1159 5 23.3805 10.791 34.1715 0 0 0
1165 5 25.179 14.388 3.597 0 0 0
1169 5 25.179 14.388 7.194 0 0 0
1170 5 25.179 16.1865 8.9925 0 0 0
1173 5 25.179 14.388 10.791 0 0 0
1176 5 23.3805 16.1865 10.791 0 0 0
1177 5 25.179 14.388 14.388 0 0 0
1180 5 23.3805 16.1865 14.388 0 0 0
1183 5 23.3805 14.388 19.7835 0 0 0
1186 5 25.179 16.1865 23.3805 0 0 0
1201 5 25.179 17.985 0.0 0 0 0
1204 5 23.3805 19.7835 0.0 0 0 0
1206 5 25.179 19.7835 5.3955 0 0 0
1209 5 25.179 17.985 7.194 0 0 0
1213 5 25.179 17.985 10.791 0 0 0
1214 5 25.179 19.7835 12.5895 0 0 0
1218 5 25.179 19.7835 16.1865 0 0 0
1220 5 23.3805 19.7835 14.388 0 0 0
1223 5 23.3805 17.985 19.7835 0 0 0
1224 5 23.3805 19.7835 17.985 0 0 0
1226 5 25.179 19.7835 23.3805 0 0 0
1231 5 23.3805 17.985 26.9775 0 0 0
1234 5 25.179 19.7835 30.5745 0 0 0
1235 5 23.3805 17.985 30.5745 0 0 0
1239 5 23.3805 17.985 34.1715 0 0 0
1241 5 25.179 21.582 0.0 0 0 0
1243 5 23.3805 21.582 1.7985 0 0 0
1246 5 25.179 23.3805 5.3955 0 0 0
1254 5 25.179 23.3805 12.5895 0 0 0
1259 5 23.3805 21.582 16.1865 0 0 0
1265 5 25.179 21.582 21.582 0 0 0
1270 5 25.179 23.3805 26.9775 0 0 0
1280 5 23.3805 23.3805 32.373 0 0 0
1281 5 25.179 25.179 0.0 0 0 0
1285 5 25.179 25.179 3.597 0 0 0
1286 5 25.179 26.9775 5.3955 0 0 0
1288 5 23.3805 26.9775 3.597 0 0 0
1289 5 25.179 25.179 7.194 0 0 0
1290 5 25.179 26.9775 8.9925 0 0 0
1293 5 25.179 25.179 10.791 0 0 0
1296 5 23.3805 26.9775 10.791 0 0 0
1297 5 25.179 25.179 14.388 0 0 0
1298 5 25.179 26.9775 16.1865 0 0 0
1299 5 23.3805 25.179 16.1865 0 0 0
1301 5 25.179 25.179 17.985 0 0 0
1305 5 25.179 25.179 21.582 0 0 0
1307 5 23.3805 25.179 23.3805 0 0 0
1311 5 23.3805 25.179 26.9775 0 0 0
1315 5 23.3805 25.179 30.5745 0 0 0
1324 5 23.3805 30.5745 0.0 0 0 0
1329 5 25.179 28.776 7.194 0 0 0
1330 5 25.179 30.5745 8.9925 0 0 0
1334 5 25.179 30.5745 12.5895 0 0 0
1336 5 23.3805 30.5745 10.791 0 0 0
1339 5 23.3805 28.776 16.1865 0 0 0
1344 5 23.3805 30.5745 17.985 0 0 0
1347 5 23.3805 28.776 23.3805 0 0 0
1348 5 23.3805 30.5745 21.582 0 0 0
1349 5 25.179 28.776 25.179 0 0 0
1350 5 25.179 30.5745 26.9775 0 0 0
1356 5 23.3805 30.5745 28.776 0 0 0
1371 5 23.3805 32.373 8.9925 0 0 0
1376 5 23.3805 34.1715 10.791 0 0 0
1377 5 25.179 32.373 14.388 0 0 0
1381 5 25.179 32.373 17.985 0 0 0
1386 5 25.179 34.1715 23.3805 0 0 0
1403 5 19.7835 0.0 1.7985 0 0 0
1404 5 19.7835 1.7985 0.0 0 0 0
1410 5 21.582 1.7985 8.9925 0 0 0
1414 5 21.582 1.7985 12.5895 0 0 0
1420 5 19.7835 1.7985 14.388 0 0 0
1423 5 19.7835 0.0 19.7835 0 0 0
1439 5 19.7835 0.0 34.1715 0 0 0
1453 5 21.582 3.597 10.791 0 0 0
1454 5 21.582 5.3955 12.5895 0 0 0
1456 5 19.7835 5.3955 10.791 0 0 0
1459 5 19.7835 3.597 16.1865 0 0 0
1460 5 19.7835 5.3955 14.388 0 0 0
1461 5 21.582 3.597 17.985 0 0 0
1471 5 19.7835 3.597 26.9775 0 0 0
1473 5 21.582 3.597 28.776 0 0 0
1474 5 21.582 5.3955 30.5745 0 0 0
1478 5 21.582 5.3955 34.1715 0 0 0
1479 5 19.7835 3.597 34.1715 0 0 0
1487 5 19.7835 7.194 5.3955 0 0 0
1491 5 19.7835 7.194 8.9925 0 0 0
1496 5 19.7835 8.9925 10.791 0 0 0
1497 5 21.582 7.194 14.388 0 0 0
1499 5 19.7835 7.194 16.1865 0 0 0
1502 5 21.582 8.9925 19.7835 0 0 0
1507 5 19.7835 7.194 23.3805 0 0 0
1508 5 19.7835 8.9925 21.582 0 0 0
1514 5 21.582 8.9925 30.5745 0 0 0
1516 5 19.7835 8.9925 28.776 0 0 0
1529 5 21.582 10.791 7.194 0 0 0
1536 5 19.7835 12.5895 10.791 0 0 0
1539 5 19.7835 10.791 16.1865 0 0 0
1546 5 21.582 12.5895 23.3805 0 0 0
1549 5 21.582 10.791 25.179 0 0 0
1550 5 21.582 12.5895 26.9775 0 0 0
1551 5 19.7835 10.791 26.9775 0 0 0
1553 5 21.582 10.791 28.776 0 0 0
1555 5 19.7835 10.791 30.5745 0 0 0
1560 5 19.7835 12.5895 32.373 0 0 0
1561 5 21.582 14.388 0.0 0 0 0
1562 5 21.582 16.1865 1.7985 0 0 0
1565 5 21.582 14.388 3.597 0 0 0
1567 5 19.7835 14.388 5.3955 0 0 0
1568 5 19.7835 16.1865 3.597 0 0 0
1572 5 19.7835 16.1865 7.194 0 0 0
1573 5 21.582 14.388 10.791 0 0 0
1575 5 19.7835 14.388 12.5895 0 0 0
1580 5 19.7835 16.1865 14.388 0 0 0
1581 5 21.582 14.388 17.985 0 0 0
1583 5 19.7835 14.388 19.7835 0 0 0
1586 5 21.582 16.1865 23.3805 0 0 0
1587 5 19.7835 14.388 23.3805 0 0 0
1588 5 19.7835 16.1865 21.582 0 0 0
1590 5 21.582 16.1865 26.9775 0 0 0
1593 5 21.582 14.388 28.776 0 0 0
1600 5 19.7835 16.1865 32.373 0 0 0
1601 5 21.582 17.985 0.0 0 0 0
1603 5 19.7835 17.985 1.7985 0 0 0
1607 5 19.7835 17.985 5.3955 0 0 0
1608 5 19.7835 19.7835 3.597 0 0 0
1610 5 21.582 19.7835 8.9925 0 0 0
1612 5 19.7835 19.7835 7.194 0 0 0
1620 5 19.7835 19.7835 14.388 0 0 0
1622 5 21.582 19.7835 19.7835 0 0 0
1624 5 19.7835 19.7835 17.985 0 0 0
1625 5 21.582 17.985 21.582 0 0 0
1626 5 21.582 19.7835 23.3805 0 0 0
1630 5 21.582 19.7835 26.9775 0 0 0
1639 5 19.7835 17.985 34.1715 0 0 0
1641 5 21.582 21.582 0.0 0 0 0
1645 5 21.582 21.582 3.597 0 0 0
1646 5 21.582 23.3805 5.3955 0 0 0
1654 5 21.582 23.3805 12.5895 0 0 0
1657 5 21.582 21.582 14.388 0 0 0
1664 5 19.7835 23.3805 17.985 0 0 0
1667 5 19.7835 21.582 23.3805 0 0 0
1669 5 21.582 21.582 25.179 0 0 0
1670 5 21.582 23.3805 26.9775 0 0 0
1673 5 21.582 21.582 28.776 0 0 0
1676 5 19.7835 23.3805 28.776 0 0 0
1681 5 21.582 25.179 0.0 0 0 0
1686 5 21.582 26.9775 5.3955 0 0 0
1694 5 21.582 26.9775 12.5895 0 0 0
1696 5 19.7835 26.9775 10.791 0 0 0
1697 5 21.582 25.179 14.388 0 0 0
1699 5 19.7835 25.179 16.1865 0 0 0
1701 5 21.582 25.179 17.985 0 0 0
1708 5 19.7835 26.9775 21.582 0 0 0
1710 5 21.582 26.9775 26.9775 0 0 0
1712 5 19.7835 26.9775 25.179 0 0 0
1723 5 19.7835 28.776 1.7985 0 0 0
1732 5 19.7835 30.5745 7.194 0 0 0
1736 5 19.7835 30.5745 10.791 0 0 0
1740 5 19.7835 30.5745 14.388 0 0 0
1744 5 19.7835 30.5745 17.985 0 0 0
1751 5 19.7835 28.776 26.9775 0 0 0
1764 5 19.7835 34.1715 0.0 0 0 0
1766 5 21.582 34.1715 5.3955 0 0 0
1767 5 19.7835 32.373 5.3955 0 0 0
1773 5 21.582 32.373 10.791 0 0 0
1775 5 19.7835 32.373 12.5895 0 0 0
1777 5 21.582 32.373 14.388 0 0 0
1784 5 19.7835 34.1715 17.985 0 0 0
1785 5 21.582 32.373 21.582 0 0 0
1786 5 21.582 34.1715 23.3805 0 0 0
1787 5 19.7835 32.373 23.3805 0 0 0
1791 5 19.7835 32.373 26.9775 0 0 0
1792 5 19.7835 34.1715 25.179 0 0 0
1793 5 21.582 32.373 28.776 0 0 0
1796 5 19.7835 34.1715 28.776 0 0 0
1799 5 19.7835 32.373 34.1715 0 0 0
1800 5 19.7835 34.1715 32.373 0 0 0
1802 5 17.985 1.7985 1.7985 0 0 0
1803 5 16.1865 0.0 1.7985 0 0 0
1808 5 16.1865 1.7985 3.597 0 0 0
1809 5 17.985 0.0 7.194 0 0 0
1811 5 16.1865 0.0 8.9925 0 0 0
1813 5 17.985 0.0 10.791 0 0 0
1817 5 17.985 0.0 14.388 0 0 0
1821 5 17.985 0.0 17.985 0 0 0
1822 5 17.985 1.7985 19.7835 0 0 0
1823 5 16.1865 0.0 19.7835 0 0 0
1825 5 17.985 0.0 21.582 0 0 0
1829 5 17.985 0.0 25.179 0 0 0
1831 5 16.1865 0.0 26.9775 0 0 0
1833 5 17.985 0.0 28.776 0 0 0
1835 5 16.1865 0.0 30.5745 0 0 0
1842 5 17.985 5.3955 1.7985 0 0 0
1847 5 16.1865 3.597 5.3955 0 0 0
1851 5 16.1865 3.597 8.9925 0 0 0
1852 5 16.1865 5.3955 7.194 0 0 0
1853 5 17.985 3.597 10.791 0 0 0
1854 5 17.985 5.3955 12.5895 0 0 0
1857 5 17.985 3.597 14.388 0 0 0
1859 5 16.1865 3.597 16.1865 0 0 0
1860 5 16.1865 5.3955 14.388 0 0 0
1866 5 17.985 5.3955 23.3805 0 0 0
1867 5 16.1865 3.597 23.3805 0 0 0
1869 5 17.985 3.597 25.179 0 0 0
1870 5 17.985 5.3955 26.9775 0 0 0
1874 5 17.985 5.3955 30.5745 0 0 0
1875 5 16.1865 3.597 30.5745 0 0 0
1882 5 17.985 8.9925 1.7985 0 0 0
1885 5 17.985 7.194 3.597 0 0 0
1892 5 16.1865 8.9925 7.194 0 0 0
1893 5 17.985 7.194 10.791 0 0 0
1894 5 17.985 8.9925 12.5895 0 0 0
1897 5 17.985 7.194 14.388 0 0 0
1899 5 16.1865 7.194 16.1865 0 0 0
1900 5 16.1865 8.9925 14.388 0 0 0
1901 5 17.985 7.194 17.985 0 0 0
1906 5 17.985 8.9925 23.3805 0 0 0
1910 5 17.985 8.9925 26.9775 0 0 0
1912 5 16.1865 8.9925 25.179 0 0 0
1917 5 17.985 7.194 32.373 0 0 0
1918 5 17.985 8.9925 34.1715 0 0 0
1919 5 16.1865 7.194 34.1715 0 0 0
1920 5 16.1865 8.9925 32.373 0 0 0
1928 5 16.1865 12.5895 3.597 0 0 0
1930 5 17.985 12.5895 8.9925 0 0 0
1936 5 16.1865 12.5895 10.791 0 0 0
1941 5 17.985 10.791 17.985 0 0 0
1946 5 17.985 12.5895 23.3805 0 0 0
1947 5 16.1865 10.791 23.3805 0 0 0
1949 5 17.985 10.791 25.179 0 0 0
1953 5 17.985 10.791 28.776 0 0 0
1962 5 17.985 16.1865 1.7985 0 0 0
1963 5 16.1865 14.388 1.7985 0 0 0
1964 5 16.1865 16.1865 0.0 0 0 0
1968 5 16.1865 16.1865 3.597 0 0 0
1972 5 16.1865 16.1865 7.194 0 0 0
1975 5 16.1865 14.388 12.5895 0 0 0
1977 5 17.985 14.388 14.388 0 0 0
1981 5 17.985 14.388 17.985 0 0 0
1985 5 17.985 14.388 21.582 0 0 0
1986 5 17.985 16.1865 23.3805 0 0 0
1987 5 16.1865 14.388 23.3805 0 0 0
1988 5 16.1865 16.1865 21.582 0 0 0
1989 5 17.985 14.388 25.179 0 0 0
1994 5 17.985 16.1865 30.5745 0 0 0
1999 5 16.1865 14.388 34.1715 0 0 0
2000 5 16.1865 16.1865 32.373 0 0 0
2004 5 16.1865 19.7835 0.0 0 0 0
2005 5 17.985 17.985 3.597 0 0 0
2007 5 16.1865 17.985 5.3955 0 0 0
2009 5 17.985 17.985 7.194 0 0 0
2012 5 16.1865 19.7835 7.194 0 0 0
2014 5 17.985 19.7835 12.5895 0 0 0
2022 5 17.985 19.7835 19.7835 0 0 0
2024 5 16.1865 19.7835 17.985 0 0 0
2028 5 16.1865 19.7835 21.582 0 0 0
2029 5 17.985 17.985 25.179 0 0 0
2047 5 16.1865 21.582 5.3955 0 0 0
2051 5 16.1865 21.582 8.9925 0 0 0
2052 5 16.1865 23.3805 7.194 0 0 0
2053 5 17.985 21.582 10.791 0 0 0
2055 5 16.1865 21.582 12.5895 0 0 0
2058 5 17.985 23.3805 16.1865 0 0 0
2060 5 16.1865 23.3805 14.388 0 0 0
2061 5 17.985 21.582 17.985 0 0 0
2062 5 17.985 23.3805 19.7835 0 0 0
2067 5 16.1865 21.582 23.3805 0 0 0
2073 5 17.985 21.582 28.776 0 0 0
2074 5 17.985 23.3805 30.5745 0 0 0
2076 5 16.1865 23.3805 28.776 0 0 0
2079 5 16.1865 21.582 34.1715 0 0 0
2080 5 16.1865 23.3805 32.373 0 0 0
2087 5 16.1865 25.179 5.3955 0 0 0
2089 5 17.985 25.179 7.194 0 0 0
2094 5 17.985 26.9775 12.5895 0 0 0
2101 5 17.985 25.179 17.985 0 0 0
2102 5 17.985 26.9775 19.7835 0 0 0
2107 5 16.1865 25.179 23.3805 0 0 0
2118 5 17.985 26.9775 34.1715 0 0 0
2123 5 16.1865 28.776 1.7985 0 0 0
2126 5 17.985 30.5745 5.3955 0 0 0
2128 5 16.1865 30.5745 3.597 0 0 0
2136 5 16.1865 30.5745 10.791 0 0 0
2138 5 17.985 30.5745 16.1865 0 0 0
2139 5 16.1865 28.776 16.1865 0 0 0
2146 5 17.985 30.5745 23.3805 0 0 0
2147 5 16.1865 28.776 23.3805 0 0 0
2153 5 17.985 28.776 28.776 0 0 0
2154 5 17.985 30.5745 30.5745 0 0 0
2155 5 16.1865 28.776 30.5745 0 0 0
2156 5 16.1865 30.5745 28.776 0 0 0
2159 5 16.1865 28.776 34.1715 0 0 0
2161 5 17.985 32.373 0.0 0 0 0
2164 5 16.1865 34.1715 0.0 0 0 0
2166 5 17.985 34.1715 5.3955 0 0 0
2178 5 17.985 34.1715 16.1865 0 0 0
2179 5 16.1865 32.373 16.1865 0 0 0
2180 5 16.1865 34.1715 14.388 0 0 0
2186 5 17.985 34.1715 23.3805 0 0 0
2193 5 17.985 32.373 28.776 0 0 0
2195 5 16.1865 32.373 30.5745 0 0 0
2204 5 12.5895 1.7985 0.0 0 0 0
2208 5 12.5895 1.7985 3.597 0 0 0
2211 5 12.5895 0.0 8.9925 0 0 0
2213 5 14.388 0.0 10.791 0 0 0
2221 5 14.388 0.0 17.985 0 0 0
2222 5 14.388 1.7985 19.7835 0 0 0
2224 5 12.5895 1.7985 17.985 0 0 0
2229 5 14.388 0.0 25.179 0 0 0
2235 5 12.5895 0.0 30.5745 0 0 0
2236 5 12.5895 1.7985 28.776 0 0 0
2245 5 14.388 3.597 3.597 0 0 0
2254 5 14.388 5.3955 12.5895 0 0 0
2255 5 12.5895 3.597 12.5895 0 0 0
2265 5 14.388 3.597 21.582 0 0 0
2268 5 12.5895 5.3955 21.582 0 0 0
2269 5 14.388 3.597 25.179 0 0 0
2272 5 12.5895 5.3955 25.179 0 0 0
2277 5 14.388 3.597 32.373 0 0 0
2283 5 12.5895 7.194 1.7985 0 0 0
2286 5 14.388 8.9925 5.3955 0 0 0
2296 5 12.5895 8.9925 10.791 0 0 0
2311 5 12.5895 7.194 26.9775 0 0 0
2316 5 12.5895 8.9925 28.776 0 0 0
2317 5 14.388 7.194 32.373 0 0 0
2326 5 14.388 12.5895 5.3955 0 0 0
2328 5 12.5895 12.5895 3.597 0 0 0
2330 5 14.388 12.5895 8.9925 0 0 0
2337 5 14.388 10.791 14.388 0 0 0
2343 5 12.5895 10.791 19.7835 0 0 0
2345 5 14.388 10.791 21.582 0 0 0
2346 5 14.388 12.5895 23.3805 0 0 0
2347 5 12.5895 10.791 23.3805 0 0 0
2348 5 12.5895 12.5895 21.582 0 0 0
2353 5 14.388 10.791 28.776 0 0 0
2354 5 14.388 12.5895 30.5745 0 0 0
2357 5 14.388 10.791 32.373 0 0 0
2362 5 14.388 16.1865 1.7985 0 0 0
2364 5 12.5895 16.1865 0.0 0 0 0
2365 5 14.388 14.388 3.597 0 0 0
2366 5 14.388 16.1865 5.3955 0 0 0
2368 5 12.5895 16.1865 3.597 0 0 0
2373 5 14.388 14.388 10.791 0 0 0
2381 5 14.388 14.388 17.985 0 0 0
2385 5 14.388 14.388 21.582 0 0 0
2388 5 12.5895 16.1865 21.582 0 0 0
2393 5 14.388 14.388 28.776 0 0 0
2395 5 12.5895 14.388 30.5745 0 0 0
2404 5 12.5895 19.7835 0.0 0 0 0
2408 5 12.5895 19.7835 3.597 0 0 0
2411 5 12.5895 17.985 8.9925 0 0 0
2414 5 14.388 19.7835 12.5895 0 0 0
2416 5 12.5895 19.7835 10.791 0 0 0
2419 5 12.5895 17.985 16.1865 0 0 0
2422 5 14.388 19.7835 19.7835 0 0 0
2424 5 12.5895 19.7835 17.985 0 0 0
2426 5 14.388 19.7835 23.3805 0 0 0
2427 5 12.5895 17.985 23.3805 0 0 0
2433 5 14.388 17.985 28.776 0 0 0
2435 5 12.5895 17.985 30.5745 0 0 0
2439 5 12.5895 17.985 34.1715 0 0 0
2442 5 14.388 23.3805 1.7985 0 0 0
2447 5 12.5895 21.582 5.3955 0 0 0
2452 5 12.5895 23.3805 7.194 0 0 0
2461 5 14.388 21.582 17.985 0 0 0
2463 5 12.5895 21.582 19.7835 0 0 0
2464 5 12.5895 23.3805 17.985 0 0 0
2466 5 14.388 23.3805 23.3805 0 0 0
2472 5 12.5895 23.3805 25.179 0 0 0
2479 5 12.5895 21.582 34.1715 0 0 0
2482 5 14.388 26.9775 1.7985 0 0 0
2492 5 12.5895 26.9775 7.194 0 0 0
2494 5 14.388 26.9775 12.5895 0 0 0
2498 5 14.388 26.9775 16.1865 0 0 0
2500 5 12.5895 26.9775 14.388 0 0 0
2501 5 14.388 25.179 17.985 0 0 0
2508 5 12.5895 26.9775 21.582 0 0 0
2511 5 12.5895 25.179 26.9775 0 0 0
2512 5 12.5895 26.9775 25.179 0 0 0
2514 5 14.388 26.9775 30.5745 0 0 0
2515 5 12.5895 25.179 30.5745 0 0 0
2517 5 14.388 25.179 32.373 0 0 0
2518 5 14.388 26.9775 34.1715 0 0 0
2520 5 12.5895 26.9775 32.373 0 0 0
2531 5 12.5895 28.776 8.9925 0 0 0
2533 5 14.388 28.776 10.791 0 0 0
2535 5 12.5895 28.776 12.5895 0 0 0
2538 5 14.388 30.5745 16.1865 0 0 0
2550 5 14.388 30.5745 26.9775 0 0 0
2557 5 14.388 28.776 32.373 0 0 0
2558 5 14.388 30.5745 34.1715 0 0 0
2559 5 12.5895 28.776 34.1715 0 0 0
2560 5 12.5895 30.5745 32.373 0 0 0
2562 5 14.388 34.1715 1.7985 0 0 0
2566 5 14.388 34.1715 5.3955 0 0 0
2570 5 14.388 34.1715 8.9925 0 0 0
2571 5 12.5895 32.373 8.9925 0 0 0
2581 5 14.388 32.373 17.985 0 0 0
2582 5 14.388 34.1715 19.7835 0 0 0
2584 5 12.5895 34.1715 17.985 0 0 0
2587 5 12.5895 32.373 23.3805 0 0 0
2590 5 14.388 34.1715 26.9775 0 0 0
2606 5 10.791 1.7985 5.3955 0 0 0
2607 5 8.9925 0.0 5.3955 0 0 0
2610 5 10.791 1.7985 8.9925 0 0 0
2622 5 10.791 1.7985 19.7835 0 0 0
2624 5 8.9925 1.7985 17.985 0 0 0
2625 5 10.791 0.0 21.582 0 0 0
2629 5 10.791 0.0 25.179 0 0 0
2631 5 8.9925 0.0 26.9775 0 0 0
2634 5 10.791 1.7985 30.5745 0 0 0
2640 5 8.9925 1.7985 32.373 0 0 0
2644 5 8.9925 5.3955 0.0 0 0 0
2645 5 10.791 3.597 3.597 0 0 0
2652 5 8.9925 5.3955 7.194 0 0 0
2653 5 10.791 3.597 10.791 0 0 0
2654 5 10.791 5.3955 12.5895 0 0 0
2655 5 8.9925 3.597 12.5895 0 0 0
2658 5 10.791 5.3955 16.1865 0 0 0
2663 5 8.9925 3.597 19.7835 0 0 0
2664 5 8.9925 5.3955 17.985 0 0 0
2667 5 8.9925 3.597 23.3805 0 0 0
2669 5 10.791 3.597 25.179 0 0 0
2672 5 8.9925 5.3955 25.179 0 0 0
2673 5 10.791 3.597 28.776 0 0 0
2678 5 10.791 5.3955 34.1715 0 0 0
2680 5 8.9925 5.3955 32.373 0 0 0
2684 5 8.9925 8.9925 0.0 0 0 0
2685 5 10.791 7.194 3.597 0 0 0
2689 5 10.791 7.194 7.194 0 0 0
2690 5 10.791 8.9925 8.9925 0 0 0
2692 5 8.9925 8.9925 7.194 0 0 0
2693 5 10.791 7.194 10.791 0 0 0
2695 5 8.9925 7.194 12.5895 0 0 0
2701 5 10.791 7.194 17.985 0 0 0
2703 5 8.9925 7.194 19.7835 0 0 0
2704 5 8.9925 8.9925 17.985 0 0 0
2707 5 8.9925 7.194 23.3805 0 0 0
2709 5 10.791 7.194 25.179 0 0 0
2710 5 10.791 8.9925 26.9775 0 0 0
2715 5 8.9925 7.194 30.5745 0 0 0
2718 5 10.791 8.9925 34.1715 0 0 0
2726 5 10.791 12.5895 5.3955 0 0 0
2727 5 8.9925 10.791 5.3955 0 0 0
2730 5 10.791 12.5895 8.9925 0 0 0
2743 5 8.9925 10.791 19.7835 0 0 0
2744 5 8.9925 12.5895 17.985 0 0 0
2749 5 10.791 10.791 25.179 0 0 0
2752 5 8.9925 12.5895 25.179 0 0 0
2753 5 10.791 10.791 28.776 0 0 0
2754 5 10.791 12.5895 30.5745 0 0 0
2766 5 10.791 16.1865 5.3955 0 0 0
2776 5 8.9925 16.1865 10.791 0 0 0
2778 5 10.791 16.1865 16.1865 0 0 0
2780 5 8.9925 16.1865 14.388 0 0 0
2783 5 8.9925 14.388 19.7835 0 0 0
2784 5 8.9925 16.1865 17.985 0 0 0
2791 5 8.9925 14.388 26.9775 0 0 0
2792 5 8.9925 16.1865 25.179 0 0 0
2797 5 10.791 14.388 32.373 0 0 0
2799 5 8.9925 14.388 34.1715 0 0 0
2807 5 8.9925 17.985 5.3955 0 0 0
2811 5 8.9925 17.985 8.9925 0 0 0
2812 5 8.9925 19.7835 7.194 0 0 0
2813 5 10.791 17.985 10.791 0 0 0
2814 5 10.791 19.7835 12.5895 0 0 0
2817 5 10.791 17.985 14.388 0 0 0
2818 5 10.791 19.7835 16.1865 0 0 0
2824 5 8.9925 19.7835 17.985 0 0 0
2826 5 10.791 19.7835 23.3805 0 0 0
2827 5 8.9925 17.985 23.3805 0 0 0
2830 5 10.791 19.7835 26.9775 0 0 0
2831 5 8.9925 17.985 26.9775 0 0 0
2833 5 10.791 17.985 28.776 0 0 0
2837 5 10.791 17.985 32.373 0 0 0
2845 5 10.791 21.582 3.597 0 0 0
2849 5 10.791 21.582 7.194 0 0 0
2858 5 10.791 23.3805 16.1865 0 0 0
2860 5 8.9925 23.3805 14.388 0 0 0
2863 5 8.9925 21.582 19.7835 0 0 0
2867 5 8.9925 21.582 23.3805 0 0 0
2868 5 8.9925 23.3805 21.582 0 0 0
2870 5 10.791 23.3805 26.9775 0 0 0
2880 5 8.9925 23.3805 32.373 0 0 0
2881 5 10.791 25.179 0.0 0 0 0
2885 5 10.791 25.179 3.597 0 0 0
2897 5 10.791 25.179 14.388 0 0 0
2898 5 10.791 26.9775 16.1865 0 0 0
2899 5 8.9925 25.179 16.1865 0 0 0
2901 5 10.791 25.179 17.985 0 0 0
2904 5 8.9925 26.9775 17.985 0 0 0
2906 5 10.791 26.9775 23.3805 0 0 0
2908 5 8.9925 26.9775 21.582 0 0 0
2910 5 10.791 26.9775 26.9775 0 0 0
2915 5 8.9925 25.179 30.5745 0 0 0
2916 5 8.9925 26.9775 28.776 0 0 0
2921 5 10.791 28.776 0.0 0 0 0
2922 5 10.791 30.5745 1.7985 0 0 0
2925 5 10.791 28.776 3.597 0 0 0
2931 5 8.9925 28.776 8.9925 0 0 0
2933 5 10.791 28.776 10.791 0 0 0
2934 5 10.791 30.5745 12.5895 0 0 0
2935 5 8.9925 28.776 12.5895 0 0 0
2940 5 8.9925 30.5745 14.388 0 0 0
2950 5 10.791 30.5745 26.9775 0 0 0
2956 5 8.9925 30.5745 28.776 0 0 0
2958 5 10.791 30.5745 34.1715 0 0 0
2959 5 8.9925 28.776 34.1715 0 0 0
2963 5 8.9925 32.373 1.7985 0 0 0
2973 5 10.791 32.373 10.791 0 0 0
2979 5 8.9925 32.373 16.1865 0 0 0
2983 5 8.9925 32.373 19.7835 0 0 0
2994 5 10.791 34.1715 30.5745 0 0 0
2998 5 10.791 34.1715 34.1715 0 0 0
2999 5 8.9925 32.373 34.1715 0 0 0
3000 5 8.9925 34.1715 32.373 0 0 0
3001 5 7.194 0.0 0.0 0 0 0
3006 5 7.194 1.7985 5.3955 0 0 0
3010 5 7.194 1.7985 8.9925 0 0 0
3013 5 7.194 0.0 10.791 0 0 0
3014 5 7.194 1.7985 12.5895 0 0 0
3016 5 5.3955 1.7985 10.791 0 0 0
3018 5 7.194 1.7985 16.1865 0 0 0
3019 5 5.3955 0.0 16.1865 0 0 0
3020 5 5.3955 1.7985 14.388 0 0 0
3021 5 7.194 0.0 17.985 0 0 0
3027 5 5.3955 0.0 23.3805 0 0 0
3029 5 7.194 0.0 25.179 0 0 0
3030 5 7.194 1.7985 26.9775 0 0 0
3031 5 5.3955 0.0 26.9775 0 0 0
3036 5 5.3955 1.7985 28.776 0 0 0
3040 5 5.3955 1.7985 32.373 0 0 0
3047 5 5.3955 3.597 5.3955 0 0 0
3054 5 7.194 5.3955 12.5895 0 0 0
3055 5 5.3955 3.597 12.5895 0 0 0
3059 5 5.3955 3.597 16.1865 0 0 0
3065 5 7.194 3.597 21.582 0 0 0
3067 5 5.3955 3.597 23.3805 0 0 0
3077 5 7.194 3.597 32.373 0 0 0
3078 5 7.194 5.3955 34.1715 0 0 0
3085 5 7.194 7.194 3.597 0 0 0
3089 5 7.194 7.194 7.194 0 0 0
3093 5 7.194 7.194 10.791 0 0 0
3113 5 7.194 7.194 28.776 0 0 0
3114 5 7.194 8.9925 30.5745 0 0 0
3115 5 5.3955 7.194 30.5745 0 0 0
3119 5 5.3955 7.194 34.1715 0 0 0
3131 5 5.3955 10.791 8.9925 0 0 0
3132 5 5.3955 12.5895 7.194 0 0 0
3133 5 7.194 10.791 10.791 0 0 0
3137 5 7.194 10.791 14.388 0 0 0
3142 5 7.194 12.5895 19.7835 0 0 0
3145 5 7.194 10.791 21.582 0 0 0
3149 5 7.194 10.791 25.179 0 0 0
3151 5 5.3955 10.791 26.9775 0 0 0
3153 5 7.194 10.791 28.776 0 0 0
3157 5 7.194 10.791 32.373 0 0 0
3158 5 7.194 12.5895 34.1715 0 0 0
3167 5 5.3955 14.388 5.3955 0 0 0
3171 5 5.3955 14.388 8.9925 0 0 0
3173 5 7.194 14.388 10.791 0 0 0
3177 5 7.194 14.388 14.388 0 0 0
3178 5 7.194 16.1865 16.1865 0 0 0
3182 5 7.194 16.1865 19.7835 0 0 0
3184 5 5.3955 16.1865 17.985 0 0 0
3192 5 5.3955 16.1865 25.179 0 0 0
3198 5 7.194 16.1865 34.1715 0 0 0
3201 5 7.194 17.985 0.0 0 0 0
3203 5 5.3955 17.985 1.7985 0 0 0
3205 5 7.194 17.985 3.597 0 0 0
3207 5 5.3955 17.985 5.3955 0 0 0
3209 5 7.194 17.985 7.194 0 0 0
3216 5 5.3955 19.7835 10.791 0 0 0
3228 5 5.3955 19.7835 21.582 0 0 0
3231 5 5.3955 17.985 26.9775 0 0 0
3232 5 5.3955 19.7835 25.179 0 0 0
3233 5 7.194 17.985 28.776 0 0 0
3234 5 7.194 19.7835 30.5745 0 0 0
3235 5 5.3955 17.985 30.5745 0 0 0
3238 5 7.194 19.7835 34.1715 0 0 0
3242 5 7.194 23.3805 1.7985 0 0 0
3250 5 7.194 23.3805 8.9925 0 0 0
3251 5 5.3955 21.582 8.9925 0 0 0
3254 5 7.194 23.3805 12.5895 0 0 0
3260 5 5.3955 23.3805 14.388 0 0 0
3261 5 7.194 21.582 17.985 0 0 0
3262 5 7.194 23.3805 19.7835 0 0 0
3271 5 5.3955 21.582 26.9775 0 0 0
3278 5 7.194 23.3805 34.1715 0 0 0
3283 5 5.3955 25.179 1.7985 0 0 0
3284 5 5.3955 26.9775 0.0 0 0 0
3285 5 7.194 25.179 3.597 0 0 0
3288 5 5.3955 26.9775 3.597 0 0 0
3289 5 7.194 25.179 7.194 0 0 0
3290 5 7.194 26.9775 8.9925 0 0 0
3292 5 5.3955 26.9775 7.194 0 0 0
3304 5 5.3955 26.9775 17.985 0 0 0
3305 5 7.194 25.179 21.582 0 0 0
3307 5 5.3955 25.179 23.3805 0 0 0
3308 5 5.3955 26.9775 21.582 0 0 0
3324 5 5.3955 30.5745 0.0 0 0 0
3329 5 7.194 28.776 7.194 0 0 0
3330 5 7.194 30.5745 8.9925 0 0 0
3338 5 7.194 30.5745 16.1865 0 0 0
3341 5 7.194 28.776 17.985 0 0 0
3342 5 7.194 30.5745 19.7835 0 0 0
3345 5 7.194 28.776 21.582 0 0 0
3351 5 5.3955 28.776 26.9775 0 0 0
3352 5 5.3955 30.5745 25.179 0 0 0
3355 5 5.3955 28.776 30.5745 0 0 0
3361 5 7.194 32.373 0.0 0 0 0
3364 5 5.3955 34.1715 0.0 0 0 0
3366 5 7.194 34.1715 5.3955 0 0 0
3374 5 7.194 34.1715 12.5895 0 0 0
3375 5 5.3955 32.373 12.5895 0 0 0
3383 5 5.3955 32.373 19.7835 0 0 0
3389 5 7.194 32.373 25.179 0 0 0
3395 5 5.3955 32.373 30.5745 0 0 0
3402 5 3.597 1.7985 1.7985 0 0 0
3403 5 1.7985 0.0 1.7985 0 0 0
3408 5 1.7985 1.7985 3.597 0 0 0
3411 5 1.7985 0.0 8.9925 0 0 0
3412 5 1.7985 1.7985 7.194 0 0 0
3413 5 3.597 0.0 10.791 0 0 0
3415 5 1.7985 0.0 12.5895 0 0 0
3417 5 3.597 0.0 14.388 0 0 0
3420 5 1.7985 1.7985 14.388 0 0 0
3422 5 3.597 1.7985 19.7835 0 0 0
3425 5 3.597 0.0 21.582 0 0 0
3427 5 1.7985 0.0 23.3805 0 0 0
3429 5 3.597 0.0 25.179 0 0 0
3434 5 3.597 1.7985 30.5745 0 0 0
3442 5 3.597 5.3955 1.7985 0 0 0
3443 5 1.7985 3.597 1.7985 0 0 0
3444 5 1.7985 5.3955 0.0 0 0 0
3454 5 3.597 5.3955 12.5895 0 0 0
3457 5 3.597 3.597 14.388 0 0 0
3458 5 3.597 5.3955 16.1865 0 0 0
3468 5 1.7985 5.3955 21.582 0 0 0
3470 5 3.597 5.3955 26.9775 0 0 0
3474 5 3.597 5.3955 30.5745 0 0 0
3475 5 1.7985 3.597 30.5745 0 0 0
3477 5 3.597 3.597 32.373 0 0 0
3479 5 1.7985 3.597 34.1715 0 0 0
3482 5 3.597 8.9925 1.7985 0 0 0
3484 5 1.7985 8.9925 0.0 0 0 0
3489 5 3.597 7.194 7.194 0 0 0
3490 5 3.597 8.9925 8.9925 0 0 0
3498 5 3.597 8.9925 16.1865 0 0 0
3504 5 1.7985 8.9925 17.985 0 0 0
3507 5 1.7985 7.194 23.3805 0 0 0
3508 5 1.7985 8.9925 21.582 0 0 0
3509 5 3.597 7.194 25.179 0 0 0
3511 5 1.7985 7.194 26.9775 0 0 0
3514 5 3.597 8.9925 30.5745 0 0 0
3515 5 1.7985 7.194 30.5745 0 0 0
3517 5 3.597 7.194 32.373 0 0 0
3525 5 3.597 10.791 3.597 0 0 0
3526 5 3.597 12.5895 5.3955 0 0 0
3527 5 1.7985 10.791 5.3955 0 0 0
3529 5 3.597 10.791 7.194 0 0 0
3540 5 1.7985 12.5895 14.388 0 0 0
3543 5 1.7985 10.791 19.7835 0 0 0
3550 5 3.597 12.5895 26.9775 0 0 0
3554 5 3.597 12.5895 30.5745 0 0 0
3560 5 1.7985 12.5895 32.373 0 0 0
3561 5 3.597 14.388 0.0 0 0 0
3567 5 1.7985 14.388 5.3955 0 0 0
3569 5 3.597 14.388 7.194 0 0 0
3574 5 3.597 16.1865 12.5895 0 0 0
3577 5 3.597 14.388 14.388 0 0 0
3582 5 3.597 16.1865 19.7835 0 0 0
3589 5 3.597 14.388 25.179 0 0 0
3590 5 3.597 16.1865 26.9775 0 0 0
3592 5 1.7985 16.1865 25.179 0 0 0
3593 5 3.597 14.388 28.776 0 0 0
3595 5 1.7985 14.388 30.5745 0 0 0
3596 5 1.7985 16.1865 28.776 0 0 0
3597 5 3.597 14.388 32.373 0 0 0
3599 5 1.7985 14.388 34.1715 0 0 0
3608 5 1.7985 19.7835 3.597 0 0 0
3615 5 1.7985 17.985 12.5895 0 0 0
3618 5 3.597 19.7835 16.1865 0 0 0
3622 5 3.597 19.7835 19.7835 0 0 0
3625 5 3.597 17.985 21.582 0 0 0
3626 5 3.597 19.7835 23.3805 0 0 0
3627 5 1.7985 17.985 23.3805 0 0 0
3630 5 3.597 19.7835 26.9775 0 0 0
3632 5 1.7985 19.7835 25.179 0 0 0
3634 5 3.597 19.7835 30.5745 0 0 0
3635 5 1.7985 17.985 30.5745 0 0 0
3639 5 1.7985 17.985 34.1715 0 0 0
3650 5 3.597 23.3805 8.9925 0 0 0
3655 5 1.7985 21.582 12.5895 0 0 0
3656 5 1.7985 23.3805 10.791 0 0 0
3661 5 3.597 21.582 17.985 0 0 0
3663 5 1.7985 21.582 19.7835 0 0 0
3665 5 3.597 21.582 21.582 0 0 0
3667 5 1.7985 21.582 23.3805 0 0 0
3670 5 3.597 23.3805 26.9775 0 0 0
3674 5 3.597 23.3805 30.5745 0 0 0
3680 5 1.7985 23.3805 32.373 0 0 0
3684 5 1.7985 26.9775 0.0 0 0 0
3685 5 3.597 25.179 3.597 0 0 0
3691 5 1.7985 25.179 8.9925 0 0 0
3692 5 1.7985 26.9775 7.194 0 0 0
3694 5 3.597 26.9775 12.5895 0 0 0
3696 5 1.7985 26.9775 10.791 0 0 0
3700 5 1.7985 26.9775 14.388 0 0 0
3701 5 3.597 25.179 17.985 0 0 0
3704 5 1.7985 26.9775 17.985 0 0 0
3707 5 1.7985 25.179 23.3805 0 0 0
3712 5 1.7985 26.9775 25.179 0 0 0
3714 5 3.597 26.9775 30.5745 0 0 0
3715 5 1.7985 25.179 30.5745 0 0 0
3717 5 3.597 25.179 32.373 0 0 0
3720 5 1.7985 26.9775 32.373 0 0 0
3726 5 3.597 30.5745 5.3955 0 0 0
3727 5 1.7985 28.776 5.3955 0 0 0
3731 5 1.7985 28.776 8.9925 0 0 0
3732 5 1.7985 30.5745 7.194 0 0 0
3733 5 3.597 28.776 10.791 0 0 0
3735 5 1.7985 28.776 12.5895 0 0 0
3736 5 1.7985 30.5745 10.791 0 0 0
3739 5 1.7985 28.776 16.1865 0 0 0
3746 5 3.597 30.5745 23.3805 0 0 0
3749 5 3.597 28.776 25.179 0 0 0
3754 5 3.597 30.5745 30.5745 0 0 0
3755 5 1.7985 28.776 30.5745 0 0 0
3756 5 1.7985 30.5745 28.776 0 0 0
3758 5 3.597 30.5745 34.1715 0 0 0
3760 5 1.7985 30.5745 32.373 0 0 0
3762 5 3.597 34.1715 1.7985 0 0 0
3767 5 1.7985 32.373 5.3955 0 0 0
3771 5 1.7985 32.373 8.9925 0 0 0
3782 5 3.597 34.1715 19.7835 0 0 0
3801 5 0.0 0.0 0.0 0 0 0
3802 5 0.0 1.7985 1.7985 0 0 0
3804 5 0.0 1.7985 5.3955 0 0 0
3807 5 0.0 0.0 10.791 0 0 0
3809 5 0.0 0.0 14.388 0 0 0
3811 5 0.0 0.0 17.985 0 0 0
3812 5 0.0 1.7985 19.7835 0 0 0
3813 5 0.0 0.0 21.582 0 0 0
3816 5 0.0 1.7985 26.9775 0 0 0
3817 5 0.0 0.0 28.776 0 0 0
3820 5 0.0 1.7985 34.1715 0 0 0
3827 5 0.0 3.597 10.791 0 0 0
3828 5 0.0 5.3955 12.5895 0 0 0
3831 5 0.0 3.597 17.985 0 0 0
3835 5 0.0 3.597 25.179 0 0 0
3837 5 0.0 3.597 28.776 0 0 0
3840 5 0.0 5.3955 34.1715 0 0 0
3842 5 0.0 8.9925 1.7985 0 0 0
3843 5 0.0 7.194 3.597 0 0 0
3844 5 0.0 8.9925 5.3955 0 0 0
3846 5 0.0 8.9925 8.9925 0 0 0
3847 5 0.0 7.194 10.791 0 0 0
3849 5 0.0 7.194 14.388 0 0 0
3854 5 0.0 8.9925 23.3805 0 0 0
3855 5 0.0 7.194 25.179 0 0 0
3864 5 0.0 12.5895 5.3955 0 0 0
3867 5 0.0 10.791 10.791 0 0 0
3870 5 0.0 12.5895 16.1865 0 0 0
3880 5 0.0 12.5895 34.1715 0 0 0
3886 5 0.0 16.1865 8.9925 0 0 0
3888 5 0.0 16.1865 12.5895 0 0 0
3890 5 0.0 16.1865 16.1865 0 0 0
3892 5 0.0 16.1865 19.7835 0 0 0
3894 5 0.0 16.1865 23.3805 0 0 0
3895 5 0.0 14.388 25.179 0 0 0
3896 5 0.0 16.1865 26.9775 0 0 0
3901 5 0.0 17.985 0.0 0 0 0
3904 5 0.0 19.7835 5.3955 0 0 0
3906 5 0.0 19.7835 8.9925 0 0 0
3908 5 0.0 19.7835 12.5895 0 0 0
3911 5 0.0 17.985 17.985 0 0 0
3923 5 0.0 21.582 3.597 0 0 0
3924 5 0.0 23.3805 5.3955 0 0 0
3925 5 0.0 21.582 7.194 0 0 0
3926 5 0.0 23.3805 8.9925 0 0 0
3932 5 0.0 23.3805 19.7835 0 0 0
3935 5 0.0 21.582 25.179 0 0 0
3936 5 0.0 23.3805 26.9775 0 0 0
3939 5 0.0 21.582 32.373 0 0 0
3940 5 0.0 23.3805 34.1715 0 0 0
3947 5 0.0 25.179 10.791 0 0 0
3950 5 0.0 26.9775 16.1865 0 0 0
3951 5 0.0 25.179 17.985 0 0 0
3954 5 0.0 26.9775 23.3805 0 0 0
3974 5 0.0 30.5745 23.3805 0 0 0
3977 5 0.0 28.776 28.776 0 0 0
3978 5 0.0 30.5745 30.5745 0 0 0
3981 5 0.0 32.373 0.0 0 0 0
3983 5 0.0 32.373 3.597 0 0 0
3985 5 0.0 32.373 7.194 0 0 0
3989 5 0.0 32.373 14.388 0 0 0
3992 5 0.0 34.1715 19.7835 0 0 0
4000 5 0.0 34.1715 34.1715 0 0 0
