LAMMPS data file via write_data version 30 Jul 2021 timestep = 0
4000 atoms
5 atom types
0 35.97 xlo xhi
0 35.97 ylo yhi
0 35.97 zlo zhi
0.0 0.0 0.0 xy xz yz
 
Masses
 
1 1.0
2 2.0
3 3.0
4 4.0
5 5.0
 
Atoms  # atomic
 
2516 1 12.5895 26.9775 28.776 0 0 0
3216 1 5.3955 19.7835 10.791 0 0 0
2200 1 16.1865 34.1715 32.373 0 0 0
1897 1 17.985 7.194 14.388 0 0 0
1592 1 19.7835 16.1865 25.179 0 0 0
1534 1 21.582 12.5895 12.5895 0 0 0
1543 1 19.7835 10.791 19.7835 0 0 0
202 1 32.373 1.7985 1.7985 0 0 0
3784 1 1.7985 34.1715 17.985 0 0 0
1573 1 21.582 14.388 10.791 0 0 0
628 1 26.9775 1.7985 21.582 0 0 0
3846 1 0.0 8.9925 8.9925 0 0 0
664 1 26.9775 5.3955 17.985 0 0 0
166 1 34.1715 30.5745 7.194 0 0 0
3728 1 1.7985 30.5745 3.597 0 0 0
418 1 32.373 19.7835 16.1865 0 0 0
2925 1 10.791 28.776 3.597 0 0 0
849 1 28.776 21.582 7.194 0 0 0
1049 1 25.179 3.597 7.194 0 0 0
2694 1 10.791 8.9925 12.5895 0 0 0
2194 1 17.985 34.1715 30.5745 0 0 0
3513 1 3.597 7.194 28.776 0 0 0
227 1 30.5745 0.0 23.3805 0 0 0
2985 1 10.791 32.373 21.582 0 0 0
3678 1 3.597 23.3805 34.1715 0 0 0
2609 1 10.791 0.0 7.194 0 0 0
1847 1 16.1865 3.597 5.3955 0 0 0
516 1 30.5745 26.9775 28.776 0 0 0
1919 1 16.1865 7.194 34.1715 0 0 0
77 1 34.1715 10.791 30.5745 0 0 0
3841 1 0.0 7.194 0.0 0 0 0
3281 1 7.194 25.179 0.0 0 0 0
3688 1 1.7985 26.9775 3.597 0 0 0
725 1 28.776 10.791 3.597 0 0 0
2571 1 12.5895 32.373 8.9925 0 0 0
56 1 34.1715 8.9925 25.179 0 0 0
1633 1 21.582 17.985 28.776 0 0 0
3815 1 0.0 0.0 25.179 0 0 0
2165 1 17.985 32.373 3.597 0 0 0
3532 1 1.7985 12.5895 7.194 0 0 0
1821 1 17.985 0.0 17.985 0 0 0
1758 1 21.582 30.5745 34.1715 0 0 0
3671 1 1.7985 21.582 26.9775 0 0 0
519 1 30.5745 25.179 34.1715 0 0 0
1374 1 25.179 34.1715 12.5895 0 0 0
2967 1 8.9925 32.373 5.3955 0 0 0
2079 1 16.1865 21.582 34.1715 0 0 0
3029 1 7.194 0.0 25.179 0 0 0
170 1 34.1715 30.5745 14.388 0 0 0
2789 1 10.791 14.388 25.179 0 0 0
3270 1 7.194 23.3805 26.9775 0 0 0
527 1 30.5745 28.776 5.3955 0 0 0
438 1 32.373 19.7835 34.1715 0 0 0
1022 1 25.179 1.7985 19.7835 0 0 0
894 1 28.776 26.9775 12.5895 0 0 0
1736 1 19.7835 30.5745 10.791 0 0 0
1896 1 16.1865 8.9925 10.791 0 0 0
2546 1 14.388 30.5745 23.3805 0 0 0
1916 1 16.1865 8.9925 28.776 0 0 0
3873 1 0.0 10.791 21.582 0 0 0
3785 1 3.597 32.373 21.582 0 0 0
2004 1 16.1865 19.7835 0.0 0 0 0
1696 1 19.7835 26.9775 10.791 0 0 0
2598 1 14.388 34.1715 34.1715 0 0 0
1457 1 21.582 3.597 14.388 0 0 0
1727 1 19.7835 28.776 5.3955 0 0 0
3253 1 7.194 21.582 10.791 0 0 0
3013 1 7.194 0.0 10.791 0 0 0
1291 1 23.3805 25.179 8.9925 0 0 0
2954 1 10.791 30.5745 30.5745 0 0 0
3142 1 7.194 12.5895 19.7835 0 0 0
2484 1 12.5895 26.9775 0.0 0 0 0
2654 1 10.791 5.3955 12.5895 0 0 0
3534 1 3.597 12.5895 12.5895 0 0 0
3558 1 3.597 12.5895 34.1715 0 0 0
1978 1 17.985 16.1865 16.1865 0 0 0
2265 1 14.388 3.597 21.582 0 0 0
2661 1 10.791 3.597 17.985 0 0 0
2979 1 8.9925 32.373 16.1865 0 0 0
1471 1 19.7835 3.597 26.9775 0 0 0
1942 1 17.985 12.5895 19.7835 0 0 0
456 1 30.5745 23.3805 10.791 0 0 0
573 1 32.373 32.373 10.791 0 0 0
263 1 30.5745 3.597 19.7835 0 0 0
3508 1 1.7985 8.9925 21.582 0 0 0
3468 1 1.7985 5.3955 21.582 0 0 0
1446 1 21.582 5.3955 5.3955 0 0 0
645 1 28.776 3.597 3.597 0 0 0
710 1 28.776 8.9925 26.9775 0 0 0
3992 1 0.0 34.1715 19.7835 0 0 0
1398 1 25.179 34.1715 34.1715 0 0 0
3715 1 1.7985 25.179 30.5745 0 0 0
679 1 26.9775 3.597 34.1715 0 0 0
950 1 28.776 30.5745 26.9775 0 0 0
2423 1 12.5895 17.985 19.7835 0 0 0
3385 1 7.194 32.373 21.582 0 0 0
250 1 32.373 5.3955 8.9925 0 0 0
127 1 34.1715 21.582 12.5895 0 0 0
1479 1 19.7835 3.597 34.1715 0 0 0
502 1 32.373 26.9775 19.7835 0 0 0
1965 1 17.985 14.388 3.597 0 0 0
2782 1 10.791 16.1865 19.7835 0 0 0
2226 1 14.388 1.7985 23.3805 0 0 0
383 1 30.5745 14.388 19.7835 0 0 0
1256 1 23.3805 23.3805 10.791 0 0 0
2988 1 8.9925 34.1715 21.582 0 0 0
2760 1 8.9925 12.5895 32.373 0 0 0
261 1 32.373 3.597 17.985 0 0 0
388 1 30.5745 16.1865 21.582 0 0 0
878 1 28.776 23.3805 34.1715 0 0 0
268 1 30.5745 5.3955 21.582 0 0 0
3794 1 3.597 34.1715 30.5745 0 0 0
3641 1 3.597 21.582 0.0 0 0 0
559 1 30.5745 28.776 34.1715 0 0 0
2753 1 10.791 10.791 28.776 0 0 0
3691 1 1.7985 25.179 8.9925 0 0 0
1248 1 23.3805 23.3805 3.597 0 0 0
3481 1 3.597 7.194 0.0 0 0 0
2292 1 12.5895 8.9925 7.194 0 0 0
3900 1 0.0 16.1865 34.1715 0 0 0
1421 1 21.582 0.0 17.985 0 0 0
3919 1 0.0 17.985 32.373 0 0 0
1774 1 21.582 34.1715 12.5895 0 0 0
608 1 26.9775 1.7985 3.597 0 0 0
593 1 32.373 32.373 28.776 0 0 0
3814 1 0.0 1.7985 23.3805 0 0 0
2215 1 12.5895 0.0 12.5895 0 0 0
1161 1 25.179 14.388 0.0 0 0 0
3772 1 1.7985 34.1715 7.194 0 0 0
1918 1 17.985 8.9925 34.1715 0 0 0
3115 1 5.3955 7.194 30.5745 0 0 0
3082 1 7.194 8.9925 1.7985 0 0 0
1490 1 21.582 8.9925 8.9925 0 0 0
2357 1 14.388 10.791 32.373 0 0 0
69 1 34.1715 10.791 16.1865 0 0 0
2625 1 10.791 0.0 21.582 0 0 0
1846 1 17.985 5.3955 5.3955 0 0 0
1213 1 25.179 17.985 10.791 0 0 0
2756 1 8.9925 12.5895 28.776 0 0 0
865 1 28.776 21.582 21.582 0 0 0
158 1 34.1715 26.9775 28.776 0 0 0
715 1 26.9775 7.194 30.5745 0 0 0
1028 1 23.3805 1.7985 21.582 0 0 0
29 1 34.1715 3.597 16.1865 0 0 0
989 1 28.776 32.373 25.179 0 0 0
2029 1 17.985 17.985 25.179 0 0 0
1853 1 17.985 3.597 10.791 0 0 0
2950 1 10.791 30.5745 26.9775 0 0 0
3833 1 0.0 3.597 21.582 0 0 0
3921 1 0.0 21.582 0.0 0 0 0
657 1 28.776 3.597 14.388 0 0 0
1815 1 16.1865 0.0 12.5895 0 0 0
107 1 34.1715 17.985 12.5895 0 0 0
2425 1 14.388 17.985 21.582 0 0 0
330 1 32.373 12.5895 8.9925 0 0 0
224 1 30.5745 1.7985 17.985 0 0 0
2133 1 17.985 28.776 10.791 0 0 0
1026 1 25.179 1.7985 23.3805 0 0 0
254 1 32.373 5.3955 12.5895 0 0 0
1969 1 17.985 14.388 7.194 0 0 0
3603 1 1.7985 17.985 1.7985 0 0 0
2151 1 16.1865 28.776 26.9775 0 0 0
1120 1 23.3805 8.9925 32.373 0 0 0
622 1 28.776 1.7985 19.7835 0 0 0
299 1 30.5745 7.194 16.1865 0 0 0
93 1 34.1715 14.388 23.3805 0 0 0
1094 1 25.179 8.9925 12.5895 0 0 0
1085 1 25.179 7.194 3.597 0 0 0
3914 1 0.0 19.7835 23.3805 0 0 0
2440 1 12.5895 19.7835 32.373 0 0 0
1768 1 19.7835 34.1715 3.597 0 0 0
1305 1 25.179 25.179 21.582 0 0 0
2632 1 8.9925 1.7985 25.179 0 0 0
494 1 32.373 26.9775 12.5895 0 0 0
62 1 34.1715 12.5895 0.0 0 0 0
1017 1 25.179 0.0 14.388 0 0 0
3670 1 3.597 23.3805 26.9775 0 0 0
2644 1 8.9925 5.3955 0.0 0 0 0
3998 1 0.0 34.1715 30.5745 0 0 0
507 1 30.5745 25.179 23.3805 0 0 0
2375 1 12.5895 14.388 12.5895 0 0 0
144 1 34.1715 26.9775 3.597 0 0 0
702 1 28.776 8.9925 19.7835 0 0 0
648 1 26.9775 5.3955 3.597 0 0 0
1895 1 16.1865 7.194 12.5895 0 0 0
1273 1 25.179 21.582 28.776 0 0 0
1795 1 19.7835 32.373 30.5745 0 0 0
2021 1 17.985 17.985 17.985 0 0 0
3935 1 0.0 21.582 25.179 0 0 0
2656 1 8.9925 5.3955 10.791 0 0 0
1553 1 21.582 10.791 28.776 0 0 0
2917 1 10.791 25.179 32.373 0 0 0
2770 1 10.791 16.1865 8.9925 0 0 0
763 1 26.9775 14.388 1.7985 0 0 0
2141 1 17.985 28.776 17.985 0 0 0
444 1 30.5745 23.3805 0.0 0 0 0
3633 1 3.597 17.985 28.776 0 0 0
3797 1 3.597 32.373 32.373 0 0 0
3078 1 7.194 5.3955 34.1715 0 0 0
3022 1 7.194 1.7985 19.7835 0 0 0
3519 1 1.7985 7.194 34.1715 0 0 0
2993 1 10.791 32.373 28.776 0 0 0
361 1 32.373 14.388 0.0 0 0 0
390 1 32.373 16.1865 26.9775 0 0 0
1204 1 23.3805 19.7835 0.0 0 0 0
509 1 32.373 25.179 25.179 0 0 0
1764 1 19.7835 34.1715 0.0 0 0 0
3406 1 3.597 1.7985 5.3955 0 0 0
1854 1 17.985 5.3955 12.5895 0 0 0
2519 1 12.5895 25.179 34.1715 0 0 0
2461 1 14.388 21.582 17.985 0 0 0
1832 1 16.1865 1.7985 25.179 0 0 0
1 1 34.1715 0.0 1.7985 0 0 0
1195 1 23.3805 14.388 30.5745 0 0 0
3361 1 7.194 32.373 0.0 0 0 0
2894 1 10.791 26.9775 12.5895 0 0 0
1738 1 21.582 30.5745 16.1865 0 0 0
1801 1 17.985 0.0 0.0 0 0 0
1526 1 21.582 12.5895 5.3955 0 0 0
3810 1 0.0 1.7985 16.1865 0 0 0
2191 1 16.1865 32.373 26.9775 0 0 0
3963 1 0.0 28.776 3.597 0 0 0
3064 1 5.3955 5.3955 17.985 0 0 0
2788 1 8.9925 16.1865 21.582 0 0 0
1805 1 17.985 0.0 3.597 0 0 0
3155 1 5.3955 10.791 30.5745 0 0 0
257 1 32.373 3.597 14.388 0 0 0
1042 1 25.179 5.3955 1.7985 0 0 0
2216 1 12.5895 1.7985 10.791 0 0 0
1434 1 21.582 1.7985 30.5745 0 0 0
1312 1 23.3805 26.9775 25.179 0 0 0
2804 1 8.9925 19.7835 0.0 0 0 0
742 1 28.776 12.5895 19.7835 0 0 0
414 1 32.373 19.7835 12.5895 0 0 0
420 1 30.5745 19.7835 14.388 0 0 0
3081 1 7.194 7.194 0.0 0 0 0
1909 1 17.985 7.194 25.179 0 0 0
1050 1 25.179 5.3955 8.9925 0 0 0
174 1 34.1715 30.5745 21.582 0 0 0
2485 1 14.388 25.179 3.597 0 0 0
2854 1 10.791 23.3805 12.5895 0 0 0
3808 1 0.0 1.7985 12.5895 0 0 0
30 1 34.1715 5.3955 14.388 0 0 0
3866 1 0.0 12.5895 8.9925 0 0 0
2899 1 8.9925 25.179 16.1865 0 0 0
3237 1 7.194 17.985 32.373 0 0 0
2287 1 12.5895 7.194 5.3955 0 0 0
1367 1 23.3805 32.373 5.3955 0 0 0
2594 1 14.388 34.1715 30.5745 0 0 0
2677 1 10.791 3.597 32.373 0 0 0
295 1 30.5745 7.194 12.5895 0 0 0
3309 1 7.194 25.179 25.179 0 0 0
139 1 34.1715 21.582 34.1715 0 0 0
1349 1 25.179 28.776 25.179 0 0 0
1216 1 23.3805 19.7835 10.791 0 0 0
2847 1 8.9925 21.582 5.3955 0 0 0
858 1 28.776 23.3805 16.1865 0 0 0
2076 1 16.1865 23.3805 28.776 0 0 0
3640 1 1.7985 19.7835 32.373 0 0 0
3726 1 3.597 30.5745 5.3955 0 0 0
998 1 28.776 34.1715 34.1715 0 0 0
142 1 34.1715 26.9775 0.0 0 0 0
3689 1 3.597 25.179 7.194 0 0 0
2866 1 10.791 23.3805 23.3805 0 0 0
2737 1 10.791 10.791 14.388 0 0 0
2174 1 17.985 34.1715 12.5895 0 0 0
2907 1 8.9925 25.179 23.3805 0 0 0
3636 1 1.7985 19.7835 28.776 0 0 0
1279 1 23.3805 21.582 34.1715 0 0 0
3878 1 0.0 12.5895 30.5745 0 0 0
1788 1 19.7835 34.1715 21.582 0 0 0
1780 1 19.7835 34.1715 14.388 0 0 0
3470 1 3.597 5.3955 26.9775 0 0 0
3056 1 5.3955 5.3955 10.791 0 0 0
2542 1 14.388 30.5745 19.7835 0 0 0
3896 1 0.0 16.1865 26.9775 0 0 0
1783 1 19.7835 32.373 19.7835 0 0 0
1335 1 23.3805 28.776 12.5895 0 0 0
3042 1 7.194 5.3955 1.7985 0 0 0
2612 1 8.9925 1.7985 7.194 0 0 0
3997 1 0.0 32.373 28.776 0 0 0
1722 1 21.582 30.5745 1.7985 0 0 0
2028 1 16.1865 19.7835 21.582 0 0 0
2454 1 14.388 23.3805 12.5895 0 0 0
3694 1 3.597 26.9775 12.5895 0 0 0
1262 1 25.179 23.3805 19.7835 0 0 0
1342 1 25.179 30.5745 19.7835 0 0 0
395 1 30.5745 14.388 30.5745 0 0 0
3260 1 5.3955 23.3805 14.388 0 0 0
2159 1 16.1865 28.776 34.1715 0 0 0
1618 1 21.582 19.7835 16.1865 0 0 0
2312 2 12.5895 8.9925 25.179 0 0 0
102 2 34.1715 19.7835 0.0 0 0 0
2987 2 8.9925 32.373 23.3805 0 0 0
201 2 32.373 0.0 0.0 0 0 0
3806 2 0.0 1.7985 8.9925 0 0 0
2846 2 10.791 23.3805 5.3955 0 0 0
3523 2 1.7985 10.791 1.7985 0 0 0
2001 2 17.985 17.985 0.0 0 0 0
2245 2 14.388 3.597 3.597 0 0 0
1019 2 23.3805 0.0 16.1865 0 0 0
1870 2 17.985 5.3955 26.9775 0 0 0
117 2 34.1715 17.985 30.5745 0 0 0
109 2 34.1715 17.985 16.1865 0 0 0
1790 2 21.582 34.1715 26.9775 0 0 0
501 2 32.373 25.179 17.985 0 0 0
214 2 32.373 1.7985 12.5895 0 0 0
3092 2 5.3955 8.9925 7.194 0 0 0
1515 2 19.7835 7.194 30.5745 0 0 0
2526 2 14.388 30.5745 5.3955 0 0 0
3953 2 0.0 25.179 21.582 0 0 0
3190 2 7.194 16.1865 26.9775 0 0 0
1830 2 17.985 1.7985 26.9775 0 0 0
687 2 26.9775 7.194 5.3955 0 0 0
3516 2 1.7985 8.9925 28.776 0 0 0
1231 2 23.3805 17.985 26.9775 0 0 0
2722 2 10.791 12.5895 1.7985 0 0 0
1666 2 21.582 23.3805 23.3805 0 0 0
392 2 30.5745 16.1865 25.179 0 0 0
2972 2 8.9925 34.1715 7.194 0 0 0
2538 2 14.388 30.5745 16.1865 0 0 0
578 2 32.373 34.1715 16.1865 0 0 0
956 2 26.9775 30.5745 28.776 0 0 0
2157 2 17.985 28.776 32.373 0 0 0
1836 2 16.1865 1.7985 28.776 0 0 0
1616 2 19.7835 19.7835 10.791 0 0 0
1581 2 21.582 14.388 17.985 0 0 0
621 2 28.776 0.0 17.985 0 0 0
1172 2 23.3805 16.1865 7.194 0 0 0
2796 2 8.9925 16.1865 28.776 0 0 0
3611 2 1.7985 17.985 8.9925 0 0 0
1013 2 25.179 0.0 10.791 0 0 0
1250 2 25.179 23.3805 8.9925 0 0 0
2433 2 14.388 17.985 28.776 0 0 0
3503 2 1.7985 7.194 19.7835 0 0 0
320 2 30.5745 8.9925 32.373 0 0 0
1389 2 25.179 32.373 25.179 0 0 0
272 2 30.5745 5.3955 25.179 0 0 0
3437 2 3.597 0.0 32.373 0 0 0
2483 2 12.5895 25.179 1.7985 0 0 0
2884 2 8.9925 26.9775 0.0 0 0 0
1408 2 19.7835 1.7985 3.597 0 0 0
459 2 30.5745 21.582 16.1865 0 0 0
2655 2 8.9925 3.597 12.5895 0 0 0
3796 2 1.7985 34.1715 28.776 0 0 0
872 2 26.9775 23.3805 25.179 0 0 0
1657 2 21.582 21.582 14.388 0 0 0
1138 2 25.179 12.5895 16.1865 0 0 0
2646 2 10.791 5.3955 5.3955 0 0 0
2824 2 8.9925 19.7835 17.985 0 0 0
3711 2 1.7985 25.179 26.9775 0 0 0
2641 2 10.791 3.597 0.0 0 0 0
1538 2 21.582 12.5895 16.1865 0 0 0
3256 2 5.3955 23.3805 10.791 0 0 0
2419 2 12.5895 17.985 16.1865 0 0 0
3583 2 1.7985 14.388 19.7835 0 0 0
3386 2 7.194 34.1715 23.3805 0 0 0
470 2 32.373 23.3805 26.9775 0 0 0
1193 2 25.179 14.388 28.776 0 0 0
3441 2 3.597 3.597 0.0 0 0 0
1840 2 16.1865 1.7985 32.373 0 0 0
2428 2 12.5895 19.7835 21.582 0 0 0
2968 2 8.9925 34.1715 3.597 0 0 0
577 2 32.373 32.373 14.388 0 0 0
2014 2 17.985 19.7835 12.5895 0 0 0
808 2 26.9775 19.7835 3.597 0 0 0
2817 2 10.791 17.985 14.388 0 0 0
1432 2 19.7835 1.7985 25.179 0 0 0
528 2 30.5745 30.5745 3.597 0 0 0
3456 2 1.7985 5.3955 10.791 0 0 0
1803 2 16.1865 0.0 1.7985 0 0 0
132 2 34.1715 23.3805 17.985 0 0 0
1144 2 23.3805 12.5895 17.985 0 0 0
2779 2 8.9925 14.388 16.1865 0 0 0
3933 2 0.0 21.582 21.582 0 0 0
3371 2 5.3955 32.373 8.9925 0 0 0
3968 2 0.0 30.5745 12.5895 0 0 0
1070 2 25.179 5.3955 26.9775 0 0 0
1514 2 21.582 8.9925 30.5745 0 0 0
2852 2 8.9925 23.3805 7.194 0 0 0
3988 2 0.0 34.1715 12.5895 0 0 0
834 2 28.776 19.7835 30.5745 0 0 0
2801 2 10.791 17.985 0.0 0 0 0
2285 2 14.388 7.194 3.597 0 0 0
1953 2 17.985 10.791 28.776 0 0 0
985 2 28.776 32.373 21.582 0 0 0
35 2 34.1715 3.597 26.9775 0 0 0
1447 2 19.7835 3.597 5.3955 0 0 0
3817 2 0.0 0.0 28.776 0 0 0
3593 2 3.597 14.388 28.776 0 0 0
3802 2 0.0 1.7985 1.7985 0 0 0
2488 2 12.5895 26.9775 3.597 0 0 0
2429 2 14.388 17.985 25.179 0 0 0
2348 2 12.5895 12.5895 21.582 0 0 0
2605 2 10.791 0.0 3.597 0 0 0
3133 2 7.194 10.791 10.791 0 0 0
1659 2 19.7835 21.582 16.1865 0 0 0
1912 2 16.1865 8.9925 25.179 0 0 0
923 2 26.9775 28.776 1.7985 0 0 0
613 2 28.776 0.0 10.791 0 0 0
5 2 34.1715 0.0 8.9925 0 0 0
379 2 30.5745 14.388 16.1865 0 0 0
246 2 32.373 5.3955 5.3955 0 0 0
3647 2 1.7985 21.582 5.3955 0 0 0
1337 2 25.179 28.776 14.388 0 0 0
976 2 26.9775 34.1715 10.791 0 0 0
3330 2 7.194 30.5745 8.9925 0 0 0
3645 2 3.597 21.582 3.597 0 0 0
722 2 28.776 12.5895 1.7985 0 0 0
2927 2 8.9925 28.776 5.3955 0 0 0
793 2 28.776 14.388 28.776 0 0 0
3252 2 5.3955 23.3805 7.194 0 0 0
248 2 30.5745 5.3955 3.597 0 0 0
183 2 34.1715 32.373 5.3955 0 0 0
384 2 30.5745 16.1865 17.985 0 0 0
3422 2 3.597 1.7985 19.7835 0 0 0
1276 2 23.3805 23.3805 28.776 0 0 0
23 2 34.1715 3.597 5.3955 0 0 0
3162 2 7.194 16.1865 1.7985 0 0 0
3213 2 7.194 17.985 10.791 0 0 0
2117 2 17.985 25.179 32.373 0 0 0
2302 2 14.388 8.9925 19.7835 0 0 0
1944 2 16.1865 12.5895 17.985 0 0 0
2923 2 8.9925 28.776 1.7985 0 0 0
2112 2 16.1865 26.9775 25.179 0 0 0
3486 2 3.597 8.9925 5.3955 0 0 0
2005 2 17.985 17.985 3.597 0 0 0
2766 2 10.791 16.1865 5.3955 0 0 0
828 2 26.9775 19.7835 21.582 0 0 0
972 2 26.9775 34.1715 7.194 0 0 0
2039 2 16.1865 17.985 34.1715 0 0 0
2354 2 14.388 12.5895 30.5745 0 0 0
3124 2 5.3955 12.5895 0.0 0 0 0
2043 2 16.1865 21.582 1.7985 0 0 0
3331 2 5.3955 28.776 8.9925 0 0 0
2887 2 8.9925 25.179 5.3955 0 0 0
1391 2 23.3805 32.373 26.9775 0 0 0
2990 2 10.791 34.1715 26.9775 0 0 0
2507 2 12.5895 25.179 23.3805 0 0 0
3147 2 5.3955 10.791 23.3805 0 0 0
2427 2 12.5895 17.985 23.3805 0 0 0
3008 2 5.3955 1.7985 3.597 0 0 0
2931 2 8.9925 28.776 8.9925 0 0 0
1334 2 25.179 30.5745 12.5895 0 0 0
1116 2 23.3805 8.9925 28.776 0 0 0
12 2 34.1715 1.7985 17.985 0 0 0
3852 2 0.0 8.9925 19.7835 0 0 0
1359 2 23.3805 28.776 34.1715 0 0 0
1082 2 25.179 8.9925 1.7985 0 0 0
1467 2 19.7835 3.597 23.3805 0 0 0
2999 2 8.9925 32.373 34.1715 0 0 0
2747 2 8.9925 10.791 23.3805 0 0 0
237 2 32.373 0.0 32.373 0 0 0
2530 2 14.388 30.5745 8.9925 0 0 0
2082 2 17.985 26.9775 1.7985 0 0 0
3410 2 3.597 1.7985 8.9925 0 0 0
2563 2 12.5895 32.373 1.7985 0 0 0
3151 2 5.3955 10.791 26.9775 0 0 0
1809 2 17.985 0.0 7.194 0 0 0
2885 2 10.791 25.179 3.597 0 0 0
579 2 30.5745 32.373 16.1865 0 0 0
2675 2 8.9925 3.597 30.5745 0 0 0
1327 2 23.3805 28.776 5.3955 0 0 0
1968 2 16.1865 16.1865 3.597 0 0 0
2381 2 14.388 14.388 17.985 0 0 0
1554 2 21.582 12.5895 30.5745 0 0 0
3121 2 7.194 10.791 0.0 0 0 0
3783 2 1.7985 32.373 19.7835 0 0 0
2652 2 8.9925 5.3955 7.194 0 0 0
1224 2 23.3805 19.7835 17.985 0 0 0
3717 2 3.597 25.179 32.373 0 0 0
178 2 34.1715 30.5745 28.776 0 0 0
417 2 32.373 17.985 14.388 0 0 0
1097 2 25.179 7.194 14.388 0 0 0
146 2 34.1715 26.9775 7.194 0 0 0
1856 2 16.1865 5.3955 10.791 0 0 0
520 2 30.5745 26.9775 32.373 0 0 0
332 2 30.5745 12.5895 7.194 0 0 0
829 2 28.776 17.985 25.179 0 0 0
1898 2 17.985 8.9925 16.1865 0 0 0
3488 2 1.7985 8.9925 3.597 0 0 0
1393 2 25.179 32.373 28.776 0 0 0
1718 2 21.582 26.9775 34.1715 0 0 0
1476 2 19.7835 5.3955 28.776 0 0 0
416 2 30.5745 19.7835 10.791 0 0 0
2420 2 12.5895 19.7835 14.388 0 0 0
1196 2 23.3805 16.1865 28.776 0 0 0
3305 2 7.194 25.179 21.582 0 0 0
2787 2 8.9925 14.388 23.3805 0 0 0
3983 2 0.0 32.373 3.597 0 0 0
3442 2 3.597 5.3955 1.7985 0 0 0
140 2 34.1715 23.3805 32.373 0 0 0
2343 2 12.5895 10.791 19.7835 0 0 0
1776 2 19.7835 34.1715 10.791 0 0 0
1309 2 25.179 25.179 25.179 0 0 0
2259 2 12.5895 3.597 16.1865 0 0 0
3057 2 7.194 3.597 14.388 0 0 0
1865 2 17.985 3.597 21.582 0 0 0
2606 2 10.791 1.7985 5.3955 0 0 0
1684 2 19.7835 26.9775 0.0 0 0 0
1277 2 25.179 21.582 32.373 0 0 0
1154 2 25.179 12.5895 30.5745 0 0 0
1401 2 21.582 0.0 0.0 0 0 0
3239 2 5.3955 17.985 34.1715 0 0 0
3275 2 5.3955 21.582 30.5745 0 0 0
1150 2 25.179 12.5895 26.9775 0 0 0
2693 2 10.791 7.194 10.791 0 0 0
371 2 30.5745 14.388 8.9925 0 0 0
1817 2 17.985 0.0 14.388 0 0 0
2872 2 8.9925 23.3805 25.179 0 0 0
22 2 34.1715 5.3955 0.0 0 0 0
2898 2 10.791 26.9775 16.1865 0 0 0
2640 2 8.9925 1.7985 32.373 0 0 0
747 2 26.9775 10.791 23.3805 0 0 0
3695 2 1.7985 25.179 12.5895 0 0 0
3697 2 3.597 25.179 14.388 0 0 0
3868 2 0.0 12.5895 12.5895 0 0 0
1915 2 16.1865 7.194 30.5745 0 0 0
505 2 32.373 25.179 21.582 0 0 0
924 2 26.9775 30.5745 0.0 0 0 0
1612 2 19.7835 19.7835 7.194 0 0 0
99 2 34.1715 14.388 34.1715 0 0 0
633 2 28.776 0.0 28.776 0 0 0
1246 2 25.179 23.3805 5.3955 0 0 0
192 2 34.1715 34.1715 17.985 0 0 0
2595 2 12.5895 32.373 30.5745 0 0 0
544 2 30.5745 30.5745 17.985 0 0 0
3727 2 1.7985 28.776 5.3955 0 0 0
2303 2 12.5895 7.194 19.7835 0 0 0
412 2 30.5745 19.7835 7.194 0 0 0
735 2 26.9775 10.791 12.5895 0 0 0
788 2 26.9775 16.1865 21.582 0 0 0
2701 2 10.791 7.194 17.985 0 0 0
2875 2 8.9925 21.582 30.5745 0 0 0
2494 2 14.388 26.9775 12.5895 0 0 0
3959 2 0.0 25.179 32.373 0 0 0
1608 2 19.7835 19.7835 3.597 0 0 0
1052 2 23.3805 5.3955 7.194 0 0 0
3117 2 7.194 7.194 32.373 0 0 0
331 2 30.5745 10.791 8.9925 0 0 0
3343 2 5.3955 28.776 19.7835 0 0 0
1452 2 19.7835 5.3955 7.194 0 0 0
1311 2 23.3805 25.179 26.9775 0 0 0
2944 2 8.9925 30.5745 17.985 0 0 0
1003 2 23.3805 0.0 1.7985 0 0 0
1242 2 25.179 23.3805 1.7985 0 0 0
2781 2 10.791 14.388 17.985 0 0 0
3020 2 5.3955 1.7985 14.388 0 0 0
1012 2 23.3805 1.7985 7.194 0 0 0
1613 2 21.582 17.985 10.791 0 0 0
2228 2 12.5895 1.7985 21.582 0 0 0
2098 2 17.985 26.9775 16.1865 0 0 0
1793 2 21.582 32.373 28.776 0 0 0
2437 2 14.388 17.985 32.373 0 0 0
731 2 26.9775 10.791 8.9925 0 0 0
338 2 32.373 12.5895 16.1865 0 0 0
1089 2 25.179 7.194 7.194 0 0 0
3738 2 3.597 30.5745 16.1865 0 0 0
1290 2 25.179 26.9775 8.9925 0 0 0
496 2 30.5745 26.9775 10.791 0 0 0
760 2 26.9775 12.5895 32.373 0 0 0
3799 2 1.7985 32.373 34.1715 0 0 0
3909 2 0.0 17.985 14.388 0 0 0
919 2 26.9775 25.179 34.1715 0 0 0
2919 2 8.9925 25.179 34.1715 0 0 0
2281 2 14.388 7.194 0.0 0 0 0
3365 2 7.194 32.373 3.597 0 0 0
3705 2 3.597 25.179 21.582 0 0 0
1407 2 19.7835 0.0 5.3955 0 0 0
1288 2 23.3805 26.9775 3.597 0 0 0
323 2 30.5745 10.791 1.7985 0 0 0
387 2 30.5745 14.388 23.3805 0 0 0
3245 2 7.194 21.582 3.597 0 0 0
2880 2 8.9925 23.3805 32.373 0 0 0
1298 2 25.179 26.9775 16.1865 0 0 0
600 2 30.5745 34.1715 32.373 0 0 0
3169 2 7.194 14.388 7.194 0 0 0
1296 2 23.3805 26.9775 10.791 0 0 0
3397 2 7.194 32.373 32.373 0 0 0
1967 2 16.1865 14.388 5.3955 0 0 0
2460 2 12.5895 23.3805 14.388 0 0 0
1031 2 23.3805 0.0 26.9775 0 0 0
1941 2 17.985 10.791 17.985 0 0 0
1855 2 16.1865 3.597 12.5895 0 0 0
1812 2 16.1865 1.7985 7.194 0 0 0
113 2 34.1715 17.985 23.3805 0 0 0
1579 2 19.7835 14.388 16.1865 0 0 0
1345 2 25.179 28.776 21.582 0 0 0
1620 2 19.7835 19.7835 14.388 0 0 0
1501 2 21.582 7.194 17.985 0 0 0
1889 2 17.985 7.194 7.194 0 0 0
365 2 32.373 14.388 3.597 0 0 0
3118 2 7.194 8.9925 34.1715 0 0 0
318 2 32.373 8.9925 34.1715 0 0 0
1936 2 16.1865 12.5895 10.791 0 0 0
811 2 26.9775 17.985 8.9925 0 0 0
2342 2 14.388 12.5895 19.7835 0 0 0
3353 2 7.194 28.776 28.776 0 0 0
1575 2 19.7835 14.388 12.5895 0 0 0
1395 2 23.3805 32.373 30.5745 0 0 0
337 2 32.373 10.791 14.388 0 0 0
2828 2 8.9925 19.7835 21.582 0 0 0
3847 2 0.0 7.194 10.791 0 0 0
934 2 28.776 30.5745 12.5895 0 0 0
1529 2 21.582 10.791 7.194 0 0 0
1899 2 16.1865 7.194 16.1865 0 0 0
54 2 34.1715 8.9925 21.582 0 0 0
255 2 30.5745 3.597 12.5895 0 0 0
1789 2 21.582 32.373 25.179 0 0 0
40 2 34.1715 5.3955 32.373 0 0 0
2446 2 14.388 23.3805 5.3955 0 0 0
3462 2 3.597 5.3955 19.7835 0 0 0
888 2 26.9775 26.9775 3.597 0 0 0
2897 2 10.791 25.179 14.388 0 0 0
2033 2 17.985 17.985 28.776 0 0 0
3382 2 7.194 34.1715 19.7835 0 0 0
1278 2 25.179 23.3805 34.1715 0 0 0
492 2 30.5745 26.9775 7.194 0 0 0
1669 2 21.582 21.582 25.179 0 0 0
857 2 28.776 21.582 14.388 0 0 0
2247 2 12.5895 3.597 5.3955 0 0 0
3780 2 1.7985 34.1715 14.388 0 0 0
2471 2 12.5895 21.582 26.9775 0 0 0
1127 2 23.3805 10.791 5.3955 0 0 0
1708 2 19.7835 26.9775 21.582 0 0 0
3566 2 3.597 16.1865 5.3955 0 0 0
3696 2 1.7985 26.9775 10.791 0 0 0
3907 2 0.0 17.985 10.791 0 0 0
1932 2 16.1865 12.5895 7.194 0 0 0
2083 2 16.1865 25.179 1.7985 0 0 0
19 2 34.1715 0.0 34.1715 0 0 0
2552 2 12.5895 30.5745 25.179 0 0 0
552 2 30.5745 30.5745 25.179 0 0 0
2374 2 14.388 16.1865 12.5895 0 0 0
2313 2 14.388 7.194 28.776 0 0 0
3737 2 3.597 28.776 14.388 0 0 0
2724 2 8.9925 12.5895 0.0 0 0 0
1661 2 21.582 21.582 17.985 0 0 0
296 2 30.5745 8.9925 10.791 0 0 0
3308 2 5.3955 26.9775 21.582 0 0 0
477 2 32.373 21.582 32.373 0 0 0
693 2 28.776 7.194 10.791 0 0 0
3495 2 1.7985 7.194 12.5895 0 0 0
3244 2 5.3955 23.3805 0.0 0 0 0
692 2 26.9775 8.9925 7.194 0 0 0
2746 2 10.791 12.5895 23.3805 0 0 0
3937 2 0.0 21.582 28.776 0 0 0
445 2 32.373 21.582 3.597 0 0 0
1548 2 19.7835 12.5895 21.582 0 0 0
2236 2 12.5895 1.7985 28.776 0 0 0
549 2 32.373 28.776 25.179 0 0 0
486 2 32.373 26.9775 5.3955 0 0 0
1673 2 21.582 21.582 28.776 0 0 0
3461 2 3.597 3.597 17.985 0 0 0
1771 2 19.7835 32.373 8.9925 0 0 0
3837 2 0.0 3.597 28.776 0 0 0
1639 2 19.7835 17.985 34.1715 0 0 0
2080 2 16.1865 23.3805 32.373 0 0 0
1269 2 25.179 21.582 25.179 0 0 0
580 2 30.5745 34.1715 14.388 0 0 0
1520 2 19.7835 8.9925 32.373 0 0 0
1416 2 19.7835 1.7985 10.791 0 0 0
3288 2 5.3955 26.9775 3.597 0 0 0
1008 2 23.3805 1.7985 3.597 0 0 0
1951 2 16.1865 10.791 26.9775 0 0 0
2680 2 8.9925 5.3955 32.373 0 0 0
1584 2 19.7835 16.1865 17.985 0 0 0
3537 2 3.597 10.791 14.388 0 0 0
1668 2 19.7835 23.3805 21.582 0 0 0
3944 2 0.0 26.9775 5.3955 0 0 0
522 2 32.373 30.5745 1.7985 0 0 0
1321 2 25.179 28.776 0.0 0 0 0
3279 2 5.3955 21.582 34.1715 0 0 0
1034 2 25.179 1.7985 30.5745 0 0 0
3313 2 7.194 25.179 28.776 0 0 0
2356 2 12.5895 12.5895 28.776 0 0 0
428 2 30.5745 19.7835 21.582 0 0 0
464 2 30.5745 23.3805 17.985 0 0 0
2101 2 17.985 25.179 17.985 0 0 0
3369 2 7.194 32.373 7.194 0 0 0
1540 2 19.7835 12.5895 14.388 0 0 0
1029 2 25.179 0.0 25.179 0 0 0
2003 2 16.1865 17.985 1.7985 0 0 0
789 2 28.776 14.388 25.179 0 0 0
3657 2 3.597 21.582 14.388 0 0 0
2322 2 14.388 12.5895 1.7985 0 0 0
110 2 34.1715 19.7835 14.388 0 0 0
3575 2 1.7985 14.388 12.5895 0 0 0
87 2 34.1715 14.388 12.5895 0 0 0
2424 2 12.5895 19.7835 17.985 0 0 0
3001 2 7.194 0.0 0.0 0 0 0
1567 2 19.7835 14.388 5.3955 0 0 0
915 2 26.9775 25.179 30.5745 0 0 0
3205 2 7.194 17.985 3.597 0 0 0
2064 2 16.1865 23.3805 17.985 0 0 0
440 2 30.5745 19.7835 32.373 0 0 0
3849 2 0.0 7.194 14.388 0 0 0
468 2 30.5745 23.3805 21.582 0 0 0
1492 2 19.7835 8.9925 7.194 0 0 0
962 2 28.776 34.1715 1.7985 0 0 0
3341 2 7.194 28.776 17.985 0 0 0
312 2 30.5745 8.9925 25.179 0 0 0
1721 2 21.582 28.776 0.0 0 0 0
2086 2 17.985 26.9775 5.3955 0 0 0
1390 2 25.179 34.1715 26.9775 0 0 0
1742 2 21.582 30.5745 19.7835 0 0 0
2048 2 16.1865 23.3805 3.597 0 0 0
2178 2 17.985 34.1715 16.1865 0 0 0
941 2 28.776 28.776 17.985 0 0 0
638 2 28.776 1.7985 34.1715 0 0 0
1358 2 25.179 30.5745 34.1715 0 0 0
3980 2 0.0 30.5745 34.1715 0 0 0
165 2 34.1715 28.776 8.9925 0 0 0
363 2 30.5745 14.388 1.7985 0 0 0
2597 2 14.388 32.373 32.373 0 0 0
500 2 30.5745 26.9775 14.388 0 0 0
1594 2 21.582 16.1865 30.5745 0 0 0
247 2 30.5745 3.597 5.3955 0 0 0
2696 2 8.9925 8.9925 10.791 0 0 0
3084 2 5.3955 8.9925 0.0 0 0 0
3579 2 1.7985 14.388 16.1865 0 0 0
2745 2 10.791 10.791 21.582 0 0 0
3922 2 0.0 23.3805 1.7985 0 0 0
236 2 30.5745 1.7985 28.776 0 0 0
3274 2 7.194 23.3805 30.5745 0 0 0
1081 2 25.179 7.194 0.0 0 0 0
2959 2 8.9925 28.776 34.1715 0 0 0
3720 2 1.7985 26.9775 32.373 0 0 0
1190 2 25.179 16.1865 26.9775 0 0 0
1381 2 25.179 32.373 17.985 0 0 0
2966 2 10.791 34.1715 5.3955 0 0 0
2271 2 12.5895 3.597 26.9775 0 0 0
341 2 32.373 10.791 17.985 0 0 0
2207 2 12.5895 0.0 5.3955 0 0 0
556 2 30.5745 30.5745 28.776 0 0 0
1883 2 16.1865 7.194 1.7985 0 0 0
3498 2 3.597 8.9925 16.1865 0 0 0
362 2 32.373 16.1865 1.7985 0 0 0
1587 2 19.7835 14.388 23.3805 0 0 0
2377 2 14.388 14.388 14.388 0 0 0
2139 2 16.1865 28.776 16.1865 0 0 0
690 2 28.776 8.9925 8.9925 0 0 0
16 2 34.1715 1.7985 25.179 0 0 0
928 2 26.9775 30.5745 3.597 0 0 0
207 2 30.5745 0.0 5.3955 0 0 0
3257 2 7.194 21.582 14.388 0 0 0
3978 2 0.0 30.5745 30.5745 0 0 0
487 2 30.5745 25.179 5.3955 0 0 0
2320 2 12.5895 8.9925 32.373 0 0 0
223 2 30.5745 0.0 19.7835 0 0 0
1244 2 23.3805 23.3805 0.0 0 0 0
745 2 28.776 10.791 21.582 0 0 0
2164 2 16.1865 34.1715 0.0 0 0 0
2056 2 16.1865 23.3805 10.791 0 0 0
2841 2 10.791 21.582 0.0 0 0 0
215 2 30.5745 0.0 12.5895 0 0 0
792 2 26.9775 16.1865 25.179 0 0 0
2678 2 10.791 5.3955 34.1715 0 0 0
2940 2 8.9925 30.5745 14.388 0 0 0
1344 2 23.3805 30.5745 17.985 0 0 0
614 2 28.776 1.7985 12.5895 0 0 0
2096 2 16.1865 26.9775 10.791 0 0 0
3650 2 3.597 23.3805 8.9925 0 0 0
3825 2 0.0 3.597 7.194 0 0 0
882 2 28.776 26.9775 1.7985 0 0 0
3771 2 1.7985 32.373 8.9925 0 0 0
530 2 32.373 30.5745 8.9925 0 0 0
1739 2 19.7835 28.776 16.1865 0 0 0
2299 2 12.5895 7.194 16.1865 0 0 0
3161 2 7.194 14.388 0.0 0 0 0
2486 2 14.388 26.9775 5.3955 0 0 0
2774 2 10.791 16.1865 12.5895 0 0 0
3680 2 1.7985 23.3805 32.373 0 0 0
2347 2 12.5895 10.791 23.3805 0 0 0
999 2 26.9775 32.373 34.1715 0 0 0
3755 2 1.7985 28.776 30.5745 0 0 0
912 2 26.9775 26.9775 25.179 0 0 0
3798 2 3.597 34.1715 34.1715 0 0 0
643 2 26.9775 3.597 1.7985 0 0 0
449 2 32.373 21.582 7.194 0 0 0
2478 2 14.388 23.3805 34.1715 0 0 0
1992 2 16.1865 16.1865 25.179 0 0 0
3955 2 0.0 25.179 25.179 0 0 0
2913 2 10.791 25.179 28.776 0 0 0
1099 2 23.3805 7.194 16.1865 0 0 0
2238 2 14.388 1.7985 34.1715 0 0 0
3828 2 0.0 5.3955 12.5895 0 0 0
1695 2 19.7835 25.179 12.5895 0 0 0
3220 2 5.3955 19.7835 14.388 0 0 0
2391 2 12.5895 14.388 26.9775 0 0 0
1626 2 21.582 19.7835 23.3805 0 0 0
2618 2 10.791 1.7985 16.1865 0 0 0
826 2 28.776 19.7835 23.3805 0 0 0
2809 2 10.791 17.985 7.194 0 0 0
1386 2 25.179 34.1715 23.3805 0 0 0
1571 2 19.7835 14.388 8.9925 0 0 0
691 2 26.9775 7.194 8.9925 0 0 0
1993 2 17.985 14.388 28.776 0 0 0
1720 2 19.7835 26.9775 32.373 0 0 0
1192 2 23.3805 16.1865 25.179 0 0 0
2023 2 16.1865 17.985 19.7835 0 0 0
988 2 26.9775 34.1715 21.582 0 0 0
2902 2 10.791 26.9775 19.7835 0 0 0
1689 2 21.582 25.179 7.194 0 0 0
123 2 34.1715 21.582 5.3955 0 0 0
1350 2 25.179 30.5745 26.9775 0 0 0
41 2 34.1715 7.194 1.7985 0 0 0
3961 2 0.0 28.776 0.0 0 0 0
566 2 32.373 34.1715 5.3955 0 0 0
1044 2 23.3805 5.3955 0.0 0 0 0
2514 2 14.388 26.9775 30.5745 0 0 0
2938 2 10.791 30.5745 16.1865 0 0 0
2282 2 14.388 8.9925 1.7985 0 0 0
2635 2 8.9925 0.0 30.5745 0 0 0
2748 2 8.9925 12.5895 21.582 0 0 0
1016 2 23.3805 1.7985 10.791 0 0 0
276 2 30.5745 5.3955 28.776 0 0 0
1199 2 23.3805 14.388 34.1715 0 0 0
402 2 32.373 19.7835 1.7985 0 0 0
1748 2 19.7835 30.5745 21.582 0 0 0
3604 2 1.7985 19.7835 0.0 0 0 0
2401 2 14.388 17.985 0.0 0 0 0
3610 2 3.597 19.7835 8.9925 0 0 0
744 2 26.9775 12.5895 17.985 0 0 0
2518 2 14.388 26.9775 34.1715 0 0 0
2590 2 14.388 34.1715 26.9775 0 0 0
3905 2 0.0 17.985 7.194 0 0 0
3599 2 1.7985 14.388 34.1715 0 0 0
606 2 28.776 1.7985 5.3955 0 0 0
2175 2 16.1865 32.373 12.5895 0 0 0
2838 2 10.791 19.7835 34.1715 0 0 0
3764 2 1.7985 34.1715 0.0 0 0 0
3509 2 3.597 7.194 25.179 0 0 0
2650 2 10.791 5.3955 8.9925 0 0 0
163 2 34.1715 28.776 5.3955 0 0 0
1271 2 23.3805 21.582 26.9775 0 0 0
1243 2 23.3805 21.582 1.7985 0 0 0
3380 2 5.3955 34.1715 14.388 0 0 0
1360 2 23.3805 30.5745 32.373 0 0 0
1115 2 23.3805 7.194 30.5745 0 0 0
3882 2 0.0 16.1865 1.7985 0 0 0
1009 2 25.179 0.0 7.194 0 0 0
1468 2 19.7835 5.3955 21.582 0 0 0
680 2 26.9775 5.3955 32.373 0 0 0
448 2 30.5745 23.3805 3.597 0 0 0
848 2 26.9775 23.3805 3.597 0 0 0
1943 2 16.1865 10.791 19.7835 0 0 0
2368 2 12.5895 16.1865 3.597 0 0 0
3264 2 5.3955 23.3805 17.985 0 0 0
2273 2 14.388 3.597 28.776 0 0 0
2853 2 10.791 21.582 10.791 0 0 0
2957 2 10.791 28.776 32.373 0 0 0
3626 2 3.597 19.7835 23.3805 0 0 0
2517 2 14.388 25.179 32.373 0 0 0
813 2 28.776 17.985 10.791 0 0 0
2844 2 8.9925 23.3805 0.0 0 0 0
2896 2 8.9925 26.9775 10.791 0 0 0
2476 2 12.5895 23.3805 28.776 0 0 0
1628 2 19.7835 19.7835 21.582 0 0 0
3405 2 3.597 0.0 3.597 0 0 0
3570 2 3.597 16.1865 8.9925 0 0 0
3320 2 5.3955 26.9775 32.373 0 0 0
1730 2 21.582 30.5745 8.9925 0 0 0
2714 2 10.791 8.9925 30.5745 0 0 0
200 2 34.1715 34.1715 32.373 0 0 0
2205 2 14.388 0.0 3.597 0 0 0
2441 2 14.388 21.582 0.0 0 0 0
1977 2 17.985 14.388 14.388 0 0 0
3451 2 1.7985 3.597 8.9925 0 0 0
3295 2 5.3955 25.179 12.5895 0 0 0
3730 2 3.597 30.5745 8.9925 0 0 0
3417 2 3.597 0.0 14.388 0 0 0
2568 2 12.5895 34.1715 3.597 0 0 0
2310 2 14.388 8.9925 26.9775 0 0 0
179 2 34.1715 28.776 34.1715 0 0 0
101 2 34.1715 17.985 1.7985 0 0 0
3527 2 1.7985 10.791 5.3955 0 0 0
921 2 28.776 28.776 0.0 0 0 0
3479 2 1.7985 3.597 34.1715 0 0 0
2234 2 14.388 1.7985 30.5745 0 0 0
2895 2 8.9925 25.179 12.5895 0 0 0
3218 2 7.194 19.7835 16.1865 0 0 0
562 2 32.373 34.1715 1.7985 0 0 0
3880 2 0.0 12.5895 34.1715 0 0 0
3512 2 1.7985 8.9925 25.179 0 0 0
636 2 26.9775 1.7985 28.776 0 0 0
1201 2 25.179 17.985 0.0 0 0 0
3265 2 7.194 21.582 21.582 0 0 0
866 2 28.776 23.3805 23.3805 0 0 0
1770 2 21.582 34.1715 8.9925 0 0 0
3379 2 5.3955 32.373 16.1865 0 0 0
1459 2 19.7835 3.597 16.1865 0 0 0
2634 2 10.791 1.7985 30.5745 0 0 0
43 2 34.1715 7.194 5.3955 0 0 0
2487 2 12.5895 25.179 5.3955 0 0 0
1376 2 23.3805 34.1715 10.791 0 0 0
3214 2 7.194 19.7835 12.5895 0 0 0
1804 2 16.1865 1.7985 0.0 0 0 0
1874 2 17.985 5.3955 30.5745 0 0 0
3596 2 1.7985 16.1865 28.776 0 0 0
3767 2 1.7985 32.373 5.3955 0 0 0
1737 2 21.582 28.776 14.388 0 0 0
3942 2 0.0 26.9775 1.7985 0 0 0
1483 2 19.7835 7.194 1.7985 0 0 0
649 2 28.776 3.597 7.194 0 0 0
1998 2 17.985 16.1865 34.1715 0 0 0
523 2 30.5745 28.776 1.7985 0 0 0
155 2 34.1715 25.179 26.9775 0 0 0
3598 2 3.597 16.1865 34.1715 0 0 0
3684 2 1.7985 26.9775 0.0 0 0 0
462 2 32.373 23.3805 19.7835 0 0 0
841 2 28.776 21.582 0.0 0 0 0
640 2 26.9775 1.7985 32.373 0 0 0
2447 2 12.5895 21.582 5.3955 0 0 0
2998 2 10.791 34.1715 34.1715 0 0 0
883 2 26.9775 25.179 1.7985 0 0 0
251 2 30.5745 3.597 8.9925 0 0 0
2187 2 16.1865 32.373 23.3805 0 0 0
3550 2 3.597 12.5895 26.9775 0 0 0
2604 2 8.9925 1.7985 0.0 0 0 0
3127 2 5.3955 10.791 5.3955 0 0 0
2380 2 12.5895 16.1865 14.388 0 0 0
2358 2 14.388 12.5895 34.1715 0 0 0
1930 2 17.985 12.5895 8.9925 0 0 0
472 2 30.5745 23.3805 25.179 0 0 0
3094 2 7.194 8.9925 12.5895 0 0 0
340 2 30.5745 12.5895 14.388 0 0 0
1619 2 19.7835 17.985 16.1865 0 0 0
2263 2 12.5895 3.597 19.7835 0 0 0
1542 2 21.582 12.5895 19.7835 0 0 0
89 2 34.1715 14.388 16.1865 0 0 0
2008 2 16.1865 19.7835 3.597 0 0 0
1217 2 25.179 17.985 14.388 0 0 0
2150 2 17.985 30.5745 26.9775 0 0 0
596 2 30.5745 34.1715 28.776 0 0 0
892 2 26.9775 26.9775 7.194 0 0 0
1857 2 17.985 3.597 14.388 0 0 0
2775 2 8.9925 14.388 12.5895 0 0 0
980 2 26.9775 34.1715 14.388 0 0 0
3419 2 1.7985 0.0 16.1865 0 0 0
1831 2 16.1865 0.0 26.9775 0 0 0
795 2 26.9775 14.388 30.5745 0 0 0
1850 2 17.985 5.3955 8.9925 0 0 0
2904 2 8.9925 26.9775 17.985 0 0 0
2921 2 10.791 28.776 0.0 0 0 0
3111 2 5.3955 7.194 26.9775 0 0 0
157 2 34.1715 25.179 30.5745 0 0 0
1527 2 19.7835 10.791 5.3955 0 0 0
3719 2 1.7985 25.179 34.1715 0 0 0
2891 2 8.9925 25.179 8.9925 0 0 0
2489 2 14.388 25.179 7.194 0 0 0
3459 2 1.7985 3.597 16.1865 0 0 0
3693 2 3.597 25.179 10.791 0 0 0
39 2 34.1715 3.597 34.1715 0 0 0
1414 2 21.582 1.7985 12.5895 0 0 0
3226 2 7.194 19.7835 23.3805 0 0 0
1420 2 19.7835 1.7985 14.388 0 0 0
3018 2 7.194 1.7985 16.1865 0 0 0
2549 2 14.388 28.776 25.179 0 0 0
2002 2 17.985 19.7835 1.7985 0 0 0
3413 2 3.597 0.0 10.791 0 0 0
1842 2 17.985 5.3955 1.7985 0 0 0
1710 2 21.582 26.9775 26.9775 0 0 0
3069 2 7.194 3.597 25.179 0 0 0
3210 2 7.194 19.7835 8.9925 0 0 0
287 2 30.5745 7.194 5.3955 0 0 0
668 2 26.9775 5.3955 21.582 0 0 0
1693 2 21.582 25.179 10.791 0 0 0
3135 2 5.3955 10.791 12.5895 0 0 0
3153 2 7.194 10.791 28.776 0 0 0
1187 2 23.3805 14.388 23.3805 0 0 0
1425 2 21.582 0.0 21.582 0 0 0
1442 2 21.582 5.3955 1.7985 0 0 0
175 2 34.1715 28.776 26.9775 0 0 0
1061 2 25.179 3.597 17.985 0 0 0
112 2 34.1715 19.7835 17.985 0 0 0
2936 2 8.9925 30.5745 10.791 0 0 0
1713 2 21.582 25.179 28.776 0 0 0
3723 2 1.7985 28.776 1.7985 0 0 0
2607 2 8.9925 0.0 5.3955 0 0 0
3985 2 0.0 32.373 7.194 0 0 0
1303 2 23.3805 25.179 19.7835 0 0 0
1068 2 23.3805 5.3955 21.582 0 0 0
1997 2 17.985 14.388 32.373 0 0 0
3446 2 3.597 5.3955 5.3955 0 0 0
2264 2 12.5895 5.3955 17.985 0 0 0
2715 2 8.9925 7.194 30.5745 0 0 0
1455 2 19.7835 3.597 12.5895 0 0 0
672 2 26.9775 5.3955 25.179 0 0 0
3068 2 5.3955 5.3955 21.582 0 0 0
27 2 34.1715 3.597 12.5895 0 0 0
2924 2 8.9925 30.5745 0.0 0 0 0
3524 2 1.7985 12.5895 0.0 0 0 0
943 2 26.9775 28.776 19.7835 0 0 0
3209 2 7.194 17.985 7.194 0 0 0
2465 2 14.388 21.582 21.582 0 0 0
3770 2 3.597 34.1715 8.9925 0 0 0
2692 2 8.9925 8.9925 7.194 0 0 0
2997 2 10.791 32.373 32.373 0 0 0
2350 2 14.388 12.5895 26.9775 0 0 0
2545 2 14.388 28.776 21.582 0 0 0
3358 2 7.194 30.5745 34.1715 0 0 0
176 2 34.1715 30.5745 25.179 0 0 0
2802 2 10.791 19.7835 1.7985 0 0 0
1877 2 17.985 3.597 32.373 0 0 0
2242 2 14.388 5.3955 1.7985 0 0 0
3518 2 3.597 8.9925 34.1715 0 0 0
372 2 30.5745 16.1865 7.194 0 0 0
3344 2 5.3955 30.5745 17.985 0 0 0
1871 2 16.1865 3.597 26.9775 0 0 0
1826 2 17.985 1.7985 23.3805 0 0 0
2258 2 14.388 5.3955 16.1865 0 0 0
816 2 26.9775 19.7835 10.791 0 0 0
1675 2 19.7835 21.582 30.5745 0 0 0
3533 2 3.597 10.791 10.791 0 0 0
1637 2 21.582 17.985 32.373 0 0 0
3310 2 7.194 26.9775 26.9775 0 0 0
333 2 32.373 10.791 10.791 0 0 0
2906 2 10.791 26.9775 23.3805 0 0 0
419 2 30.5745 17.985 16.1865 0 0 0
1572 2 19.7835 16.1865 7.194 0 0 0
1394 2 25.179 34.1715 30.5745 0 0 0
2810 2 10.791 19.7835 8.9925 0 0 0
686 2 28.776 8.9925 5.3955 0 0 0
2317 2 14.388 7.194 32.373 0 0 0
1541 2 21.582 10.791 17.985 0 0 0
1286 2 25.179 26.9775 5.3955 0 0 0
3138 2 7.194 12.5895 16.1865 0 0 0
2279 2 12.5895 3.597 34.1715 0 0 0
624 2 26.9775 1.7985 17.985 0 0 0
1048 2 23.3805 5.3955 3.597 0 0 0
3130 2 7.194 12.5895 8.9925 0 0 0
631 2 26.9775 0.0 26.9775 0 0 0
3829 2 0.0 3.597 14.388 0 0 0
3704 2 1.7985 26.9775 17.985 0 0 0
24 2 34.1715 5.3955 3.597 0 0 0
380 2 30.5745 16.1865 14.388 0 0 0
676 2 26.9775 5.3955 28.776 0 0 0
2576 2 12.5895 34.1715 10.791 0 0 0
886 2 28.776 26.9775 5.3955 0 0 0
974 2 28.776 34.1715 12.5895 0 0 0
460 2 30.5745 23.3805 14.388 0 0 0
1985 2 17.985 14.388 21.582 0 0 0
3412 2 1.7985 1.7985 7.194 0 0 0
957 2 28.776 28.776 32.373 0 0 0
1307 2 23.3805 25.179 23.3805 0 0 0
309 2 32.373 7.194 25.179 0 0 0
1304 2 23.3805 26.9775 17.985 0 0 0
446 2 32.373 23.3805 5.3955 0 0 0
111 2 34.1715 17.985 19.7835 0 0 0
2660 2 8.9925 5.3955 14.388 0 0 0
3039 2 5.3955 0.0 34.1715 0 0 0
1580 2 19.7835 16.1865 14.388 0 0 0
1392 2 23.3805 34.1715 25.179 0 0 0
901 2 28.776 25.179 17.985 0 0 0
2704 2 8.9925 8.9925 17.985 0 0 0
978 2 28.776 34.1715 16.1865 0 0 0
286 2 32.373 8.9925 5.3955 0 0 0
466 2 32.373 23.3805 23.3805 0 0 0
3879 2 0.0 10.791 32.373 0 0 0
2860 2 8.9925 23.3805 14.388 0 0 0
2124 2 16.1865 30.5745 0.0 0 0 0
1136 2 23.3805 12.5895 10.791 0 0 0
3211 2 5.3955 17.985 8.9925 0 0 0
2127 2 16.1865 28.776 5.3955 0 0 0
3848 2 0.0 8.9925 12.5895 0 0 0
3173 2 7.194 14.388 10.791 0 0 0
2334 2 14.388 12.5895 12.5895 0 0 0
3865 2 0.0 10.791 7.194 0 0 0
3600 2 1.7985 16.1865 32.373 0 0 0
2822 2 10.791 19.7835 19.7835 0 0 0
807 2 26.9775 17.985 5.3955 0 0 0
2223 2 12.5895 0.0 19.7835 0 0 0
780 2 26.9775 16.1865 14.388 0 0 0
2077 2 17.985 21.582 32.373 0 0 0
3387 2 5.3955 32.373 23.3805 0 0 0
2206 2 14.388 1.7985 5.3955 0 0 0
3183 2 5.3955 14.388 19.7835 0 0 0
926 2 28.776 30.5745 5.3955 0 0 0
2806 2 10.791 19.7835 5.3955 0 0 0
946 2 28.776 30.5745 23.3805 0 0 0
3521 2 3.597 10.791 0.0 0 0 0
136 2 34.1715 23.3805 25.179 0 0 0
2286 2 14.388 8.9925 5.3955 0 0 0
718 2 28.776 8.9925 34.1715 0 0 0
1431 2 19.7835 0.0 26.9775 0 0 0
3536 2 1.7985 12.5895 10.791 0 0 0
2404 2 12.5895 19.7835 0.0 0 0 0
326 2 32.373 12.5895 5.3955 0 0 0
2125 2 17.985 28.776 3.597 0 0 0
1318 2 25.179 26.9775 34.1715 0 0 0
3075 2 5.3955 3.597 30.5745 0 0 0
1823 2 16.1865 0.0 19.7835 0 0 0
3453 2 3.597 3.597 10.791 0 0 0
3957 2 0.0 25.179 28.776 0 0 0
3038 2 7.194 1.7985 34.1715 0 0 0
2352 2 12.5895 12.5895 25.179 0 0 0
2394 2 14.388 16.1865 30.5745 0 0 0
750 2 28.776 12.5895 26.9775 0 0 0
534 2 32.373 30.5745 12.5895 0 0 0
1020 2 23.3805 1.7985 14.388 0 0 0
409 2 32.373 17.985 7.194 0 0 0
1257 2 25.179 21.582 14.388 0 0 0
1316 2 23.3805 26.9775 28.776 0 0 0
2477 2 14.388 21.582 32.373 0 0 0
2202 2 14.388 1.7985 1.7985 0 0 0
3877 2 0.0 10.791 28.776 0 0 0
851 2 26.9775 21.582 8.9925 0 0 0
2703 2 8.9925 7.194 19.7835 0 0 0
2289 2 14.388 7.194 7.194 0 0 0
1753 2 21.582 28.776 28.776 0 0 0
304 2 30.5745 8.9925 17.985 0 0 0
1549 2 21.582 10.791 25.179 0 0 0
2239 2 12.5895 0.0 34.1715 0 0 0
2198 2 17.985 34.1715 34.1715 0 0 0
3120 2 5.3955 8.9925 32.373 0 0 0
1221 2 25.179 17.985 17.985 0 0 0
2835 2 8.9925 17.985 30.5745 0 0 0
3224 2 5.3955 19.7835 17.985 0 0 0
1786 2 21.582 34.1715 23.3805 0 0 0
3592 2 1.7985 16.1865 25.179 0 0 0
2400 2 12.5895 16.1865 32.373 0 0 0
661 2 28.776 3.597 17.985 0 0 0
2553 2 14.388 28.776 28.776 0 0 0
699 2 26.9775 7.194 16.1865 0 0 0
3251 2 5.3955 21.582 8.9925 0 0 0
3576 2 1.7985 16.1865 10.791 0 0 0
3779 2 1.7985 32.373 16.1865 0 0 0
1040 2 23.3805 1.7985 32.373 0 0 0
2592 2 12.5895 34.1715 25.179 0 0 0
660 2 26.9775 5.3955 14.388 0 0 0
212 2 30.5745 1.7985 7.194 0 0 0
1980 2 16.1865 16.1865 14.388 0 0 0
3177 2 7.194 14.388 14.388 0 0 0
65 2 34.1715 10.791 8.9925 0 0 0
3477 2 3.597 3.597 32.373 0 0 0
1851 2 16.1865 3.597 8.9925 0 0 0
3732 2 1.7985 30.5745 7.194 0 0 0
575 2 30.5745 32.373 12.5895 0 0 0
1280 2 23.3805 23.3805 32.373 0 0 0
512 2 30.5745 26.9775 25.179 0 0 0
1310 2 25.179 26.9775 26.9775 0 0 0
2296 2 12.5895 8.9925 10.791 0 0 0
389 2 32.373 14.388 25.179 0 0 0
1811 2 16.1865 0.0 8.9925 0 0 0
369 2 32.373 14.388 7.194 0 0 0
3080 2 5.3955 5.3955 32.373 0 0 0
2442 2 14.388 23.3805 1.7985 0 0 0
3028 2 5.3955 1.7985 21.582 0 0 0
1775 2 19.7835 32.373 12.5895 0 0 0
3881 2 0.0 14.388 0.0 0 0 0
920 2 26.9775 26.9775 32.373 0 0 0
3415 2 1.7985 0.0 12.5895 0 0 0
969 2 28.776 32.373 7.194 0 0 0
568 2 30.5745 34.1715 3.597 0 0 0
3202 2 7.194 19.7835 1.7985 0 0 0
1950 2 17.985 12.5895 26.9775 0 0 0
2171 2 16.1865 32.373 8.9925 0 0 0
2037 2 17.985 17.985 32.373 0 0 0
382 2 32.373 16.1865 19.7835 0 0 0
1869 2 17.985 3.597 25.179 0 0 0
3350 2 7.194 30.5745 26.9775 0 0 0
827 2 26.9775 17.985 23.3805 0 0 0
2613 2 10.791 0.0 10.791 0 0 0
1397 2 25.179 32.373 32.373 0 0 0
2275 2 12.5895 3.597 30.5745 0 0 0
1677 2 21.582 21.582 32.373 0 0 0
1369 2 25.179 32.373 7.194 0 0 0
3368 2 5.3955 34.1715 3.597 0 0 0
741 2 28.776 10.791 17.985 0 0 0
32 2 34.1715 5.3955 17.985 0 0 0
2095 2 16.1865 25.179 12.5895 0 0 0
655 2 26.9775 3.597 12.5895 0 0 0
2874 2 10.791 23.3805 30.5745 0 0 0
209 2 32.373 0.0 7.194 0 0 0
2686 2 10.791 8.9925 5.3955 0 0 0
3249 2 7.194 21.582 7.194 0 0 0
2777 2 10.791 14.388 14.388 0 0 0
3751 2 1.7985 28.776 26.9775 0 0 0
1463 2 19.7835 3.597 19.7835 0 0 0
2721 2 10.791 10.791 0.0 0 0 0
2015 2 16.1865 17.985 12.5895 0 0 0
1351 2 23.3805 28.776 26.9775 0 0 0
1602 2 21.582 19.7835 1.7985 0 0 0
3571 2 1.7985 14.388 8.9925 0 0 0
3473 2 3.597 3.597 28.776 0 0 0
2983 2 8.9925 32.373 19.7835 0 0 0
206 2 32.373 1.7985 5.3955 0 0 0
2683 2 8.9925 7.194 1.7985 0 0 0
2849 2 10.791 21.582 7.194 0 0 0
1767 2 19.7835 32.373 5.3955 0 0 0
3192 2 5.3955 16.1865 25.179 0 0 0
1148 2 23.3805 12.5895 21.582 0 0 0
719 2 26.9775 7.194 34.1715 0 0 0
2531 2 12.5895 28.776 8.9925 0 0 0
1297 2 25.179 25.179 14.388 0 0 0
971 2 26.9775 32.373 8.9925 0 0 0
1680 2 19.7835 23.3805 32.373 0 0 0
2639 2 8.9925 0.0 34.1715 0 0 0
2143 2 16.1865 28.776 19.7835 0 0 0
3404 2 1.7985 1.7985 0.0 0 0 0
3430 2 3.597 1.7985 26.9775 0 0 0
3856 2 0.0 8.9925 26.9775 0 0 0
1644 2 19.7835 23.3805 0.0 0 0 0
1122 2 25.179 12.5895 1.7985 0 0 0
2617 2 10.791 0.0 14.388 0 0 0
471 2 30.5745 21.582 26.9775 0 0 0
3003 2 5.3955 0.0 1.7985 0 0 0
3390 2 7.194 34.1715 26.9775 0 0 0
724 2 26.9775 12.5895 0.0 0 0 0
1484 2 19.7835 8.9925 0.0 0 0 0
1864 2 16.1865 5.3955 17.985 0 0 0
2413 2 14.388 17.985 10.791 0 0 0
1090 2 25.179 8.9925 8.9925 0 0 0
1845 2 17.985 3.597 3.597 0 0 0
31 2 34.1715 3.597 19.7835 0 0 0
3501 2 3.597 7.194 17.985 0 0 0
3294 2 7.194 26.9775 12.5895 0 0 0
1058 2 25.179 5.3955 16.1865 0 0 0
2260 2 12.5895 5.3955 14.388 0 0 0
1072 2 23.3805 5.3955 25.179 0 0 0
728 2 26.9775 12.5895 3.597 0 0 0
3768 2 1.7985 34.1715 3.597 0 0 0
2755 2 8.9925 10.791 30.5745 0 0 0
1212 2 23.3805 19.7835 7.194 0 0 0
658 2 28.776 5.3955 16.1865 0 0 0
1975 2 16.1865 14.388 12.5895 0 0 0
1999 2 16.1865 14.388 34.1715 0 0 0
547 2 30.5745 28.776 23.3805 0 0 0
2020 2 16.1865 19.7835 14.388 0 0 0
2230 2 14.388 1.7985 26.9775 0 0 0
1261 2 25.179 21.582 17.985 0 0 0
3844 2 0.0 8.9925 5.3955 0 0 0
1707 2 19.7835 25.179 23.3805 0 0 0
3409 2 3.597 0.0 7.194 0 0 0
1118 2 25.179 8.9925 34.1715 0 0 0
3149 2 7.194 10.791 25.179 0 0 0
1596 2 19.7835 16.1865 28.776 0 0 0
1285 2 25.179 25.179 3.597 0 0 0
2681 2 10.791 7.194 0.0 0 0 0
2790 2 10.791 16.1865 26.9775 0 0 0
845 2 28.776 21.582 3.597 0 0 0
1032 2 23.3805 1.7985 25.179 0 0 0
2148 2 16.1865 30.5745 21.582 0 0 0
3967 2 0.0 28.776 10.791 0 0 0
2092 2 16.1865 26.9775 7.194 0 0 0
3324 2 5.3955 30.5745 0.0 0 0 0
283 2 30.5745 7.194 1.7985 0 0 0
3301 2 7.194 25.179 17.985 0 0 0
64 2 34.1715 12.5895 3.597 0 0 0
3452 2 1.7985 5.3955 7.194 0 0 0
2307 2 12.5895 7.194 23.3805 0 0 0
3235 2 5.3955 17.985 30.5745 0 0 0
769 2 28.776 14.388 7.194 0 0 0
48 2 34.1715 8.9925 10.791 0 0 0
2300 2 12.5895 8.9925 14.388 0 0 0
1346 2 25.179 30.5745 23.3805 0 0 0
2699 2 8.9925 7.194 16.1865 0 0 0
1933 2 17.985 10.791 10.791 0 0 0
2811 2 8.9925 17.985 8.9925 0 0 0
1712 2 19.7835 26.9775 25.179 0 0 0
3840 2 0.0 5.3955 34.1715 0 0 0
1426 2 21.582 1.7985 23.3805 0 0 0
2543 2 12.5895 28.776 19.7835 0 0 0
3864 2 0.0 12.5895 5.3955 0 0 0
359 2 30.5745 10.791 34.1715 0 0 0
2508 2 12.5895 26.9775 21.582 0 0 0
2707 2 8.9925 7.194 23.3805 0 0 0
1525 2 21.582 10.791 3.597 0 0 0
1330 2 25.179 30.5745 8.9925 0 0 0
1011 2 23.3805 0.0 8.9925 0 0 0
3902 2 0.0 19.7835 1.7985 0 0 0
2620 2 8.9925 1.7985 14.388 0 0 0
2643 2 8.9925 3.597 1.7985 0 0 0
3460 2 1.7985 5.3955 14.388 0 0 0
3734 2 3.597 30.5745 12.5895 0 0 0
2768 2 8.9925 16.1865 3.597 0 0 0
1808 2 16.1865 1.7985 3.597 0 0 0
3168 2 5.3955 16.1865 3.597 0 0 0
2241 2 14.388 3.597 0.0 0 0 0
720 2 26.9775 8.9925 32.373 0 0 0
3148 2 5.3955 12.5895 21.582 0 0 0
2529 2 14.388 28.776 7.194 0 0 0
3186 2 7.194 16.1865 23.3805 0 0 0
3472 2 1.7985 5.3955 25.179 0 0 0
2726 2 10.791 12.5895 5.3955 0 0 0
2066 2 17.985 23.3805 23.3805 0 0 0
3758 2 3.597 30.5745 34.1715 0 0 0
3946 2 0.0 26.9775 8.9925 0 0 0
3511 2 1.7985 7.194 26.9775 0 0 0
2032 2 16.1865 19.7835 25.179 0 0 0
572 2 30.5745 34.1715 7.194 0 0 0
1523 2 19.7835 10.791 1.7985 0 0 0
1267 2 23.3805 21.582 23.3805 0 0 0
1406 2 21.582 1.7985 5.3955 0 0 0
3490 2 3.597 8.9925 8.9925 0 0 0
2189 3 17.985 32.373 25.179 0 0 0
1731 3 19.7835 28.776 8.9925 0 0 0
478 3 32.373 23.3805 34.1715 0 0 0
1488 3 19.7835 8.9925 3.597 0 0 0
10 3 34.1715 1.7985 14.388 0 0 0
3642 3 3.597 23.3805 1.7985 0 0 0
476 3 30.5745 23.3805 28.776 0 0 0
2970 3 10.791 34.1715 8.9925 0 0 0
425 3 32.373 17.985 21.582 0 0 0
171 3 34.1715 28.776 19.7835 0 0 0
1143 3 23.3805 10.791 19.7835 0 0 0
3945 3 0.0 25.179 7.194 0 0 0
1667 3 19.7835 21.582 23.3805 0 0 0
3505 3 3.597 7.194 21.582 0 0 0
855 3 26.9775 21.582 12.5895 0 0 0
1761 3 21.582 32.373 0.0 0 0 0
2558 3 14.388 30.5745 34.1715 0 0 0
3280 3 5.3955 23.3805 32.373 0 0 0
2160 3 16.1865 30.5745 32.373 0 0 0
1235 3 23.3805 17.985 30.5745 0 0 0
1145 3 25.179 10.791 21.582 0 0 0
1647 3 19.7835 21.582 5.3955 0 0 0
2873 3 10.791 21.582 28.776 0 0 0
2475 3 12.5895 21.582 30.5745 0 0 0
2276 3 12.5895 5.3955 28.776 0 0 0
2035 3 16.1865 17.985 30.5745 0 0 0
2522 3 14.388 30.5745 1.7985 0 0 0
1603 3 19.7835 17.985 1.7985 0 0 0
3044 3 5.3955 5.3955 0.0 0 0 0
830 3 28.776 19.7835 26.9775 0 0 0
1109 3 25.179 7.194 25.179 0 0 0
45 3 34.1715 7.194 8.9925 0 0 0
3392 3 5.3955 34.1715 25.179 0 0 0
3268 3 5.3955 23.3805 21.582 0 0 0
1652 3 19.7835 23.3805 7.194 0 0 0
3491 3 1.7985 7.194 8.9925 0 0 0
3672 3 1.7985 23.3805 25.179 0 0 0
2456 3 12.5895 23.3805 10.791 0 0 0
1698 3 21.582 26.9775 16.1865 0 0 0
3989 3 0.0 32.373 14.388 0 0 0
1274 3 25.179 23.3805 30.5745 0 0 0
1380 3 23.3805 34.1715 14.388 0 0 0
1023 3 23.3805 0.0 19.7835 0 0 0
2166 3 17.985 34.1715 5.3955 0 0 0
3097 3 7.194 7.194 14.388 0 0 0
2109 3 17.985 25.179 25.179 0 0 0
1357 3 25.179 28.776 32.373 0 0 0
3712 3 1.7985 26.9775 25.179 0 0 0
1891 3 16.1865 7.194 8.9925 0 0 0
3690 3 3.597 26.9775 8.9925 0 0 0
3471 3 1.7985 3.597 26.9775 0 0 0
584 3 30.5745 34.1715 17.985 0 0 0
3201 3 7.194 17.985 0.0 0 0 0
1512 3 19.7835 8.9925 25.179 0 0 0
3964 3 0.0 30.5745 5.3955 0 0 0
1624 3 19.7835 19.7835 17.985 0 0 0
2496 3 12.5895 26.9775 10.791 0 0 0
2225 3 14.388 0.0 21.582 0 0 0
168 3 34.1715 30.5745 10.791 0 0 0
3854 3 0.0 8.9925 23.3805 0 0 0
1056 3 23.3805 5.3955 10.791 0 0 0
1205 3 25.179 17.985 3.597 0 0 0
2333 3 14.388 10.791 10.791 0 0 0
3113 3 7.194 7.194 28.776 0 0 0
3225 3 7.194 17.985 21.582 0 0 0
3525 3 3.597 10.791 3.597 0 0 0
1320 3 23.3805 26.9775 32.373 0 0 0
3971 3 0.0 28.776 17.985 0 0 0
1961 3 17.985 14.388 0.0 0 0 0
433 3 32.373 17.985 28.776 0 0 0
3431 3 1.7985 0.0 26.9775 0 0 0
2794 3 10.791 16.1865 30.5745 0 0 0
2969 3 10.791 32.373 7.194 0 0 0
2231 3 12.5895 0.0 26.9775 0 0 0
310 3 32.373 8.9925 26.9775 0 0 0
3041 3 7.194 3.597 0.0 0 0 0
3050 3 7.194 5.3955 8.9925 0 0 0
1208 3 23.3805 19.7835 3.597 0 0 0
271 3 30.5745 3.597 26.9775 0 0 0
2939 3 8.9925 28.776 16.1865 0 0 0
2110 3 17.985 26.9775 26.9775 0 0 0
1752 3 19.7835 30.5745 25.179 0 0 0
3276 3 5.3955 23.3805 28.776 0 0 0
3323 3 5.3955 28.776 1.7985 0 0 0
2556 3 12.5895 30.5745 28.776 0 0 0
2049 3 17.985 21.582 7.194 0 0 0
1465 3 21.582 3.597 21.582 0 0 0
1211 3 23.3805 17.985 8.9925 0 0 0
782 3 28.776 16.1865 19.7835 0 0 0
537 3 32.373 28.776 14.388 0 0 0
2329 3 14.388 10.791 7.194 0 0 0
3263 3 5.3955 21.582 19.7835 0 0 0
2410 3 14.388 19.7835 8.9925 0 0 0
437 3 32.373 17.985 32.373 0 0 0
2458 3 14.388 23.3805 16.1865 0 0 0
3048 3 5.3955 5.3955 3.597 0 0 0
1557 3 21.582 10.791 32.373 0 0 0
1631 3 19.7835 17.985 26.9775 0 0 0
1917 3 17.985 7.194 32.373 0 0 0
205 3 32.373 0.0 3.597 0 0 0
2059 3 16.1865 21.582 16.1865 0 0 0
2383 3 12.5895 14.388 19.7835 0 0 0
184 3 34.1715 34.1715 3.597 0 0 0
652 3 26.9775 5.3955 7.194 0 0 0
1651 3 19.7835 21.582 8.9925 0 0 0
1711 3 19.7835 25.179 26.9775 0 0 0
498 3 32.373 26.9775 16.1865 0 0 0
91 3 34.1715 14.388 19.7835 0 0 0
1763 3 19.7835 32.373 1.7985 0 0 0
626 3 28.776 1.7985 23.3805 0 0 0
3435 3 1.7985 0.0 30.5745 0 0 0
2224 3 12.5895 1.7985 17.985 0 0 0
280 3 30.5745 5.3955 32.373 0 0 0
169 3 34.1715 28.776 16.1865 0 0 0
1018 3 25.179 1.7985 16.1865 0 0 0
635 3 26.9775 0.0 30.5745 0 0 0
2363 3 12.5895 14.388 1.7985 0 0 0
210 3 32.373 1.7985 8.9925 0 0 0
3176 3 5.3955 16.1865 10.791 0 0 0
3449 3 3.597 3.597 7.194 0 0 0
1437 3 21.582 0.0 32.373 0 0 0
2727 3 8.9925 10.791 5.3955 0 0 0
1063 3 23.3805 3.597 19.7835 0 0 0
1996 3 16.1865 16.1865 28.776 0 0 0
1983 3 16.1865 14.388 19.7835 0 0 0
3735 3 1.7985 28.776 12.5895 0 0 0
3858 3 0.0 8.9925 30.5745 0 0 0
1218 3 25.179 19.7835 16.1865 0 0 0
2068 3 16.1865 23.3805 21.582 0 0 0
1388 3 23.3805 34.1715 21.582 0 0 0
2633 3 10.791 0.0 28.776 0 0 0
222 3 32.373 1.7985 19.7835 0 0 0
3890 3 0.0 16.1865 16.1865 0 0 0
2331 3 12.5895 10.791 8.9925 0 0 0
1165 3 25.179 14.388 3.597 0 0 0
665 3 28.776 3.597 21.582 0 0 0
2190 3 17.985 34.1715 26.9775 0 0 0
2834 3 10.791 19.7835 30.5745 0 0 0
1551 3 19.7835 10.791 26.9775 0 0 0
3083 3 5.3955 7.194 1.7985 0 0 0
2539 3 12.5895 28.776 16.1865 0 0 0
2930 3 10.791 30.5745 8.9925 0 0 0
2034 3 17.985 19.7835 30.5745 0 0 0
1275 3 23.3805 21.582 30.5745 0 0 0
294 3 32.373 8.9925 12.5895 0 0 0
292 3 30.5745 8.9925 7.194 0 0 0
1326 3 25.179 30.5745 5.3955 0 0 0
1509 3 21.582 7.194 25.179 0 0 0
2684 3 8.9925 8.9925 0.0 0 0 0
2962 3 10.791 34.1715 1.7985 0 0 0
610 3 28.776 1.7985 8.9925 0 0 0
650 3 28.776 5.3955 8.9925 0 0 0
1340 3 23.3805 30.5745 14.388 0 0 0
1519 3 19.7835 7.194 34.1715 0 0 0
1690 3 21.582 26.9775 8.9925 0 0 0
625 3 28.776 0.0 21.582 0 0 0
1500 3 19.7835 8.9925 14.388 0 0 0
1111 3 23.3805 7.194 26.9775 0 0 0
59 3 34.1715 7.194 34.1715 0 0 0
3577 3 3.597 14.388 14.388 0 0 0
186 3 34.1715 34.1715 7.194 0 0 0
906 3 28.776 26.9775 23.3805 0 0 0
447 3 30.5745 21.582 5.3955 0 0 0
3658 3 3.597 23.3805 16.1865 0 0 0
2246 3 14.388 5.3955 5.3955 0 0 0
1410 3 21.582 1.7985 8.9925 0 0 0
3104 3 5.3955 8.9925 17.985 0 0 0
3648 3 1.7985 23.3805 3.597 0 0 0
94 3 34.1715 16.1865 21.582 0 0 0
3159 3 5.3955 10.791 34.1715 0 0 0
3356 3 5.3955 30.5745 28.776 0 0 0
493 3 32.373 25.179 10.791 0 0 0
3178 3 7.194 16.1865 16.1865 0 0 0
3931 3 0.0 21.582 17.985 0 0 0
161 3 34.1715 28.776 1.7985 0 0 0
2525 3 14.388 28.776 3.597 0 0 0
862 3 28.776 23.3805 19.7835 0 0 0
225 3 32.373 0.0 21.582 0 0 0
2705 3 10.791 7.194 21.582 0 0 0
654 3 28.776 5.3955 12.5895 0 0 0
2658 3 10.791 5.3955 16.1865 0 0 0
2251 3 12.5895 3.597 8.9925 0 0 0
435 3 30.5745 17.985 30.5745 0 0 0
955 3 26.9775 28.776 30.5745 0 0 0
1206 3 25.179 19.7835 5.3955 0 0 0
152 3 34.1715 26.9775 17.985 0 0 0
3457 3 3.597 3.597 14.388 0 0 0
285 3 32.373 7.194 3.597 0 0 0
1819 3 16.1865 0.0 16.1865 0 0 0
2591 3 12.5895 32.373 26.9775 0 0 0
1785 3 21.582 32.373 21.582 0 0 0
3782 3 3.597 34.1715 19.7835 0 0 0
1045 3 25.179 3.597 3.597 0 0 0
198 3 34.1715 34.1715 28.776 0 0 0
1954 3 17.985 12.5895 30.5745 0 0 0
3809 3 0.0 0.0 14.388 0 0 0
3450 3 3.597 5.3955 8.9925 0 0 0
3360 3 5.3955 30.5745 32.373 0 0 0
2389 3 14.388 14.388 25.179 0 0 0
3777 3 3.597 32.373 14.388 0 0 0
1569 3 21.582 14.388 7.194 0 0 0
2799 3 8.9925 14.388 34.1715 0 0 0
2255 3 12.5895 3.597 12.5895 0 0 0
3215 3 5.3955 17.985 12.5895 0 0 0
1241 3 25.179 21.582 0.0 0 0 0
241 3 32.373 3.597 0.0 0 0 0
1149 3 25.179 10.791 25.179 0 0 0
2541 3 14.388 28.776 17.985 0 0 0
3859 3 0.0 7.194 32.373 0 0 0
3160 3 5.3955 12.5895 32.373 0 0 0
1625 3 21.582 17.985 21.582 0 0 0
3908 3 0.0 19.7835 12.5895 0 0 0
1105 3 25.179 7.194 21.582 0 0 0
360 3 30.5745 12.5895 32.373 0 0 0
3355 3 5.3955 28.776 30.5745 0 0 0
3568 3 1.7985 16.1865 3.597 0 0 0
1952 3 16.1865 12.5895 25.179 0 0 0
2826 3 10.791 19.7835 23.3805 0 0 0
1699 3 19.7835 25.179 16.1865 0 0 0
647 3 26.9775 3.597 5.3955 0 0 0
3552 3 1.7985 12.5895 25.179 0 0 0
2910 3 10.791 26.9775 26.9775 0 0 0
3842 3 0.0 8.9925 1.7985 0 0 0
1295 3 23.3805 25.179 12.5895 0 0 0
3221 3 7.194 17.985 17.985 0 0 0
314 3 32.373 8.9925 30.5745 0 0 0
103 3 34.1715 17.985 5.3955 0 0 0
3827 3 0.0 3.597 10.791 0 0 0
3612 3 1.7985 19.7835 7.194 0 0 0
1234 3 25.179 19.7835 30.5745 0 0 0
1760 3 19.7835 30.5745 32.373 0 0 0
1125 3 25.179 10.791 3.597 0 0 0
1181 3 25.179 14.388 17.985 0 0 0
2947 3 8.9925 28.776 23.3805 0 0 0
1890 3 17.985 8.9925 8.9925 0 0 0
130 3 34.1715 23.3805 14.388 0 0 0
1556 3 19.7835 12.5895 28.776 0 0 0
3539 3 1.7985 10.791 16.1865 0 0 0
2120 3 16.1865 26.9775 32.373 0 0 0
869 3 28.776 21.582 25.179 0 0 0
2323 3 12.5895 10.791 1.7985 0 0 0
2741 3 10.791 10.791 17.985 0 0 0
213 3 32.373 0.0 10.791 0 0 0
1497 3 21.582 7.194 14.388 0 0 0
2042 3 17.985 23.3805 1.7985 0 0 0
167 3 34.1715 28.776 12.5895 0 0 0
335 3 30.5745 10.791 12.5895 0 0 0
3698 3 3.597 26.9775 16.1865 0 0 0
1180 3 23.3805 16.1865 14.388 0 0 0
3424 3 1.7985 1.7985 17.985 0 0 0
1368 3 23.3805 34.1715 3.597 0 0 0
3903 3 0.0 17.985 3.597 0 0 0
411 3 30.5745 17.985 8.9925 0 0 0
3973 3 0.0 28.776 21.582 0 0 0
3654 3 3.597 23.3805 12.5895 0 0 0
1117 3 25.179 7.194 32.373 0 0 0
2718 3 10.791 8.9925 34.1715 0 0 0
3613 3 3.597 17.985 10.791 0 0 0
316 3 30.5745 8.9925 28.776 0 0 0
970 3 28.776 34.1715 8.9925 0 0 0
2315 3 12.5895 7.194 30.5745 0 0 0
3700 3 1.7985 26.9775 14.388 0 0 0
3314 3 7.194 26.9775 30.5745 0 0 0
1979 3 16.1865 14.388 16.1865 0 0 0
2291 3 12.5895 7.194 8.9925 0 0 0
1403 3 19.7835 0.0 1.7985 0 0 0
1101 3 25.179 7.194 17.985 0 0 0
3962 3 0.0 30.5745 1.7985 0 0 0
1086 3 25.179 8.9925 5.3955 0 0 0
3322 3 7.194 30.5745 1.7985 0 0 0
651 3 26.9775 3.597 8.9925 0 0 0
2815 3 8.9925 17.985 12.5895 0 0 0
1176 3 23.3805 16.1865 10.791 0 0 0
3818 3 0.0 1.7985 30.5745 0 0 0
2511 3 12.5895 25.179 26.9775 0 0 0
1377 3 25.179 32.373 14.388 0 0 0
85 3 34.1715 14.388 8.9925 0 0 0
1682 3 21.582 26.9775 1.7985 0 0 0
1798 3 21.582 34.1715 34.1715 0 0 0
823 3 26.9775 17.985 19.7835 0 0 0
275 3 30.5745 3.597 30.5745 0 0 0
66 3 34.1715 12.5895 7.194 0 0 0
391 3 30.5745 14.388 26.9775 0 0 0
3129 3 7.194 10.791 7.194 0 0 0
1779 3 19.7835 32.373 16.1865 0 0 0
960 3 26.9775 30.5745 32.373 0 0 0
975 3 26.9775 32.373 12.5895 0 0 0
1818 3 17.985 1.7985 16.1865 0 0 0
2754 3 10.791 12.5895 30.5745 0 0 0
1656 3 19.7835 23.3805 10.791 0 0 0
3939 3 0.0 21.582 32.373 0 0 0
671 3 26.9775 3.597 26.9775 0 0 0
1158 3 25.179 12.5895 34.1715 0 0 0
1412 3 19.7835 1.7985 7.194 0 0 0
2840 3 8.9925 19.7835 32.373 0 0 0
467 3 30.5745 21.582 23.3805 0 0 0
3015 3 5.3955 0.0 12.5895 0 0 0
2280 3 12.5895 5.3955 32.373 0 0 0
1265 3 25.179 21.582 21.582 0 0 0
2734 3 10.791 12.5895 12.5895 0 0 0
3146 3 7.194 12.5895 23.3805 0 0 0
3408 3 1.7985 1.7985 3.597 0 0 0
3414 3 3.597 1.7985 12.5895 0 0 0
2172 3 16.1865 34.1715 7.194 0 0 0
1167 3 23.3805 14.388 5.3955 0 0 0
1062 3 25.179 5.3955 19.7835 0 0 0
1687 3 19.7835 25.179 5.3955 0 0 0
3269 3 7.194 21.582 25.179 0 0 0
2403 3 12.5895 17.985 1.7985 0 0 0
1249 3 25.179 21.582 7.194 0 0 0
1255 3 23.3805 21.582 12.5895 0 0 0
1530 3 21.582 12.5895 8.9925 0 0 0
231 3 30.5745 0.0 26.9775 0 0 0
3553 3 3.597 10.791 28.776 0 0 0
3184 3 5.3955 16.1865 17.985 0 0 0
3820 3 0.0 1.7985 34.1715 0 0 0
3351 3 5.3955 28.776 26.9775 0 0 0
817 3 28.776 17.985 14.388 0 0 0
3433 3 3.597 0.0 28.776 0 0 0
1130 3 25.179 12.5895 8.9925 0 0 0
2406 3 14.388 19.7835 5.3955 0 0 0
3089 3 7.194 7.194 7.194 0 0 0
358 3 32.373 12.5895 34.1715 0 0 0
2702 3 10.791 8.9925 19.7835 0 0 0
8 3 34.1715 1.7985 10.791 0 0 0
922 3 28.776 30.5745 1.7985 0 0 0
3337 3 7.194 28.776 14.388 0 0 0
2668 3 8.9925 5.3955 21.582 0 0 0
3465 3 3.597 3.597 21.582 0 0 0
2750 3 10.791 12.5895 26.9775 0 0 0
1922 3 17.985 12.5895 1.7985 0 0 0
1766 3 21.582 34.1715 5.3955 0 0 0
1794 3 21.582 34.1715 30.5745 0 0 0
3101 3 7.194 7.194 17.985 0 0 0
3114 3 7.194 8.9925 30.5745 0 0 0
3993 3 0.0 32.373 21.582 0 0 0
3354 3 7.194 30.5745 30.5745 0 0 0
2816 3 8.9925 19.7835 10.791 0 0 0
1088 3 23.3805 8.9925 3.597 0 0 0
3560 3 1.7985 12.5895 32.373 0 0 0
2574 3 14.388 34.1715 12.5895 0 0 0
1123 3 23.3805 10.791 1.7985 0 0 0
3045 3 7.194 3.597 3.597 0 0 0
1079 3 23.3805 3.597 34.1715 0 0 0
1925 3 17.985 10.791 3.597 0 0 0
2346 3 14.388 12.5895 23.3805 0 0 0
3071 3 5.3955 3.597 26.9775 0 0 0
1223 3 23.3805 17.985 19.7835 0 0 0
2387 3 12.5895 14.388 23.3805 0 0 0
958 3 28.776 30.5745 34.1715 0 0 0
3179 3 5.3955 14.388 16.1865 0 0 0
3910 3 0.0 19.7835 16.1865 0 0 0
1686 3 21.582 26.9775 5.3955 0 0 0
833 3 28.776 17.985 28.776 0 0 0
2326 3 14.388 12.5895 5.3955 0 0 0
758 3 28.776 12.5895 34.1715 0 0 0
3152 3 5.3955 12.5895 25.179 0 0 0
2134 3 17.985 30.5745 12.5895 0 0 0
540 3 30.5745 30.5745 14.388 0 0 0
2283 3 12.5895 7.194 1.7985 0 0 0
1970 3 17.985 16.1865 8.9925 0 0 0
1046 3 25.179 5.3955 5.3955 0 0 0
1535 3 19.7835 10.791 12.5895 0 0 0
1622 3 21.582 19.7835 19.7835 0 0 0
36 3 34.1715 5.3955 25.179 0 0 0
546 3 32.373 30.5745 23.3805 0 0 0
1679 3 19.7835 21.582 34.1715 0 0 0
2992 3 8.9925 34.1715 25.179 0 0 0
1000 3 26.9775 34.1715 32.373 0 0 0
1227 3 23.3805 17.985 23.3805 0 0 0
3883 3 0.0 14.388 3.597 0 0 0
33 3 34.1715 3.597 23.3805 0 0 0
2167 3 16.1865 32.373 5.3955 0 0 0
1886 3 17.985 8.9925 5.3955 0 0 0
3172 3 5.3955 16.1865 7.194 0 0 0
1876 3 16.1865 5.3955 28.776 0 0 0
2670 3 10.791 5.3955 26.9775 0 0 0
1051 3 23.3805 3.597 8.9925 0 0 0
3627 3 1.7985 17.985 23.3805 0 0 0
2909 3 10.791 25.179 25.179 0 0 0
3136 3 5.3955 12.5895 10.791 0 0 0
1417 3 21.582 0.0 14.388 0 0 0
303 3 30.5745 7.194 19.7835 0 0 0
2469 3 14.388 21.582 25.179 0 0 0
2278 3 14.388 5.3955 34.1715 0 0 0
2691 3 8.9925 7.194 8.9925 0 0 0
3066 3 7.194 5.3955 23.3805 0 0 0
3500 3 1.7985 8.9925 14.388 0 0 0
2995 3 8.9925 32.373 30.5745 0 0 0
2881 3 10.791 25.179 0.0 0 0 0
1920 3 16.1865 8.9925 32.373 0 0 0
2204 3 12.5895 1.7985 0.0 0 0 0
3753 3 3.597 28.776 28.776 0 0 0
3977 3 0.0 28.776 28.776 0 0 0
189 3 34.1715 32.373 16.1865 0 0 0
1458 3 21.582 5.3955 16.1865 0 0 0
759 3 26.9775 10.791 34.1715 0 0 0
3588 3 1.7985 16.1865 21.582 0 0 0
3893 3 0.0 14.388 21.582 0 0 0
368 3 30.5745 16.1865 3.597 0 0 0
1353 3 25.179 28.776 28.776 0 0 0
1202 3 25.179 19.7835 1.7985 0 0 0
2934 3 10.791 30.5745 12.5895 0 0 0
2218 3 14.388 1.7985 16.1865 0 0 0
603 3 26.9775 0.0 1.7985 0 0 0
890 3 28.776 26.9775 8.9925 0 0 0
3246 3 7.194 23.3805 5.3955 0 0 0
2509 3 14.388 25.179 25.179 0 0 0
1173 3 25.179 14.388 10.791 0 0 0
3359 3 5.3955 28.776 34.1715 0 0 0
484 3 30.5745 26.9775 0.0 0 0 0
1466 3 21.582 5.3955 23.3805 0 0 0
2608 3 8.9925 1.7985 3.597 0 0 0
1306 3 25.179 26.9775 23.3805 0 0 0
942 3 28.776 30.5745 19.7835 0 0 0
3126 3 7.194 12.5895 5.3955 0 0 0
195 3 34.1715 32.373 26.9775 0 0 0
353 3 32.373 10.791 28.776 0 0 0
465 3 32.373 21.582 21.582 0 0 0
3196 3 5.3955 16.1865 28.776 0 0 0
619 3 26.9775 0.0 16.1865 0 0 0
3271 3 5.3955 21.582 26.9775 0 0 0
1104 3 23.3805 8.9925 17.985 0 0 0
931 3 26.9775 28.776 8.9925 0 0 0
3492 3 1.7985 8.9925 7.194 0 0 0
1799 3 19.7835 32.373 34.1715 0 0 0
616 3 26.9775 1.7985 10.791 0 0 0
2301 3 14.388 7.194 17.985 0 0 0
2830 3 10.791 19.7835 26.9775 0 0 0
1559 3 19.7835 10.791 34.1715 0 0 0
525 3 32.373 28.776 3.597 0 0 0
959 3 26.9775 28.776 34.1715 0 0 0
218 3 32.373 1.7985 16.1865 0 0 0
2057 3 17.985 21.582 14.388 0 0 0
2845 3 10.791 21.582 3.597 0 0 0
1678 3 21.582 23.3805 34.1715 0 0 0
739 3 26.9775 10.791 16.1865 0 0 0
1268 3 23.3805 23.3805 21.582 0 0 0
1429 3 21.582 0.0 25.179 0 0 0
1706 3 21.582 26.9775 23.3805 0 0 0
2831 3 8.9925 17.985 26.9775 0 0 0
1254 3 25.179 23.3805 12.5895 0 0 0
3440 3 1.7985 1.7985 32.373 0 0 0
1757 3 21.582 28.776 32.373 0 0 0
634 3 28.776 1.7985 30.5745 0 0 0
3212 3 5.3955 19.7835 7.194 0 0 0
2399 3 12.5895 14.388 34.1715 0 0 0
2611 3 8.9925 0.0 8.9925 0 0 0
3774 3 3.597 34.1715 12.5895 0 0 0
4 3 34.1715 1.7985 3.597 0 0 0
3009 3 7.194 0.0 7.194 0 0 0
2626 3 10.791 1.7985 23.3805 0 0 0
3786 3 3.597 34.1715 23.3805 0 0 0
3105 3 7.194 7.194 21.582 0 0 0
415 3 30.5745 17.985 12.5895 0 0 0
2583 3 12.5895 32.373 19.7835 0 0 0
3614 3 3.597 19.7835 12.5895 0 0 0
1006 3 25.179 1.7985 5.3955 0 0 0
2773 3 10.791 14.388 10.791 0 0 0
2290 3 14.388 8.9925 8.9925 0 0 0
2379 3 12.5895 14.388 16.1865 0 0 0
3163 3 5.3955 14.388 1.7985 0 0 0
1841 3 17.985 3.597 0.0 0 0 0
1146 3 25.179 12.5895 23.3805 0 0 0
791 3 26.9775 14.388 26.9775 0 0 0
3332 3 5.3955 30.5745 7.194 0 0 0
3862 3 0.0 12.5895 1.7985 0 0 0
3072 3 5.3955 5.3955 25.179 0 0 0
2402 3 14.388 19.7835 1.7985 0 0 0
3342 3 7.194 30.5745 19.7835 0 0 0
777 3 28.776 14.388 14.388 0 0 0
2463 3 12.5895 21.582 19.7835 0 0 0
2464 3 12.5895 23.3805 17.985 0 0 0
1209 3 25.179 17.985 7.194 0 0 0
1957 3 17.985 10.791 32.373 0 0 0
994 3 28.776 34.1715 30.5745 0 0 0
34 3 34.1715 5.3955 21.582 0 0 0
3660 3 1.7985 23.3805 14.388 0 0 0
3340 3 5.3955 30.5745 14.388 0 0 0
3699 3 1.7985 25.179 16.1865 0 0 0
1576 3 19.7835 16.1865 10.791 0 0 0
3718 3 3.597 26.9775 34.1715 0 0 0
3669 3 3.597 21.582 25.179 0 0 0
3586 3 3.597 16.1865 23.3805 0 0 0
1440 3 19.7835 1.7985 32.373 0 0 0
1322 3 25.179 30.5745 1.7985 0 0 0
81 3 34.1715 14.388 1.7985 0 0 0
2642 3 10.791 5.3955 1.7985 0 0 0
105 3 34.1715 17.985 8.9925 0 0 0
61 3 34.1715 10.791 1.7985 0 0 0
3346 3 7.194 30.5745 23.3805 0 0 0
68 3 34.1715 12.5895 10.791 0 0 0
3401 3 3.597 0.0 0.0 0 0 0
716 3 26.9775 8.9925 28.776 0 0 0
2050 3 17.985 23.3805 8.9925 0 0 0
2730 3 10.791 12.5895 8.9925 0 0 0
2785 3 10.791 14.388 21.582 0 0 0
748 3 26.9775 12.5895 21.582 0 0 0
149 3 34.1715 25.179 16.1865 0 0 0
1825 3 17.985 0.0 21.582 0 0 0
3363 3 5.3955 32.373 1.7985 0 0 0
1112 3 23.3805 8.9925 25.179 0 0 0
1315 3 23.3805 25.179 30.5745 0 0 0
3227 3 5.3955 17.985 23.3805 0 0 0
2664 3 8.9925 5.3955 17.985 0 0 0
3420 3 1.7985 1.7985 14.388 0 0 0
554 3 32.373 30.5745 30.5745 0 0 0
1513 3 21.582 7.194 28.776 0 0 0
3423 3 1.7985 0.0 19.7835 0 0 0
3345 3 7.194 28.776 21.582 0 0 0
574 3 32.373 34.1715 12.5895 0 0 0
754 3 28.776 12.5895 30.5745 0 0 0
1103 3 23.3805 7.194 19.7835 0 0 0
3262 3 7.194 23.3805 19.7835 0 0 0
2070 3 17.985 23.3805 26.9775 0 0 0
2177 3 17.985 32.373 14.388 0 0 0
3653 3 3.597 21.582 10.791 0 0 0
1095 3 23.3805 7.194 12.5895 0 0 0
1141 3 25.179 10.791 17.985 0 0 0
1055 3 23.3805 3.597 12.5895 0 0 0
2337 3 14.388 10.791 14.388 0 0 0
873 3 28.776 21.582 28.776 0 0 0
226 3 32.373 1.7985 23.3805 0 0 0
3838 3 0.0 5.3955 30.5745 0 0 0
3813 3 0.0 0.0 21.582 0 0 0
2316 3 12.5895 8.9925 28.776 0 0 0
632 3 26.9775 1.7985 25.179 0 0 0
3668 3 1.7985 23.3805 21.582 0 0 0
2805 3 10.791 17.985 3.597 0 0 0
1958 3 17.985 12.5895 34.1715 0 0 0
1964 3 16.1865 16.1865 0.0 0 0 0
1066 3 25.179 5.3955 23.3805 0 0 0
3248 3 5.3955 23.3805 3.597 0 0 0
2550 3 14.388 30.5745 26.9775 0 0 0
25 3 34.1715 3.597 8.9925 0 0 0
1595 3 19.7835 14.388 30.5745 0 0 0
2758 3 10.791 12.5895 34.1715 0 0 0
3639 3 1.7985 17.985 34.1715 0 0 0
386 3 32.373 16.1865 23.3805 0 0 0
1867 3 16.1865 3.597 23.3805 0 0 0
393 3 32.373 14.388 28.776 0 0 0
1128 3 23.3805 12.5895 3.597 0 0 0
1654 3 21.582 23.3805 12.5895 0 0 0
736 3 26.9775 12.5895 10.791 0 0 0
843 3 26.9775 21.582 1.7985 0 0 0
1073 3 25.179 3.597 28.776 0 0 0
2393 3 14.388 14.388 28.776 0 0 0
2812 3 8.9925 19.7835 7.194 0 0 0
423 3 30.5745 17.985 19.7835 0 0 0
187 3 34.1715 32.373 12.5895 0 0 0
3776 3 1.7985 34.1715 10.791 0 0 0
820 3 26.9775 19.7835 14.388 0 0 0
134 3 34.1715 23.3805 21.582 0 0 0
1938 3 17.985 12.5895 16.1865 0 0 0
1629 3 21.582 17.985 25.179 0 0 0
3551 3 1.7985 10.791 26.9775 0 0 0
454 3 32.373 23.3805 12.5895 0 0 0
3982 3 0.0 34.1715 1.7985 0 0 0
2453 3 14.388 21.582 10.791 0 0 0
1908 3 16.1865 8.9925 21.582 0 0 0
879 3 26.9775 21.582 34.1715 0 0 0
3258 3 7.194 23.3805 16.1865 0 0 0
1928 3 16.1865 12.5895 3.597 0 0 0
518 3 32.373 26.9775 34.1715 0 0 0
2244 3 12.5895 5.3955 0.0 0 0 0
3485 3 3.597 7.194 3.597 0 0 0
2614 3 10.791 1.7985 12.5895 0 0 0
2666 3 10.791 5.3955 23.3805 0 0 0
2036 3 16.1865 19.7835 28.776 0 0 0
2669 3 10.791 3.597 25.179 0 0 0
911 3 26.9775 25.179 26.9775 0 0 0
612 3 26.9775 1.7985 7.194 0 0 0
429 3 32.373 17.985 25.179 0 0 0
3609 3 3.597 17.985 7.194 0 0 0
321 3 32.373 10.791 0.0 0 0 0
3949 3 0.0 25.179 14.388 0 0 0
71 3 34.1715 10.791 19.7835 0 0 0
413 3 32.373 17.985 10.791 0 0 0
995 3 26.9775 32.373 30.5745 0 0 0
2074 3 17.985 23.3805 30.5745 0 0 0
1893 3 17.985 7.194 10.791 0 0 0
2252 3 12.5895 5.3955 7.194 0 0 0
2665 3 10.791 3.597 21.582 0 0 0
2736 3 8.9925 12.5895 10.791 0 0 0
785 3 28.776 14.388 21.582 0 0 0
3171 3 5.3955 14.388 8.9925 0 0 0
1038 3 25.179 1.7985 34.1715 0 0 0
682 3 28.776 8.9925 1.7985 0 0 0
1568 3 19.7835 16.1865 3.597 0 0 0
1336 3 23.3805 30.5745 10.791 0 0 0
550 3 32.373 30.5745 26.9775 0 0 0
1178 3 25.179 16.1865 16.1865 0 0 0
3372 3 5.3955 34.1715 7.194 0 0 0
76 3 34.1715 12.5895 25.179 0 0 0
949 3 28.776 28.776 25.179 0 0 0
1124 3 23.3805 12.5895 0.0 0 0 0
3027 3 5.3955 0.0 23.3805 0 0 0
2943 3 8.9925 28.776 19.7835 0 0 0
3061 3 7.194 3.597 17.985 0 0 0
3017 3 7.194 0.0 14.388 0 0 0
121 3 34.1715 21.582 1.7985 0 0 0
1037 3 25.179 0.0 32.373 0 0 0
2955 3 8.9925 28.776 30.5745 0 0 0
2360 3 12.5895 12.5895 32.373 0 0 0
3582 3 3.597 16.1865 19.7835 0 0 0
783 3 26.9775 14.388 19.7835 0 0 0
3334 3 7.194 30.5745 12.5895 0 0 0
3143 3 5.3955 10.791 19.7835 0 0 0
3766 3 3.597 34.1715 5.3955 0 0 0
2075 3 16.1865 21.582 30.5745 0 0 0
3370 3 7.194 34.1715 8.9925 0 0 0
2149 3 17.985 28.776 25.179 0 0 0
2219 3 12.5895 0.0 16.1865 0 0 0
3421 3 3.597 0.0 17.985 0 0 0
1445 3 21.582 3.597 3.597 0 0 0
1313 3 25.179 25.179 28.776 0 0 0
2915 3 8.9925 25.179 30.5745 0 0 0
1692 3 19.7835 26.9775 7.194 0 0 0
2293 3 14.388 7.194 10.791 0 0 0
86 3 34.1715 16.1865 7.194 0 0 0
3666 3 3.597 23.3805 23.3805 0 0 0
1878 3 17.985 5.3955 34.1715 0 0 0
453 3 32.373 21.582 10.791 0 0 0
1546 3 21.582 12.5895 23.3805 0 0 0
531 3 30.5745 28.776 8.9925 0 0 0
148 3 34.1715 26.9775 10.791 0 0 0
273 3 32.373 3.597 28.776 0 0 0
2662 3 10.791 5.3955 19.7835 0 0 0
3952 3 0.0 26.9775 19.7835 0 0 0
406 3 32.373 19.7835 5.3955 0 0 0
961 3 28.776 32.373 0.0 0 0 0
997 3 28.776 32.373 32.373 0 0 0
3478 3 3.597 5.3955 34.1715 0 0 0
2168 3 16.1865 34.1715 3.597 0 0 0
2903 3 8.9925 25.179 19.7835 0 0 0
137 3 34.1715 21.582 30.5745 0 0 0
2587 3 12.5895 32.373 23.3805 0 0 0
1228 3 23.3805 19.7835 21.582 0 0 0
981 3 28.776 32.373 17.985 0 0 0
786 3 28.776 16.1865 23.3805 0 0 0
2090 3 17.985 26.9775 8.9925 0 0 0
1107 3 23.3805 7.194 23.3805 0 0 0
1363 3 23.3805 32.373 1.7985 0 0 0
1338 3 25.179 30.5745 16.1865 0 0 0
2142 3 17.985 30.5745 19.7835 0 0 0
3681 3 3.597 25.179 0.0 0 0 0
740 3 26.9775 12.5895 14.388 0 0 0
3590 3 3.597 16.1865 26.9775 0 0 0
3411 3 1.7985 0.0 8.9925 0 0 0
204 3 30.5745 1.7985 0.0 0 0 0
543 3 30.5745 28.776 19.7835 0 0 0
3850 3 0.0 8.9925 16.1865 0 0 0
3976 3 0.0 30.5745 26.9775 0 0 0
2560 3 12.5895 30.5745 32.373 0 0 0
3317 3 7.194 25.179 32.373 0 0 0
2108 3 16.1865 26.9775 21.582 0 0 0
2448 3 12.5895 23.3805 3.597 0 0 0
1444 3 19.7835 5.3955 0.0 0 0 0
2199 3 16.1865 32.373 34.1715 0 0 0
3629 3 3.597 17.985 25.179 0 0 0
258 3 32.373 5.3955 16.1865 0 0 0
3189 3 7.194 14.388 25.179 0 0 0
1405 3 21.582 0.0 3.597 0 0 0
1508 3 19.7835 8.9925 21.582 0 0 0
1607 3 19.7835 17.985 5.3955 0 0 0
2451 3 12.5895 21.582 8.9925 0 0 0
73 3 34.1715 10.791 23.3805 0 0 0
2631 3 8.9925 0.0 26.9775 0 0 0
3165 3 7.194 14.388 3.597 0 0 0
2971 3 8.9925 32.373 8.9925 0 0 0
2311 3 12.5895 7.194 26.9775 0 0 0
917 3 28.776 25.179 32.373 0 0 0
3325 3 7.194 28.776 3.597 0 0 0
1743 3 19.7835 28.776 19.7835 0 0 0
1010 3 25.179 1.7985 8.9925 0 0 0
564 3 30.5745 34.1715 0.0 0 0 0
2407 3 12.5895 17.985 5.3955 0 0 0
2123 3 16.1865 28.776 1.7985 0 0 0
932 3 26.9775 30.5745 7.194 0 0 0
3594 3 3.597 16.1865 30.5745 0 0 0
2657 3 10.791 3.597 14.388 0 0 0
2953 3 10.791 28.776 28.776 0 0 0
706 3 28.776 8.9925 23.3805 0 0 0
3030 3 7.194 1.7985 26.9775 0 0 0
3285 3 7.194 25.179 3.597 0 0 0
2706 3 10.791 8.9925 23.3805 0 0 0
51 3 34.1715 7.194 19.7835 0 0 0
269 3 32.373 3.597 25.179 0 0 0
2996 3 8.9925 34.1715 28.776 0 0 0
3402 3 3.597 1.7985 1.7985 0 0 0
1802 3 17.985 1.7985 1.7985 0 0 0
3821 3 0.0 3.597 0.0 0 0 0
762 3 28.776 16.1865 1.7985 0 0 0
521 3 32.373 28.776 0.0 0 0 0
1921 3 17.985 10.791 0.0 0 0 0
1638 3 21.582 19.7835 34.1715 0 0 0
3897 3 0.0 14.388 28.776 0 0 0
3805 3 0.0 0.0 7.194 0 0 0
2444 3 12.5895 23.3805 0.0 0 0 0
3630 3 3.597 19.7835 26.9775 0 0 0
776 3 26.9775 16.1865 10.791 0 0 0
838 3 28.776 19.7835 34.1715 0 0 0
2673 3 10.791 3.597 28.776 0 0 0
3403 3 1.7985 0.0 1.7985 0 0 0
1093 3 25.179 7.194 10.791 0 0 0
1065 3 25.179 3.597 21.582 0 0 0
2982 3 10.791 34.1715 19.7835 0 0 0
490 3 32.373 26.9775 8.9925 0 0 0
1119 3 23.3805 7.194 34.1715 0 0 0
3357 3 7.194 28.776 32.373 0 0 0
1151 3 23.3805 10.791 26.9775 0 0 0
3938 3 0.0 23.3805 30.5745 0 0 0
2855 3 8.9925 21.582 12.5895 0 0 0
2637 3 10.791 0.0 32.373 0 0 0
1655 3 19.7835 21.582 12.5895 0 0 0
1482 3 21.582 8.9925 1.7985 0 0 0
2013 3 17.985 17.985 10.791 0 0 0
2784 3 8.9925 16.1865 17.985 0 0 0
172 3 34.1715 30.5745 17.985 0 0 0
1940 3 16.1865 12.5895 14.388 0 0 0
601 3 28.776 0.0 0.0 0 0 0
1226 3 25.179 19.7835 23.3805 0 0 0
727 3 26.9775 10.791 5.3955 0 0 0
2918 3 10.791 26.9775 34.1715 0 0 0
232 3 30.5745 1.7985 25.179 0 0 0
3499 3 1.7985 7.194 16.1865 0 0 0
1715 3 19.7835 25.179 30.5745 0 0 0
485 3 32.373 25.179 3.597 0 0 0
319 3 30.5745 7.194 34.1715 0 0 0
3229 3 7.194 17.985 25.179 0 0 0
3515 3 1.7985 7.194 30.5745 0 0 0
3139 3 5.3955 10.791 16.1865 0 0 0
1939 3 16.1865 10.791 16.1865 0 0 0
771 3 26.9775 14.388 8.9925 0 0 0
2659 3 8.9925 3.597 16.1865 0 0 0
755 3 26.9775 10.791 30.5745 0 0 0
3307 3 5.3955 25.179 23.3805 0 0 0
2581 3 14.388 32.373 17.985 0 0 0
162 3 34.1715 30.5745 0.0 0 0 0
1478 3 21.582 5.3955 34.1715 0 0 0
1755 3 19.7835 28.776 30.5745 0 0 0
3587 3 1.7985 14.388 23.3805 0 0 0
3037 3 7.194 0.0 32.373 0 0 0
3559 3 1.7985 10.791 34.1715 0 0 0
1539 3 19.7835 10.791 16.1865 0 0 0
1503 3 19.7835 7.194 19.7835 0 0 0
1507 3 19.7835 7.194 23.3805 0 0 0
3673 3 3.597 21.582 28.776 0 0 0
1813 3 17.985 0.0 10.791 0 0 0
1873 3 17.985 3.597 28.776 0 0 0
2935 3 8.9925 28.776 12.5895 0 0 0
667 3 26.9775 3.597 23.3805 0 0 0
2540 3 12.5895 30.5745 14.388 0 0 0
708 3 26.9775 8.9925 21.582 0 0 0
50 3 34.1715 8.9925 14.388 0 0 0
1593 3 21.582 14.388 28.776 0 0 0
2114 3 17.985 26.9775 30.5745 0 0 0
3652 3 1.7985 23.3805 7.194 0 0 0
1662 3 21.582 23.3805 19.7835 0 0 0
3569 3 3.597 14.388 7.194 0 0 0
220 3 30.5745 1.7985 14.388 0 0 0
770 3 28.776 16.1865 8.9925 0 0 0
1605 3 21.582 17.985 3.597 0 0 0
1372 3 23.3805 34.1715 7.194 0 0 0
42 3 34.1715 8.9925 0.0 0 0 0
2306 3 14.388 8.9925 23.3805 0 0 0
302 3 32.373 8.9925 19.7835 0 0 0
2009 3 17.985 17.985 7.194 0 0 0
953 3 28.776 28.776 28.776 0 0 0
2495 3 12.5895 25.179 12.5895 0 0 0
1735 3 19.7835 28.776 12.5895 0 0 0
2600 3 12.5895 34.1715 32.373 0 0 0
3166 3 7.194 16.1865 5.3955 0 0 0
3538 3 3.597 12.5895 16.1865 0 0 0
570 3 32.373 34.1715 8.9925 0 0 0
1157 3 25.179 10.791 32.373 0 0 0
2250 3 14.388 5.3955 8.9925 0 0 0
3531 3 1.7985 10.791 8.9925 0 0 0
3573 3 3.597 14.388 10.791 0 0 0
235 3 30.5745 0.0 30.5745 0 0 0
2807 3 8.9925 17.985 5.3955 0 0 0
3966 3 0.0 30.5745 8.9925 0 0 0
124 3 34.1715 23.3805 3.597 0 0 0
810 3 28.776 19.7835 8.9925 0 0 0
489 3 32.373 25.179 7.194 0 0 0
450 3 32.373 23.3805 8.9925 0 0 0
2893 3 10.791 25.179 10.791 0 0 0
1260 3 23.3805 23.3805 14.388 0 0 0
3195 3 5.3955 14.388 30.5745 0 0 0
315 3 30.5745 7.194 30.5745 0 0 0
2554 3 14.388 30.5745 30.5745 0 0 0
3867 3 0.0 10.791 10.791 0 0 0
856 3 26.9775 23.3805 10.791 0 0 0
1746 3 21.582 30.5745 23.3805 0 0 0
3644 3 1.7985 23.3805 0.0 0 0 0
3996 3 0.0 34.1715 26.9775 0 0 0
70 3 34.1715 12.5895 14.388 0 0 0
3743 3 1.7985 28.776 19.7835 0 0 0
2564 3 12.5895 34.1715 0.0 0 0 0
325 3 32.373 10.791 3.597 0 0 0
1705 3 21.582 25.179 21.582 0 0 0
2544 3 12.5895 30.5745 17.985 0 0 0
2132 3 16.1865 30.5745 7.194 0 0 0
78 3 34.1715 12.5895 28.776 0 0 0
1648 3 19.7835 23.3805 3.597 0 0 0
1754 3 21.582 30.5745 30.5745 0 0 0
910 3 28.776 26.9775 26.9775 0 0 0
430 3 32.373 19.7835 26.9775 0 0 0
907 3 26.9775 25.179 23.3805 0 0 0
2434 3 14.388 19.7835 30.5745 0 0 0
2026 3 17.985 19.7835 23.3805 0 0 0
84 3 34.1715 16.1865 3.597 0 0 0
2217 3 14.388 0.0 14.388 0 0 0
3302 3 7.194 26.9775 19.7835 0 0 0
2599 3 12.5895 32.373 34.1715 0 0 0
1197 3 25.179 14.388 32.373 0 0 0
2181 3 17.985 32.373 17.985 0 0 0
2395 3 12.5895 14.388 30.5745 0 0 0
2 3 34.1715 1.7985 0.0 0 0 0
3122 3 7.194 12.5895 1.7985 0 0 0
2227 3 12.5895 0.0 23.3805 0 0 0
3259 3 5.3955 21.582 16.1865 0 0 0
535 3 30.5745 28.776 12.5895 0 0 0
3049 3 7.194 3.597 7.194 0 0 0
3293 3 7.194 25.179 10.791 0 0 0
3620 3 1.7985 19.7835 14.388 0 0 0
2814 3 10.791 19.7835 12.5895 0 0 0
2505 3 14.388 25.179 21.582 0 0 0
3574 3 3.597 16.1865 12.5895 0 0 0
2359 3 12.5895 10.791 34.1715 0 0 0
3836 3 0.0 5.3955 26.9775 0 0 0
1577 3 21.582 14.388 14.388 0 0 0
125 3 34.1715 21.582 8.9925 0 0 0
2928 3 8.9925 30.5745 3.597 0 0 0
3261 3 7.194 21.582 17.985 0 0 0
2408 3 12.5895 19.7835 3.597 0 0 0
2025 3 17.985 17.985 21.582 0 0 0
1615 3 19.7835 17.985 12.5895 0 0 0
1929 3 17.985 10.791 7.194 0 0 0
2588 3 12.5895 34.1715 21.582 0 0 0
2733 3 10.791 10.791 10.791 0 0 0
1732 3 19.7835 30.5745 7.194 0 0 0
2144 3 16.1865 30.5745 17.985 0 0 0
72 3 34.1715 12.5895 17.985 0 0 0
3625 3 3.597 17.985 21.582 0 0 0
1354 3 25.179 30.5745 30.5745 0 0 0
2783 3 8.9925 14.388 19.7835 0 0 0
3416 3 1.7985 1.7985 10.791 0 0 0
2708 3 8.9925 8.9925 21.582 0 0 0
3606 3 3.597 19.7835 5.3955 0 0 0
3637 3 3.597 17.985 32.373 0 0 0
1263 3 23.3805 21.582 19.7835 0 0 0
822 3 28.776 19.7835 19.7835 0 0 0
2305 3 14.388 7.194 21.582 0 0 0
1709 3 21.582 25.179 25.179 0 0 0
288 3 30.5745 8.9925 3.597 0 0 0
1962 3 17.985 16.1865 1.7985 0 0 0
2113 3 17.985 25.179 28.776 0 0 0
1963 3 16.1865 14.388 1.7985 0 0 0
2364 3 12.5895 16.1865 0.0 0 0 0
753 3 28.776 10.791 28.776 0 0 0
2603 3 8.9925 0.0 1.7985 0 0 0
2304 3 12.5895 8.9925 17.985 0 0 0
3241 3 7.194 21.582 0.0 0 0 0
3948 3 0.0 26.9775 12.5895 0 0 0
2850 3 10.791 23.3805 8.9925 0 0 0
2869 3 10.791 21.582 25.179 0 0 0
1422 3 21.582 1.7985 19.7835 0 0 0
3721 3 3.597 28.776 0.0 0 0 0
1552 3 19.7835 12.5895 25.179 0 0 0
2769 3 10.791 14.388 7.194 0 0 0
2138 3 17.985 30.5745 16.1865 0 0 0
1220 3 23.3805 19.7835 14.388 0 0 0
1155 3 23.3805 10.791 30.5745 0 0 0
563 3 30.5745 32.373 1.7985 0 0 0
3100 3 5.3955 8.9925 14.388 0 0 0
945 3 28.776 28.776 21.582 0 0 0
1396 3 23.3805 34.1715 28.776 0 0 0
2900 3 8.9925 26.9775 14.388 0 0 0
3445 3 3.597 3.597 3.597 0 0 0
2372 3 12.5895 16.1865 7.194 0 0 0
1375 3 23.3805 32.373 12.5895 0 0 0
503 3 30.5745 25.179 19.7835 0 0 0
3665 3 3.597 21.582 21.582 0 0 0
1911 3 16.1865 7.194 26.9775 0 0 0
1564 3 19.7835 16.1865 0.0 0 0 0
3540 3 1.7985 12.5895 14.388 0 0 0
3394 3 7.194 34.1715 30.5745 0 0 0
3661 3 3.597 21.582 17.985 0 0 0
2498 3 14.388 26.9775 16.1865 0 0 0
3438 3 3.597 1.7985 34.1715 0 0 0
47 3 34.1715 7.194 12.5895 0 0 0
2619 3 8.9925 0.0 16.1865 0 0 0
3021 3 7.194 0.0 17.985 0 0 0
895 3 26.9775 25.179 12.5895 0 0 0
2870 3 10.791 23.3805 26.9775 0 0 0
511 3 30.5745 25.179 26.9775 0 0 0
2786 3 10.791 16.1865 23.3805 0 0 0
2027 3 16.1865 17.985 23.3805 0 0 0
1740 3 19.7835 30.5745 14.388 0 0 0
2731 3 8.9925 10.791 8.9925 0 0 0
3605 3 3.597 17.985 3.597 0 0 0
1537 3 21.582 10.791 14.388 0 0 0
347 3 30.5745 10.791 23.3805 0 0 0
2537 3 14.388 28.776 14.388 0 0 0
2330 3 14.388 12.5895 8.9925 0 0 0
2827 3 8.9925 17.985 23.3805 0 0 0
874 3 28.776 23.3805 30.5745 0 0 0
2798 3 10.791 16.1865 34.1715 0 0 0
3400 3 5.3955 34.1715 32.373 0 0 0
3811 3 0.0 0.0 17.985 0 0 0
1759 3 19.7835 28.776 34.1715 0 0 0
3934 3 0.0 23.3805 23.3805 0 0 0
1632 3 19.7835 19.7835 25.179 0 0 0
2452 3 12.5895 23.3805 7.194 0 0 0
1163 3 23.3805 14.388 1.7985 0 0 0
114 3 34.1715 19.7835 21.582 0 0 0
354 3 32.373 12.5895 30.5745 0 0 0
1258 3 25.179 23.3805 16.1865 0 0 0
2136 3 16.1865 30.5745 10.791 0 0 0
688 3 26.9775 8.9925 3.597 0 0 0
1164 3 23.3805 16.1865 0.0 0 0 0
3756 3 1.7985 30.5745 28.776 0 0 0
2298 3 14.388 8.9925 16.1865 0 0 0
1383 3 23.3805 32.373 19.7835 0 0 0
1108 3 23.3805 8.9925 21.582 0 0 0
173 3 34.1715 28.776 23.3805 0 0 0
642 3 28.776 5.3955 1.7985 0 0 0
3482 3 3.597 8.9925 1.7985 0 0 0
752 3 26.9775 12.5895 25.179 0 0 0
1186 3 25.179 16.1865 23.3805 0 0 0
3911 3 0.0 17.985 17.985 0 0 0
194 3 34.1715 34.1715 21.582 0 0 0
2188 3 16.1865 34.1715 21.582 0 0 0
49 3 34.1715 7.194 16.1865 0 0 0
2195 3 16.1865 32.373 30.5745 0 0 0
3247 3 5.3955 21.582 5.3955 0 0 0
3188 3 5.3955 16.1865 21.582 0 0 0
3286 3 7.194 26.9775 5.3955 0 0 0
1717 3 21.582 25.179 32.373 0 0 0
1703 3 19.7835 25.179 19.7835 0 0 0
618 3 28.776 1.7985 16.1865 0 0 0
868 3 26.9775 23.3805 21.582 0 0 0
2131 3 16.1865 28.776 8.9925 0 0 0
3781 3 3.597 32.373 17.985 0 0 0
2956 3 8.9925 30.5745 28.776 0 0 0
1002 3 25.179 1.7985 1.7985 0 0 0
1849 3 17.985 3.597 7.194 0 0 0
3174 3 7.194 16.1865 12.5895 0 0 0
3026 3 7.194 1.7985 23.3805 0 0 0
854 3 28.776 23.3805 12.5895 0 0 0
1875 3 16.1865 3.597 30.5745 0 0 0
2719 3 8.9925 7.194 34.1715 0 0 0
1827 3 16.1865 0.0 23.3805 0 0 0
2926 3 10.791 30.5745 5.3955 0 0 0
1833 3 17.985 0.0 28.776 0 0 0
3219 3 5.3955 17.985 16.1865 0 0 0
1464 3 19.7835 5.3955 17.985 0 0 0
3243 3 5.3955 21.582 1.7985 0 0 0
98 3 34.1715 16.1865 28.776 0 0 0
1080 3 23.3805 5.3955 32.373 0 0 0
3567 3 1.7985 14.388 5.3955 0 0 0
481 3 32.373 25.179 0.0 0 0 0
3425 3 3.597 0.0 21.582 0 0 0
253 3 32.373 3.597 10.791 0 0 0
639 3 26.9775 0.0 34.1715 0 0 0
2128 3 16.1865 30.5745 3.597 0 0 0
3383 3 5.3955 32.373 19.7835 0 0 0
513 3 32.373 25.179 28.776 0 0 0
2871 3 8.9925 21.582 26.9775 0 0 0
1461 3 21.582 3.597 17.985 0 0 0
1496 3 19.7835 8.9925 10.791 0 0 0
1287 3 23.3805 25.179 5.3955 0 0 0
3702 3 3.597 26.9775 19.7835 0 0 0
2752 3 8.9925 12.5895 25.179 0 0 0
3787 3 1.7985 32.373 23.3805 0 0 0
57 3 34.1715 7.194 30.5745 0 0 0
935 3 26.9775 28.776 12.5895 0 0 0
2879 3 8.9925 21.582 34.1715 0 0 0
3217 3 7.194 17.985 14.388 0 0 0
2922 3 10.791 30.5745 1.7985 0 0 0
3904 3 0.0 19.7835 5.3955 0 0 0
2739 3 8.9925 10.791 16.1865 0 0 0
1092 3 23.3805 8.9925 7.194 0 0 0
2833 3 10.791 17.985 28.776 0 0 0
2045 3 17.985 21.582 3.597 0 0 0
3748 3 1.7985 30.5745 21.582 0 0 0
3455 3 1.7985 3.597 12.5895 0 0 0
355 3 30.5745 10.791 30.5745 0 0 0
3012 3 5.3955 1.7985 7.194 0 0 0
1734 3 21.582 30.5745 12.5895 0 0 0
2366 3 14.388 16.1865 5.3955 0 0 0
588 3 30.5745 34.1715 21.582 0 0 0
297 3 32.373 7.194 14.388 0 0 0
2470 3 14.388 23.3805 26.9775 0 0 0
1385 3 25.179 32.373 21.582 0 0 0
2309 3 14.388 7.194 25.179 0 0 0
2533 3 14.388 28.776 10.791 0 0 0
2521 3 14.388 28.776 0.0 0 0 0
2288 3 12.5895 8.9925 3.597 0 0 0
17 3 34.1715 0.0 30.5745 0 0 0
2710 3 10.791 8.9925 26.9775 0 0 0
3823 3 0.0 3.597 3.597 0 0 0
590 3 32.373 34.1715 26.9775 0 0 0
1333 3 25.179 28.776 10.791 0 0 0
3884 3 0.0 16.1865 5.3955 0 0 0
266 3 32.373 5.3955 23.3805 0 0 0
2398 3 14.388 16.1865 34.1715 0 0 0
597 3 32.373 32.373 32.373 0 0 0
2201 3 14.388 0.0 0.0 0 0 0
46 3 34.1715 8.9925 7.194 0 0 0
1247 3 23.3805 21.582 5.3955 0 0 0
3994 3 0.0 34.1715 23.3805 0 0 0
964 3 26.9775 34.1715 0.0 0 0 0
2129 3 17.985 28.776 7.194 0 0 0
2208 3 12.5895 1.7985 3.597 0 0 0
3167 3 5.3955 14.388 5.3955 0 0 0
850 3 28.776 23.3805 8.9925 0 0 0
1582 3 21.582 16.1865 19.7835 0 0 0
1489 3 21.582 7.194 7.194 0 0 0
623 3 26.9775 0.0 19.7835 0 0 0
2596 3 12.5895 34.1715 28.776 0 0 0
2601 3 10.791 0.0 0.0 0 0 0
3915 3 0.0 17.985 25.179 0 0 0
3024 3 5.3955 1.7985 17.985 0 0 0
3562 3 3.597 16.1865 1.7985 0 0 0
55 3 34.1715 7.194 26.9775 0 0 0
798 3 28.776 16.1865 34.1715 0 0 0
2865 3 10.791 21.582 21.582 0 0 0
515 3 30.5745 25.179 30.5745 0 0 0
1473 3 21.582 3.597 28.776 0 0 0
778 3 28.776 16.1865 16.1865 0 0 0
620 3 26.9775 1.7985 14.388 0 0 0
1630 3 21.582 19.7835 26.9775 0 0 0
3079 3 5.3955 3.597 34.1715 0 0 0
2512 3 12.5895 26.9775 25.179 0 0 0
733 3 28.776 10.791 10.791 0 0 0
3158 3 7.194 12.5895 34.1715 0 0 0
3011 3 5.3955 0.0 8.9925 0 0 0
2480 3 12.5895 23.3805 32.373 0 0 0
3095 3 5.3955 7.194 12.5895 0 0 0
607 3 26.9775 0.0 5.3955 0 0 0
422 3 32.373 19.7835 19.7835 0 0 0
1139 3 23.3805 10.791 16.1865 0 0 0
2274 3 14.388 5.3955 30.5745 0 0 0
3381 3 7.194 32.373 17.985 0 0 0
1379 3 23.3805 32.373 16.1865 0 0 0
349 3 32.373 10.791 25.179 0 0 0
3807 3 0.0 0.0 10.791 0 0 0
348 3 30.5745 12.5895 21.582 0 0 0
1162 3 25.179 16.1865 1.7985 0 0 0
3098 3 7.194 8.9925 16.1865 0 0 0
3750 3 3.597 30.5745 26.9775 0 0 0
3857 3 0.0 7.194 28.776 0 0 0
277 3 32.373 3.597 32.373 0 0 0
3076 3 5.3955 5.3955 28.776 0 0 0
3377 3 7.194 32.373 14.388 0 0 0
987 3 26.9775 32.373 23.3805 0 0 0
3731 3 1.7985 28.776 8.9925 0 0 0
1222 3 25.179 19.7835 19.7835 0 0 0
26 3 34.1715 5.3955 7.194 0 0 0
3789 3 3.597 32.373 25.179 0 0 0
2277 3 14.388 3.597 32.373 0 0 0
3520 3 1.7985 8.9925 32.373 0 0 0
233 3 32.373 0.0 28.776 0 0 0
196 3 34.1715 34.1715 25.179 0 0 0
670 3 28.776 5.3955 26.9775 0 0 0
3052 3 5.3955 5.3955 7.194 0 0 0
3474 3 3.597 5.3955 30.5745 0 0 0
1565 3 21.582 14.388 3.597 0 0 0
1907 3 16.1865 7.194 23.3805 0 0 0
3999 3 0.0 32.373 32.373 0 0 0
2573 3 14.388 32.373 10.791 0 0 0
536 3 30.5745 30.5745 10.791 0 0 0
2671 3 8.9925 3.597 26.9775 0 0 0
1924 3 16.1865 12.5895 0.0 0 0 0
514 3 32.373 26.9775 30.5745 0 0 0
2173 3 17.985 32.373 10.791 0 0 0
2842 3 10.791 23.3805 1.7985 0 0 0
199 4 34.1715 32.373 34.1715 0 0 0
3912 4 0.0 19.7835 19.7835 0 0 0
1325 4 25.179 28.776 3.597 0 0 0
809 4 28.776 17.985 7.194 0 0 0
913 4 28.776 25.179 28.776 0 0 0
847 4 26.9775 21.582 5.3955 0 0 0
697 4 28.776 7.194 14.388 0 0 0
2417 4 14.388 17.985 14.388 0 0 0
2567 4 12.5895 32.373 5.3955 0 0 0
898 4 28.776 26.9775 16.1865 0 0 0
2819 4 8.9925 17.985 16.1865 0 0 0
1302 4 25.179 26.9775 19.7835 0 0 0
3749 4 3.597 28.776 25.179 0 0 0
2882 4 10.791 26.9775 1.7985 0 0 0
18 4 34.1715 1.7985 28.776 0 0 0
3855 4 0.0 7.194 25.179 0 0 0
3349 4 7.194 28.776 25.179 0 0 0
825 4 28.776 17.985 21.582 0 0 0
1544 4 19.7835 12.5895 17.985 0 0 0
1272 4 23.3805 23.3805 25.179 0 0 0
3187 4 5.3955 14.388 23.3805 0 0 0
3792 4 1.7985 34.1715 25.179 0 0 0
3193 4 7.194 14.388 28.776 0 0 0
1282 4 25.179 26.9775 1.7985 0 0 0
3790 4 3.597 34.1715 26.9775 0 0 0
3736 4 1.7985 30.5745 10.791 0 0 0
1332 4 23.3805 30.5745 7.194 0 0 0
2735 4 8.9925 10.791 12.5895 0 0 0
2213 4 14.388 0.0 10.791 0 0 0
3800 4 1.7985 34.1715 32.373 0 0 0
3033 4 7.194 0.0 28.776 0 0 0
2319 4 12.5895 7.194 34.1715 0 0 0
92 4 34.1715 16.1865 17.985 0 0 0
3895 4 0.0 14.388 25.179 0 0 0
2069 4 17.985 21.582 25.179 0 0 0
2412 4 12.5895 19.7835 7.194 0 0 0
1418 4 21.582 1.7985 16.1865 0 0 0
583 4 30.5745 32.373 19.7835 0 0 0
3710 4 3.597 26.9775 26.9775 0 0 0
6 4 34.1715 1.7985 7.194 0 0 0
3556 4 1.7985 12.5895 28.776 0 0 0
2503 4 12.5895 25.179 19.7835 0 0 0
249 4 32.373 3.597 7.194 0 0 0
356 4 30.5745 12.5895 28.776 0 0 0
4000 4 0.0 34.1715 34.1715 0 0 0
181 4 34.1715 32.373 1.7985 0 0 0
1043 4 23.3805 3.597 1.7985 0 0 0
1510 4 21.582 8.9925 26.9775 0 0 0
905 4 28.776 25.179 21.582 0 0 0
897 4 28.776 25.179 14.388 0 0 0
2716 4 8.9925 8.9925 28.776 0 0 0
2960 4 8.9925 30.5745 32.373 0 0 0
475 4 30.5745 21.582 30.5745 0 0 0
891 4 26.9775 25.179 8.9925 0 0 0
1835 4 16.1865 0.0 30.5745 0 0 0
2094 4 17.985 26.9775 12.5895 0 0 0
2071 4 16.1865 21.582 26.9775 0 0 0
3298 4 7.194 26.9775 16.1865 0 0 0
1704 4 19.7835 26.9775 17.985 0 0 0
1784 4 19.7835 34.1715 17.985 0 0 0
278 4 32.373 5.3955 34.1715 0 0 0
2053 4 17.985 21.582 10.791 0 0 0
669 4 28.776 3.597 25.179 0 0 0
3662 4 3.597 23.3805 19.7835 0 0 0
3832 4 0.0 5.3955 19.7835 0 0 0
1470 4 21.582 5.3955 26.9775 0 0 0
2362 4 14.388 16.1865 1.7985 0 0 0
571 4 30.5745 32.373 8.9925 0 0 0
3091 4 5.3955 7.194 8.9925 0 0 0
2772 4 8.9925 16.1865 7.194 0 0 0
1522 4 21.582 12.5895 1.7985 0 0 0
3267 4 5.3955 21.582 23.3805 0 0 0
1702 4 21.582 26.9775 19.7835 0 0 0
2145 4 17.985 28.776 21.582 0 0 0
2062 4 17.985 23.3805 19.7835 0 0 0
983 4 26.9775 32.373 19.7835 0 0 0
3775 4 1.7985 32.373 12.5895 0 0 0
1502 4 21.582 8.9925 19.7835 0 0 0
3676 4 1.7985 23.3805 28.776 0 0 0
1486 4 21.582 8.9925 5.3955 0 0 0
441 4 32.373 21.582 0.0 0 0 0
1663 4 19.7835 21.582 19.7835 0 0 0
784 4 26.9775 16.1865 17.985 0 0 0
2065 4 17.985 21.582 21.582 0 0 0
1069 4 25.179 3.597 25.179 0 0 0
1634 4 21.582 19.7835 30.5745 0 0 0
3395 4 5.3955 32.373 30.5745 0 0 0
794 4 28.776 16.1865 30.5745 0 0 0
3023 4 5.3955 0.0 19.7835 0 0 0
1528 4 19.7835 12.5895 3.597 0 0 0
560 4 30.5745 30.5745 32.373 0 0 0
290 4 32.373 8.9925 8.9925 0 0 0
1807 4 16.1865 0.0 5.3955 0 0 0
3923 4 0.0 21.582 3.597 0 0 0
3157 4 7.194 10.791 32.373 0 0 0
1299 4 23.3805 25.179 16.1865 0 0 0
2047 4 16.1865 21.582 5.3955 0 0 0
1751 4 19.7835 28.776 26.9775 0 0 0
1189 4 25.179 14.388 25.179 0 0 0
243 4 30.5745 3.597 1.7985 0 0 0
1617 4 21.582 17.985 14.388 0 0 0
3107 4 5.3955 7.194 23.3805 0 0 0
1266 4 25.179 23.3805 23.3805 0 0 0
2764 4 8.9925 16.1865 0.0 0 0 0
119 4 34.1715 17.985 34.1715 0 0 0
2091 4 16.1865 25.179 8.9925 0 0 0
2876 4 8.9925 23.3805 28.776 0 0 0
3006 4 7.194 1.7985 5.3955 0 0 0
3140 4 5.3955 12.5895 14.388 0 0 0
322 4 32.373 12.5895 1.7985 0 0 0
2663 4 8.9925 3.597 19.7835 0 0 0
2547 4 12.5895 28.776 23.3805 0 0 0
44 4 34.1715 8.9925 3.597 0 0 0
2426 4 14.388 19.7835 23.3805 0 0 0
887 4 26.9775 25.179 5.3955 0 0 0
835 4 26.9775 17.985 30.5745 0 0 0
2466 4 14.388 23.3805 23.3805 0 0 0
2183 4 16.1865 32.373 19.7835 0 0 0
1701 4 21.582 25.179 17.985 0 0 0
3036 4 5.3955 1.7985 28.776 0 0 0
3102 4 7.194 8.9925 19.7835 0 0 0
526 4 32.373 30.5745 5.3955 0 0 0
2365 4 14.388 14.388 3.597 0 0 0
1611 4 19.7835 17.985 8.9925 0 0 0
2616 4 8.9925 1.7985 10.791 0 0 0
1348 4 23.3805 30.5745 21.582 0 0 0
3292 4 5.3955 26.9775 7.194 0 0 0
491 4 30.5745 25.179 8.9925 0 0 0
2676 4 8.9925 5.3955 28.776 0 0 0
3891 4 0.0 14.388 17.985 0 0 0
1343 4 23.3805 28.776 19.7835 0 0 0
2937 4 10.791 28.776 14.388 0 0 0
814 4 28.776 19.7835 12.5895 0 0 0
2728 4 8.9925 12.5895 3.597 0 0 0
301 4 32.373 7.194 17.985 0 0 0
2474 4 14.388 23.3805 30.5745 0 0 0
455 4 30.5745 21.582 12.5895 0 0 0
824 4 26.9775 19.7835 17.985 0 0 0
2504 4 12.5895 26.9775 17.985 0 0 0
1419 4 19.7835 0.0 16.1865 0 0 0
1232 4 23.3805 19.7835 25.179 0 0 0
3054 4 7.194 5.3955 12.5895 0 0 0
2421 4 14.388 17.985 17.985 0 0 0
2499 4 12.5895 25.179 16.1865 0 0 0
1430 4 21.582 1.7985 26.9775 0 0 0
1973 4 17.985 14.388 10.791 0 0 0
3194 4 7.194 16.1865 30.5745 0 0 0
877 4 28.776 21.582 32.373 0 0 0
2007 4 16.1865 17.985 5.3955 0 0 0
2862 4 10.791 23.3805 19.7835 0 0 0
1844 4 16.1865 5.3955 0.0 0 0 0
443 4 30.5745 21.582 1.7985 0 0 0
229 4 32.373 0.0 25.179 0 0 0
510 4 32.373 26.9775 26.9775 0 0 0
2877 4 10.791 21.582 32.373 0 0 0
3447 4 1.7985 3.597 5.3955 0 0 0
2388 4 12.5895 16.1865 21.582 0 0 0
3200 4 5.3955 16.1865 32.373 0 0 0
2836 4 8.9925 19.7835 28.776 0 0 0
1714 4 21.582 26.9775 30.5745 0 0 0
3483 4 1.7985 7.194 1.7985 0 0 0
1518 4 21.582 8.9925 34.1715 0 0 0
2097 4 17.985 25.179 14.388 0 0 0
3326 4 7.194 30.5745 5.3955 0 0 0
1356 4 23.3805 30.5745 28.776 0 0 0
307 4 30.5745 7.194 23.3805 0 0 0
939 4 26.9775 28.776 16.1865 0 0 0
1769 4 21.582 32.373 7.194 0 0 0
2515 4 12.5895 25.179 30.5745 0 0 0
180 4 34.1715 30.5745 32.373 0 0 0
2916 4 8.9925 26.9775 28.776 0 0 0
375 4 30.5745 14.388 12.5895 0 0 0
1427 4 19.7835 0.0 23.3805 0 0 0
3615 4 1.7985 17.985 12.5895 0 0 0
1110 4 25.179 8.9925 26.9775 0 0 0
3388 4 5.3955 34.1715 21.582 0 0 0
805 4 28.776 17.985 3.597 0 0 0
1583 4 19.7835 14.388 19.7835 0 0 0
2118 4 17.985 26.9775 34.1715 0 0 0
2355 4 12.5895 10.791 30.5745 0 0 0
2586 4 14.388 34.1715 23.3805 0 0 0
3347 4 5.3955 28.776 23.3805 0 0 0
2579 4 12.5895 32.373 16.1865 0 0 0
3290 4 7.194 26.9775 8.9925 0 0 0
193 4 34.1715 32.373 23.3805 0 0 0
695 4 26.9775 7.194 12.5895 0 0 0
1563 4 19.7835 14.388 1.7985 0 0 0
2672 4 8.9925 5.3955 25.179 0 0 0
3765 4 3.597 32.373 3.597 0 0 0
2073 4 17.985 21.582 28.776 0 0 0
3528 4 1.7985 12.5895 3.597 0 0 0
1599 4 19.7835 14.388 34.1715 0 0 0
1658 4 21.582 23.3805 16.1865 0 0 0
3517 4 3.597 7.194 32.373 0 0 0
3791 4 1.7985 32.373 26.9775 0 0 0
677 4 28.776 3.597 32.373 0 0 0
378 4 32.373 16.1865 16.1865 0 0 0
1005 4 25.179 0.0 3.597 0 0 0
1382 4 25.179 34.1715 19.7835 0 0 0
461 4 32.373 21.582 17.985 0 0 0
2022 4 17.985 19.7835 19.7835 0 0 0
3703 4 1.7985 25.179 19.7835 0 0 0
80 4 34.1715 12.5895 32.373 0 0 0
3812 4 0.0 1.7985 19.7835 0 0 0
1331 4 23.3805 28.776 8.9925 0 0 0
973 4 28.776 32.373 10.791 0 0 0
2193 4 17.985 32.373 28.776 0 0 0
1645 4 21.582 21.582 3.597 0 0 0
3339 4 5.3955 28.776 16.1865 0 0 0
1387 4 23.3805 32.373 23.3805 0 0 0
2196 4 16.1865 34.1715 28.776 0 0 0
1198 4 25.179 16.1865 34.1715 0 0 0
3198 4 7.194 16.1865 34.1715 0 0 0
2438 4 14.388 19.7835 34.1715 0 0 0
3871 4 0.0 10.791 17.985 0 0 0
2778 4 10.791 16.1865 16.1865 0 0 0
2019 4 16.1865 17.985 16.1865 0 0 0
3031 4 5.3955 0.0 26.9775 0 0 0
3391 4 5.3955 32.373 26.9775 0 0 0
3869 4 0.0 10.791 14.388 0 0 0
3093 4 7.194 7.194 10.791 0 0 0
2857 4 10.791 21.582 14.388 0 0 0
1339 4 23.3805 28.776 16.1865 0 0 0
274 4 32.373 5.3955 30.5745 0 0 0
2254 4 14.388 5.3955 12.5895 0 0 0
1882 4 17.985 8.9925 1.7985 0 0 0
2376 4 12.5895 16.1865 10.791 0 0 0
666 4 28.776 5.3955 23.3805 0 0 0
1560 4 19.7835 12.5895 32.373 0 0 0
385 4 32.373 14.388 21.582 0 0 0
2462 4 14.388 23.3805 19.7835 0 0 0
3266 4 7.194 23.3805 23.3805 0 0 0
2980 4 8.9925 34.1715 14.388 0 0 0
2443 4 12.5895 21.582 1.7985 0 0 0
128 4 34.1715 23.3805 10.791 0 0 0
1524 4 19.7835 12.5895 0.0 0 0 0
2067 4 16.1865 21.582 23.3805 0 0 0
2324 4 12.5895 12.5895 0.0 0 0 0
2055 4 16.1865 21.582 12.5895 0 0 0
3926 4 0.0 23.3805 8.9925 0 0 0
1777 4 21.582 32.373 14.388 0 0 0
141 4 34.1715 25.179 1.7985 0 0 0
859 4 26.9775 21.582 16.1865 0 0 0
1160 4 23.3805 12.5895 32.373 0 0 0
3990 4 0.0 34.1715 16.1865 0 0 0
3632 4 1.7985 19.7835 25.179 0 0 0
3164 4 5.3955 16.1865 0.0 0 0 0
3504 4 1.7985 8.9925 17.985 0 0 0
408 4 30.5745 19.7835 3.597 0 0 0
1100 4 23.3805 8.9925 14.388 0 0 0
3428 4 1.7985 1.7985 21.582 0 0 0
3284 4 5.3955 26.9775 0.0 0 0 0
2024 4 16.1865 19.7835 17.985 0 0 0
346 4 32.373 12.5895 23.3805 0 0 0
3476 4 1.7985 5.3955 28.776 0 0 0
3204 4 5.3955 19.7835 0.0 0 0 0
938 4 28.776 30.5745 16.1865 0 0 0
2186 4 17.985 34.1715 23.3805 0 0 0
1664 4 19.7835 23.3805 17.985 0 0 0
3561 4 3.597 14.388 0.0 0 0 0
129 4 34.1715 21.582 16.1865 0 0 0
2636 4 8.9925 1.7985 28.776 0 0 0
2038 4 17.985 19.7835 34.1715 0 0 0
3088 4 5.3955 8.9925 3.597 0 0 0
126 4 34.1715 23.3805 7.194 0 0 0
3616 4 1.7985 19.7835 10.791 0 0 0
3970 4 0.0 30.5745 16.1865 0 0 0
1521 4 21.582 10.791 0.0 0 0 0
2457 4 14.388 21.582 14.388 0 0 0
2502 4 14.388 26.9775 19.7835 0 0 0
1623 4 19.7835 17.985 19.7835 0 0 0
2135 4 16.1865 28.776 12.5895 0 0 0
839 4 26.9775 17.985 34.1715 0 0 0
2472 4 12.5895 23.3805 25.179 0 0 0
3046 4 7.194 5.3955 5.3955 0 0 0
2751 4 8.9925 10.791 26.9775 0 0 0
3773 4 3.597 32.373 10.791 0 0 0
2147 4 16.1865 28.776 23.3805 0 0 0
2976 4 8.9925 34.1715 10.791 0 0 0
1352 4 23.3805 30.5745 25.179 0 0 0
2455 4 12.5895 21.582 12.5895 0 0 0
2584 4 12.5895 34.1715 17.985 0 0 0
133 4 34.1715 21.582 23.3805 0 0 0
1439 4 19.7835 0.0 34.1715 0 0 0
1848 4 16.1865 5.3955 3.597 0 0 0
3250 4 7.194 23.3805 8.9925 0 0 0
3034 4 7.194 1.7985 30.5745 0 0 0
1533 4 21.582 10.791 10.791 0 0 0
3373 4 7.194 32.373 10.791 0 0 0
3378 4 7.194 34.1715 16.1865 0 0 0
927 4 26.9775 28.776 5.3955 0 0 0
3741 4 3.597 28.776 17.985 0 0 0
772 4 26.9775 16.1865 7.194 0 0 0
3125 4 7.194 10.791 3.597 0 0 0
3888 4 0.0 16.1865 12.5895 0 0 0
656 4 26.9775 5.3955 10.791 0 0 0
768 4 26.9775 16.1865 3.597 0 0 0
3335 4 5.3955 28.776 12.5895 0 0 0
1903 4 16.1865 7.194 19.7835 0 0 0
7 4 34.1715 0.0 12.5895 0 0 0
3234 4 7.194 19.7835 30.5745 0 0 0
2439 4 12.5895 17.985 34.1715 0 0 0
561 4 32.373 32.373 0.0 0 0 0
2501 4 14.388 25.179 17.985 0 0 0
701 4 28.776 7.194 17.985 0 0 0
1697 4 21.582 25.179 14.388 0 0 0
2638 4 10.791 1.7985 34.1715 0 0 0
3333 4 7.194 28.776 10.791 0 0 0
1253 4 25.179 21.582 10.791 0 0 0
3059 4 5.3955 3.597 16.1865 0 0 0
3683 4 1.7985 25.179 1.7985 0 0 0
436 4 30.5745 19.7835 28.776 0 0 0
1025 4 25.179 0.0 21.582 0 0 0
2010 4 17.985 19.7835 8.9925 0 0 0
3150 4 7.194 12.5895 26.9775 0 0 0
3679 4 1.7985 21.582 34.1715 0 0 0
779 4 26.9775 14.388 16.1865 0 0 0
1931 4 16.1865 10.791 8.9925 0 0 0
2351 4 12.5895 10.791 26.9775 0 0 0
97 4 34.1715 14.388 30.5745 0 0 0
951 4 26.9775 28.776 26.9775 0 0 0
713 4 28.776 7.194 28.776 0 0 0
1829 4 17.985 0.0 25.179 0 0 0
3541 4 3.597 10.791 17.985 0 0 0
185 4 34.1715 32.373 8.9925 0 0 0
1106 4 25.179 8.9925 23.3805 0 0 0
2295 4 12.5895 7.194 12.5895 0 0 0
1800 4 19.7835 34.1715 32.373 0 0 0
2392 4 12.5895 16.1865 25.179 0 0 0
3255 4 5.3955 21.582 12.5895 0 0 0
2415 4 12.5895 17.985 12.5895 0 0 0
930 4 28.776 30.5745 8.9925 0 0 0
228 4 30.5745 1.7985 21.582 0 0 0
3692 4 1.7985 26.9775 7.194 0 0 0
1481 4 21.582 7.194 0.0 0 0 0
3312 4 5.3955 26.9775 25.179 0 0 0
3469 4 3.597 3.597 25.179 0 0 0
1245 4 25.179 21.582 3.597 0 0 0
1169 4 25.179 14.388 7.194 0 0 0
880 4 26.9775 23.3805 32.373 0 0 0
1589 4 21.582 14.388 25.179 0 0 0
421 4 32.373 17.985 17.985 0 0 0
2821 4 10.791 17.985 17.985 0 0 0
2823 4 8.9925 17.985 19.7835 0 0 0
2122 4 17.985 30.5745 1.7985 0 0 0
2119 4 16.1865 25.179 34.1715 0 0 0
1828 4 16.1865 1.7985 21.582 0 0 0
21 4 34.1715 3.597 1.7985 0 0 0
3242 4 7.194 23.3805 1.7985 0 0 0
1716 4 19.7835 26.9775 28.776 0 0 0
3000 4 8.9925 34.1715 32.373 0 0 0
108 4 34.1715 19.7835 10.791 0 0 0
3987 4 0.0 32.373 10.791 0 0 0
1185 4 25.179 14.388 21.582 0 0 0
3564 4 1.7985 16.1865 0.0 0 0 0
630 4 28.776 1.7985 26.9775 0 0 0
3707 4 1.7985 25.179 23.3805 0 0 0
1477 4 21.582 3.597 32.373 0 0 0
3156 4 5.3955 12.5895 28.776 0 0 0
3053 4 7.194 3.597 10.791 0 0 0
914 4 28.776 26.9775 30.5745 0 0 0
2384 4 12.5895 16.1865 17.985 0 0 0
2780 4 8.9925 16.1865 14.388 0 0 0
1989 4 17.985 14.388 25.179 0 0 0
3924 4 0.0 23.3805 5.3955 0 0 0
2137 4 17.985 28.776 14.388 0 0 0
2886 4 10.791 26.9775 5.3955 0 0 0
929 4 28.776 28.776 7.194 0 0 0
2261 4 14.388 3.597 17.985 0 0 0
1670 4 21.582 23.3805 26.9775 0 0 0
2386 4 14.388 16.1865 23.3805 0 0 0
2648 4 8.9925 5.3955 3.597 0 0 0
2467 4 12.5895 21.582 23.3805 0 0 0
1991 4 16.1865 14.388 26.9775 0 0 0
3103 4 5.3955 7.194 19.7835 0 0 0
711 4 26.9775 7.194 26.9775 0 0 0
1749 4 21.582 28.776 25.179 0 0 0
2449 4 14.388 21.582 7.194 0 0 0
1179 4 23.3805 14.388 16.1865 0 0 0
1885 4 17.985 7.194 3.597 0 0 0
871 4 26.9775 21.582 26.9775 0 0 0
3484 4 1.7985 8.9925 0.0 0 0 0
2771 4 8.9925 14.388 8.9925 0 0 0
815 4 26.9775 17.985 12.5895 0 0 0
151 4 34.1715 25.179 19.7835 0 0 0
2229 4 14.388 0.0 25.179 0 0 0
2105 4 17.985 25.179 21.582 0 0 0
812 4 26.9775 19.7835 7.194 0 0 0
2851 4 8.9925 21.582 8.9925 0 0 0
3487 4 1.7985 7.194 5.3955 0 0 0
1191 4 23.3805 14.388 26.9775 0 0 0
3991 4 0.0 32.373 17.985 0 0 0
2163 4 16.1865 32.373 1.7985 0 0 0
3429 4 3.597 0.0 25.179 0 0 0
3327 4 5.3955 28.776 5.3955 0 0 0
3321 4 7.194 28.776 0.0 0 0 0
164 4 34.1715 30.5745 3.597 0 0 0
197 4 34.1715 32.373 30.5745 0 0 0
2445 4 14.388 21.582 3.597 0 0 0
2577 4 14.388 32.373 14.388 0 0 0
1972 4 16.1865 16.1865 7.194 0 0 0
3311 4 5.3955 25.179 26.9775 0 0 0
1493 4 21.582 7.194 10.791 0 0 0
2994 4 10.791 34.1715 30.5745 0 0 0
2765 4 10.791 14.388 3.597 0 0 0
3132 4 5.3955 12.5895 7.194 0 0 0
82 4 34.1715 16.1865 0.0 0 0 0
1384 4 23.3805 34.1715 17.985 0 0 0
569 4 32.373 32.373 7.194 0 0 0
3175 4 5.3955 14.388 12.5895 0 0 0
751 4 26.9775 10.791 26.9775 0 0 0
1674 4 21.582 23.3805 30.5745 0 0 0
3475 4 1.7985 3.597 30.5745 0 0 0
1450 4 21.582 5.3955 8.9925 0 0 0
1462 4 21.582 5.3955 19.7835 0 0 0
282 4 32.373 8.9925 1.7985 0 0 0
211 4 30.5745 0.0 8.9925 0 0 0
2863 4 8.9925 21.582 19.7835 0 0 0
2115 4 16.1865 25.179 30.5745 0 0 0
1174 4 25.179 16.1865 12.5895 0 0 0
705 4 28.776 7.194 21.582 0 0 0
3278 4 7.194 23.3805 34.1715 0 0 0
3240 4 5.3955 19.7835 32.373 0 0 0
2232 4 12.5895 1.7985 25.179 0 0 0
3318 4 7.194 26.9775 34.1715 0 0 0
1293 4 25.179 25.179 10.791 0 0 0
644 4 26.9775 5.3955 0.0 0 0 0
766 4 28.776 16.1865 5.3955 0 0 0
2991 4 8.9925 32.373 26.9775 0 0 0
2481 4 14.388 25.179 0.0 0 0 0
2963 4 8.9925 32.373 1.7985 0 0 0
2016 4 16.1865 19.7835 10.791 0 0 0
1413 4 21.582 0.0 10.791 0 0 0
2949 4 10.791 28.776 25.179 0 0 0
1733 4 21.582 28.776 10.791 0 0 0
1914 4 17.985 8.9925 30.5745 0 0 0
3514 4 3.597 8.9925 30.5745 0 0 0
3986 4 0.0 34.1715 8.9925 0 0 0
463 4 30.5745 21.582 19.7835 0 0 0
1745 4 21.582 28.776 21.582 0 0 0
2623 4 8.9925 0.0 19.7835 0 0 0
982 4 28.776 34.1715 19.7835 0 0 0
2058 4 17.985 23.3805 16.1865 0 0 0
1547 4 19.7835 10.791 23.3805 0 0 0
698 4 28.776 8.9925 16.1865 0 0 0
3757 4 3.597 28.776 32.373 0 0 0
3467 4 1.7985 3.597 23.3805 0 0 0
861 4 28.776 21.582 17.985 0 0 0
3110 4 7.194 8.9925 26.9775 0 0 0
1723 4 19.7835 28.776 1.7985 0 0 0
2818 4 10.791 19.7835 16.1865 0 0 0
3619 4 1.7985 17.985 16.1865 0 0 0
3548 4 1.7985 12.5895 21.582 0 0 0
2566 4 14.388 34.1715 5.3955 0 0 0
836 4 26.9775 19.7835 28.776 0 0 0
2615 4 8.9925 0.0 12.5895 0 0 0
1588 4 19.7835 16.1865 21.582 0 0 0
2314 4 14.388 8.9925 30.5745 0 0 0
1214 4 25.179 19.7835 12.5895 0 0 0
2520 4 12.5895 26.9775 32.373 0 0 0
2649 4 10.791 3.597 7.194 0 0 0
3283 4 5.3955 25.179 1.7985 0 0 0
1059 4 23.3805 3.597 16.1865 0 0 0
1665 4 21.582 21.582 21.582 0 0 0
3231 4 5.3955 17.985 26.9775 0 0 0
342 4 32.373 12.5895 19.7835 0 0 0
846 4 28.776 23.3805 5.3955 0 0 0
2209 4 14.388 0.0 7.194 0 0 0
1156 4 23.3805 12.5895 28.776 0 0 0
996 4 26.9775 34.1715 28.776 0 0 0
2742 4 10.791 12.5895 19.7835 0 0 0
3835 4 0.0 3.597 25.179 0 0 0
2158 4 17.985 30.5745 34.1715 0 0 0
281 4 32.373 7.194 0.0 0 0 0
2858 4 10.791 23.3805 16.1865 0 0 0
3906 4 0.0 19.7835 8.9925 0 0 0
2832 4 8.9925 19.7835 25.179 0 0 0
1147 4 23.3805 10.791 23.3805 0 0 0
370 4 32.373 16.1865 8.9925 0 0 0
3624 4 1.7985 19.7835 17.985 0 0 0
3427 4 1.7985 0.0 23.3805 0 0 0
3137 4 7.194 10.791 14.388 0 0 0
1986 4 17.985 16.1865 23.3805 0 0 0
3984 4 0.0 34.1715 5.3955 0 0 0
2688 4 8.9925 8.9925 3.597 0 0 0
2697 4 10.791 7.194 14.388 0 0 0
2867 4 8.9925 21.582 23.3805 0 0 0
394 4 32.373 16.1865 30.5745 0 0 0
2267 4 12.5895 3.597 23.3805 0 0 0
1948 4 16.1865 12.5895 21.582 0 0 0
936 4 26.9775 30.5745 10.791 0 0 0
317 4 32.373 7.194 32.373 0 0 0
3816 4 0.0 1.7985 26.9775 0 0 0
598 4 32.373 34.1715 34.1715 0 0 0
1561 4 21.582 14.388 0.0 0 0 0
1166 4 25.179 16.1865 5.3955 0 0 0
3740 4 1.7985 30.5745 14.388 0 0 0
3572 4 1.7985 16.1865 7.194 0 0 0
764 4 26.9775 16.1865 0.0 0 0 0
3207 4 5.3955 17.985 5.3955 0 0 0
1601 4 21.582 17.985 0.0 0 0 0
3545 4 3.597 10.791 21.582 0 0 0
707 4 26.9775 7.194 23.3805 0 0 0
548 4 30.5745 30.5745 21.582 0 0 0
20 4 34.1715 1.7985 32.373 0 0 0
604 4 26.9775 1.7985 0.0 0 0 0
2532 4 12.5895 30.5745 7.194 0 0 0
1132 4 23.3805 12.5895 7.194 0 0 0
426 4 32.373 19.7835 23.3805 0 0 0
3803 4 0.0 0.0 3.597 0 0 0
1610 4 21.582 19.7835 8.9925 0 0 0
2482 4 14.388 26.9775 1.7985 0 0 0
1207 4 23.3805 17.985 5.3955 0 0 0
3793 4 3.597 32.373 28.776 0 0 0
3043 4 5.3955 3.597 1.7985 0 0 0
3300 4 5.3955 26.9775 14.388 0 0 0
1719 4 19.7835 25.179 34.1715 0 0 0
407 4 30.5745 17.985 5.3955 0 0 0
221 4 32.373 0.0 17.985 0 0 0
3199 4 5.3955 14.388 34.1715 0 0 0
2416 4 12.5895 19.7835 10.791 0 0 0
1142 4 25.179 12.5895 19.7835 0 0 0
3795 4 1.7985 32.373 30.5745 0 0 0
240 4 30.5745 1.7985 32.373 0 0 0
787 4 26.9775 14.388 23.3805 0 0 0
2593 4 14.388 32.373 28.776 0 0 0
1971 4 16.1865 14.388 8.9925 0 0 0
1987 4 16.1865 14.388 23.3805 0 0 0
2243 4 12.5895 3.597 1.7985 0 0 0
3299 4 5.3955 25.179 16.1865 0 0 0
3853 4 0.0 7.194 21.582 0 0 0
2651 4 8.9925 3.597 8.9925 0 0 0
2345 4 14.388 10.791 21.582 0 0 0
3222 4 7.194 19.7835 19.7835 0 0 0
3557 4 3.597 10.791 32.373 0 0 0
1642 4 21.582 23.3805 1.7985 0 0 0
311 4 30.5745 7.194 26.9775 0 0 0
594 4 32.373 34.1715 30.5745 0 0 0
3306 4 7.194 26.9775 23.3805 0 0 0
74 4 34.1715 12.5895 21.582 0 0 0
2712 4 8.9925 8.9925 25.179 0 0 0
2012 4 16.1865 19.7835 7.194 0 0 0
2248 4 12.5895 5.3955 3.597 0 0 0
757 4 28.776 10.791 32.373 0 0 0
3979 4 0.0 28.776 32.373 0 0 0
2978 4 10.791 34.1715 16.1865 0 0 0
2513 4 14.388 25.179 28.776 0 0 0
3544 4 1.7985 12.5895 17.985 0 0 0
473 4 32.373 21.582 28.776 0 0 0
1039 4 23.3805 0.0 34.1715 0 0 0
3638 4 3.597 19.7835 34.1715 0 0 0
2054 4 17.985 23.3805 12.5895 0 0 0
821 4 28.776 17.985 17.985 0 0 0
1585 4 21.582 14.388 21.582 0 0 0
1913 4 17.985 7.194 28.776 0 0 0
1887 4 16.1865 7.194 5.3955 0 0 0
3898 4 0.0 16.1865 30.5745 0 0 0
2431 4 12.5895 17.985 26.9775 0 0 0
2240 4 12.5895 1.7985 32.373 0 0 0
1219 4 23.3805 17.985 16.1865 0 0 0
1131 4 23.3805 10.791 8.9925 0 0 0
2146 4 17.985 30.5745 23.3805 0 0 0
3367 4 5.3955 32.373 5.3955 0 0 0
1902 4 17.985 8.9925 19.7835 0 0 0
191 4 34.1715 32.373 19.7835 0 0 0
918 4 28.776 26.9775 34.1715 0 0 0
3851 4 0.0 7.194 17.985 0 0 0
709 4 28.776 7.194 25.179 0 0 0
3496 4 1.7985 8.9925 10.791 0 0 0
3839 4 0.0 3.597 32.373 0 0 0
3708 4 1.7985 26.9775 21.582 0 0 0
2169 4 17.985 32.373 7.194 0 0 0
1301 4 25.179 25.179 17.985 0 0 0
1772 4 19.7835 34.1715 7.194 0 0 0
1364 4 23.3805 34.1715 0.0 0 0 0
1906 4 17.985 8.9925 23.3805 0 0 0
138 4 34.1715 23.3805 28.776 0 0 0
2491 4 12.5895 25.179 8.9925 0 0 0
1725 4 21.582 28.776 3.597 0 0 0
308 4 30.5745 8.9925 21.582 0 0 0
1451 4 19.7835 3.597 8.9925 0 0 0
2479 4 12.5895 21.582 34.1715 0 0 0
1724 4 19.7835 30.5745 0.0 0 0 0
3875 4 0.0 10.791 25.179 0 0 0
2344 4 12.5895 12.5895 17.985 0 0 0
2155 4 16.1865 28.776 30.5745 0 0 0
1469 4 21.582 3.597 25.179 0 0 0
234 4 32.373 1.7985 30.5745 0 0 0
399 4 30.5745 14.388 34.1715 0 0 0
585 4 32.373 32.373 21.582 0 0 0
1366 4 25.179 34.1715 5.3955 0 0 0
3418 4 3.597 1.7985 16.1865 0 0 0
591 4 30.5745 32.373 26.9775 0 0 0
2072 4 16.1865 23.3805 25.179 0 0 0
3233 4 7.194 17.985 28.776 0 0 0
14 4 34.1715 1.7985 21.582 0 0 0
1691 4 19.7835 25.179 8.9925 0 0 0
2621 4 10.791 0.0 17.985 0 0 0
1402 4 21.582 1.7985 1.7985 0 0 0
1084 4 23.3805 8.9925 0.0 0 0 0
3087 4 5.3955 7.194 5.3955 0 0 0
3109 4 7.194 7.194 25.179 0 0 0
3004 4 5.3955 1.7985 0.0 0 0 0
990 4 28.776 34.1715 26.9775 0 0 0
2941 4 10.791 28.776 17.985 0 0 0
3144 4 5.3955 12.5895 17.985 0 0 0
2630 4 10.791 1.7985 26.9775 0 0 0
259 4 30.5745 3.597 16.1865 0 0 0
2534 4 14.388 30.5745 12.5895 0 0 0
2523 4 12.5895 28.776 1.7985 0 0 0
1937 4 17.985 10.791 14.388 0 0 0
2761 4 10.791 14.388 0.0 0 0 0
992 4 26.9775 34.1715 25.179 0 0 0
602 4 28.776 1.7985 1.7985 0 0 0
3005 4 7.194 0.0 3.597 0 0 0
1640 4 19.7835 19.7835 32.373 0 0 0
818 4 28.776 19.7835 16.1865 0 0 0
2744 4 8.9925 12.5895 17.985 0 0 0
1236 4 23.3805 19.7835 28.776 0 0 0
1781 4 21.582 32.373 17.985 0 0 0
3134 4 7.194 12.5895 12.5895 0 0 0
1852 4 16.1865 5.3955 7.194 0 0 0
469 4 32.373 21.582 25.179 0 0 0
2221 4 14.388 0.0 17.985 0 0 0
3739 4 1.7985 28.776 16.1865 0 0 0
2864 4 8.9925 23.3805 17.985 0 0 0
9 4 34.1715 0.0 16.1865 0 0 0
1300 4 23.3805 26.9775 14.388 0 0 0
966 4 28.776 34.1715 5.3955 0 0 0
2933 4 10.791 28.776 10.791 0 0 0
260 4 30.5745 5.3955 14.388 0 0 0
2687 4 8.9925 7.194 5.3955 0 0 0
908 4 26.9775 26.9775 21.582 0 0 0
3384 4 5.3955 34.1715 17.985 0 0 0
1984 4 16.1865 16.1865 17.985 0 0 0
683 4 26.9775 7.194 1.7985 0 0 0
458 4 32.373 23.3805 16.1865 0 0 0
3861 4 0.0 10.791 0.0 0 0 0
479 4 30.5745 21.582 34.1715 0 0 0
13 4 34.1715 0.0 23.3805 0 0 0
1729 4 21.582 28.776 7.194 0 0 0
615 4 26.9775 0.0 12.5895 0 0 0
1861 4 17.985 3.597 17.985 0 0 0
673 4 28.776 3.597 28.776 0 0 0
2572 4 12.5895 34.1715 7.194 0 0 0
3493 4 3.597 7.194 10.791 0 0 0
2061 4 17.985 21.582 17.985 0 0 0
893 4 28.776 25.179 10.791 0 0 0
1694 4 21.582 26.9775 12.5895 0 0 0
1168 4 23.3805 16.1865 3.597 0 0 0
756 4 26.9775 12.5895 28.776 0 0 0
3752 4 1.7985 30.5745 25.179 0 0 0
2585 4 14.388 32.373 21.582 0 0 0
3348 4 5.3955 30.5745 21.582 0 0 0
135 4 34.1715 21.582 26.9775 0 0 0
909 4 28.776 25.179 25.179 0 0 0
2905 4 10.791 25.179 21.582 0 0 0
797 4 28.776 14.388 32.373 0 0 0
2414 4 14.388 19.7835 12.5895 0 0 0
732 4 26.9775 12.5895 7.194 0 0 0
1355 4 23.3805 28.776 30.5745 0 0 0
1782 4 21.582 34.1715 19.7835 0 0 0
2492 4 12.5895 26.9775 7.194 0 0 0
2210 4 14.388 1.7985 8.9925 0 0 0
3154 4 7.194 12.5895 30.5745 0 0 0
344 4 30.5745 12.5895 17.985 0 0 0
3522 4 3.597 12.5895 1.7985 0 0 0
1433 4 21.582 0.0 28.776 0 0 0
3860 4 0.0 8.9925 34.1715 0 0 0
1646 4 21.582 23.3805 5.3955 0 0 0
118 4 34.1715 19.7835 28.776 0 0 0
2645 4 10.791 3.597 3.597 0 0 0
147 4 34.1715 25.179 12.5895 0 0 0
3622 4 3.597 19.7835 19.7835 0 0 0
252 4 30.5745 5.3955 7.194 0 0 0
1773 4 21.582 32.373 10.791 0 0 0
2211 4 12.5895 0.0 8.9925 0 0 0
3529 4 3.597 10.791 7.194 0 0 0
3930 4 0.0 23.3805 16.1865 0 0 0
2912 4 8.9925 26.9775 25.179 0 0 0
2060 4 16.1865 23.3805 14.388 0 0 0
1170 4 25.179 16.1865 8.9925 0 0 0
115 4 34.1715 17.985 26.9775 0 0 0
1516 4 19.7835 8.9925 28.776 0 0 0
1064 4 23.3805 5.3955 17.985 0 0 0
2975 4 8.9925 32.373 12.5895 0 0 0
3664 4 1.7985 23.3805 17.985 0 0 0
3602 4 3.597 19.7835 1.7985 0 0 0
400 4 30.5745 16.1865 32.373 0 0 0
968 4 26.9775 34.1715 3.597 0 0 0
3002 4 7.194 1.7985 1.7985 0 0 0
3663 4 1.7985 21.582 19.7835 0 0 0
1935 4 16.1865 10.791 12.5895 0 0 0
916 4 26.9775 26.9775 28.776 0 0 0
1635 4 19.7835 17.985 30.5745 0 0 0
2176 4 16.1865 34.1715 10.791 0 0 0
2570 4 14.388 34.1715 8.9925 0 0 0
617 4 28.776 0.0 14.388 0 0 0
749 4 28.776 10.791 25.179 0 0 0
265 4 32.373 3.597 21.582 0 0 0
3543 4 1.7985 10.791 19.7835 0 0 0
242 4 32.373 5.3955 1.7985 0 0 0
1135 4 23.3805 10.791 12.5895 0 0 0
2624 4 8.9925 1.7985 17.985 0 0 0
154 4 34.1715 26.9775 21.582 0 0 0
3206 4 7.194 19.7835 5.3955 0 0 0
979 4 26.9775 32.373 16.1865 0 0 0
2373 4 14.388 14.388 10.791 0 0 0
3591 4 1.7985 14.388 26.9775 0 0 0
1982 4 17.985 16.1865 19.7835 0 0 0
3822 4 0.0 5.3955 1.7985 0 0 0
977 4 28.776 32.373 14.388 0 0 0
3063 4 5.3955 3.597 19.7835 0 0 0
767 4 26.9775 14.388 5.3955 0 0 0
279 4 30.5745 3.597 34.1715 0 0 0
837 4 28.776 17.985 32.373 0 0 0
1843 4 16.1865 3.597 1.7985 0 0 0
267 4 30.5745 3.597 23.3805 0 0 0
867 4 26.9775 21.582 23.3805 0 0 0
2535 4 12.5895 28.776 12.5895 0 0 0
599 4 30.5745 32.373 34.1715 0 0 0
1091 4 23.3805 7.194 8.9925 0 0 0
3099 4 5.3955 7.194 16.1865 0 0 0
2030 4 17.985 19.7835 26.9775 0 0 0
1859 4 16.1865 3.597 16.1865 0 0 0
3585 4 3.597 14.388 21.582 0 0 0
3724 4 1.7985 30.5745 0.0 0 0 0
2629 4 10.791 0.0 25.179 0 0 0
2932 4 8.9925 30.5745 7.194 0 0 0
336 4 30.5745 12.5895 10.791 0 0 0
565 4 32.373 32.373 3.597 0 0 0
1927 4 16.1865 10.791 5.3955 0 0 0
947 4 26.9775 28.776 23.3805 0 0 0
986 4 28.776 34.1715 23.3805 0 0 0
3191 4 5.3955 14.388 26.9775 0 0 0
3223 4 5.3955 17.985 19.7835 0 0 0
1036 4 23.3805 1.7985 28.776 0 0 0
3116 4 5.3955 8.9925 28.776 0 0 0
1203 4 23.3805 17.985 1.7985 0 0 0
903 4 26.9775 25.179 19.7835 0 0 0
900 4 26.9775 26.9775 14.388 0 0 0
3185 4 7.194 14.388 21.582 0 0 0
1183 4 23.3805 14.388 19.7835 0 0 0
1858 4 17.985 5.3955 16.1865 0 0 0
1041 4 25.179 3.597 0.0 0 0 0
3506 4 3.597 8.9925 23.3805 0 0 0
801 4 28.776 17.985 0.0 0 0 0
300 4 30.5745 8.9925 14.388 0 0 0
291 4 30.5745 7.194 8.9925 0 0 0
1868 4 16.1865 5.3955 21.582 0 0 0
689 4 28.776 7.194 7.194 0 0 0
1237 4 25.179 17.985 32.373 0 0 0
1558 4 21.582 12.5895 34.1715 0 0 0
3208 4 5.3955 19.7835 3.597 0 0 0
700 4 26.9775 8.9925 14.388 0 0 0
1054 4 25.179 5.3955 12.5895 0 0 0
3940 4 0.0 23.3805 34.1715 0 0 0
532 4 30.5745 30.5745 7.194 0 0 0
1641 4 21.582 21.582 0.0 0 0 0
2270 4 14.388 5.3955 26.9775 0 0 0
53 4 34.1715 7.194 23.3805 0 0 0
627 4 26.9775 0.0 23.3805 0 0 0
1371 4 23.3805 32.373 8.9925 0 0 0
2945 4 10.791 28.776 21.582 0 0 0
3480 4 1.7985 5.3955 32.373 0 0 0
2674 4 10.791 5.3955 30.5745 0 0 0
3958 4 0.0 26.9775 30.5745 0 0 0
2510 4 14.388 26.9775 26.9775 0 0 0
3096 4 5.3955 8.9925 10.791 0 0 0
2156 4 16.1865 30.5745 28.776 0 0 0
1536 4 19.7835 12.5895 10.791 0 0 0
860 4 26.9775 23.3805 14.388 0 0 0
1597 4 21.582 14.388 32.373 0 0 0
1949 4 17.985 10.791 25.179 0 0 0
1182 4 25.179 16.1865 19.7835 0 0 0
2890 4 10.791 26.9775 8.9925 0 0 0
3035 4 5.3955 0.0 30.5745 0 0 0
1171 4 23.3805 14.388 8.9925 0 0 0
289 4 32.373 7.194 7.194 0 0 0
3170 4 7.194 16.1865 8.9925 0 0 0
1649 4 21.582 21.582 7.194 0 0 0
1259 4 23.3805 21.582 16.1865 0 0 0
2981 4 10.791 32.373 17.985 0 0 0
993 4 28.776 32.373 28.776 0 0 0
1067 4 23.3805 3.597 23.3805 0 0 0
2103 4 16.1865 25.179 19.7835 0 0 0
3077 4 7.194 3.597 32.373 0 0 0
2524 4 12.5895 30.5745 0.0 0 0 0
802 4 28.776 19.7835 1.7985 0 0 0
150 4 34.1715 26.9775 14.388 0 0 0
1888 4 16.1865 8.9925 3.597 0 0 0
298 4 32.373 8.9925 16.1865 0 0 0
3007 4 5.3955 0.0 5.3955 0 0 0
3448 4 1.7985 5.3955 3.597 0 0 0
1159 4 23.3805 10.791 34.1715 0 0 0
3182 4 7.194 16.1865 19.7835 0 0 0
1137 4 25.179 10.791 14.388 0 0 0
3466 4 3.597 5.3955 23.3805 0 0 0
3972 4 0.0 30.5745 19.7835 0 0 0
499 4 30.5745 25.179 16.1865 0 0 0
3032 4 5.3955 1.7985 25.179 0 0 0
517 4 32.373 25.179 32.373 0 0 0
2390 4 14.388 16.1865 26.9775 0 0 0
3960 4 0.0 26.9775 34.1715 0 0 0
3801 4 0.0 0.0 0.0 0 0 0
1238 4 25.179 19.7835 34.1715 0 0 0
896 4 26.9775 26.9775 10.791 0 0 0
2589 4 14.388 32.373 25.179 0 0 0
641 4 28.776 3.597 0.0 0 0 0
2051 4 16.1865 21.582 8.9925 0 0 0
3375 4 5.3955 32.373 12.5895 0 0 0
2409 4 14.388 17.985 7.194 0 0 0
3181 4 7.194 14.388 17.985 0 0 0
884 4 26.9775 26.9775 0.0 0 0 0
495 4 30.5745 25.179 12.5895 0 0 0
1133 4 25.179 10.791 10.791 0 0 0
1225 4 25.179 17.985 21.582 0 0 0
586 4 32.373 34.1715 23.3805 0 0 0
480 4 30.5745 23.3805 32.373 0 0 0
2610 4 10.791 1.7985 8.9925 0 0 0
329 4 32.373 10.791 7.194 0 0 0
3272 4 5.3955 23.3805 25.179 0 0 0
1215 4 23.3805 17.985 12.5895 0 0 0
2212 4 12.5895 1.7985 7.194 0 0 0
1083 4 23.3805 7.194 1.7985 0 0 0
2528 4 12.5895 30.5745 3.597 0 0 0
3929 4 0.0 21.582 14.388 0 0 0
1531 4 19.7835 10.791 8.9925 0 0 0
3631 4 1.7985 17.985 26.9775 0 0 0
3760 4 1.7985 30.5745 32.373 0 0 0
1454 4 21.582 5.3955 12.5895 0 0 0
804 4 26.9775 19.7835 0.0 0 0 0
327 4 30.5745 10.791 5.3955 0 0 0
3709 4 3.597 25.179 25.179 0 0 0
2179 4 16.1865 32.373 16.1865 0 0 0
3180 4 5.3955 16.1865 14.388 0 0 0
2825 4 10.791 17.985 21.582 0 0 0
1060 4 23.3805 5.3955 14.388 0 0 0
2107 4 16.1865 25.179 23.3805 0 0 0
2551 4 12.5895 28.776 26.9775 0 0 0
2951 4 8.9925 28.776 26.9775 0 0 0
3947 4 0.0 25.179 10.791 0 0 0
3123 4 5.3955 10.791 1.7985 0 0 0
2888 4 8.9925 26.9775 3.597 0 0 0
3565 4 3.597 14.388 3.597 0 0 0
488 4 30.5745 26.9775 3.597 0 0 0
629 4 28.776 0.0 25.179 0 0 0
474 4 32.373 23.3805 30.5745 0 0 0
1604 4 19.7835 19.7835 0.0 0 0 0
3555 4 1.7985 10.791 30.5745 0 0 0
3769 4 3.597 32.373 7.194 0 0 0
3432 4 1.7985 1.7985 25.179 0 0 0
1077 4 25.179 3.597 32.373 0 0 0
2126 4 17.985 30.5745 5.3955 0 0 0
1892 4 16.1865 8.9925 7.194 0 0 0
1400 4 23.3805 34.1715 32.373 0 0 0
2738 4 10.791 12.5895 16.1865 0 0 0
3238 4 7.194 19.7835 34.1715 0 0 0
63 4 34.1715 10.791 5.3955 0 0 0
3733 4 3.597 28.776 10.791 0 0 0
3058 4 7.194 5.3955 16.1865 0 0 0
2378 4 14.388 16.1865 16.1865 0 0 0
863 4 26.9775 21.582 19.7835 0 0 0
587 4 30.5745 32.373 23.3805 0 0 0
3497 4 3.597 7.194 14.388 0 0 0
803 4 26.9775 17.985 1.7985 0 0 0
1586 4 21.582 16.1865 23.3805 0 0 0
3892 4 0.0 16.1865 19.7835 0 0 0
2367 4 12.5895 14.388 5.3955 0 0 0
2017 4 17.985 17.985 14.388 0 0 0
662 4 28.776 5.3955 19.7835 0 0 0
3554 4 3.597 12.5895 30.5745 0 0 0
3954 4 0.0 26.9775 23.3805 0 0 0
1057 4 25.179 3.597 14.388 0 0 0
3338 4 7.194 30.5745 16.1865 0 0 0
120 4 34.1715 19.7835 32.373 0 0 0
3928 4 0.0 23.3805 12.5895 0 0 0
3646 4 3.597 23.3805 5.3955 0 0 0
452 4 30.5745 23.3805 7.194 0 0 0
504 4 30.5745 26.9775 17.985 0 0 0
984 4 26.9775 34.1715 17.985 0 0 0
3918 4 0.0 19.7835 30.5745 0 0 0
2162 4 17.985 34.1715 1.7985 0 0 0
1685 4 21.582 25.179 3.597 0 0 0
2562 4 14.388 34.1715 1.7985 0 0 0
3062 4 7.194 5.3955 19.7835 0 0 0
714 4 28.776 8.9925 30.5745 0 0 0
729 4 28.776 10.791 7.194 0 0 0
131 4 34.1715 21.582 19.7835 0 0 0
3920 4 0.0 19.7835 34.1715 0 0 0
3398 4 7.194 34.1715 34.1715 0 0 0
1499 4 19.7835 7.194 16.1865 0 0 0
1373 4 25.179 32.373 10.791 0 0 0
864 4 26.9775 23.3805 17.985 0 0 0
875 4 26.9775 21.582 30.5745 0 0 0
79 4 34.1715 10.791 34.1715 0 0 0
2911 4 8.9925 25.179 26.9775 0 0 0
3635 4 1.7985 17.985 30.5745 0 0 0
2063 4 16.1865 21.582 19.7835 0 0 0
885 4 28.776 25.179 3.597 0 0 0
3831 4 0.0 3.597 17.985 0 0 0
2974 4 10.791 34.1715 12.5895 0 0 0
1591 4 19.7835 14.388 26.9775 0 0 0
1728 4 19.7835 30.5745 3.597 0 0 0
182 4 34.1715 34.1715 0.0 0 0 0
2984 4 8.9925 34.1715 17.985 0 0 0
3396 4 5.3955 34.1715 28.776 0 0 0
3296 4 5.3955 26.9775 10.791 0 0 0
434 4 32.373 19.7835 30.5745 0 0 0
1688 4 19.7835 26.9775 3.597 0 0 0
1683 4 19.7835 25.179 1.7985 0 0 0
90 4 34.1715 16.1865 14.388 0 0 0
2422 4 14.388 19.7835 19.7835 0 0 0
3065 4 7.194 3.597 21.582 0 0 0
3677 4 3.597 21.582 32.373 0 0 0
75 4 34.1715 10.791 26.9775 0 0 0
1347 4 23.3805 28.776 23.3805 0 0 0
3352 4 5.3955 30.5745 25.179 0 0 0
1880 4 16.1865 5.3955 32.373 0 0 0
2269 4 14.388 3.597 25.179 0 0 0
3055 4 5.3955 3.597 12.5895 0 0 0
3328 4 5.3955 30.5745 3.597 0 0 0
256 4 30.5745 5.3955 10.791 0 0 0
1175 4 23.3805 14.388 12.5895 0 0 0
208 4 30.5745 1.7985 3.597 0 0 0
2580 4 12.5895 34.1715 14.388 0 0 0
3682 4 3.597 26.9775 1.7985 0 0 0
3834 4 0.0 5.3955 23.3805 0 0 0
2946 4 10.791 30.5745 23.3805 0 0 0
1114 4 25.179 8.9925 30.5745 0 0 0
589 4 32.373 32.373 25.179 0 0 0
1308 4 23.3805 26.9775 21.582 0 0 0
153 4 34.1715 25.179 23.3805 0 0 0
352 4 30.5745 12.5895 25.179 0 0 0
3329 4 7.194 28.776 7.194 0 0 0
1370 4 25.179 34.1715 8.9925 0 0 0
3716 4 1.7985 26.9775 28.776 0 0 0
1894 4 17.985 8.9925 12.5895 0 0 0
2093 4 17.985 25.179 10.791 0 0 0
1411 4 19.7835 0.0 8.9925 0 0 0
3863 4 0.0 10.791 3.597 0 0 0
3016 4 5.3955 1.7985 10.791 0 0 0
1606 4 21.582 19.7835 5.3955 0 0 0
3010 4 7.194 1.7985 8.9925 0 0 0
2548 4 12.5895 30.5745 21.582 0 0 0
2989 4 10.791 32.373 25.179 0 0 0
2154 4 17.985 30.5745 30.5745 0 0 0
3510 4 3.597 8.9925 26.9775 0 0 0
3729 4 3.597 28.776 7.194 0 0 0
58 4 34.1715 8.9925 28.776 0 0 0
2341 4 14.388 10.791 17.985 0 0 0
3362 4 7.194 34.1715 1.7985 0 0 0
3886 4 0.0 16.1865 8.9925 0 0 0
3578 4 3.597 16.1865 16.1865 0 0 0
1834 4 17.985 1.7985 30.5745 0 0 0
545 4 32.373 28.776 21.582 0 0 0
3759 4 1.7985 28.776 34.1715 0 0 0
1480 4 19.7835 5.3955 32.373 0 0 0
3725 4 3.597 28.776 3.597 0 0 0
1517 4 21.582 7.194 32.373 0 0 0
3899 4 0.0 14.388 32.373 0 0 0
2308 4 12.5895 8.9925 21.582 0 0 0
3040 4 5.3955 1.7985 32.373 0 0 0
1319 4 23.3805 25.179 34.1715 0 0 0
351 4 30.5745 10.791 26.9775 0 0 0
2284 4 12.5895 8.9925 0.0 0 0 0
1700 4 19.7835 26.9775 14.388 0 0 0
2435 4 12.5895 17.985 30.5745 0 0 0
3581 4 3.597 14.388 17.985 0 0 0
3744 4 1.7985 30.5745 17.985 0 0 0
2557 4 14.388 28.776 32.373 0 0 0
663 4 26.9775 3.597 19.7835 0 0 0
3128 4 5.3955 12.5895 3.597 0 0 0
15 4 34.1715 0.0 26.9775 0 0 0
3969 4 0.0 28.776 14.388 0 0 0
842 4 28.776 23.3805 1.7985 0 0 0
967 4 26.9775 32.373 5.3955 0 0 0
2901 4 10.791 25.179 17.985 0 0 0
3236 4 5.3955 19.7835 28.776 0 0 0
2958 4 10.791 30.5745 34.1715 0 0 0
3701 4 3.597 25.179 17.985 0 0 0
2182 4 17.985 34.1715 19.7835 0 0 0
963 4 26.9775 32.373 1.7985 0 0 0
3742 4 3.597 30.5745 19.7835 0 0 0
1033 4 25.179 0.0 28.776 0 0 0
2104 4 16.1865 26.9775 17.985 0 0 0
3526 4 3.597 12.5895 5.3955 0 0 0
2253 4 14.388 3.597 10.791 0 0 0
159 4 34.1715 25.179 34.1715 0 0 0
1075 4 23.3805 3.597 30.5745 0 0 0
2432 4 12.5895 19.7835 25.179 0 0 0
948 4 26.9775 30.5745 21.582 0 0 0
3232 4 5.3955 19.7835 25.179 0 0 0
217 4 32.373 0.0 14.388 0 0 0
3872 4 0.0 12.5895 19.7835 0 0 0
3686 4 3.597 26.9775 5.3955 0 0 0
675 4 26.9775 3.597 30.5745 0 0 0
3655 4 1.7985 21.582 12.5895 0 0 0
3108 4 5.3955 8.9925 21.582 0 0 0
3131 4 5.3955 10.791 8.9925 0 0 0
3667 4 1.7985 21.582 23.3805 0 0 0
2235 4 12.5895 0.0 30.5745 0 0 0
1230 4 25.179 19.7835 26.9775 0 0 0
3580 4 1.7985 16.1865 14.388 0 0 0
2040 4 16.1865 19.7835 32.373 0 0 0
1981 4 17.985 14.388 17.985 0 0 0
1121 4 25.179 10.791 0.0 0 0 0
156 4 34.1715 26.9775 25.179 0 0 0
67 4 34.1715 10.791 12.5895 0 0 0
2418 4 14.388 19.7835 16.1865 0 0 0
1328 4 23.3805 30.5745 3.597 0 0 0
2382 4 14.388 16.1865 19.7835 0 0 0
3230 4 7.194 19.7835 26.9775 0 0 0
2089 4 17.985 25.179 7.194 0 0 0
104 4 34.1715 19.7835 3.597 0 0 0
3913 4 0.0 17.985 21.582 0 0 0
2689 4 10.791 7.194 7.194 0 0 0
2920 4 8.9925 26.9775 32.373 0 0 0
2170 4 17.985 34.1715 8.9925 0 0 0
775 4 26.9775 14.388 12.5895 0 0 0
1252 4 23.3805 23.3805 7.194 0 0 0
28 4 34.1715 5.3955 10.791 0 0 0
2555 4 12.5895 28.776 30.5745 0 0 0
95 4 34.1715 14.388 26.9775 0 0 0
539 4 30.5745 28.776 16.1865 0 0 0
944 4 26.9775 30.5745 17.985 0 0 0
1024 4 23.3805 1.7985 17.985 0 0 0
3 5 34.1715 0.0 5.3955 0 0 0
11 5 34.1715 0.0 19.7835 0 0 0
37 5 34.1715 3.597 30.5745 0 0 0
38 5 34.1715 5.3955 28.776 0 0 0
52 5 34.1715 8.9925 17.985 0 0 0
60 5 34.1715 8.9925 32.373 0 0 0
83 5 34.1715 14.388 5.3955 0 0 0
88 5 34.1715 16.1865 10.791 0 0 0
96 5 34.1715 16.1865 25.179 0 0 0
100 5 34.1715 16.1865 32.373 0 0 0
106 5 34.1715 19.7835 7.194 0 0 0
116 5 34.1715 19.7835 25.179 0 0 0
122 5 34.1715 23.3805 0.0 0 0 0
143 5 34.1715 25.179 5.3955 0 0 0
145 5 34.1715 25.179 8.9925 0 0 0
160 5 34.1715 26.9775 32.373 0 0 0
177 5 34.1715 28.776 30.5745 0 0 0
188 5 34.1715 34.1715 10.791 0 0 0
190 5 34.1715 34.1715 14.388 0 0 0
203 5 30.5745 0.0 1.7985 0 0 0
216 5 30.5745 1.7985 10.791 0 0 0
219 5 30.5745 0.0 16.1865 0 0 0
230 5 32.373 1.7985 26.9775 0 0 0
238 5 32.373 1.7985 34.1715 0 0 0
239 5 30.5745 0.0 34.1715 0 0 0
244 5 30.5745 5.3955 0.0 0 0 0
245 5 32.373 3.597 3.597 0 0 0
262 5 32.373 5.3955 19.7835 0 0 0
264 5 30.5745 5.3955 17.985 0 0 0
270 5 32.373 5.3955 26.9775 0 0 0
284 5 30.5745 8.9925 0.0 0 0 0
293 5 32.373 7.194 10.791 0 0 0
305 5 32.373 7.194 21.582 0 0 0
306 5 32.373 8.9925 23.3805 0 0 0
313 5 32.373 7.194 28.776 0 0 0
324 5 30.5745 12.5895 0.0 0 0 0
328 5 30.5745 12.5895 3.597 0 0 0
334 5 32.373 12.5895 12.5895 0 0 0
339 5 30.5745 10.791 16.1865 0 0 0
343 5 30.5745 10.791 19.7835 0 0 0
345 5 32.373 10.791 21.582 0 0 0
350 5 32.373 12.5895 26.9775 0 0 0
357 5 32.373 10.791 32.373 0 0 0
364 5 30.5745 16.1865 0.0 0 0 0
366 5 32.373 16.1865 5.3955 0 0 0
367 5 30.5745 14.388 5.3955 0 0 0
373 5 32.373 14.388 10.791 0 0 0
374 5 32.373 16.1865 12.5895 0 0 0
376 5 30.5745 16.1865 10.791 0 0 0
377 5 32.373 14.388 14.388 0 0 0
381 5 32.373 14.388 17.985 0 0 0
396 5 30.5745 16.1865 28.776 0 0 0
397 5 32.373 14.388 32.373 0 0 0
398 5 32.373 16.1865 34.1715 0 0 0
401 5 32.373 17.985 0.0 0 0 0
403 5 30.5745 17.985 1.7985 0 0 0
404 5 30.5745 19.7835 0.0 0 0 0
405 5 32.373 17.985 3.597 0 0 0
410 5 32.373 19.7835 8.9925 0 0 0
424 5 30.5745 19.7835 17.985 0 0 0
427 5 30.5745 17.985 23.3805 0 0 0
431 5 30.5745 17.985 26.9775 0 0 0
432 5 30.5745 19.7835 25.179 0 0 0
439 5 30.5745 17.985 34.1715 0 0 0
442 5 32.373 23.3805 1.7985 0 0 0
451 5 30.5745 21.582 8.9925 0 0 0
457 5 32.373 21.582 14.388 0 0 0
482 5 32.373 26.9775 1.7985 0 0 0
483 5 30.5745 25.179 1.7985 0 0 0
497 5 32.373 25.179 14.388 0 0 0
506 5 32.373 26.9775 23.3805 0 0 0
508 5 30.5745 26.9775 21.582 0 0 0
524 5 30.5745 30.5745 0.0 0 0 0
529 5 32.373 28.776 7.194 0 0 0
533 5 32.373 28.776 10.791 0 0 0
538 5 32.373 30.5745 16.1865 0 0 0
541 5 32.373 28.776 17.985 0 0 0
542 5 32.373 30.5745 19.7835 0 0 0
551 5 30.5745 28.776 26.9775 0 0 0
553 5 32.373 28.776 28.776 0 0 0
555 5 30.5745 28.776 30.5745 0 0 0
557 5 32.373 28.776 32.373 0 0 0
558 5 32.373 30.5745 34.1715 0 0 0
567 5 30.5745 32.373 5.3955 0 0 0
576 5 30.5745 34.1715 10.791 0 0 0
581 5 32.373 32.373 17.985 0 0 0
582 5 32.373 34.1715 19.7835 0 0 0
592 5 30.5745 34.1715 25.179 0 0 0
595 5 30.5745 32.373 30.5745 0 0 0
605 5 28.776 0.0 3.597 0 0 0
609 5 28.776 0.0 7.194 0 0 0
611 5 26.9775 0.0 8.9925 0 0 0
637 5 28.776 0.0 32.373 0 0 0
646 5 28.776 5.3955 5.3955 0 0 0
653 5 28.776 3.597 10.791 0 0 0
659 5 26.9775 3.597 16.1865 0 0 0
674 5 28.776 5.3955 30.5745 0 0 0
678 5 28.776 5.3955 34.1715 0 0 0
681 5 28.776 7.194 0.0 0 0 0
684 5 26.9775 8.9925 0.0 0 0 0
685 5 28.776 7.194 3.597 0 0 0
694 5 28.776 8.9925 12.5895 0 0 0
696 5 26.9775 8.9925 10.791 0 0 0
703 5 26.9775 7.194 19.7835 0 0 0
704 5 26.9775 8.9925 17.985 0 0 0
712 5 26.9775 8.9925 25.179 0 0 0
717 5 28.776 7.194 32.373 0 0 0
721 5 28.776 10.791 0.0 0 0 0
723 5 26.9775 10.791 1.7985 0 0 0
726 5 28.776 12.5895 5.3955 0 0 0
730 5 28.776 12.5895 8.9925 0 0 0
734 5 28.776 12.5895 12.5895 0 0 0
737 5 28.776 10.791 14.388 0 0 0
738 5 28.776 12.5895 16.1865 0 0 0
743 5 26.9775 10.791 19.7835 0 0 0
746 5 28.776 12.5895 23.3805 0 0 0
761 5 28.776 14.388 0.0 0 0 0
765 5 28.776 14.388 3.597 0 0 0
773 5 28.776 14.388 10.791 0 0 0
774 5 28.776 16.1865 12.5895 0 0 0
781 5 28.776 14.388 17.985 0 0 0
790 5 28.776 16.1865 26.9775 0 0 0
796 5 26.9775 16.1865 28.776 0 0 0
799 5 26.9775 14.388 34.1715 0 0 0
800 5 26.9775 16.1865 32.373 0 0 0
806 5 28.776 19.7835 5.3955 0 0 0
819 5 26.9775 17.985 16.1865 0 0 0
831 5 26.9775 17.985 26.9775 0 0 0
832 5 26.9775 19.7835 25.179 0 0 0
840 5 26.9775 19.7835 32.373 0 0 0
844 5 26.9775 23.3805 0.0 0 0 0
852 5 26.9775 23.3805 7.194 0 0 0
853 5 28.776 21.582 10.791 0 0 0
870 5 28.776 23.3805 26.9775 0 0 0
876 5 26.9775 23.3805 28.776 0 0 0
881 5 28.776 25.179 0.0 0 0 0
889 5 28.776 25.179 7.194 0 0 0
899 5 26.9775 25.179 16.1865 0 0 0
902 5 28.776 26.9775 19.7835 0 0 0
904 5 26.9775 26.9775 17.985 0 0 0
925 5 28.776 28.776 3.597 0 0 0
933 5 28.776 28.776 10.791 0 0 0
937 5 28.776 28.776 14.388 0 0 0
940 5 26.9775 30.5745 14.388 0 0 0
952 5 26.9775 30.5745 25.179 0 0 0
954 5 28.776 30.5745 30.5745 0 0 0
965 5 28.776 32.373 3.597 0 0 0
991 5 26.9775 32.373 26.9775 0 0 0
1001 5 25.179 0.0 0.0 0 0 0
1004 5 23.3805 1.7985 0.0 0 0 0
1007 5 23.3805 0.0 5.3955 0 0 0
1014 5 25.179 1.7985 12.5895 0 0 0
1015 5 23.3805 0.0 12.5895 0 0 0
1021 5 25.179 0.0 17.985 0 0 0
1027 5 23.3805 0.0 23.3805 0 0 0
1030 5 25.179 1.7985 26.9775 0 0 0
1035 5 23.3805 0.0 30.5745 0 0 0
1047 5 23.3805 3.597 5.3955 0 0 0
1053 5 25.179 3.597 10.791 0 0 0
1071 5 23.3805 3.597 26.9775 0 0 0
1074 5 25.179 5.3955 30.5745 0 0 0
1076 5 23.3805 5.3955 28.776 0 0 0
1078 5 25.179 5.3955 34.1715 0 0 0
1087 5 23.3805 7.194 5.3955 0 0 0
1096 5 23.3805 8.9925 10.791 0 0 0
1098 5 25.179 8.9925 16.1865 0 0 0
1102 5 25.179 8.9925 19.7835 0 0 0
1113 5 25.179 7.194 28.776 0 0 0
1126 5 25.179 12.5895 5.3955 0 0 0
1129 5 25.179 10.791 7.194 0 0 0
1134 5 25.179 12.5895 12.5895 0 0 0
1140 5 23.3805 12.5895 14.388 0 0 0
1152 5 23.3805 12.5895 25.179 0 0 0
1153 5 25.179 10.791 28.776 0 0 0
1177 5 25.179 14.388 14.388 0 0 0
1184 5 23.3805 16.1865 17.985 0 0 0
1188 5 23.3805 16.1865 21.582 0 0 0
1194 5 25.179 16.1865 30.5745 0 0 0
1200 5 23.3805 16.1865 32.373 0 0 0
1210 5 25.179 19.7835 8.9925 0 0 0
1229 5 25.179 17.985 25.179 0 0 0
1233 5 25.179 17.985 28.776 0 0 0
1239 5 23.3805 17.985 34.1715 0 0 0
1240 5 23.3805 19.7835 32.373 0 0 0
1251 5 23.3805 21.582 8.9925 0 0 0
1264 5 23.3805 23.3805 17.985 0 0 0
1270 5 25.179 23.3805 26.9775 0 0 0
1281 5 25.179 25.179 0.0 0 0 0
1283 5 23.3805 25.179 1.7985 0 0 0
1284 5 23.3805 26.9775 0.0 0 0 0
1289 5 25.179 25.179 7.194 0 0 0
1292 5 23.3805 26.9775 7.194 0 0 0
1294 5 25.179 26.9775 12.5895 0 0 0
1314 5 25.179 26.9775 30.5745 0 0 0
1317 5 25.179 25.179 32.373 0 0 0
1323 5 23.3805 28.776 1.7985 0 0 0
1324 5 23.3805 30.5745 0.0 0 0 0
1329 5 25.179 28.776 7.194 0 0 0
1341 5 25.179 28.776 17.985 0 0 0
1361 5 25.179 32.373 0.0 0 0 0
1362 5 25.179 34.1715 1.7985 0 0 0
1365 5 25.179 32.373 3.597 0 0 0
1378 5 25.179 34.1715 16.1865 0 0 0
1399 5 23.3805 32.373 34.1715 0 0 0
1404 5 19.7835 1.7985 0.0 0 0 0
1409 5 21.582 0.0 7.194 0 0 0
1415 5 19.7835 0.0 12.5895 0 0 0
1423 5 19.7835 0.0 19.7835 0 0 0
1424 5 19.7835 1.7985 17.985 0 0 0
1428 5 19.7835 1.7985 21.582 0 0 0
1435 5 19.7835 0.0 30.5745 0 0 0
1436 5 19.7835 1.7985 28.776 0 0 0
1438 5 21.582 1.7985 34.1715 0 0 0
1441 5 21.582 3.597 0.0 0 0 0
1443 5 19.7835 3.597 1.7985 0 0 0
1448 5 19.7835 5.3955 3.597 0 0 0
1449 5 21.582 3.597 7.194 0 0 0
1453 5 21.582 3.597 10.791 0 0 0
1456 5 19.7835 5.3955 10.791 0 0 0
1460 5 19.7835 5.3955 14.388 0 0 0
1472 5 19.7835 5.3955 25.179 0 0 0
1474 5 21.582 5.3955 30.5745 0 0 0
1475 5 19.7835 3.597 30.5745 0 0 0
1485 5 21.582 7.194 3.597 0 0 0
1487 5 19.7835 7.194 5.3955 0 0 0
1491 5 19.7835 7.194 8.9925 0 0 0
1494 5 21.582 8.9925 12.5895 0 0 0
1495 5 19.7835 7.194 12.5895 0 0 0
1498 5 21.582 8.9925 16.1865 0 0 0
1504 5 19.7835 8.9925 17.985 0 0 0
1505 5 21.582 7.194 21.582 0 0 0
1506 5 21.582 8.9925 23.3805 0 0 0
1511 5 19.7835 7.194 26.9775 0 0 0
1532 5 19.7835 12.5895 7.194 0 0 0
1545 5 21.582 10.791 21.582 0 0 0
1550 5 21.582 12.5895 26.9775 0 0 0
1555 5 19.7835 10.791 30.5745 0 0 0
1562 5 21.582 16.1865 1.7985 0 0 0
1566 5 21.582 16.1865 5.3955 0 0 0
1570 5 21.582 16.1865 8.9925 0 0 0
1574 5 21.582 16.1865 12.5895 0 0 0
1578 5 21.582 16.1865 16.1865 0 0 0
1590 5 21.582 16.1865 26.9775 0 0 0
1598 5 21.582 16.1865 34.1715 0 0 0
1600 5 19.7835 16.1865 32.373 0 0 0
1609 5 21.582 17.985 7.194 0 0 0
1614 5 21.582 19.7835 12.5895 0 0 0
1621 5 21.582 17.985 17.985 0 0 0
1627 5 19.7835 17.985 23.3805 0 0 0
1636 5 19.7835 19.7835 28.776 0 0 0
1643 5 19.7835 21.582 1.7985 0 0 0
1650 5 21.582 23.3805 8.9925 0 0 0
1653 5 21.582 21.582 10.791 0 0 0
1660 5 19.7835 23.3805 14.388 0 0 0
1671 5 19.7835 21.582 26.9775 0 0 0
1672 5 19.7835 23.3805 25.179 0 0 0
1676 5 19.7835 23.3805 28.776 0 0 0
1681 5 21.582 25.179 0.0 0 0 0
1726 5 21.582 30.5745 5.3955 0 0 0
1741 5 21.582 28.776 17.985 0 0 0
1744 5 19.7835 30.5745 17.985 0 0 0
1747 5 19.7835 28.776 23.3805 0 0 0
1750 5 21.582 30.5745 26.9775 0 0 0
1756 5 19.7835 30.5745 28.776 0 0 0
1762 5 21.582 34.1715 1.7985 0 0 0
1765 5 21.582 32.373 3.597 0 0 0
1778 5 21.582 34.1715 16.1865 0 0 0
1787 5 19.7835 32.373 23.3805 0 0 0
1791 5 19.7835 32.373 26.9775 0 0 0
1792 5 19.7835 34.1715 25.179 0 0 0
1796 5 19.7835 34.1715 28.776 0 0 0
1797 5 21.582 32.373 32.373 0 0 0
1806 5 17.985 1.7985 5.3955 0 0 0
1810 5 17.985 1.7985 8.9925 0 0 0
1814 5 17.985 1.7985 12.5895 0 0 0
1816 5 16.1865 1.7985 10.791 0 0 0
1820 5 16.1865 1.7985 14.388 0 0 0
1822 5 17.985 1.7985 19.7835 0 0 0
1824 5 16.1865 1.7985 17.985 0 0 0
1837 5 17.985 0.0 32.373 0 0 0
1838 5 17.985 1.7985 34.1715 0 0 0
1839 5 16.1865 0.0 34.1715 0 0 0
1860 5 16.1865 5.3955 14.388 0 0 0
1862 5 17.985 5.3955 19.7835 0 0 0
1863 5 16.1865 3.597 19.7835 0 0 0
1866 5 17.985 5.3955 23.3805 0 0 0
1872 5 16.1865 5.3955 25.179 0 0 0
1879 5 16.1865 3.597 34.1715 0 0 0
1881 5 17.985 7.194 0.0 0 0 0
1884 5 16.1865 8.9925 0.0 0 0 0
1900 5 16.1865 8.9925 14.388 0 0 0
1901 5 17.985 7.194 17.985 0 0 0
1904 5 16.1865 8.9925 17.985 0 0 0
1905 5 17.985 7.194 21.582 0 0 0
1910 5 17.985 8.9925 26.9775 0 0 0
1923 5 16.1865 10.791 1.7985 0 0 0
1926 5 17.985 12.5895 5.3955 0 0 0
1934 5 17.985 12.5895 12.5895 0 0 0
1945 5 17.985 10.791 21.582 0 0 0
1946 5 17.985 12.5895 23.3805 0 0 0
1947 5 16.1865 10.791 23.3805 0 0 0
1955 5 16.1865 10.791 30.5745 0 0 0
1956 5 16.1865 12.5895 28.776 0 0 0
1959 5 16.1865 10.791 34.1715 0 0 0
1960 5 16.1865 12.5895 32.373 0 0 0
1966 5 17.985 16.1865 5.3955 0 0 0
1974 5 17.985 16.1865 12.5895 0 0 0
1976 5 16.1865 16.1865 10.791 0 0 0
1988 5 16.1865 16.1865 21.582 0 0 0
1990 5 17.985 16.1865 26.9775 0 0 0
1994 5 17.985 16.1865 30.5745 0 0 0
1995 5 16.1865 14.388 30.5745 0 0 0
2000 5 16.1865 16.1865 32.373 0 0 0
2006 5 17.985 19.7835 5.3955 0 0 0
2011 5 16.1865 17.985 8.9925 0 0 0
2018 5 17.985 19.7835 16.1865 0 0 0
2031 5 16.1865 17.985 26.9775 0 0 0
2041 5 17.985 21.582 0.0 0 0 0
2044 5 16.1865 23.3805 0.0 0 0 0
2046 5 17.985 23.3805 5.3955 0 0 0
2052 5 16.1865 23.3805 7.194 0 0 0
2078 5 17.985 23.3805 34.1715 0 0 0
2081 5 17.985 25.179 0.0 0 0 0
2084 5 16.1865 26.9775 0.0 0 0 0
2085 5 17.985 25.179 3.597 0 0 0
2087 5 16.1865 25.179 5.3955 0 0 0
2088 5 16.1865 26.9775 3.597 0 0 0
2099 5 16.1865 25.179 16.1865 0 0 0
2100 5 16.1865 26.9775 14.388 0 0 0
2102 5 17.985 26.9775 19.7835 0 0 0
2106 5 17.985 26.9775 23.3805 0 0 0
2111 5 16.1865 25.179 26.9775 0 0 0
2116 5 16.1865 26.9775 28.776 0 0 0
2121 5 17.985 28.776 0.0 0 0 0
2130 5 17.985 30.5745 8.9925 0 0 0
2140 5 16.1865 30.5745 14.388 0 0 0
2152 5 16.1865 30.5745 25.179 0 0 0
2153 5 17.985 28.776 28.776 0 0 0
2161 5 17.985 32.373 0.0 0 0 0
2180 5 16.1865 34.1715 14.388 0 0 0
2184 5 16.1865 34.1715 17.985 0 0 0
2185 5 17.985 32.373 21.582 0 0 0
2192 5 16.1865 34.1715 25.179 0 0 0
2197 5 17.985 32.373 32.373 0 0 0
2203 5 12.5895 0.0 1.7985 0 0 0
2214 5 14.388 1.7985 12.5895 0 0 0
2220 5 12.5895 1.7985 14.388 0 0 0
2222 5 14.388 1.7985 19.7835 0 0 0
2233 5 14.388 0.0 28.776 0 0 0
2237 5 14.388 0.0 32.373 0 0 0
2249 5 14.388 3.597 7.194 0 0 0
2256 5 12.5895 5.3955 10.791 0 0 0
2257 5 14.388 3.597 14.388 0 0 0
2262 5 14.388 5.3955 19.7835 0 0 0
2266 5 14.388 5.3955 23.3805 0 0 0
2268 5 12.5895 5.3955 21.582 0 0 0
2272 5 12.5895 5.3955 25.179 0 0 0
2294 5 14.388 8.9925 12.5895 0 0 0
2297 5 14.388 7.194 14.388 0 0 0
2318 5 14.388 8.9925 34.1715 0 0 0
2321 5 14.388 10.791 0.0 0 0 0
2325 5 14.388 10.791 3.597 0 0 0
2327 5 12.5895 10.791 5.3955 0 0 0
2328 5 12.5895 12.5895 3.597 0 0 0
2332 5 12.5895 12.5895 7.194 0 0 0
2335 5 12.5895 10.791 12.5895 0 0 0
2336 5 12.5895 12.5895 10.791 0 0 0
2338 5 14.388 12.5895 16.1865 0 0 0
2339 5 12.5895 10.791 16.1865 0 0 0
2340 5 12.5895 12.5895 14.388 0 0 0
2349 5 14.388 10.791 25.179 0 0 0
2353 5 14.388 10.791 28.776 0 0 0
2361 5 14.388 14.388 0.0 0 0 0
2369 5 14.388 14.388 7.194 0 0 0
2370 5 14.388 16.1865 8.9925 0 0 0
2371 5 12.5895 14.388 8.9925 0 0 0
2385 5 14.388 14.388 21.582 0 0 0
2396 5 12.5895 16.1865 28.776 0 0 0
2397 5 14.388 14.388 32.373 0 0 0
2405 5 14.388 17.985 3.597 0 0 0
2411 5 12.5895 17.985 8.9925 0 0 0
2430 5 14.388 19.7835 26.9775 0 0 0
2436 5 12.5895 19.7835 28.776 0 0 0
2450 5 14.388 23.3805 8.9925 0 0 0
2459 5 12.5895 21.582 16.1865 0 0 0
2468 5 12.5895 23.3805 21.582 0 0 0
2473 5 14.388 21.582 28.776 0 0 0
2490 5 14.388 26.9775 8.9925 0 0 0
2493 5 14.388 25.179 10.791 0 0 0
2497 5 14.388 25.179 14.388 0 0 0
2500 5 12.5895 26.9775 14.388 0 0 0
2506 5 14.388 26.9775 23.3805 0 0 0
2527 5 12.5895 28.776 5.3955 0 0 0
2536 5 12.5895 30.5745 10.791 0 0 0
2559 5 12.5895 28.776 34.1715 0 0 0
2561 5 14.388 32.373 0.0 0 0 0
2565 5 14.388 32.373 3.597 0 0 0
2569 5 14.388 32.373 7.194 0 0 0
2575 5 12.5895 32.373 12.5895 0 0 0
2578 5 14.388 34.1715 16.1865 0 0 0
2582 5 14.388 34.1715 19.7835 0 0 0
2602 5 10.791 1.7985 1.7985 0 0 0
2622 5 10.791 1.7985 19.7835 0 0 0
2627 5 8.9925 0.0 23.3805 0 0 0
2628 5 8.9925 1.7985 21.582 0 0 0
2647 5 8.9925 3.597 5.3955 0 0 0
2653 5 10.791 3.597 10.791 0 0 0
2667 5 8.9925 3.597 23.3805 0 0 0
2679 5 8.9925 3.597 34.1715 0 0 0
2682 5 10.791 8.9925 1.7985 0 0 0
2685 5 10.791 7.194 3.597 0 0 0
2690 5 10.791 8.9925 8.9925 0 0 0
2695 5 8.9925 7.194 12.5895 0 0 0
2698 5 10.791 8.9925 16.1865 0 0 0
2700 5 8.9925 8.9925 14.388 0 0 0
2709 5 10.791 7.194 25.179 0 0 0
2711 5 8.9925 7.194 26.9775 0 0 0
2713 5 10.791 7.194 28.776 0 0 0
2717 5 10.791 7.194 32.373 0 0 0
2720 5 8.9925 8.9925 32.373 0 0 0
2723 5 8.9925 10.791 1.7985 0 0 0
2725 5 10.791 10.791 3.597 0 0 0
2729 5 10.791 10.791 7.194 0 0 0
2732 5 8.9925 12.5895 7.194 0 0 0
2740 5 8.9925 12.5895 14.388 0 0 0
2743 5 8.9925 10.791 19.7835 0 0 0
2749 5 10.791 10.791 25.179 0 0 0
2757 5 10.791 10.791 32.373 0 0 0
2759 5 8.9925 10.791 34.1715 0 0 0
2762 5 10.791 16.1865 1.7985 0 0 0
2763 5 8.9925 14.388 1.7985 0 0 0
2767 5 8.9925 14.388 5.3955 0 0 0
2776 5 8.9925 16.1865 10.791 0 0 0
2791 5 8.9925 14.388 26.9775 0 0 0
2792 5 8.9925 16.1865 25.179 0 0 0
2793 5 10.791 14.388 28.776 0 0 0
2795 5 8.9925 14.388 30.5745 0 0 0
2797 5 10.791 14.388 32.373 0 0 0
2800 5 8.9925 16.1865 32.373 0 0 0
2803 5 8.9925 17.985 1.7985 0 0 0
2808 5 8.9925 19.7835 3.597 0 0 0
2813 5 10.791 17.985 10.791 0 0 0
2820 5 8.9925 19.7835 14.388 0 0 0
2829 5 10.791 17.985 25.179 0 0 0
2837 5 10.791 17.985 32.373 0 0 0
2839 5 8.9925 17.985 34.1715 0 0 0
2843 5 8.9925 21.582 1.7985 0 0 0
2848 5 8.9925 23.3805 3.597 0 0 0
2856 5 8.9925 23.3805 10.791 0 0 0
2859 5 8.9925 21.582 16.1865 0 0 0
2861 5 10.791 21.582 17.985 0 0 0
2868 5 8.9925 23.3805 21.582 0 0 0
2878 5 10.791 23.3805 34.1715 0 0 0
2883 5 8.9925 25.179 1.7985 0 0 0
2889 5 10.791 25.179 7.194 0 0 0
2892 5 8.9925 26.9775 7.194 0 0 0
2908 5 8.9925 26.9775 21.582 0 0 0
2914 5 10.791 26.9775 30.5745 0 0 0
2929 5 10.791 28.776 7.194 0 0 0
2942 5 10.791 30.5745 19.7835 0 0 0
2948 5 8.9925 30.5745 21.582 0 0 0
2952 5 8.9925 30.5745 25.179 0 0 0
2961 5 10.791 32.373 0.0 0 0 0
2964 5 8.9925 34.1715 0.0 0 0 0
2965 5 10.791 32.373 3.597 0 0 0
2973 5 10.791 32.373 10.791 0 0 0
2977 5 10.791 32.373 14.388 0 0 0
2986 5 10.791 34.1715 23.3805 0 0 0
3014 5 7.194 1.7985 12.5895 0 0 0
3019 5 5.3955 0.0 16.1865 0 0 0
3025 5 7.194 0.0 21.582 0 0 0
3047 5 5.3955 3.597 5.3955 0 0 0
3051 5 5.3955 3.597 8.9925 0 0 0
3060 5 5.3955 5.3955 14.388 0 0 0
3067 5 5.3955 3.597 23.3805 0 0 0
3070 5 7.194 5.3955 26.9775 0 0 0
3073 5 7.194 3.597 28.776 0 0 0
3074 5 7.194 5.3955 30.5745 0 0 0
3085 5 7.194 7.194 3.597 0 0 0
3086 5 7.194 8.9925 5.3955 0 0 0
3090 5 7.194 8.9925 8.9925 0 0 0
3106 5 7.194 8.9925 23.3805 0 0 0
3112 5 5.3955 8.9925 25.179 0 0 0
3119 5 5.3955 7.194 34.1715 0 0 0
3141 5 7.194 10.791 17.985 0 0 0
3145 5 7.194 10.791 21.582 0 0 0
3197 5 7.194 14.388 32.373 0 0 0
3203 5 5.3955 17.985 1.7985 0 0 0
3228 5 5.3955 19.7835 21.582 0 0 0
3254 5 7.194 23.3805 12.5895 0 0 0
3273 5 7.194 21.582 28.776 0 0 0
3277 5 7.194 21.582 32.373 0 0 0
3282 5 7.194 26.9775 1.7985 0 0 0
3287 5 5.3955 25.179 5.3955 0 0 0
3289 5 7.194 25.179 7.194 0 0 0
3291 5 5.3955 25.179 8.9925 0 0 0
3297 5 7.194 25.179 14.388 0 0 0
3303 5 5.3955 25.179 19.7835 0 0 0
3304 5 5.3955 26.9775 17.985 0 0 0
3315 5 5.3955 25.179 30.5745 0 0 0
3316 5 5.3955 26.9775 28.776 0 0 0
3319 5 5.3955 25.179 34.1715 0 0 0
3336 5 5.3955 30.5745 10.791 0 0 0
3364 5 5.3955 34.1715 0.0 0 0 0
3366 5 7.194 34.1715 5.3955 0 0 0
3374 5 7.194 34.1715 12.5895 0 0 0
3376 5 5.3955 34.1715 10.791 0 0 0
3389 5 7.194 32.373 25.179 0 0 0
3393 5 7.194 32.373 28.776 0 0 0
3399 5 5.3955 32.373 34.1715 0 0 0
3407 5 1.7985 0.0 5.3955 0 0 0
3426 5 3.597 1.7985 23.3805 0 0 0
3434 5 3.597 1.7985 30.5745 0 0 0
3436 5 1.7985 1.7985 28.776 0 0 0
3439 5 1.7985 0.0 34.1715 0 0 0
3443 5 1.7985 3.597 1.7985 0 0 0
3444 5 1.7985 5.3955 0.0 0 0 0
3454 5 3.597 5.3955 12.5895 0 0 0
3458 5 3.597 5.3955 16.1865 0 0 0
3463 5 1.7985 3.597 19.7835 0 0 0
3464 5 1.7985 5.3955 17.985 0 0 0
3489 5 3.597 7.194 7.194 0 0 0
3494 5 3.597 8.9925 12.5895 0 0 0
3502 5 3.597 8.9925 19.7835 0 0 0
3507 5 1.7985 7.194 23.3805 0 0 0
3530 5 3.597 12.5895 8.9925 0 0 0
3535 5 1.7985 10.791 12.5895 0 0 0
3542 5 3.597 12.5895 19.7835 0 0 0
3546 5 3.597 12.5895 23.3805 0 0 0
3547 5 1.7985 10.791 23.3805 0 0 0
3549 5 3.597 10.791 25.179 0 0 0
3563 5 1.7985 14.388 1.7985 0 0 0
3584 5 1.7985 16.1865 17.985 0 0 0
3589 5 3.597 14.388 25.179 0 0 0
3595 5 1.7985 14.388 30.5745 0 0 0
3597 5 3.597 14.388 32.373 0 0 0
3601 5 3.597 17.985 0.0 0 0 0
3607 5 1.7985 17.985 5.3955 0 0 0
3608 5 1.7985 19.7835 3.597 0 0 0
3617 5 3.597 17.985 14.388 0 0 0
3618 5 3.597 19.7835 16.1865 0 0 0
3621 5 3.597 17.985 17.985 0 0 0
3623 5 1.7985 17.985 19.7835 0 0 0
3628 5 1.7985 19.7835 21.582 0 0 0
3634 5 3.597 19.7835 30.5745 0 0 0
3643 5 1.7985 21.582 1.7985 0 0 0
3649 5 3.597 21.582 7.194 0 0 0
3651 5 1.7985 21.582 8.9925 0 0 0
3656 5 1.7985 23.3805 10.791 0 0 0
3659 5 1.7985 21.582 16.1865 0 0 0
3674 5 3.597 23.3805 30.5745 0 0 0
3675 5 1.7985 21.582 30.5745 0 0 0
3685 5 3.597 25.179 3.597 0 0 0
3687 5 1.7985 25.179 5.3955 0 0 0
3706 5 3.597 26.9775 23.3805 0 0 0
3713 5 3.597 25.179 28.776 0 0 0
3714 5 3.597 26.9775 30.5745 0 0 0
3722 5 3.597 30.5745 1.7985 0 0 0
3745 5 3.597 28.776 21.582 0 0 0
3746 5 3.597 30.5745 23.3805 0 0 0
3747 5 1.7985 28.776 23.3805 0 0 0
3754 5 3.597 30.5745 30.5745 0 0 0
3761 5 3.597 32.373 0.0 0 0 0
3762 5 3.597 34.1715 1.7985 0 0 0
3763 5 1.7985 32.373 1.7985 0 0 0
3778 5 3.597 34.1715 16.1865 0 0 0
3788 5 1.7985 34.1715 21.582 0 0 0
3804 5 0.0 1.7985 5.3955 0 0 0
3819 5 0.0 0.0 32.373 0 0 0
3824 5 0.0 5.3955 5.3955 0 0 0
3826 5 0.0 5.3955 8.9925 0 0 0
3830 5 0.0 5.3955 16.1865 0 0 0
3843 5 0.0 7.194 3.597 0 0 0
3845 5 0.0 7.194 7.194 0 0 0
3870 5 0.0 12.5895 16.1865 0 0 0
3874 5 0.0 12.5895 23.3805 0 0 0
3876 5 0.0 12.5895 26.9775 0 0 0
3885 5 0.0 14.388 7.194 0 0 0
3887 5 0.0 14.388 10.791 0 0 0
3889 5 0.0 14.388 14.388 0 0 0
3894 5 0.0 16.1865 23.3805 0 0 0
3901 5 0.0 17.985 0.0 0 0 0
3916 5 0.0 19.7835 26.9775 0 0 0
3917 5 0.0 17.985 28.776 0 0 0
3925 5 0.0 21.582 7.194 0 0 0
3927 5 0.0 21.582 10.791 0 0 0
3932 5 0.0 23.3805 19.7835 0 0 0
3936 5 0.0 23.3805 26.9775 0 0 0
3941 5 0.0 25.179 0.0 0 0 0
3943 5 0.0 25.179 3.597 0 0 0
3950 5 0.0 26.9775 16.1865 0 0 0
3951 5 0.0 25.179 17.985 0 0 0
3956 5 0.0 26.9775 26.9775 0 0 0
3965 5 0.0 28.776 7.194 0 0 0
3974 5 0.0 30.5745 23.3805 0 0 0
3975 5 0.0 28.776 25.179 0 0 0
3981 5 0.0 32.373 0.0 0 0 0
3995 5 0.0 32.373 25.179 0 0 0
