LAMMPS data file via write_data version 30 Jul 2021 timestep = 0
4000 atoms
5 atom types
0 35.97 xlo xhi
0 35.97 ylo yhi
0 35.97 zlo zhi
0.0 0.0 0.0 xy xz yz
 
Masses
 
1 1.0
2 2.0
3 3.0
4 4.0
5 5.0
 
Atoms  # atomic
 
3420 1 1.7985 1.7985 14.388 0 0 0
2458 1 14.388 23.3805 16.1865 0 0 0
637 1 28.776 0.0 32.373 0 0 0
985 1 28.776 32.373 21.582 0 0 0
3091 1 5.3955 7.194 8.9925 0 0 0
800 1 26.9775 16.1865 32.373 0 0 0
2744 1 8.9925 12.5895 17.985 0 0 0
2678 1 10.791 5.3955 34.1715 0 0 0
3373 1 7.194 32.373 10.791 0 0 0
1260 1 23.3805 23.3805 14.388 0 0 0
1866 1 17.985 5.3955 23.3805 0 0 0
3622 1 3.597 19.7835 19.7835 0 0 0
2529 1 14.388 28.776 7.194 0 0 0
829 1 28.776 17.985 25.179 0 0 0
161 1 34.1715 28.776 1.7985 0 0 0
1594 1 21.582 16.1865 30.5745 0 0 0
898 1 28.776 26.9775 16.1865 0 0 0
44 1 34.1715 8.9925 3.597 0 0 0
2922 1 10.791 30.5745 1.7985 0 0 0
3121 1 7.194 10.791 0.0 0 0 0
3559 1 1.7985 10.791 34.1715 0 0 0
1067 1 23.3805 3.597 23.3805 0 0 0
3856 1 0.0 8.9925 26.9775 0 0 0
690 1 28.776 8.9925 8.9925 0 0 0
2206 1 14.388 1.7985 5.3955 0 0 0
1222 1 25.179 19.7835 19.7835 0 0 0
292 1 30.5745 8.9925 7.194 0 0 0
1493 1 21.582 7.194 10.791 0 0 0
336 1 30.5745 12.5895 10.791 0 0 0
3855 1 0.0 7.194 25.179 0 0 0
1614 1 21.582 19.7835 12.5895 0 0 0
3147 1 5.3955 10.791 23.3805 0 0 0
3214 1 7.194 19.7835 12.5895 0 0 0
2908 1 8.9925 26.9775 21.582 0 0 0
3605 1 3.597 17.985 3.597 0 0 0
1723 1 19.7835 28.776 1.7985 0 0 0
2603 1 8.9925 0.0 1.7985 0 0 0
1315 1 23.3805 25.179 30.5745 0 0 0
296 1 30.5745 8.9925 10.791 0 0 0
3574 1 3.597 16.1865 12.5895 0 0 0
3163 1 5.3955 14.388 1.7985 0 0 0
502 1 32.373 26.9775 19.7835 0 0 0
3248 1 5.3955 23.3805 3.597 0 0 0
1980 1 16.1865 16.1865 14.388 0 0 0
1578 1 21.582 16.1865 16.1865 0 0 0
2267 1 12.5895 3.597 23.3805 0 0 0
972 1 26.9775 34.1715 7.194 0 0 0
3339 1 5.3955 28.776 16.1865 0 0 0
1206 1 25.179 19.7835 5.3955 0 0 0
1896 1 16.1865 8.9925 10.791 0 0 0
72 1 34.1715 12.5895 17.985 0 0 0
1982 1 17.985 16.1865 19.7835 0 0 0
3138 1 7.194 12.5895 16.1865 0 0 0
469 1 32.373 21.582 25.179 0 0 0
3234 1 7.194 19.7835 30.5745 0 0 0
3244 1 5.3955 23.3805 0.0 0 0 0
863 1 26.9775 21.582 19.7835 0 0 0
739 1 26.9775 10.791 16.1865 0 0 0
3792 1 1.7985 34.1715 25.179 0 0 0
1111 1 23.3805 7.194 26.9775 0 0 0
1755 1 19.7835 28.776 30.5745 0 0 0
320 1 30.5745 8.9925 32.373 0 0 0
3753 1 3.597 28.776 28.776 0 0 0
128 1 34.1715 23.3805 10.791 0 0 0
1141 1 25.179 10.791 17.985 0 0 0
12 1 34.1715 1.7985 17.985 0 0 0
2399 1 12.5895 14.388 34.1715 0 0 0
2666 1 10.791 5.3955 23.3805 0 0 0
1506 1 21.582 8.9925 23.3805 0 0 0
2121 1 17.985 28.776 0.0 0 0 0
1585 1 21.582 14.388 21.582 0 0 0
2706 1 10.791 8.9925 23.3805 0 0 0
3485 1 3.597 7.194 3.597 0 0 0
217 1 32.373 0.0 14.388 0 0 0
3441 1 3.597 3.597 0.0 0 0 0
3685 1 3.597 25.179 3.597 0 0 0
3747 1 1.7985 28.776 23.3805 0 0 0
2244 1 12.5895 5.3955 0.0 0 0 0
2697 1 10.791 7.194 14.388 0 0 0
2680 1 8.9925 5.3955 32.373 0 0 0
1418 1 21.582 1.7985 16.1865 0 0 0
2186 1 17.985 34.1715 23.3805 0 0 0
3212 1 5.3955 19.7835 7.194 0 0 0
2992 1 8.9925 34.1715 25.179 0 0 0
1404 1 19.7835 1.7985 0.0 0 0 0
2977 1 10.791 32.373 14.388 0 0 0
2941 1 10.791 28.776 17.985 0 0 0
1593 1 21.582 14.388 28.776 0 0 0
496 1 30.5745 26.9775 10.791 0 0 0
339 1 30.5745 10.791 16.1865 0 0 0
1411 1 19.7835 0.0 8.9925 0 0 0
1942 1 17.985 12.5895 19.7835 0 0 0
3151 1 5.3955 10.791 26.9775 0 0 0
3458 1 3.597 5.3955 16.1865 0 0 0
2960 1 8.9925 30.5745 32.373 0 0 0
3583 1 1.7985 14.388 19.7835 0 0 0
1741 1 21.582 28.776 17.985 0 0 0
3354 1 7.194 30.5745 30.5745 0 0 0
378 1 32.373 16.1865 16.1865 0 0 0
1194 1 25.179 16.1865 30.5745 0 0 0
1450 1 21.582 5.3955 8.9925 0 0 0
1002 1 25.179 1.7985 1.7985 0 0 0
481 1 32.373 25.179 0.0 0 0 0
1410 1 21.582 1.7985 8.9925 0 0 0
1307 1 23.3805 25.179 23.3805 0 0 0
1681 1 21.582 25.179 0.0 0 0 0
453 1 32.373 21.582 10.791 0 0 0
526 1 32.373 30.5745 5.3955 0 0 0
2709 1 10.791 7.194 25.179 0 0 0
782 1 28.776 16.1865 19.7835 0 0 0
564 1 30.5745 34.1715 0.0 0 0 0
1214 1 25.179 19.7835 12.5895 0 0 0
1008 1 23.3805 1.7985 3.597 0 0 0
1759 1 19.7835 28.776 34.1715 0 0 0
3372 1 5.3955 34.1715 7.194 0 0 0
2829 1 10.791 17.985 25.179 0 0 0
2615 1 8.9925 0.0 12.5895 0 0 0
723 1 26.9775 10.791 1.7985 0 0 0
3061 1 7.194 3.597 17.985 0 0 0
2919 1 8.9925 25.179 34.1715 0 0 0
2235 1 12.5895 0.0 30.5745 0 0 0
1734 1 21.582 30.5745 12.5895 0 0 0
2018 1 17.985 19.7835 16.1865 0 0 0
3539 1 1.7985 10.791 16.1865 0 0 0
1031 1 23.3805 0.0 26.9775 0 0 0
3222 1 7.194 19.7835 19.7835 0 0 0
3604 1 1.7985 19.7835 0.0 0 0 0
3123 1 5.3955 10.791 1.7985 0 0 0
1108 1 23.3805 8.9925 21.582 0 0 0
2065 1 17.985 21.582 21.582 0 0 0
3365 1 7.194 32.373 3.597 0 0 0
3758 1 3.597 30.5745 34.1715 0 0 0
2833 1 10.791 17.985 28.776 0 0 0
507 1 30.5745 25.179 23.3805 0 0 0
838 1 28.776 19.7835 34.1715 0 0 0
2295 1 12.5895 7.194 12.5895 0 0 0
290 1 32.373 8.9925 8.9925 0 0 0
2655 1 8.9925 3.597 12.5895 0 0 0
3513 1 3.597 7.194 28.776 0 0 0
2948 1 8.9925 30.5745 21.582 0 0 0
1889 1 17.985 7.194 7.194 0 0 0
70 1 34.1715 12.5895 14.388 0 0 0
1154 1 25.179 12.5895 30.5745 0 0 0
367 1 30.5745 14.388 5.3955 0 0 0
1708 1 19.7835 26.9775 21.582 0 0 0
1774 1 21.582 34.1715 12.5895 0 0 0
450 1 32.373 23.3805 8.9925 0 0 0
2851 1 8.9925 21.582 8.9925 0 0 0
2661 1 10.791 3.597 17.985 0 0 0
3038 1 7.194 1.7985 34.1715 0 0 0
2009 1 17.985 17.985 7.194 0 0 0
2211 1 12.5895 0.0 8.9925 0 0 0
2486 1 14.388 26.9775 5.3955 0 0 0
2979 1 8.9925 32.373 16.1865 0 0 0
2808 1 8.9925 19.7835 3.597 0 0 0
2557 1 14.388 28.776 32.373 0 0 0
2010 1 17.985 19.7835 8.9925 0 0 0
1263 1 23.3805 21.582 19.7835 0 0 0
2201 1 14.388 0.0 0.0 0 0 0
1974 1 17.985 16.1865 12.5895 0 0 0
2465 1 14.388 21.582 21.582 0 0 0
3393 1 7.194 32.373 28.776 0 0 0
308 1 30.5745 8.9925 21.582 0 0 0
3274 1 7.194 23.3805 30.5745 0 0 0
3527 1 1.7985 10.791 5.3955 0 0 0
356 1 30.5745 12.5895 28.776 0 0 0
796 1 26.9775 16.1865 28.776 0 0 0
1568 1 19.7835 16.1865 3.597 0 0 0
3033 1 7.194 0.0 28.776 0 0 0
1438 1 21.582 1.7985 34.1715 0 0 0
3589 1 3.597 14.388 25.179 0 0 0
3834 1 0.0 5.3955 23.3805 0 0 0
172 1 34.1715 30.5745 17.985 0 0 0
3880 1 0.0 12.5895 34.1715 0 0 0
3042 1 7.194 5.3955 1.7985 0 0 0
2250 1 14.388 5.3955 8.9925 0 0 0
3027 1 5.3955 0.0 23.3805 0 0 0
2900 1 8.9925 26.9775 14.388 0 0 0
386 1 32.373 16.1865 23.3805 0 0 0
1623 1 19.7835 17.985 19.7835 0 0 0
3827 1 0.0 3.597 10.791 0 0 0
3691 1 1.7985 25.179 8.9925 0 0 0
2170 1 17.985 34.1715 8.9925 0 0 0
799 1 26.9775 14.388 34.1715 0 0 0
268 1 30.5745 5.3955 21.582 0 0 0
810 1 28.776 19.7835 8.9925 0 0 0
2268 1 12.5895 5.3955 21.582 0 0 0
2405 1 14.388 17.985 3.597 0 0 0
2841 1 10.791 21.582 0.0 0 0 0
2651 1 8.9925 3.597 8.9925 0 0 0
3078 1 7.194 5.3955 34.1715 0 0 0
2877 1 10.791 21.582 32.373 0 0 0
878 1 28.776 23.3805 34.1715 0 0 0
1225 1 25.179 17.985 21.582 0 0 0
1650 1 21.582 23.3805 8.9925 0 0 0
2173 1 17.985 32.373 10.791 0 0 0
1372 1 23.3805 34.1715 7.194 0 0 0
2208 1 12.5895 1.7985 3.597 0 0 0
3976 1 0.0 30.5745 26.9775 0 0 0
152 1 34.1715 26.9775 17.985 0 0 0
3046 1 7.194 5.3955 5.3955 0 0 0
1978 1 17.985 16.1865 16.1865 0 0 0
3964 1 0.0 30.5745 5.3955 0 0 0
3614 1 3.597 19.7835 12.5895 0 0 0
880 1 26.9775 23.3805 32.373 0 0 0
1286 1 25.179 26.9775 5.3955 0 0 0
3377 1 7.194 32.373 14.388 0 0 0
989 1 28.776 32.373 25.179 0 0 0
3782 1 3.597 34.1715 19.7835 0 0 0
3498 1 3.597 8.9925 16.1865 0 0 0
720 1 26.9775 8.9925 32.373 0 0 0
2718 1 10.791 8.9925 34.1715 0 0 0
633 1 28.776 0.0 28.776 0 0 0
42 1 34.1715 8.9925 0.0 0 0 0
260 1 30.5745 5.3955 14.388 0 0 0
3639 1 1.7985 17.985 34.1715 0 0 0
1414 1 21.582 1.7985 12.5895 0 0 0
306 1 32.373 8.9925 23.3805 0 0 0
1127 1 23.3805 10.791 5.3955 0 0 0
55 1 34.1715 7.194 26.9775 0 0 0
305 1 32.373 7.194 21.582 0 0 0
241 1 32.373 3.597 0.0 0 0 0
1692 1 19.7835 26.9775 7.194 0 0 0
1354 1 25.179 30.5745 30.5745 0 0 0
3594 1 3.597 16.1865 30.5745 0 0 0
1204 1 23.3805 19.7835 0.0 0 0 0
2469 1 14.388 21.582 25.179 0 0 0
1529 1 21.582 10.791 7.194 0 0 0
2322 1 14.388 12.5895 1.7985 0 0 0
777 1 28.776 14.388 14.388 0 0 0
101 1 34.1715 17.985 1.7985 0 0 0
2886 1 10.791 26.9775 5.3955 0 0 0
3272 1 5.3955 23.3805 25.179 0 0 0
651 1 26.9775 3.597 8.9925 0 0 0
552 1 30.5745 30.5745 25.179 0 0 0
429 1 32.373 17.985 25.179 0 0 0
1152 1 23.3805 12.5895 25.179 0 0 0
286 1 32.373 8.9925 5.3955 0 0 0
2256 1 12.5895 5.3955 10.791 0 0 0
984 1 26.9775 34.1715 17.985 0 0 0
3275 1 5.3955 21.582 30.5745 0 0 0
1967 1 16.1865 14.388 5.3955 0 0 0
1399 1 23.3805 32.373 34.1715 0 0 0
1304 1 23.3805 26.9775 17.985 0 0 0
182 1 34.1715 34.1715 0.0 0 0 0
3219 1 5.3955 17.985 16.1865 0 0 0
2154 1 17.985 30.5745 30.5745 0 0 0
3899 1 0.0 14.388 32.373 0 0 0
454 1 32.373 23.3805 12.5895 0 0 0
1512 1 19.7835 8.9925 25.179 0 0 0
1696 1 19.7835 26.9775 10.791 0 0 0
1545 1 21.582 10.791 21.582 0 0 0
884 1 26.9775 26.9775 0.0 0 0 0
1810 1 17.985 1.7985 8.9925 0 0 0
2825 1 10.791 17.985 21.582 0 0 0
3002 1 7.194 1.7985 1.7985 0 0 0
1899 1 16.1865 7.194 16.1865 0 0 0
3673 1 3.597 21.582 28.776 0 0 0
2090 1 17.985 26.9775 8.9925 0 0 0
3034 1 7.194 1.7985 30.5745 0 0 0
3177 1 7.194 14.388 14.388 0 0 0
2727 1 8.9925 10.791 5.3955 0 0 0
1087 1 23.3805 7.194 5.3955 0 0 0
2608 2 8.9925 1.7985 3.597 0 0 0
1779 2 19.7835 32.373 16.1865 0 0 0
1073 2 25.179 3.597 28.776 0 0 0
247 2 30.5745 3.597 5.3955 0 0 0
2758 2 10.791 12.5895 34.1715 0 0 0
1769 2 21.582 32.373 7.194 0 0 0
1077 2 25.179 3.597 32.373 0 0 0
1621 2 21.582 17.985 17.985 0 0 0
2165 2 17.985 32.373 3.597 0 0 0
797 2 28.776 14.388 32.373 0 0 0
1917 2 17.985 7.194 32.373 0 0 0
1622 2 21.582 19.7835 19.7835 0 0 0
3947 2 0.0 25.179 10.791 0 0 0
340 2 30.5745 12.5895 14.388 0 0 0
3701 2 3.597 25.179 17.985 0 0 0
2204 2 12.5895 1.7985 0.0 0 0 0
543 2 30.5745 28.776 19.7835 0 0 0
2403 2 12.5895 17.985 1.7985 0 0 0
3674 2 3.597 23.3805 30.5745 0 0 0
830 2 28.776 19.7835 26.9775 0 0 0
428 2 30.5745 19.7835 21.582 0 0 0
2782 2 10.791 16.1865 19.7835 0 0 0
2803 2 8.9925 17.985 1.7985 0 0 0
73 2 34.1715 10.791 23.3805 0 0 0
719 2 26.9775 7.194 34.1715 0 0 0
751 2 26.9775 10.791 26.9775 0 0 0
3733 2 3.597 28.776 10.791 0 0 0
2644 2 8.9925 5.3955 0.0 0 0 0
861 2 28.776 21.582 17.985 0 0 0
716 2 26.9775 8.9925 28.776 0 0 0
2349 2 14.388 10.791 25.179 0 0 0
2994 2 10.791 34.1715 30.5745 0 0 0
1447 2 19.7835 3.597 5.3955 0 0 0
3276 2 5.3955 23.3805 28.776 0 0 0
1 2 34.1715 0.0 1.7985 0 0 0
1649 2 21.582 21.582 7.194 0 0 0
3117 2 7.194 7.194 32.373 0 0 0
1640 2 19.7835 19.7835 32.373 0 0 0
82 2 34.1715 16.1865 0.0 0 0 0
573 2 32.373 32.373 10.791 0 0 0
2391 2 12.5895 14.388 26.9775 0 0 0
1960 2 16.1865 12.5895 32.373 0 0 0
1618 2 21.582 19.7835 16.1865 0 0 0
612 2 26.9775 1.7985 7.194 0 0 0
1251 2 23.3805 21.582 8.9925 0 0 0
2564 2 12.5895 34.1715 0.0 0 0 0
2783 2 8.9925 14.388 19.7835 0 0 0
2025 2 17.985 17.985 21.582 0 0 0
3421 2 3.597 0.0 17.985 0 0 0
2298 2 14.388 8.9925 16.1865 0 0 0
3768 2 1.7985 34.1715 3.597 0 0 0
41 2 34.1715 7.194 1.7985 0 0 0
3739 2 1.7985 28.776 16.1865 0 0 0
2940 2 8.9925 30.5745 14.388 0 0 0
466 2 32.373 23.3805 23.3805 0 0 0
1168 2 23.3805 16.1865 3.597 0 0 0
3375 2 5.3955 32.373 12.5895 0 0 0
213 2 32.373 0.0 10.791 0 0 0
740 2 26.9775 12.5895 14.388 0 0 0
631 2 26.9775 0.0 26.9775 0 0 0
1310 2 25.179 26.9775 26.9775 0 0 0
3680 2 1.7985 23.3805 32.373 0 0 0
2638 2 10.791 1.7985 34.1715 0 0 0
1294 2 25.179 26.9775 12.5895 0 0 0
2066 2 17.985 23.3805 23.3805 0 0 0
951 2 26.9775 28.776 26.9775 0 0 0
1847 2 16.1865 3.597 5.3955 0 0 0
2240 2 12.5895 1.7985 32.373 0 0 0
1747 2 19.7835 28.776 23.3805 0 0 0
1451 2 19.7835 3.597 8.9925 0 0 0
779 2 26.9775 14.388 16.1865 0 0 0
3798 2 3.597 34.1715 34.1715 0 0 0
460 2 30.5745 23.3805 14.388 0 0 0
858 2 28.776 23.3805 16.1865 0 0 0
2795 2 8.9925 14.388 30.5745 0 0 0
3901 2 0.0 17.985 0.0 0 0 0
2732 2 8.9925 12.5895 7.194 0 0 0
3643 2 1.7985 21.582 1.7985 0 0 0
2621 2 10.791 0.0 17.985 0 0 0
2226 2 14.388 1.7985 23.3805 0 0 0
711 2 26.9775 7.194 26.9775 0 0 0
1815 2 16.1865 0.0 12.5895 0 0 0
2146 2 17.985 30.5745 23.3805 0 0 0
3133 2 7.194 10.791 10.791 0 0 0
2618 2 10.791 1.7985 16.1865 0 0 0
3611 2 1.7985 17.985 8.9925 0 0 0
3396 2 5.3955 34.1715 28.776 0 0 0
1613 2 21.582 17.985 10.791 0 0 0
2943 2 8.9925 28.776 19.7835 0 0 0
3994 2 0.0 34.1715 23.3805 0 0 0
2492 2 12.5895 26.9775 7.194 0 0 0
2582 2 14.388 34.1715 19.7835 0 0 0
3270 2 7.194 23.3805 26.9775 0 0 0
3247 2 5.3955 21.582 5.3955 0 0 0
3411 2 1.7985 0.0 8.9925 0 0 0
520 2 30.5745 26.9775 32.373 0 0 0
945 2 28.776 28.776 21.582 0 0 0
3132 2 5.3955 12.5895 7.194 0 0 0
2526 2 14.388 30.5745 5.3955 0 0 0
3619 2 1.7985 17.985 16.1865 0 0 0
975 2 26.9775 32.373 12.5895 0 0 0
1934 2 17.985 12.5895 12.5895 0 0 0
3726 2 3.597 30.5745 5.3955 0 0 0
150 2 34.1715 26.9775 14.388 0 0 0
2978 2 10.791 34.1715 16.1865 0 0 0
2983 2 8.9925 32.373 19.7835 0 0 0
860 2 26.9775 23.3805 14.388 0 0 0
698 2 28.776 8.9925 16.1865 0 0 0
3166 2 7.194 16.1865 5.3955 0 0 0
381 2 32.373 14.388 17.985 0 0 0
3923 2 0.0 21.582 3.597 0 0 0
3376 2 5.3955 34.1715 10.791 0 0 0
3587 2 1.7985 14.388 23.3805 0 0 0
3453 2 3.597 3.597 10.791 0 0 0
109 2 34.1715 17.985 16.1865 0 0 0
3933 2 0.0 21.582 21.582 0 0 0
3045 2 7.194 3.597 3.597 0 0 0
909 2 28.776 25.179 25.179 0 0 0
1295 2 23.3805 25.179 12.5895 0 0 0
3102 2 7.194 8.9925 19.7835 0 0 0
1662 2 21.582 23.3805 19.7835 0 0 0
1796 2 19.7835 34.1715 28.776 0 0 0
2236 2 12.5895 1.7985 28.776 0 0 0
3523 2 1.7985 10.791 1.7985 0 0 0
662 2 28.776 5.3955 19.7835 0 0 0
1312 2 23.3805 26.9775 25.179 0 0 0
1175 2 23.3805 14.388 12.5895 0 0 0
960 2 26.9775 30.5745 32.373 0 0 0
3803 2 0.0 0.0 3.597 0 0 0
1878 2 17.985 5.3955 34.1715 0 0 0
2239 2 12.5895 0.0 34.1715 0 0 0
3297 2 7.194 25.179 14.388 0 0 0
2676 2 8.9925 5.3955 28.776 0 0 0
2390 2 14.388 16.1865 26.9775 0 0 0
472 2 30.5745 23.3805 25.179 0 0 0
1125 2 25.179 10.791 3.597 0 0 0
3266 2 7.194 23.3805 23.3805 0 0 0
3364 2 5.3955 34.1715 0.0 0 0 0
1951 2 16.1865 10.791 26.9775 0 0 0
653 2 28.776 3.597 10.791 0 0 0
979 2 26.9775 32.373 16.1865 0 0 0
852 2 26.9775 23.3805 7.194 0 0 0
1729 2 21.582 28.776 7.194 0 0 0
1907 2 16.1865 7.194 23.3805 0 0 0
3595 2 1.7985 14.388 30.5745 0 0 0
1001 2 25.179 0.0 0.0 0 0 0
2520 2 12.5895 26.9775 32.373 0 0 0
1303 2 23.3805 25.179 19.7835 0 0 0
1038 2 25.179 1.7985 34.1715 0 0 0
2102 2 17.985 26.9775 19.7835 0 0 0
684 2 26.9775 8.9925 0.0 0 0 0
687 2 26.9775 7.194 5.3955 0 0 0
1852 2 16.1865 5.3955 7.194 0 0 0
1584 2 19.7835 16.1865 17.985 0 0 0
1500 2 19.7835 8.9925 14.388 0 0 0
2773 2 10.791 14.388 10.791 0 0 0
3312 2 5.3955 26.9775 25.179 0 0 0
1781 2 21.582 32.373 17.985 0 0 0
1561 2 21.582 14.388 0.0 0 0 0
785 2 28.776 14.388 21.582 0 0 0
916 2 26.9775 26.9775 28.776 0 0 0
1094 2 25.179 8.9925 12.5895 0 0 0
420 2 30.5745 19.7835 14.388 0 0 0
106 2 34.1715 19.7835 7.194 0 0 0
2461 2 14.388 21.582 17.985 0 0 0
1121 2 25.179 10.791 0.0 0 0 0
1973 2 17.985 14.388 10.791 0 0 0
1360 2 23.3805 30.5745 32.373 0 0 0
3572 2 1.7985 16.1865 7.194 0 0 0
722 2 28.776 12.5895 1.7985 0 0 0
3126 2 7.194 12.5895 5.3955 0 0 0
2963 2 8.9925 32.373 1.7985 0 0 0
2967 2 8.9925 32.373 5.3955 0 0 0
149 2 34.1715 25.179 16.1865 0 0 0
3484 2 1.7985 8.9925 0.0 0 0 0
2110 2 17.985 26.9775 26.9775 0 0 0
1891 2 16.1865 7.194 8.9925 0 0 0
2556 2 12.5895 30.5745 28.776 0 0 0
1586 2 21.582 16.1865 23.3805 0 0 0
3332 2 5.3955 30.5745 7.194 0 0 0
423 2 30.5745 17.985 19.7835 0 0 0
3962 2 0.0 30.5745 1.7985 0 0 0
1293 2 25.179 25.179 10.791 0 0 0
619 2 26.9775 0.0 16.1865 0 0 0
1072 2 23.3805 5.3955 25.179 0 0 0
3363 2 5.3955 32.373 1.7985 0 0 0
993 2 28.776 32.373 28.776 0 0 0
1039 2 23.3805 0.0 34.1715 0 0 0
2612 2 8.9925 1.7985 7.194 0 0 0
3452 2 1.7985 5.3955 7.194 0 0 0
765 2 28.776 14.388 3.597 0 0 0
2153 2 17.985 28.776 28.776 0 0 0
1013 2 25.179 0.0 10.791 0 0 0
3077 2 7.194 3.597 32.373 0 0 0
545 2 32.373 28.776 21.582 0 0 0
2360 2 12.5895 12.5895 32.373 0 0 0
196 2 34.1715 34.1715 25.179 0 0 0
935 2 26.9775 28.776 12.5895 0 0 0
2910 2 10.791 26.9775 26.9775 0 0 0
2641 2 10.791 3.597 0.0 0 0 0
558 2 32.373 30.5745 34.1715 0 0 0
1243 2 23.3805 21.582 1.7985 0 0 0
3538 2 3.597 12.5895 16.1865 0 0 0
3294 2 7.194 26.9775 12.5895 0 0 0
2553 2 14.388 28.776 28.776 0 0 0
3706 2 3.597 26.9775 23.3805 0 0 0
3760 2 1.7985 30.5745 32.373 0 0 0
3114 2 7.194 8.9925 30.5745 0 0 0
1526 2 21.582 12.5895 5.3955 0 0 0
599 2 30.5745 32.373 34.1715 0 0 0
2380 2 12.5895 16.1865 14.388 0 0 0
833 2 28.776 17.985 28.776 0 0 0
2188 2 16.1865 34.1715 21.582 0 0 0
2879 2 8.9925 21.582 34.1715 0 0 0
1480 2 19.7835 5.3955 32.373 0 0 0
127 2 34.1715 21.582 12.5895 0 0 0
3730 2 3.597 30.5745 8.9925 0 0 0
1732 2 19.7835 30.5745 7.194 0 0 0
3223 2 5.3955 17.985 19.7835 0 0 0
1655 2 19.7835 21.582 12.5895 0 0 0
2027 2 16.1865 17.985 23.3805 0 0 0
1454 2 21.582 5.3955 12.5895 0 0 0
3590 2 3.597 16.1865 26.9775 0 0 0
1546 2 21.582 12.5895 23.3805 0 0 0
1401 2 21.582 0.0 0.0 0 0 0
2117 2 17.985 25.179 32.373 0 0 0
2125 2 17.985 28.776 3.597 0 0 0
3304 2 5.3955 26.9775 17.985 0 0 0
1566 2 21.582 16.1865 5.3955 0 0 0
2433 2 14.388 17.985 28.776 0 0 0
3735 2 1.7985 28.776 12.5895 0 0 0
1983 2 16.1865 14.388 19.7835 0 0 0
3308 2 5.3955 26.9775 21.582 0 0 0
361 2 32.373 14.388 0.0 0 0 0
3841 2 0.0 7.194 0.0 0 0 0
2871 2 8.9925 21.582 26.9775 0 0 0
83 2 34.1715 14.388 5.3955 0 0 0
157 2 34.1715 25.179 30.5745 0 0 0
580 2 30.5745 34.1715 14.388 0 0 0
3699 2 1.7985 25.179 16.1865 0 0 0
1595 2 19.7835 14.388 30.5745 0 0 0
553 2 32.373 28.776 28.776 0 0 0
3801 2 0.0 0.0 0.0 0 0 0
2076 2 16.1865 23.3805 28.776 0 0 0
3469 2 3.597 3.597 25.179 0 0 0
2728 2 8.9925 12.5895 3.597 0 0 0
1930 2 17.985 12.5895 8.9925 0 0 0
1599 2 19.7835 14.388 34.1715 0 0 0
3866 2 0.0 12.5895 8.9925 0 0 0
2729 2 10.791 10.791 7.194 0 0 0
755 2 26.9775 10.791 30.5745 0 0 0
2318 2 14.388 8.9925 34.1715 0 0 0
3564 2 1.7985 16.1865 0.0 0 0 0
3912 2 0.0 19.7835 19.7835 0 0 0
3743 2 1.7985 28.776 19.7835 0 0 0
3836 2 0.0 5.3955 26.9775 0 0 0
1086 2 25.179 8.9925 5.3955 0 0 0
3916 2 0.0 19.7835 26.9775 0 0 0
2654 2 10.791 5.3955 12.5895 0 0 0
1486 2 21.582 8.9925 5.3955 0 0 0
1129 2 25.179 10.791 7.194 0 0 0
3242 2 7.194 23.3805 1.7985 0 0 0
1381 2 25.179 32.373 17.985 0 0 0
1106 2 25.179 8.9925 23.3805 0 0 0
2970 2 10.791 34.1715 8.9925 0 0 0
243 2 30.5745 3.597 1.7985 0 0 0
3026 2 7.194 1.7985 23.3805 0 0 0
1962 2 17.985 16.1865 1.7985 0 0 0
2962 2 10.791 34.1715 1.7985 0 0 0
1236 2 23.3805 19.7835 28.776 0 0 0
3928 2 0.0 23.3805 12.5895 0 0 0
1046 2 25.179 5.3955 5.3955 0 0 0
2901 2 10.791 25.179 17.985 0 0 0
1912 2 16.1865 8.9925 25.179 0 0 0
358 2 32.373 12.5895 34.1715 0 0 0
936 2 26.9775 30.5745 10.791 0 0 0
3025 2 7.194 0.0 21.582 0 0 0
696 2 26.9775 8.9925 10.791 0 0 0
2642 2 10.791 5.3955 1.7985 0 0 0
895 2 26.9775 25.179 12.5895 0 0 0
961 2 28.776 32.373 0.0 0 0 0
3076 2 5.3955 5.3955 28.776 0 0 0
465 2 32.373 21.582 21.582 0 0 0
1518 2 21.582 8.9925 34.1715 0 0 0
265 2 32.373 3.597 21.582 0 0 0
3608 2 1.7985 19.7835 3.597 0 0 0
2509 2 14.388 25.179 25.179 0 0 0
625 2 28.776 0.0 21.582 0 0 0
2011 2 16.1865 17.985 8.9925 0 0 0
2715 2 8.9925 7.194 30.5745 0 0 0
3092 2 5.3955 8.9925 7.194 0 0 0
362 2 32.373 16.1865 1.7985 0 0 0
1482 2 21.582 8.9925 1.7985 0 0 0
1858 2 17.985 5.3955 16.1865 0 0 0
1005 2 25.179 0.0 3.597 0 0 0
478 2 32.373 23.3805 34.1715 0 0 0
1816 2 16.1865 1.7985 10.791 0 0 0
1540 2 19.7835 12.5895 14.388 0 0 0
3181 2 7.194 14.388 17.985 0 0 0
3040 2 5.3955 1.7985 32.373 0 0 0
223 2 30.5745 0.0 19.7835 0 0 0
950 2 28.776 30.5745 26.9775 0 0 0
3918 2 0.0 19.7835 30.5745 0 0 0
1240 2 23.3805 19.7835 32.373 0 0 0
3623 2 1.7985 17.985 19.7835 0 0 0
1991 2 16.1865 14.388 26.9775 0 0 0
2921 2 10.791 28.776 0.0 0 0 0
3613 2 3.597 17.985 10.791 0 0 0
994 2 28.776 34.1715 30.5745 0 0 0
3343 2 5.3955 28.776 19.7835 0 0 0
2019 2 16.1865 17.985 16.1865 0 0 0
3238 2 7.194 19.7835 34.1715 0 0 0
2 2 34.1715 1.7985 0.0 0 0 0
461 2 32.373 21.582 17.985 0 0 0
3532 2 1.7985 12.5895 7.194 0 0 0
1356 2 23.3805 30.5745 28.776 0 0 0
2870 2 10.791 23.3805 26.9775 0 0 0
168 2 34.1715 30.5745 10.791 0 0 0
3992 2 0.0 34.1715 19.7835 0 0 0
1140 2 23.3805 12.5895 14.388 0 0 0
1940 2 16.1865 12.5895 14.388 0 0 0
3669 2 3.597 21.582 25.179 0 0 0
2898 2 10.791 26.9775 16.1865 0 0 0
3383 2 5.3955 32.373 19.7835 0 0 0
550 2 32.373 30.5745 26.9775 0 0 0
3888 2 0.0 16.1865 12.5895 0 0 0
807 2 26.9775 17.985 5.3955 0 0 0
3939 2 0.0 21.582 32.373 0 0 0
2286 2 14.388 8.9925 5.3955 0 0 0
2219 2 12.5895 0.0 16.1865 0 0 0
3515 2 1.7985 7.194 30.5745 0 0 0
970 2 28.776 34.1715 8.9925 0 0 0
991 2 26.9775 32.373 26.9775 0 0 0
1375 2 23.3805 32.373 12.5895 0 0 0
1082 2 25.179 8.9925 1.7985 0 0 0
974 2 28.776 34.1715 12.5895 0 0 0
744 2 26.9775 12.5895 17.985 0 0 0
2229 2 14.388 0.0 25.179 0 0 0
1643 2 19.7835 21.582 1.7985 0 0 0
3893 2 0.0 14.388 21.582 0 0 0
443 2 30.5745 21.582 1.7985 0 0 0
2327 2 12.5895 10.791 5.3955 0 0 0
604 2 26.9775 1.7985 0.0 0 0 0
2398 2 14.388 16.1865 34.1715 0 0 0
1886 2 17.985 8.9925 5.3955 0 0 0
3512 2 1.7985 8.9925 25.179 0 0 0
3225 2 7.194 17.985 21.582 0 0 0
3955 2 0.0 25.179 25.179 0 0 0
3405 2 3.597 0.0 3.597 0 0 0
2271 2 12.5895 3.597 26.9775 0 0 0
2424 2 12.5895 19.7835 17.985 0 0 0
426 2 32.373 19.7835 23.3805 0 0 0
261 2 32.373 3.597 17.985 0 0 0
364 2 30.5745 16.1865 0.0 0 0 0
1117 2 25.179 7.194 32.373 0 0 0
3924 2 0.0 23.3805 5.3955 0 0 0
79 2 34.1715 10.791 34.1715 0 0 0
2658 2 10.791 5.3955 16.1865 0 0 0
2989 2 10.791 32.373 25.179 0 0 0
1003 2 23.3805 0.0 1.7985 0 0 0
3977 2 0.0 28.776 28.776 0 0 0
2627 2 8.9925 0.0 23.3805 0 0 0
2029 2 17.985 17.985 25.179 0 0 0
3839 2 0.0 3.597 32.373 0 0 0
1600 2 19.7835 16.1865 32.373 0 0 0
2796 2 8.9925 16.1865 28.776 0 0 0
666 2 28.776 5.3955 23.3805 0 0 0
3401 2 3.597 0.0 0.0 0 0 0
167 2 34.1715 28.776 12.5895 0 0 0
1533 2 21.582 10.791 10.791 0 0 0
3155 2 5.3955 10.791 30.5745 0 0 0
2674 2 10.791 5.3955 30.5745 0 0 0
3972 2 0.0 30.5745 19.7835 0 0 0
808 2 26.9775 19.7835 3.597 0 0 0
837 2 28.776 17.985 32.373 0 0 0
1823 2 16.1865 0.0 19.7835 0 0 0
3189 2 7.194 14.388 25.179 0 0 0
2907 2 8.9925 25.179 23.3805 0 0 0
2059 2 16.1865 21.582 16.1865 0 0 0
527 2 30.5745 28.776 5.3955 0 0 0
2311 2 12.5895 7.194 26.9775 0 0 0
883 2 26.9775 25.179 1.7985 0 0 0
3171 2 5.3955 14.388 8.9925 0 0 0
2264 2 12.5895 5.3955 17.985 0 0 0
1397 2 25.179 32.373 32.373 0 0 0
1860 2 16.1865 5.3955 14.388 0 0 0
745 2 28.776 10.791 21.582 0 0 0
2323 2 12.5895 10.791 1.7985 0 0 0
3501 2 3.597 7.194 17.985 0 0 0
618 2 28.776 1.7985 16.1865 0 0 0
1946 2 17.985 12.5895 23.3805 0 0 0
2262 2 14.388 5.3955 19.7835 0 0 0
2214 2 14.388 1.7985 12.5895 0 0 0
2807 2 8.9925 17.985 5.3955 0 0 0
539 2 30.5745 28.776 16.1865 0 0 0
759 2 26.9775 10.791 34.1715 0 0 0
66 2 34.1715 12.5895 7.194 0 0 0
3889 2 0.0 14.388 14.388 0 0 0
1999 2 16.1865 14.388 34.1715 0 0 0
1182 2 25.179 16.1865 19.7835 0 0 0
221 2 32.373 0.0 17.985 0 0 0
3397 2 7.194 32.373 32.373 0 0 0
2537 2 14.388 28.776 14.388 0 0 0
1114 2 25.179 8.9925 30.5745 0 0 0
315 2 30.5745 7.194 30.5745 0 0 0
1291 2 23.3805 25.179 8.9925 0 0 0
1228 2 23.3805 19.7835 21.582 0 0 0
3679 2 1.7985 21.582 34.1715 0 0 0
1665 2 21.582 21.582 21.582 0 0 0
2610 2 10.791 1.7985 8.9925 0 0 0
2683 2 8.9925 7.194 1.7985 0 0 0
855 2 26.9775 21.582 12.5895 0 0 0
1763 2 19.7835 32.373 1.7985 0 0 0
839 2 26.9775 17.985 34.1715 0 0 0
3722 2 3.597 30.5745 1.7985 0 0 0
1184 2 23.3805 16.1865 17.985 0 0 0
655 2 26.9775 3.597 12.5895 0 0 0
2440 2 12.5895 19.7835 32.373 0 0 0
3897 2 0.0 14.388 28.776 0 0 0
3784 2 1.7985 34.1715 17.985 0 0 0
3449 2 3.597 3.597 7.194 0 0 0
3015 2 5.3955 0.0 12.5895 0 0 0
725 2 28.776 10.791 3.597 0 0 0
3051 2 5.3955 3.597 8.9925 0 0 0
2346 2 14.388 12.5895 23.3805 0 0 0
1503 2 19.7835 7.194 19.7835 0 0 0
2589 2 14.388 32.373 25.179 0 0 0
3915 2 0.0 17.985 25.179 0 0 0
928 2 26.9775 30.5745 3.597 0 0 0
3352 2 5.3955 30.5745 25.179 0 0 0
3291 2 5.3955 25.179 8.9925 0 0 0
3360 2 5.3955 30.5745 32.373 0 0 0
825 2 28.776 17.985 21.582 0 0 0
3624 2 1.7985 19.7835 17.985 0 0 0
3262 2 7.194 23.3805 19.7835 0 0 0
114 2 34.1715 19.7835 21.582 0 0 0
3306 2 7.194 26.9775 23.3805 0 0 0
1821 2 17.985 0.0 17.985 0 0 0
2417 2 14.388 17.985 14.388 0 0 0
1056 2 23.3805 5.3955 10.791 0 0 0
2392 2 12.5895 16.1865 25.179 0 0 0
652 2 26.9775 5.3955 7.194 0 0 0
1124 2 23.3805 12.5895 0.0 0 0 0
892 2 26.9775 26.9775 7.194 0 0 0
1803 2 16.1865 0.0 1.7985 0 0 0
1017 2 25.179 0.0 14.388 0 0 0
3930 2 0.0 23.3805 16.1865 0 0 0
2568 2 12.5895 34.1715 3.597 0 0 0
3615 2 1.7985 17.985 12.5895 0 0 0
27 2 34.1715 3.597 12.5895 0 0 0
2337 2 14.388 10.791 14.388 0 0 0
3724 2 1.7985 30.5745 0.0 0 0 0
1817 2 17.985 0.0 14.388 0 0 0
3641 2 3.597 21.582 0.0 0 0 0
2172 2 16.1865 34.1715 7.194 0 0 0
620 2 26.9775 1.7985 14.388 0 0 0
8 2 34.1715 1.7985 10.791 0 0 0
444 2 30.5745 23.3805 0.0 0 0 0
1715 2 19.7835 25.179 30.5745 0 0 0
1245 2 25.179 21.582 3.597 0 0 0
240 2 30.5745 1.7985 32.373 0 0 0
37 2 34.1715 3.597 30.5745 0 0 0
3251 2 5.3955 21.582 8.9925 0 0 0
2862 2 10.791 23.3805 19.7835 0 0 0
2302 2 14.388 8.9925 19.7835 0 0 0
2253 2 14.388 3.597 10.791 0 0 0
2902 2 10.791 26.9775 19.7835 0 0 0
2625 2 10.791 0.0 21.582 0 0 0
596 2 30.5745 34.1715 28.776 0 0 0
1415 2 19.7835 0.0 12.5895 0 0 0
1160 2 23.3805 12.5895 32.373 0 0 0
274 2 32.373 5.3955 30.5745 0 0 0
1750 2 21.582 30.5745 26.9775 0 0 0
2511 2 12.5895 25.179 26.9775 0 0 0
1231 2 23.3805 17.985 26.9775 0 0 0
1851 2 16.1865 3.597 8.9925 0 0 0
671 2 26.9775 3.597 26.9775 0 0 0
226 2 32.373 1.7985 23.3805 0 0 0
3781 2 3.597 32.373 17.985 0 0 0
2665 2 10.791 3.597 21.582 0 0 0
3006 2 7.194 1.7985 5.3955 0 0 0
1908 2 16.1865 8.9925 21.582 0 0 0
436 2 30.5745 19.7835 28.776 0 0 0
571 2 30.5745 32.373 8.9925 0 0 0
3810 2 0.0 1.7985 16.1865 0 0 0
1423 2 19.7835 0.0 19.7835 0 0 0
393 2 32.373 14.388 28.776 0 0 0
3197 2 7.194 14.388 32.373 0 0 0
1626 2 21.582 19.7835 23.3805 0 0 0
1837 2 17.985 0.0 32.373 0 0 0
254 2 32.373 5.3955 12.5895 0 0 0
2693 2 10.791 7.194 10.791 0 0 0
2605 2 10.791 0.0 3.597 0 0 0
1791 2 19.7835 32.373 26.9775 0 0 0
2662 2 10.791 5.3955 19.7835 0 0 0
954 2 28.776 30.5745 30.5745 0 0 0
3080 2 5.3955 5.3955 32.373 0 0 0
110 2 34.1715 19.7835 14.388 0 0 0
509 2 32.373 25.179 25.179 0 0 0
119 2 34.1715 17.985 34.1715 0 0 0
3785 2 3.597 32.373 21.582 0 0 0
2024 2 16.1865 19.7835 17.985 0 0 0
518 2 32.373 26.9775 34.1715 0 0 0
3508 2 1.7985 8.9925 21.582 0 0 0
3946 2 0.0 26.9775 8.9925 0 0 0
1714 2 21.582 26.9775 30.5745 0 0 0
1481 2 21.582 7.194 0.0 0 0 0
823 2 26.9775 17.985 19.7835 0 0 0
728 2 26.9775 12.5895 3.597 0 0 0
1142 2 25.179 12.5895 19.7835 0 0 0
675 2 26.9775 3.597 30.5745 0 0 0
32 2 34.1715 5.3955 17.985 0 0 0
3986 2 0.0 34.1715 8.9925 0 0 0
841 2 28.776 21.582 0.0 0 0 0
3983 2 0.0 32.373 3.597 0 0 0
3832 2 0.0 5.3955 19.7835 0 0 0
988 2 26.9775 34.1715 21.582 0 0 0
427 2 30.5745 17.985 23.3805 0 0 0
3979 2 0.0 28.776 32.373 0 0 0
1065 2 25.179 3.597 21.582 0 0 0
3650 2 3.597 23.3805 8.9925 0 0 0
2001 2 17.985 17.985 0.0 0 0 0
2031 2 16.1865 17.985 26.9775 0 0 0
2576 2 12.5895 34.1715 10.791 0 0 0
978 2 28.776 34.1715 16.1865 0 0 0
3322 2 7.194 30.5745 1.7985 0 0 0
2702 2 10.791 8.9925 19.7835 0 0 0
834 2 28.776 19.7835 30.5745 0 0 0
2347 2 12.5895 10.791 23.3805 0 0 0
3987 2 0.0 32.373 10.791 0 0 0
1669 2 21.582 21.582 25.179 0 0 0
1547 2 19.7835 10.791 23.3805 0 0 0
2558 2 14.388 30.5745 34.1715 0 0 0
3271 2 5.3955 21.582 26.9775 0 0 0
2372 2 12.5895 16.1865 7.194 0 0 0
1642 2 21.582 23.3805 1.7985 0 0 0
3902 2 0.0 19.7835 1.7985 0 0 0
1537 2 21.582 10.791 14.388 0 0 0
3192 2 5.3955 16.1865 25.179 0 0 0
2283 2 12.5895 7.194 1.7985 0 0 0
1032 2 23.3805 1.7985 25.179 0 0 0
1850 2 17.985 5.3955 8.9925 0 0 0
2733 2 10.791 10.791 10.791 0 0 0
761 2 28.776 14.388 0.0 0 0 0
3759 2 1.7985 28.776 34.1715 0 0 0
2336 2 12.5895 12.5895 10.791 0 0 0
3241 2 7.194 21.582 0.0 0 0 0
572 2 30.5745 34.1715 7.194 0 0 0
2329 2 14.388 10.791 7.194 0 0 0
219 2 30.5745 0.0 16.1865 0 0 0
890 2 28.776 26.9775 8.9925 0 0 0
3703 2 1.7985 25.179 19.7835 0 0 0
141 2 34.1715 25.179 1.7985 0 0 0
3471 2 1.7985 3.597 26.9775 0 0 0
2203 2 12.5895 0.0 1.7985 0 0 0
3799 2 1.7985 32.373 34.1715 0 0 0
1104 2 23.3805 8.9925 17.985 0 0 0
1280 2 23.3805 23.3805 32.373 0 0 0
1012 2 23.3805 1.7985 7.194 0 0 0
2623 2 8.9925 0.0 19.7835 0 0 0
3985 2 0.0 32.373 7.194 0 0 0
94 2 34.1715 16.1865 21.582 0 0 0
1370 2 25.179 34.1715 8.9925 0 0 0
3591 2 1.7985 14.388 26.9775 0 0 0
24 2 34.1715 5.3955 3.597 0 0 0
309 2 32.373 7.194 25.179 0 0 0
676 2 26.9775 5.3955 28.776 0 0 0
1761 2 21.582 32.373 0.0 0 0 0
2088 2 16.1865 26.9775 3.597 0 0 0
3713 2 3.597 25.179 28.776 0 0 0
2933 2 10.791 28.776 10.791 0 0 0
1202 2 25.179 19.7835 1.7985 0 0 0
3935 2 0.0 21.582 25.179 0 0 0
84 2 34.1715 16.1865 3.597 0 0 0
3054 2 7.194 5.3955 12.5895 0 0 0
595 2 30.5745 32.373 30.5745 0 0 0
3754 2 3.597 30.5745 30.5745 0 0 0
330 2 32.373 12.5895 8.9925 0 0 0
1178 2 25.179 16.1865 16.1865 0 0 0
2148 2 16.1865 30.5745 21.582 0 0 0
2839 2 8.9925 17.985 34.1715 0 0 0
1713 2 21.582 25.179 28.776 0 0 0
3620 2 1.7985 19.7835 14.388 0 0 0
1071 2 23.3805 3.597 26.9775 0 0 0
35 2 34.1715 3.597 26.9775 0 0 0
2129 2 17.985 28.776 7.194 0 0 0
1862 2 17.985 5.3955 19.7835 0 0 0
3652 2 1.7985 23.3805 7.194 0 0 0
1055 2 23.3805 3.597 12.5895 0 0 0
2755 2 8.9925 10.791 30.5745 0 0 0
1915 2 16.1865 7.194 30.5745 0 0 0
1274 2 25.179 23.3805 30.5745 0 0 0
3932 2 0.0 23.3805 19.7835 0 0 0
1011 2 23.3805 0.0 8.9925 0 0 0
3325 2 7.194 28.776 3.597 0 0 0
2202 2 14.388 1.7985 1.7985 0 0 0
1954 2 17.985 12.5895 30.5745 0 0 0
349 2 32.373 10.791 25.179 0 0 0
3853 2 0.0 7.194 21.582 0 0 0
3991 2 0.0 32.373 17.985 0 0 0
2552 2 12.5895 30.5745 25.179 0 0 0
1577 2 21.582 14.388 14.388 0 0 0
401 2 32.373 17.985 0.0 0 0 0
685 2 28.776 7.194 3.597 0 0 0
160 2 34.1715 26.9775 32.373 0 0 0
3718 2 3.597 26.9775 34.1715 0 0 0
3220 2 5.3955 19.7835 14.388 0 0 0
3010 2 7.194 1.7985 8.9925 0 0 0
2328 2 12.5895 12.5895 3.597 0 0 0
132 2 34.1715 23.3805 17.985 0 0 0
3359 2 5.3955 28.776 34.1715 0 0 0
1826 2 17.985 1.7985 23.3805 0 0 0
80 2 34.1715 12.5895 32.373 0 0 0
3817 2 0.0 0.0 28.776 0 0 0
1557 2 21.582 10.791 32.373 0 0 0
3534 2 3.597 12.5895 12.5895 0 0 0
2716 2 8.9925 8.9925 28.776 0 0 0
736 2 26.9775 12.5895 10.791 0 0 0
546 2 32.373 30.5745 23.3805 0 0 0
486 2 32.373 26.9775 5.3955 0 0 0
2502 2 14.388 26.9775 19.7835 0 0 0
3273 2 7.194 21.582 28.776 0 0 0
60 2 34.1715 8.9925 32.373 0 0 0
298 2 32.373 8.9925 16.1865 0 0 0
192 2 34.1715 34.1715 17.985 0 0 0
1458 2 21.582 5.3955 16.1865 0 0 0
886 2 28.776 26.9775 5.3955 0 0 0
3335 2 5.3955 28.776 12.5895 0 0 0
3455 2 1.7985 3.597 12.5895 0 0 0
29 2 34.1715 3.597 16.1865 0 0 0
1069 2 25.179 3.597 25.179 0 0 0
1275 2 23.3805 21.582 30.5745 0 0 0
3386 2 7.194 34.1715 23.3805 0 0 0
1525 2 21.582 10.791 3.597 0 0 0
2980 2 8.9925 34.1715 14.388 0 0 0
2373 2 14.388 14.388 10.791 0 0 0
1799 2 19.7835 32.373 34.1715 0 0 0
3475 2 1.7985 3.597 30.5745 0 0 0
1511 2 19.7835 7.194 26.9775 0 0 0
3840 2 0.0 5.3955 34.1715 0 0 0
2761 2 10.791 14.388 0.0 0 0 0
775 2 26.9775 14.388 12.5895 0 0 0
1036 2 23.3805 1.7985 28.776 0 0 0
1615 2 19.7835 17.985 12.5895 0 0 0
273 2 32.373 3.597 28.776 0 0 0
709 2 28.776 7.194 25.179 0 0 0
2617 2 10.791 0.0 14.388 0 0 0
2366 2 14.388 16.1865 5.3955 0 0 0
3807 2 0.0 0.0 10.791 0 0 0
3099 2 5.3955 7.194 16.1865 0 0 0
822 2 28.776 19.7835 19.7835 0 0 0
25 2 34.1715 3.597 8.9925 0 0 0
154 2 34.1715 26.9775 21.582 0 0 0
360 2 30.5745 12.5895 32.373 0 0 0
7 2 34.1715 0.0 12.5895 0 0 0
3503 2 1.7985 7.194 19.7835 0 0 0
1868 2 16.1865 5.3955 21.582 0 0 0
2759 2 8.9925 10.791 34.1715 0 0 0
2842 2 10.791 23.3805 1.7985 0 0 0
1146 2 25.179 12.5895 23.3805 0 0 0
3635 2 1.7985 17.985 30.5745 0 0 0
1021 2 25.179 0.0 17.985 0 0 0
74 2 34.1715 12.5895 21.582 0 0 0
626 2 28.776 1.7985 23.3805 0 0 0
2660 2 8.9925 5.3955 14.388 0 0 0
836 2 26.9775 19.7835 28.776 0 0 0
1949 2 17.985 10.791 25.179 0 0 0
3982 2 0.0 34.1715 1.7985 0 0 0
3064 2 5.3955 5.3955 17.985 0 0 0
5 3 34.1715 0.0 8.9925 0 0 0
2717 3 10.791 7.194 32.373 0 0 0
2854 3 10.791 23.3805 12.5895 0 0 0
3664 3 1.7985 23.3805 17.985 0 0 0
2406 3 14.388 19.7835 5.3955 0 0 0
2160 3 16.1865 30.5745 32.373 0 0 0
967 3 26.9775 32.373 5.3955 0 0 0
3288 3 5.3955 26.9775 3.597 0 0 0
2735 3 8.9925 10.791 12.5895 0 0 0
2082 3 17.985 26.9775 1.7985 0 0 0
505 3 32.373 25.179 21.582 0 0 0
976 3 26.9775 34.1715 10.791 0 0 0
821 3 28.776 17.985 17.985 0 0 0
2720 3 8.9925 8.9925 32.373 0 0 0
3576 3 1.7985 16.1865 10.791 0 0 0
139 3 34.1715 21.582 34.1715 0 0 0
3648 3 1.7985 23.3805 3.597 0 0 0
2903 3 8.9925 25.179 19.7835 0 0 0
660 3 26.9775 5.3955 14.388 0 0 0
840 3 26.9775 19.7835 32.373 0 0 0
311 3 30.5745 7.194 26.9775 0 0 0
2874 3 10.791 23.3805 30.5745 0 0 0
570 3 32.373 34.1715 8.9925 0 0 0
3941 3 0.0 25.179 0.0 0 0 0
2296 3 12.5895 8.9925 10.791 0 0 0
3143 3 5.3955 10.791 19.7835 0 0 0
3816 3 0.0 1.7985 26.9775 0 0 0
2312 3 12.5895 8.9925 25.179 0 0 0
2856 3 8.9925 23.3805 10.791 0 0 0
962 3 28.776 34.1715 1.7985 0 0 0
2595 3 12.5895 32.373 30.5745 0 0 0
3825 3 0.0 3.597 7.194 0 0 0
459 3 30.5745 21.582 16.1865 0 0 0
724 3 26.9775 12.5895 0.0 0 0 0
2734 3 10.791 12.5895 12.5895 0 0 0
1367 3 23.3805 32.373 5.3955 0 0 0
2634 3 10.791 1.7985 30.5745 0 0 0
2772 3 8.9925 16.1865 7.194 0 0 0
3358 3 7.194 30.5745 34.1715 0 0 0
2673 3 10.791 3.597 28.776 0 0 0
658 3 28.776 5.3955 16.1865 0 0 0
3413 3 3.597 0.0 10.791 0 0 0
2593 3 14.388 32.373 28.776 0 0 0
2859 3 8.9925 21.582 16.1865 0 0 0
2075 3 16.1865 21.582 30.5745 0 0 0
3159 3 5.3955 10.791 34.1715 0 0 0
2830 3 10.791 19.7835 26.9775 0 0 0
1509 3 21.582 7.194 25.179 0 0 0
3446 3 3.597 5.3955 5.3955 0 0 0
3989 3 0.0 32.373 14.388 0 0 0
1126 3 25.179 12.5895 5.3955 0 0 0
2667 3 8.9925 3.597 23.3805 0 0 0
492 3 30.5745 26.9775 7.194 0 0 0
3370 3 7.194 34.1715 8.9925 0 0 0
528 3 30.5745 30.5745 3.597 0 0 0
932 3 26.9775 30.5745 7.194 0 0 0
1465 3 21.582 3.597 21.582 0 0 0
515 3 30.5745 25.179 30.5745 0 0 0
3536 3 1.7985 12.5895 10.791 0 0 0
189 3 34.1715 32.373 16.1865 0 0 0
3327 3 5.3955 28.776 5.3955 0 0 0
1831 3 16.1865 0.0 26.9775 0 0 0
2496 3 12.5895 26.9775 10.791 0 0 0
3342 3 7.194 30.5745 19.7835 0 0 0
3257 3 7.194 21.582 14.388 0 0 0
2865 3 10.791 21.582 21.582 0 0 0
2140 3 16.1865 30.5745 14.388 0 0 0
2093 3 17.985 25.179 10.791 0 0 0
1164 3 23.3805 16.1865 0.0 0 0 0
2449 3 14.388 21.582 7.194 0 0 0
873 3 28.776 21.582 28.776 0 0 0
2883 3 8.9925 25.179 1.7985 0 0 0
1834 3 17.985 1.7985 30.5745 0 0 0
476 3 30.5745 23.3805 28.776 0 0 0
304 3 30.5745 8.9925 17.985 0 0 0
1083 3 23.3805 7.194 1.7985 0 0 0
2935 3 8.9925 28.776 12.5895 0 0 0
1726 3 21.582 30.5745 5.3955 0 0 0
981 3 28.776 32.373 17.985 0 0 0
63 3 34.1715 10.791 5.3955 0 0 0
805 3 28.776 17.985 3.597 0 0 0
3050 3 7.194 5.3955 8.9925 0 0 0
2294 3 14.388 8.9925 12.5895 0 0 0
1079 3 23.3805 3.597 34.1715 0 0 0
1313 3 25.179 25.179 28.776 0 0 0
541 3 32.373 28.776 17.985 0 0 0
1764 3 19.7835 34.1715 0.0 0 0 0
871 3 26.9775 21.582 26.9775 0 0 0
1390 3 25.179 34.1715 26.9775 0 0 0
353 3 32.373 10.791 28.776 0 0 0
3072 3 5.3955 5.3955 25.179 0 0 0
2192 3 16.1865 34.1715 25.179 0 0 0
1661 3 21.582 21.582 17.985 0 0 0
2039 3 16.1865 17.985 34.1715 0 0 0
1687 3 19.7835 25.179 5.3955 0 0 0
2353 3 14.388 10.791 28.776 0 0 0
969 3 28.776 32.373 7.194 0 0 0
1617 3 21.582 17.985 14.388 0 0 0
2033 3 17.985 17.985 28.776 0 0 0
2000 3 16.1865 16.1865 32.373 0 0 0
870 3 28.776 23.3805 26.9775 0 0 0
2272 3 12.5895 5.3955 25.179 0 0 0
846 3 28.776 23.3805 5.3955 0 0 0
170 3 34.1715 30.5745 14.388 0 0 0
1075 3 23.3805 3.597 30.5745 0 0 0
1508 3 19.7835 8.9925 21.582 0 0 0
1861 3 17.985 3.597 17.985 0 0 0
1110 3 25.179 8.9925 26.9775 0 0 0
1695 3 19.7835 25.179 12.5895 0 0 0
3549 3 3.597 10.791 25.179 0 0 0
3593 3 3.597 14.388 28.776 0 0 0
57 3 34.1715 7.194 30.5745 0 0 0
1403 3 19.7835 0.0 1.7985 0 0 0
2190 3 17.985 34.1715 26.9775 0 0 0
3535 3 1.7985 10.791 12.5895 0 0 0
1211 3 23.3805 17.985 8.9925 0 0 0
3514 3 3.597 8.9925 30.5745 0 0 0
3548 3 1.7985 12.5895 21.582 0 0 0
3975 3 0.0 28.776 25.179 0 0 0
1758 3 21.582 30.5745 34.1715 0 0 0
3914 3 0.0 19.7835 23.3805 0 0 0
1325 3 25.179 28.776 3.597 0 0 0
3824 3 0.0 5.3955 5.3955 0 0 0
1671 3 19.7835 21.582 26.9775 0 0 0
1494 3 21.582 8.9925 12.5895 0 0 0
316 3 30.5745 8.9925 28.776 0 0 0
1382 3 25.179 34.1715 19.7835 0 0 0
1064 3 23.3805 5.3955 17.985 0 0 0
59 3 34.1715 7.194 34.1715 0 0 0
2688 3 8.9925 8.9925 3.597 0 0 0
3618 3 3.597 19.7835 16.1865 0 0 0
3018 3 7.194 1.7985 16.1865 0 0 0
3431 3 1.7985 0.0 26.9775 0 0 0
2536 3 12.5895 30.5745 10.791 0 0 0
992 3 26.9775 34.1715 25.179 0 0 0
1582 3 21.582 16.1865 19.7835 0 0 0
1674 3 21.582 23.3805 30.5745 0 0 0
944 3 26.9775 30.5745 17.985 0 0 0
2500 3 12.5895 26.9775 14.388 0 0 0
3663 3 1.7985 21.582 19.7835 0 0 0
1679 3 19.7835 21.582 34.1715 0 0 0
3550 3 3.597 12.5895 26.9775 0 0 0
2149 3 17.985 28.776 25.179 0 0 0
2632 3 8.9925 1.7985 25.179 0 0 0
990 3 28.776 34.1715 26.9775 0 0 0
1113 3 25.179 7.194 28.776 0 0 0
2169 3 17.985 32.373 7.194 0 0 0
734 3 28.776 12.5895 12.5895 0 0 0
3216 3 5.3955 19.7835 10.791 0 0 0
1431 3 19.7835 0.0 26.9775 0 0 0
3996 3 0.0 34.1715 26.9775 0 0 0
3913 3 0.0 17.985 21.582 0 0 0
3516 3 1.7985 8.9925 28.776 0 0 0
2258 3 14.388 5.3955 16.1865 0 0 0
2057 3 17.985 21.582 14.388 0 0 0
3415 3 1.7985 0.0 12.5895 0 0 0
769 3 28.776 14.388 7.194 0 0 0
555 3 30.5745 28.776 30.5745 0 0 0
3055 3 5.3955 3.597 12.5895 0 0 0
2162 3 17.985 34.1715 1.7985 0 0 0
3695 3 1.7985 25.179 12.5895 0 0 0
2730 3 10.791 12.5895 8.9925 0 0 0
1958 3 17.985 12.5895 34.1715 0 0 0
1702 3 21.582 26.9775 19.7835 0 0 0
2036 3 16.1865 19.7835 28.776 0 0 0
2821 3 10.791 17.985 17.985 0 0 0
2139 3 16.1865 28.776 16.1865 0 0 0
2032 3 16.1865 19.7835 25.179 0 0 0
324 3 30.5745 12.5895 0.0 0 0 0
1109 3 25.179 7.194 25.179 0 0 0
2976 3 8.9925 34.1715 10.791 0 0 0
3835 3 0.0 3.597 25.179 0 0 0
1337 3 25.179 28.776 14.388 0 0 0
731 3 26.9775 10.791 8.9925 0 0 0
699 3 26.9775 7.194 16.1865 0 0 0
2378 3 14.388 16.1865 16.1865 0 0 0
3811 3 0.0 0.0 17.985 0 0 0
1212 3 23.3805 19.7835 7.194 0 0 0
1767 3 19.7835 32.373 5.3955 0 0 0
442 3 32.373 23.3805 1.7985 0 0 0
1061 3 25.179 3.597 17.985 0 0 0
3763 3 1.7985 32.373 1.7985 0 0 0
3649 3 3.597 21.582 7.194 0 0 0
3167 3 5.3955 14.388 5.3955 0 0 0
1910 3 17.985 8.9925 26.9775 0 0 0
410 3 32.373 19.7835 8.9925 0 0 0
1984 3 16.1865 16.1865 17.985 0 0 0
668 3 26.9775 5.3955 21.582 0 0 0
3808 3 0.0 1.7985 12.5895 0 0 0
1556 3 19.7835 12.5895 28.776 0 0 0
3509 3 3.597 7.194 25.179 0 0 0
3443 3 1.7985 3.597 1.7985 0 0 0
3682 3 3.597 26.9775 1.7985 0 0 0
3417 3 3.597 0.0 14.388 0 0 0
2826 3 10.791 19.7835 23.3805 0 0 0
2927 3 8.9925 28.776 5.3955 0 0 0
185 3 34.1715 32.373 8.9925 0 0 0
2123 3 16.1865 28.776 1.7985 0 0 0
1490 3 21.582 8.9925 8.9925 0 0 0
2495 3 12.5895 25.179 12.5895 0 0 0
50 3 34.1715 8.9925 14.388 0 0 0
1018 3 25.179 1.7985 16.1865 0 0 0
1705 3 21.582 25.179 21.582 0 0 0
1088 3 23.3805 8.9925 3.597 0 0 0
2952 3 8.9925 30.5745 25.179 0 0 0
1452 3 19.7835 5.3955 7.194 0 0 0
1921 3 17.985 10.791 0.0 0 0 0
2309 3 14.388 7.194 25.179 0 0 0
3690 3 3.597 26.9775 8.9925 0 0 0
1922 3 17.985 12.5895 1.7985 0 0 0
2838 3 10.791 19.7835 34.1715 0 0 0
2578 3 14.388 34.1715 16.1865 0 0 0
876 3 26.9775 23.3805 28.776 0 0 0
175 3 34.1715 28.776 26.9775 0 0 0
3651 3 1.7985 21.582 8.9925 0 0 0
2017 3 17.985 17.985 14.388 0 0 0
882 3 28.776 26.9775 1.7985 0 0 0
2376 3 12.5895 16.1865 10.791 0 0 0
3007 3 5.3955 0.0 5.3955 0 0 0
1835 3 16.1865 0.0 30.5745 0 0 0
1247 3 23.3805 21.582 5.3955 0 0 0
451 3 30.5745 21.582 8.9925 0 0 0
1030 3 25.179 1.7985 26.9775 0 0 0
269 3 32.373 3.597 25.179 0 0 0
1676 3 19.7835 23.3805 28.776 0 0 0
202 3 32.373 1.7985 1.7985 0 0 0
62 3 34.1715 12.5895 0.0 0 0 0
2387 3 12.5895 14.388 23.3805 0 0 0
2675 3 8.9925 3.597 30.5745 0 0 0
158 3 34.1715 26.9775 28.776 0 0 0
2351 3 12.5895 10.791 26.9775 0 0 0
3876 3 0.0 12.5895 26.9775 0 0 0
406 3 32.373 19.7835 5.3955 0 0 0
792 3 26.9775 16.1865 25.179 0 0 0
3263 3 5.3955 21.582 19.7835 0 0 0
700 3 26.9775 8.9925 14.388 0 0 0
1119 3 23.3805 7.194 34.1715 0 0 0
2320 3 12.5895 8.9925 32.373 0 0 0
2726 3 10.791 12.5895 5.3955 0 0 0
2645 3 10.791 3.597 3.597 0 0 0
1749 3 21.582 28.776 25.179 0 0 0
400 3 30.5745 16.1865 32.373 0 0 0
2756 3 8.9925 12.5895 28.776 0 0 0
1201 3 25.179 17.985 0.0 0 0 0
591 3 30.5745 32.373 26.9775 0 0 0
3689 3 3.597 25.179 7.194 0 0 0
3600 3 1.7985 16.1865 32.373 0 0 0
1832 3 16.1865 1.7985 25.179 0 0 0
1402 3 21.582 1.7985 1.7985 0 0 0
419 3 30.5745 17.985 16.1865 0 0 0
2956 3 8.9925 30.5745 28.776 0 0 0
2712 3 8.9925 8.9925 25.179 0 0 0
3144 3 5.3955 12.5895 17.985 0 0 0
3965 3 0.0 28.776 7.194 0 0 0
3082 3 7.194 8.9925 1.7985 0 0 0
3510 3 3.597 8.9925 26.9775 0 0 0
246 3 32.373 5.3955 5.3955 0 0 0
2944 3 8.9925 30.5745 17.985 0 0 0
2896 3 8.9925 26.9775 10.791 0 0 0
2116 3 16.1865 26.9775 28.776 0 0 0
1488 3 19.7835 8.9925 3.597 0 0 0
2269 3 14.388 3.597 25.179 0 0 0
1748 3 19.7835 30.5745 21.582 0 0 0
1549 3 21.582 10.791 25.179 0 0 0
2696 3 8.9925 8.9925 10.791 0 0 0
2035 3 16.1865 17.985 30.5745 0 0 0
3024 3 5.3955 1.7985 17.985 0 0 0
2207 3 12.5895 0.0 5.3955 0 0 0
1253 3 25.179 21.582 10.791 0 0 0
1828 3 16.1865 1.7985 21.582 0 0 0
3169 3 7.194 14.388 7.194 0 0 0
1830 3 17.985 1.7985 26.9775 0 0 0
3483 3 1.7985 7.194 1.7985 0 0 0
2864 3 8.9925 23.3805 17.985 0 0 0
3714 3 3.597 26.9775 30.5745 0 0 0
3406 3 3.597 1.7985 5.3955 0 0 0
3286 3 7.194 26.9775 5.3955 0 0 0
2710 3 10.791 8.9925 26.9775 0 0 0
2973 3 10.791 32.373 10.791 0 0 0
864 3 26.9775 23.3805 17.985 0 0 0
2228 3 12.5895 1.7985 21.582 0 0 0
2365 3 14.388 14.388 3.597 0 0 0
597 3 32.373 32.373 32.373 0 0 0
1966 3 17.985 16.1865 5.3955 0 0 0
3281 3 7.194 25.179 0.0 0 0 0
3450 3 3.597 5.3955 8.9925 0 0 0
96 3 34.1715 16.1865 25.179 0 0 0
987 3 26.9775 32.373 23.3805 0 0 0
2448 3 12.5895 23.3805 3.597 0 0 0
996 3 26.9775 34.1715 28.776 0 0 0
1668 3 19.7835 23.3805 21.582 0 0 0
3631 3 1.7985 17.985 26.9775 0 0 0
3697 3 3.597 25.179 14.388 0 0 0
2238 3 14.388 1.7985 34.1715 0 0 0
1099 3 23.3805 7.194 16.1865 0 0 0
3101 3 7.194 7.194 17.985 0 0 0
3085 3 7.194 7.194 3.597 0 0 0
206 3 32.373 1.7985 5.3955 0 0 0
3113 3 7.194 7.194 28.776 0 0 0
2648 3 8.9925 5.3955 3.597 0 0 0
2757 3 10.791 10.791 32.373 0 0 0
806 3 28.776 19.7835 5.3955 0 0 0
3833 3 0.0 3.597 21.582 0 0 0
1028 3 23.3805 1.7985 21.582 0 0 0
1892 3 16.1865 8.9925 7.194 0 0 0
2111 3 16.1865 25.179 26.9775 0 0 0
2703 3 8.9925 7.194 19.7835 0 0 0
31 3 34.1715 3.597 19.7835 0 0 0
933 3 28.776 28.776 10.791 0 0 0
1997 3 17.985 14.388 32.373 0 0 0
3877 3 0.0 10.791 28.776 0 0 0
174 3 34.1715 30.5745 21.582 0 0 0
171 3 34.1715 28.776 19.7835 0 0 0
3868 3 0.0 12.5895 12.5895 0 0 0
2030 3 17.985 19.7835 26.9775 0 0 0
1935 3 16.1865 10.791 12.5895 0 0 0
2437 3 14.388 17.985 32.373 0 0 0
2995 3 8.9925 32.373 30.5745 0 0 0
2926 3 10.791 30.5745 5.3955 0 0 0
3461 3 3.597 3.597 17.985 0 0 0
2747 3 8.9925 10.791 23.3805 0 0 0
2724 3 8.9925 12.5895 0.0 0 0 0
3732 3 1.7985 30.5745 7.194 0 0 0
2548 3 12.5895 30.5745 21.582 0 0 0
778 3 28.776 16.1865 16.1865 0 0 0
434 3 32.373 19.7835 30.5745 0 0 0
1628 3 19.7835 19.7835 21.582 0 0 0
681 3 28.776 7.194 0.0 0 0 0
2087 3 16.1865 25.179 5.3955 0 0 0
325 3 32.373 10.791 3.597 0 0 0
1483 3 19.7835 7.194 1.7985 0 0 0
3906 3 0.0 19.7835 8.9925 0 0 0
1645 3 21.582 21.582 3.597 0 0 0
475 3 30.5745 21.582 30.5745 0 0 0
1144 3 23.3805 12.5895 17.985 0 0 0
549 3 32.373 28.776 25.179 0 0 0
2946 3 10.791 30.5745 23.3805 0 0 0
616 3 26.9775 1.7985 10.791 0 0 0
3887 3 0.0 14.388 10.791 0 0 0
826 3 28.776 19.7835 23.3805 0 0 0
3849 3 0.0 7.194 14.388 0 0 0
3149 3 7.194 10.791 25.179 0 0 0
3233 3 7.194 17.985 28.776 0 0 0
1085 3 25.179 7.194 3.597 0 0 0
3937 3 0.0 21.582 28.776 0 0 0
1551 3 19.7835 10.791 26.9775 0 0 0
495 3 30.5745 25.179 12.5895 0 0 0
123 3 34.1715 21.582 5.3955 0 0 0
738 3 28.776 12.5895 16.1865 0 0 0
3060 3 5.3955 5.3955 14.388 0 0 0
586 3 32.373 34.1715 23.3805 0 0 0
3293 3 7.194 25.179 10.791 0 0 0
1358 3 25.179 30.5745 34.1715 0 0 0
499 3 30.5745 25.179 16.1865 0 0 0
3633 3 3.597 17.985 28.776 0 0 0
3895 3 0.0 14.388 25.179 0 0 0
1363 3 23.3805 32.373 1.7985 0 0 0
3412 3 1.7985 1.7985 7.194 0 0 0
3296 3 5.3955 26.9775 10.791 0 0 0
1829 3 17.985 0.0 25.179 0 0 0
2815 3 8.9925 17.985 12.5895 0 0 0
937 3 28.776 28.776 14.388 0 0 0
1288 3 23.3805 26.9775 3.597 0 0 0
2571 3 12.5895 32.373 8.9925 0 0 0
26 3 34.1715 5.3955 7.194 0 0 0
2241 3 14.388 3.597 0.0 0 0 0
3429 3 3.597 0.0 25.179 0 0 0
3851 3 0.0 7.194 17.985 0 0 0
2600 3 12.5895 34.1715 32.373 0 0 0
3196 3 5.3955 16.1865 28.776 0 0 0
2953 3 10.791 28.776 28.776 0 0 0
1504 3 19.7835 8.9925 17.985 0 0 0
3160 3 5.3955 12.5895 32.373 0 0 0
1296 3 23.3805 26.9775 10.791 0 0 0
3264 3 5.3955 23.3805 17.985 0 0 0
69 3 34.1715 10.791 16.1865 0 0 0
1527 3 19.7835 10.791 5.3955 0 0 0
3125 3 7.194 10.791 3.597 0 0 0
2774 3 10.791 16.1865 12.5895 0 0 0
513 3 32.373 25.179 28.776 0 0 0
832 3 26.9775 19.7835 25.179 0 0 0
3074 3 7.194 5.3955 30.5745 0 0 0
48 3 34.1715 8.9925 10.791 0 0 0
1466 3 21.582 5.3955 23.3805 0 0 0
1262 3 25.179 23.3805 19.7835 0 0 0
2109 3 17.985 25.179 25.179 0 0 0
3997 3 0.0 32.373 28.776 0 0 0
3240 3 5.3955 19.7835 32.373 0 0 0
1420 3 19.7835 1.7985 14.388 0 0 0
1007 3 23.3805 0.0 5.3955 0 0 0
1025 3 25.179 0.0 21.582 0 0 0
1684 3 19.7835 26.9775 0.0 0 0 0
1237 3 25.179 17.985 32.373 0 0 0
3353 3 7.194 28.776 28.776 0 0 0
1744 3 19.7835 30.5745 17.985 0 0 0
3000 3 8.9925 34.1715 32.373 0 0 0
1496 3 19.7835 8.9925 10.791 0 0 0
2205 3 14.388 0.0 3.597 0 0 0
1134 3 25.179 12.5895 12.5895 0 0 0
1631 3 19.7835 17.985 26.9775 0 0 0
3495 3 1.7985 7.194 12.5895 0 0 0
3734 3 3.597 30.5745 12.5895 0 0 0
1627 3 19.7835 17.985 23.3805 0 0 0
3960 3 0.0 26.9775 34.1715 0 0 0
2981 3 10.791 32.373 17.985 0 0 0
351 3 30.5745 10.791 26.9775 0 0 0
814 3 28.776 19.7835 12.5895 0 0 0
3826 3 0.0 5.3955 8.9925 0 0 0
2285 3 14.388 7.194 3.597 0 0 0
389 3 32.373 14.388 25.179 0 0 0
1535 3 19.7835 10.791 12.5895 0 0 0
3305 3 7.194 25.179 21.582 0 0 0
3371 3 5.3955 32.373 8.9925 0 0 0
2551 3 12.5895 28.776 26.9775 0 0 0
2916 3 8.9925 26.9775 28.776 0 0 0
1955 3 16.1865 10.791 30.5745 0 0 0
1663 3 19.7835 21.582 19.7835 0 0 0
3067 3 5.3955 3.597 23.3805 0 0 0
3150 3 7.194 12.5895 26.9775 0 0 0
2938 3 10.791 30.5745 16.1865 0 0 0
3795 3 1.7985 32.373 30.5745 0 0 0
2152 3 16.1865 30.5745 25.179 0 0 0
3819 3 0.0 0.0 32.373 0 0 0
136 3 34.1715 23.3805 25.179 0 0 0
3037 3 7.194 0.0 32.373 0 0 0
2273 3 14.388 3.597 28.776 0 0 0
767 3 26.9775 14.388 5.3955 0 0 0
402 3 32.373 19.7835 1.7985 0 0 0
2778 3 10.791 16.1865 16.1865 0 0 0
708 3 26.9775 8.9925 21.582 0 0 0
3910 3 0.0 19.7835 16.1865 0 0 0
1881 3 17.985 7.194 0.0 0 0 0
3201 3 7.194 17.985 0.0 0 0 0
2046 3 17.985 23.3805 5.3955 0 0 0
319 3 30.5745 7.194 34.1715 0 0 0
1812 3 16.1865 1.7985 7.194 0 0 0
3646 3 3.597 23.3805 5.3955 0 0 0
3626 3 3.597 19.7835 23.3805 0 0 0
2038 3 17.985 19.7835 34.1715 0 0 0
1688 3 19.7835 26.9775 3.597 0 0 0
1571 3 19.7835 14.388 8.9925 0 0 0
488 3 30.5745 26.9775 3.597 0 0 0
1844 3 16.1865 5.3955 0.0 0 0 0
2068 3 16.1865 23.3805 21.582 0 0 0
3068 3 5.3955 5.3955 21.582 0 0 0
2432 3 12.5895 19.7835 25.179 0 0 0
3988 3 0.0 34.1715 12.5895 0 0 0
3184 3 5.3955 16.1865 17.985 0 0 0
3174 3 7.194 16.1865 12.5895 0 0 0
2484 3 12.5895 26.9775 0.0 0 0 0
3578 3 3.597 16.1865 16.1865 0 0 0
1131 3 23.3805 10.791 8.9925 0 0 0
3712 3 1.7985 26.9775 25.179 0 0 0
977 3 28.776 32.373 14.388 0 0 0
1786 3 21.582 34.1715 23.3805 0 0 0
1699 3 19.7835 25.179 16.1865 0 0 0
468 3 30.5745 23.3805 21.582 0 0 0
3105 3 7.194 7.194 21.582 0 0 0
3748 3 1.7985 30.5745 21.582 0 0 0
2468 3 12.5895 23.3805 21.582 0 0 0
606 3 28.776 1.7985 5.3955 0 0 0
215 3 30.5745 0.0 12.5895 0 0 0
3380 3 5.3955 34.1715 14.388 0 0 0
2911 3 8.9925 25.179 26.9775 0 0 0
3021 3 7.194 0.0 17.985 0 0 0
1229 3 25.179 17.985 25.179 0 0 0
1442 3 21.582 5.3955 1.7985 0 0 0
2223 3 12.5895 0.0 19.7835 0 0 0
2210 3 14.388 1.7985 8.9925 0 0 0
713 3 28.776 7.194 28.776 0 0 0
3350 3 7.194 30.5745 26.9775 0 0 0
2746 3 10.791 12.5895 23.3805 0 0 0
3565 3 3.597 14.388 3.597 0 0 0
3687 3 1.7985 25.179 5.3955 0 0 0
3788 3 1.7985 34.1715 21.582 0 0 0
3881 3 0.0 14.388 0.0 0 0 0
1609 3 21.582 17.985 7.194 0 0 0
2003 3 16.1865 17.985 1.7985 0 0 0
2991 3 8.9925 32.373 26.9775 0 0 0
3436 3 1.7985 1.7985 28.776 0 0 0
3165 3 7.194 14.388 3.597 0 0 0
874 3 28.776 23.3805 30.5745 0 0 0
2370 3 14.388 16.1865 8.9925 0 0 0
1905 3 17.985 7.194 21.582 0 0 0
629 3 28.776 0.0 25.179 0 0 0
3398 3 7.194 34.1715 34.1715 0 0 0
1343 3 23.3805 28.776 19.7835 0 0 0
2763 3 8.9925 14.388 1.7985 0 0 0
1795 3 19.7835 32.373 30.5745 0 0 0
3575 3 1.7985 14.388 12.5895 0 0 0
3531 3 1.7985 10.791 8.9925 0 0 0
2672 3 8.9925 5.3955 25.179 0 0 0
1235 3 23.3805 17.985 30.5745 0 0 0
3774 3 3.597 34.1715 12.5895 0 0 0
1196 3 23.3805 16.1865 28.776 0 0 0
1413 3 21.582 0.0 10.791 0 0 0
926 3 28.776 30.5745 5.3955 0 0 0
3610 3 3.597 19.7835 8.9925 0 0 0
359 3 30.5745 10.791 34.1715 0 0 0
1806 3 17.985 1.7985 5.3955 0 0 0
2541 3 14.388 28.776 17.985 0 0 0
1345 3 25.179 28.776 21.582 0 0 0
694 3 28.776 8.9925 12.5895 0 0 0
2909 3 10.791 25.179 25.179 0 0 0
1766 3 21.582 34.1715 5.3955 0 0 0
1213 3 25.179 17.985 10.791 0 0 0
2052 3 16.1865 23.3805 7.194 0 0 0
303 3 30.5745 7.194 19.7835 0 0 0
89 3 34.1715 14.388 16.1865 0 0 0
2766 3 10.791 16.1865 5.3955 0 0 0
210 3 32.373 1.7985 8.9925 0 0 0
1242 3 25.179 23.3805 1.7985 0 0 0
2802 3 10.791 19.7835 1.7985 0 0 0
737 3 28.776 10.791 14.388 0 0 0
682 3 28.776 8.9925 1.7985 0 0 0
3790 3 3.597 34.1715 26.9775 0 0 0
703 3 26.9775 7.194 19.7835 0 0 0
3844 3 0.0 8.9925 5.3955 0 0 0
548 3 30.5745 30.5745 21.582 0 0 0
3250 3 7.194 23.3805 8.9925 0 0 0
1712 3 19.7835 26.9775 25.179 0 0 0
3592 3 1.7985 16.1865 25.179 0 0 0
93 3 34.1715 14.388 23.3805 0 0 0
534 3 32.373 30.5745 12.5895 0 0 0
3476 3 1.7985 5.3955 28.776 0 0 0
1607 3 19.7835 17.985 5.3955 0 0 0
2423 3 12.5895 17.985 19.7835 0 0 0
3478 3 3.597 5.3955 34.1715 0 0 0
1037 3 25.179 0.0 32.373 0 0 0
1300 3 23.3805 26.9775 14.388 0 0 0
3368 3 5.3955 34.1715 3.597 0 0 0
1192 3 23.3805 16.1865 25.179 0 0 0
126 3 34.1715 23.3805 7.194 0 0 0
3656 3 1.7985 23.3805 10.791 0 0 0
3355 3 5.3955 28.776 30.5745 0 0 0
3727 3 1.7985 28.776 5.3955 0 0 0
2565 3 14.388 32.373 3.597 0 0 0
3757 3 3.597 28.776 32.373 0 0 0
925 3 28.776 28.776 3.597 0 0 0
598 3 32.373 34.1715 34.1715 0 0 0
2951 3 8.9925 28.776 26.9775 0 0 0
695 3 26.9775 7.194 12.5895 0 0 0
1888 3 16.1865 8.9925 3.597 0 0 0
3794 3 3.597 34.1715 30.5745 0 0 0
1994 3 17.985 16.1865 30.5745 0 0 0
1366 3 25.179 34.1715 5.3955 0 0 0
2817 3 10.791 17.985 14.388 0 0 0
2816 3 8.9925 19.7835 10.791 0 0 0
949 3 28.776 28.776 25.179 0 0 0
1467 3 19.7835 3.597 23.3805 0 0 0
3751 3 1.7985 28.776 26.9775 0 0 0
3507 3 1.7985 7.194 23.3805 0 0 0
2445 3 14.388 21.582 3.597 0 0 0
3211 3 5.3955 17.985 8.9925 0 0 0
816 3 26.9775 19.7835 10.791 0 0 0
2591 3 12.5895 32.373 26.9775 0 0 0
2711 3 8.9925 7.194 26.9775 0 0 0
529 3 32.373 28.776 7.194 0 0 0
3738 3 3.597 30.5745 16.1865 0 0 0
2789 3 10.791 14.388 25.179 0 0 0
2769 3 10.791 14.388 7.194 0 0 0
1024 3 23.3805 1.7985 17.985 0 0 0
2414 3 14.388 19.7835 12.5895 0 0 0
2765 3 10.791 14.388 3.597 0 0 0
1733 3 21.582 28.776 10.791 0 0 0
2164 3 16.1865 34.1715 0.0 0 0 0
1887 3 16.1865 7.194 5.3955 0 0 0
3980 3 0.0 30.5745 34.1715 0 0 0
1297 3 25.179 25.179 14.388 0 0 0
2809 3 10.791 17.985 7.194 0 0 0
2647 3 8.9925 3.597 5.3955 0 0 0
2130 3 17.985 30.5745 8.9925 0 0 0
2397 3 14.388 14.388 32.373 0 0 0
2356 3 12.5895 12.5895 28.776 0 0 0
3770 3 3.597 34.1715 8.9925 0 0 0
2466 3 14.388 23.3805 23.3805 0 0 0
2485 3 14.388 25.179 3.597 0 0 0
300 3 30.5745 8.9925 14.388 0 0 0
17 3 34.1715 0.0 30.5745 0 0 0
448 3 30.5745 23.3805 3.597 0 0 0
1793 3 21.582 32.373 28.776 0 0 0
2827 3 8.9925 17.985 23.3805 0 0 0
2249 3 14.388 3.597 7.194 0 0 0
2601 3 10.791 0.0 0.0 0 0 0
76 3 34.1715 12.5895 25.179 0 0 0
2300 3 12.5895 8.9925 14.388 0 0 0
1137 3 25.179 10.791 14.388 0 0 0
3124 3 5.3955 12.5895 0.0 0 0 0
3741 3 3.597 28.776 17.985 0 0 0
1778 3 21.582 34.1715 16.1865 0 0 0
3642 3 3.597 23.3805 1.7985 0 0 0
1644 3 19.7835 23.3805 0.0 0 0 0
3952 3 0.0 26.9775 19.7835 0 0 0
1683 3 19.7835 25.179 1.7985 0 0 0
1544 3 19.7835 12.5895 17.985 0 0 0
1563 3 19.7835 14.388 1.7985 0 0 0
1783 3 19.7835 32.373 19.7835 0 0 0
1603 3 19.7835 17.985 1.7985 0 0 0
2975 3 8.9925 32.373 12.5895 0 0 0
2008 3 16.1865 19.7835 3.597 0 0 0
1309 3 25.179 25.179 25.179 0 0 0
3704 3 1.7985 26.9775 17.985 0 0 0
3755 3 1.7985 28.776 30.5745 0 0 0
40 3 34.1715 5.3955 32.373 0 0 0
2199 3 16.1865 32.373 34.1715 0 0 0
2301 3 14.388 7.194 17.985 0 0 0
1583 3 19.7835 14.388 19.7835 0 0 0
1971 3 16.1865 14.388 8.9925 0 0 0
3869 3 0.0 10.791 14.388 0 0 0
1612 3 19.7835 19.7835 7.194 0 0 0
3215 3 5.3955 17.985 12.5895 0 0 0
75 3 34.1715 10.791 26.9775 0 0 0
3709 3 3.597 25.179 25.179 0 0 0
697 3 28.776 7.194 14.388 0 0 0
670 3 28.776 5.3955 26.9775 0 0 0
2179 3 16.1865 32.373 16.1865 0 0 0
1421 3 21.582 0.0 17.985 0 0 0
2607 3 8.9925 0.0 5.3955 0 0 0
1406 3 21.582 1.7985 5.3955 0 0 0
1330 3 25.179 30.5745 8.9925 0 0 0
1739 3 19.7835 28.776 16.1865 0 0 0
2542 3 14.388 30.5745 19.7835 0 0 0
2613 3 10.791 0.0 10.791 0 0 0
2156 3 16.1865 30.5745 28.776 0 0 0
587 3 30.5745 32.373 23.3805 0 0 0
850 3 28.776 23.3805 8.9925 0 0 0
3472 3 1.7985 5.3955 25.179 0 0 0
1006 3 25.179 1.7985 5.3955 0 0 0
2478 3 14.388 23.3805 34.1715 0 0 0
999 3 26.9775 32.373 34.1715 0 0 0
789 3 28.776 14.388 25.179 0 0 0
522 3 32.373 30.5745 1.7985 0 0 0
3746 3 3.597 30.5745 23.3805 0 0 0
218 3 32.373 1.7985 16.1865 0 0 0
267 3 30.5745 3.597 23.3805 0 0 0
718 3 28.776 8.9925 34.1715 0 0 0
1792 3 19.7835 34.1715 25.179 0 0 0
363 3 30.5745 14.388 1.7985 0 0 0
3491 3 1.7985 7.194 8.9925 0 0 0
3439 3 1.7985 0.0 34.1715 0 0 0
1538 3 21.582 12.5895 16.1865 0 0 0
3175 3 5.3955 14.388 12.5895 0 0 0
3459 3 1.7985 3.597 16.1865 0 0 0
1453 3 21.582 3.597 10.791 0 0 0
3556 3 1.7985 12.5895 28.776 0 0 0
456 3 30.5745 23.3805 10.791 0 0 0
506 3 32.373 26.9775 23.3805 0 0 0
1430 3 21.582 1.7985 26.9775 0 0 0
190 3 34.1715 34.1715 14.388 0 0 0
3116 3 5.3955 8.9925 28.776 0 0 0
1772 3 19.7835 34.1715 7.194 0 0 0
2345 3 14.388 10.791 21.582 0 0 0
1156 3 23.3805 12.5895 28.776 0 0 0
338 3 32.373 12.5895 16.1865 0 0 0
1787 3 19.7835 32.373 23.3805 0 0 0
1219 3 23.3805 17.985 16.1865 0 0 0
489 3 32.373 25.179 7.194 0 0 0
2266 3 14.388 5.3955 23.3805 0 0 0
624 3 26.9775 1.7985 17.985 0 0 0
1435 3 19.7835 0.0 30.5745 0 0 0
2834 3 10.791 19.7835 30.5745 0 0 0
588 3 30.5745 34.1715 21.582 0 0 0
980 3 26.9775 34.1715 14.388 0 0 0
3031 3 5.3955 0.0 26.9775 0 0 0
2494 3 14.388 26.9775 12.5895 0 0 0
2887 3 8.9925 25.179 5.3955 0 0 0
1256 3 23.3805 23.3805 10.791 0 0 0
3053 3 7.194 3.597 10.791 0 0 0
715 3 26.9775 7.194 30.5745 0 0 0
2863 3 8.9925 21.582 19.7835 0 0 0
3596 3 1.7985 16.1865 28.776 0 0 0
3905 3 0.0 17.985 7.194 0 0 0
1987 3 16.1865 14.388 23.3805 0 0 0
131 3 34.1715 21.582 19.7835 0 0 0
3506 3 3.597 8.9925 23.3805 0 0 0
474 3 32.373 23.3805 30.5745 0 0 0
4 3 34.1715 1.7985 3.597 0 0 0
2224 3 12.5895 1.7985 17.985 0 0 0
561 3 32.373 32.373 0.0 0 0 0
1880 3 16.1865 5.3955 32.373 0 0 0
3750 3 3.597 30.5745 26.9775 0 0 0
1107 3 23.3805 7.194 23.3805 0 0 0
3772 3 1.7985 34.1715 7.194 0 0 0
1996 3 16.1865 16.1865 28.776 0 0 0
2914 3 10.791 26.9775 30.5745 0 0 0
1400 3 23.3805 34.1715 32.373 0 0 0
480 3 30.5745 23.3805 32.373 0 0 0
2456 3 12.5895 23.3805 10.791 0 0 0
331 3 30.5745 10.791 8.9925 0 0 0
2051 3 16.1865 21.582 8.9925 0 0 0
2609 3 10.791 0.0 7.194 0 0 0
2549 3 14.388 28.776 25.179 0 0 0
899 3 26.9775 25.179 16.1865 0 0 0
416 3 30.5745 19.7835 10.791 0 0 0
2182 3 17.985 34.1715 19.7835 0 0 0
3423 3 1.7985 0.0 19.7835 0 0 0
2513 3 14.388 25.179 28.776 0 0 0
1531 3 19.7835 10.791 8.9925 0 0 0
71 3 34.1715 10.791 19.7835 0 0 0
2319 3 12.5895 7.194 34.1715 0 0 0
2844 3 8.9925 23.3805 0.0 0 0 0
1768 3 19.7835 34.1715 3.597 0 0 0
627 3 26.9775 0.0 23.3805 0 0 0
1760 3 19.7835 30.5745 32.373 0 0 0
2435 3 12.5895 17.985 30.5745 0 0 0
1520 3 19.7835 8.9925 32.373 0 0 0
287 3 30.5745 7.194 5.3955 0 0 0
556 3 30.5745 30.5745 28.776 0 0 0
557 3 32.373 28.776 32.373 0 0 0
2570 3 14.388 34.1715 8.9925 0 0 0
815 3 26.9775 17.985 12.5895 0 0 0
791 3 26.9775 14.388 26.9775 0 0 0
1147 3 23.3805 10.791 23.3805 0 0 0
889 3 28.776 25.179 7.194 0 0 0
3311 3 5.3955 25.179 26.9775 0 0 0
2869 3 10.791 21.582 25.179 0 0 0
2723 3 8.9925 10.791 1.7985 0 0 0
1633 3 21.582 17.985 28.776 0 0 0
1534 3 21.582 12.5895 12.5895 0 0 0
1416 3 19.7835 1.7985 10.791 0 0 0
3425 3 3.597 0.0 21.582 0 0 0
641 3 28.776 3.597 0.0 0 0 0
2974 3 10.791 34.1715 12.5895 0 0 0
2168 3 16.1865 34.1715 3.597 0 0 0
3081 3 7.194 7.194 0.0 0 0 0
2438 3 14.388 19.7835 34.1715 0 0 0
403 3 30.5745 17.985 1.7985 0 0 0
1380 3 23.3805 34.1715 14.388 0 0 0
1560 3 19.7835 12.5895 32.373 0 0 0
2233 3 14.388 0.0 28.776 0 0 0
919 3 26.9775 25.179 34.1715 0 0 0
3521 3 3.597 10.791 0.0 0 0 0
2788 3 8.9925 16.1865 21.582 0 0 0
1101 3 25.179 7.194 17.985 0 0 0
344 3 30.5745 12.5895 17.985 0 0 0
2358 3 14.388 12.5895 34.1715 0 0 0
2681 3 10.791 7.194 0.0 0 0 0
856 3 26.9775 23.3805 10.791 0 0 0
372 3 30.5745 16.1865 7.194 0 0 0
3676 3 1.7985 23.3805 28.776 0 0 0
1332 3 23.3805 30.5745 7.194 0 0 0
3560 3 1.7985 12.5895 32.373 0 0 0
250 3 32.373 5.3955 8.9925 0 0 0
2367 3 12.5895 14.388 5.3955 0 0 0
562 3 32.373 34.1715 1.7985 0 0 0
1434 3 21.582 1.7985 30.5745 0 0 0
2835 3 8.9925 17.985 30.5745 0 0 0
3314 3 7.194 26.9775 30.5745 0 0 0
2124 3 16.1865 30.5745 0.0 0 0 0
146 3 34.1715 26.9775 7.194 0 0 0
2639 3 8.9925 0.0 34.1715 0 0 0
798 3 28.776 16.1865 34.1715 0 0 0
3432 3 1.7985 1.7985 25.179 0 0 0
1352 3 23.3805 30.5745 25.179 0 0 0
2848 3 8.9925 23.3805 3.597 0 0 0
2533 3 14.388 28.776 10.791 0 0 0
2950 3 10.791 30.5745 26.9775 0 0 0
2853 3 10.791 21.582 10.791 0 0 0
2787 3 8.9925 14.388 23.3805 0 0 0
2986 3 10.791 34.1715 23.3805 0 0 0
1405 3 21.582 0.0 3.597 0 0 0
3328 3 5.3955 30.5745 3.597 0 0 0
186 3 34.1715 34.1715 7.194 0 0 0
333 3 32.373 10.791 10.791 0 0 0
3188 3 5.3955 16.1865 21.582 0 0 0
1227 3 23.3805 17.985 23.3805 0 0 0
3093 3 7.194 7.194 10.791 0 0 0
2091 3 16.1865 25.179 8.9925 0 0 0
710 3 28.776 8.9925 26.9775 0 0 0
3224 3 5.3955 19.7835 17.985 0 0 0
3039 3 5.3955 0.0 34.1715 0 0 0
2860 3 8.9925 23.3805 14.388 0 0 0
1090 3 25.179 8.9925 8.9925 0 0 0
473 3 32.373 21.582 28.776 0 0 0
279 3 30.5745 3.597 34.1715 0 0 0
1462 3 21.582 5.3955 19.7835 0 0 0
2473 3 14.388 21.582 28.776 0 0 0
3644 3 1.7985 23.3805 0.0 0 0 0
2855 3 8.9925 21.582 12.5895 0 0 0
204 3 30.5745 1.7985 0.0 0 0 0
3820 3 0.0 1.7985 34.1715 0 0 0
441 3 32.373 21.582 0.0 0 0 0
2597 3 14.388 32.373 32.373 0 0 0
2563 3 12.5895 32.373 1.7985 0 0 0
3922 3 0.0 23.3805 1.7985 0 0 0
1825 3 17.985 0.0 21.582 0 0 0
65 3 34.1715 10.791 8.9925 0 0 0
3255 3 5.3955 21.582 12.5895 0 0 0
1998 3 17.985 16.1865 34.1715 0 0 0
3391 3 5.3955 32.373 26.9775 0 0 0
2386 3 14.388 16.1865 23.3805 0 0 0
1258 3 25.179 23.3805 16.1865 0 0 0
888 3 26.9775 26.9775 3.597 0 0 0
276 3 30.5745 5.3955 28.776 0 0 0
508 3 30.5745 26.9775 21.582 0 0 0
3926 3 0.0 23.3805 8.9925 0 0 0
234 3 32.373 1.7985 30.5745 0 0 0
3035 3 5.3955 0.0 30.5745 0 0 0
566 3 32.373 34.1715 5.3955 0 0 0
1519 3 19.7835 7.194 34.1715 0 0 0
3402 3 3.597 1.7985 1.7985 0 0 0
1238 3 25.179 19.7835 34.1715 0 0 0
431 3 30.5745 17.985 26.9775 0 0 0
1446 3 21.582 5.3955 5.3955 0 0 0
3805 3 0.0 0.0 7.194 0 0 0
1185 3 25.179 14.388 21.582 0 0 0
384 3 30.5745 16.1865 17.985 0 0 0
100 3 34.1715 16.1865 32.373 0 0 0
971 3 26.9775 32.373 8.9925 0 0 0
3938 3 0.0 23.3805 30.5745 0 0 0
3717 3 3.597 25.179 32.373 0 0 0
1542 3 21.582 12.5895 19.7835 0 0 0
1550 3 21.582 12.5895 26.9775 0 0 0
3787 3 1.7985 32.373 23.3805 0 0 0
3966 3 0.0 30.5745 8.9925 0 0 0
2143 3 16.1865 28.776 19.7835 0 0 0
415 3 30.5745 17.985 12.5895 0 0 0
1318 3 25.179 26.9775 34.1715 0 0 0
3249 3 7.194 21.582 7.194 0 0 0
3326 3 7.194 30.5745 5.3955 0 0 0
1789 3 21.582 32.373 25.179 0 0 0
2071 3 16.1865 21.582 26.9775 0 0 0
583 3 30.5745 32.373 19.7835 0 0 0
2904 3 8.9925 26.9775 17.985 0 0 0
3403 3 1.7985 0.0 1.7985 0 0 0
2939 3 8.9925 28.776 16.1865 0 0 0
1720 3 19.7835 26.9775 32.373 0 0 0
2539 3 12.5895 28.776 16.1865 0 0 0
2752 3 8.9925 12.5895 25.179 0 0 0
144 3 34.1715 26.9775 3.597 0 0 0
2507 3 12.5895 25.179 23.3805 0 0 0
1953 3 17.985 10.791 28.776 0 0 0
3367 3 5.3955 32.373 5.3955 0 0 0
758 3 28.776 12.5895 34.1715 0 0 0
2089 3 17.985 25.179 7.194 0 0 0
2114 3 17.985 26.9775 30.5745 0 0 0
52 3 34.1715 8.9925 17.985 0 0 0
3057 3 7.194 3.597 14.388 0 0 0
3984 3 0.0 34.1715 5.3955 0 0 0
2884 3 8.9925 26.9775 0.0 0 0 0
3203 3 5.3955 17.985 1.7985 0 0 0
770 3 28.776 16.1865 8.9925 0 0 0
3846 3 0.0 8.9925 8.9925 0 0 0
3761 3 3.597 32.373 0.0 0 0 0
1210 3 25.179 19.7835 8.9925 0 0 0
3678 3 3.597 23.3805 34.1715 0 0 0
2738 3 10.791 12.5895 16.1865 0 0 0
3127 3 5.3955 10.791 5.3955 0 0 0
1780 3 19.7835 34.1715 14.388 0 0 0
3267 3 5.3955 21.582 23.3805 0 0 0
2185 3 17.985 32.373 21.582 0 0 0
1387 3 23.3805 32.373 23.3805 0 0 0
1199 3 23.3805 14.388 34.1715 0 0 0
184 3 34.1715 34.1715 3.597 0 0 0
563 3 30.5745 32.373 1.7985 0 0 0
3334 3 7.194 30.5745 12.5895 0 0 0
3632 3 1.7985 19.7835 25.179 0 0 0
3860 3 0.0 8.9925 34.1715 0 0 0
1567 3 19.7835 14.388 5.3955 0 0 0
1009 3 25.179 0.0 7.194 0 0 0
1565 3 21.582 14.388 3.597 0 0 0
2460 3 12.5895 23.3805 14.388 0 0 0
918 3 28.776 26.9775 34.1715 0 0 0
3634 3 3.597 19.7835 30.5745 0 0 0
1383 3 23.3805 32.373 19.7835 0 0 0
2823 3 8.9925 17.985 19.7835 0 0 0
2501 3 14.388 25.179 17.985 0 0 0
1725 3 21.582 28.776 3.597 0 0 0
1652 3 19.7835 23.3805 7.194 0 0 0
494 3 32.373 26.9775 12.5895 0 0 0
1877 3 17.985 3.597 32.373 0 0 0
458 3 32.373 23.3805 16.1865 0 0 0
768 3 26.9775 16.1865 3.597 0 0 0
2800 3 8.9925 16.1865 32.373 0 0 0
1393 3 25.179 32.373 28.776 0 0 0
609 3 28.776 0.0 7.194 0 0 0
3861 3 0.0 10.791 0.0 0 0 0
3134 3 7.194 12.5895 12.5895 0 0 0
433 3 32.373 17.985 28.776 0 0 0
1408 3 19.7835 1.7985 3.597 0 0 0
2699 3 8.9925 7.194 16.1865 0 0 0
1311 3 23.3805 25.179 26.9775 0 0 0
2407 3 12.5895 17.985 5.3955 0 0 0
2954 3 10.791 30.5745 30.5745 0 0 0
3202 3 7.194 19.7835 1.7985 0 0 0
2308 3 12.5895 8.9925 21.582 0 0 0
1824 3 16.1865 1.7985 17.985 0 0 0
603 3 26.9775 0.0 1.7985 0 0 0
1690 3 21.582 26.9775 8.9925 0 0 0
3470 3 3.597 5.3955 26.9775 0 0 0
3488 3 1.7985 8.9925 3.597 0 0 0
1027 3 23.3805 0.0 23.3805 0 0 0
3597 3 3.597 14.388 32.373 0 0 0
1063 3 23.3805 3.597 19.7835 0 0 0
943 3 26.9775 28.776 19.7835 0 0 0
3940 3 0.0 23.3805 34.1715 0 0 0
1301 3 25.179 25.179 17.985 0 0 0
907 3 26.9775 25.179 23.3805 0 0 0
3668 3 1.7985 23.3805 21.582 0 0 0
2668 3 8.9925 5.3955 21.582 0 0 0
404 3 30.5745 19.7835 0.0 0 0 0
2893 3 10.791 25.179 10.791 0 0 0
540 3 30.5745 30.5745 14.388 0 0 0
1080 3 23.3805 5.3955 32.373 0 0 0
352 3 30.5745 12.5895 25.179 0 0 0
3968 3 0.0 30.5745 12.5895 0 0 0
91 3 34.1715 14.388 19.7835 0 0 0
2195 3 16.1865 32.373 30.5745 0 0 0
6 3 34.1715 1.7985 7.194 0 0 0
1636 3 19.7835 19.7835 28.776 0 0 0
519 3 30.5745 25.179 34.1715 0 0 0
2510 3 14.388 26.9775 26.9775 0 0 0
615 3 26.9775 0.0 12.5895 0 0 0
1338 3 25.179 30.5745 16.1865 0 0 0
2561 3 14.388 32.373 0.0 0 0 0
1521 3 21.582 10.791 0.0 0 0 0
1736 3 19.7835 30.5745 10.791 0 0 0
3317 3 7.194 25.179 32.373 0 0 0
2770 3 10.791 16.1865 8.9925 0 0 0
532 3 30.5745 30.5745 7.194 0 0 0
3677 3 3.597 21.582 32.373 0 0 0
2633 3 10.791 0.0 28.776 0 0 0
445 3 32.373 21.582 3.597 0 0 0
3434 3 3.597 1.7985 30.5745 0 0 0
183 3 34.1715 32.373 5.3955 0 0 0
2546 3 14.388 30.5745 23.3805 0 0 0
2171 3 16.1865 32.373 8.9925 0 0 0
2721 3 10.791 10.791 0.0 0 0 0
2200 3 16.1865 34.1715 32.373 0 0 0
3936 3 0.0 23.3805 26.9775 0 0 0
2232 3 12.5895 1.7985 25.179 0 0 0
2999 3 8.9925 32.373 34.1715 0 0 0
2880 3 8.9925 23.3805 32.373 0 0 0
1273 3 25.179 21.582 28.776 0 0 0
3479 3 1.7985 3.597 34.1715 0 0 0
2459 3 12.5895 21.582 16.1865 0 0 0
1572 3 19.7835 16.1865 7.194 0 0 0
3502 3 3.597 8.9925 19.7835 0 0 0
2439 3 12.5895 17.985 34.1715 0 0 0
2002 3 17.985 19.7835 1.7985 0 0 0
326 3 32.373 12.5895 5.3955 0 0 0
373 3 32.373 14.388 10.791 0 0 0
3504 3 1.7985 8.9925 17.985 0 0 0
643 3 26.9775 3.597 1.7985 0 0 0
375 3 30.5745 14.388 12.5895 0 0 0
2866 3 10.791 23.3805 23.3805 0 0 0
21 3 34.1715 3.597 1.7985 0 0 0
3653 3 3.597 21.582 10.791 0 0 0
893 3 28.776 25.179 10.791 0 0 0
1530 3 21.582 12.5895 8.9925 0 0 0
3012 3 5.3955 1.7985 7.194 0 0 0
1752 3 19.7835 30.5745 25.179 0 0 0
2280 3 12.5895 5.3955 32.373 0 0 0
1167 3 23.3805 14.388 5.3955 0 0 0
484 3 30.5745 26.9775 0.0 0 0 0
3440 3 1.7985 1.7985 32.373 0 0 0
2982 3 10.791 34.1715 19.7835 0 0 0
2698 3 10.791 8.9925 16.1865 0 0 0
794 3 28.776 16.1865 30.5745 0 0 0
3200 3 5.3955 16.1865 32.373 0 0 0
593 3 32.373 32.373 28.776 0 0 0
2990 3 10.791 34.1715 26.9775 0 0 0
3172 3 5.3955 16.1865 7.194 0 0 0
820 3 26.9775 19.7835 14.388 0 0 0
1118 3 25.179 8.9925 34.1715 0 0 0
914 3 28.776 26.9775 30.5745 0 0 0
2181 3 17.985 32.373 17.985 0 0 0
3865 3 0.0 10.791 7.194 0 0 0
3716 3 1.7985 26.9775 28.776 0 0 0
1902 3 17.985 8.9925 19.7835 0 0 0
2247 3 12.5895 3.597 5.3955 0 0 0
2682 3 10.791 8.9925 1.7985 0 0 0
669 3 28.776 3.597 25.179 0 0 0
20 3 34.1715 1.7985 32.373 0 0 0
3017 3 7.194 0.0 14.388 0 0 0
579 3 30.5745 32.373 16.1865 0 0 0
3408 3 1.7985 1.7985 3.597 0 0 0
2784 3 8.9925 16.1865 17.985 0 0 0
819 3 26.9775 17.985 16.1865 0 0 0
179 3 34.1715 28.776 34.1715 0 0 0
1476 3 19.7835 5.3955 28.776 0 0 0
278 3 32.373 5.3955 34.1715 0 0 0
3048 3 5.3955 5.3955 3.597 0 0 0
253 3 32.373 3.597 10.791 0 0 0
1814 3 17.985 1.7985 12.5895 0 0 0
2100 3 16.1865 26.9775 14.388 0 0 0
2592 3 12.5895 34.1715 25.179 0 0 0
1153 3 25.179 10.791 28.776 0 0 0
1620 3 19.7835 19.7835 14.388 0 0 0
1516 3 19.7835 8.9925 28.776 0 0 0
2431 3 12.5895 17.985 26.9775 0 0 0
2369 3 14.388 14.388 7.194 0 0 0
1468 3 19.7835 5.3955 21.582 0 0 0
14 3 34.1715 1.7985 21.582 0 0 0
345 3 32.373 10.791 21.582 0 0 0
2446 3 14.388 23.3805 5.3955 0 0 0
2714 3 10.791 8.9925 30.5745 0 0 0
2684 3 8.9925 8.9925 0.0 0 0 0
2058 3 17.985 23.3805 16.1865 0 0 0
2843 3 8.9925 21.582 1.7985 0 0 0
2004 3 16.1865 19.7835 0.0 0 0 0
3285 3 7.194 25.179 3.597 0 0 0
1043 3 23.3805 3.597 1.7985 0 0 0
2136 3 16.1865 30.5745 10.791 0 0 0
1757 3 21.582 28.776 32.373 0 0 0
2749 3 10.791 10.791 25.179 0 0 0
28 3 34.1715 5.3955 10.791 0 0 0
2818 3 10.791 19.7835 16.1865 0 0 0
3694 3 3.597 26.9775 12.5895 0 0 0
1718 3 21.582 26.9775 34.1715 0 0 0
3086 3 7.194 8.9925 5.3955 0 0 0
2364 3 12.5895 16.1865 0.0 0 0 0
3553 3 3.597 10.791 28.776 0 0 0
2852 3 8.9925 23.3805 7.194 0 0 0
2083 3 16.1865 25.179 1.7985 0 0 0
1464 3 19.7835 5.3955 17.985 0 0 0
854 3 28.776 23.3805 12.5895 0 0 0
329 3 32.373 10.791 7.194 0 0 0
104 3 34.1715 19.7835 3.597 0 0 0
165 3 34.1715 28.776 8.9925 0 0 0
2252 3 12.5895 5.3955 7.194 0 0 0
2081 3 17.985 25.179 0.0 0 0 0
1045 3 25.179 3.597 3.597 0 0 0
3629 3 3.597 17.985 25.179 0 0 0
560 3 30.5745 30.5745 32.373 0 0 0
2957 3 10.791 28.776 32.373 0 0 0
2650 3 10.791 5.3955 8.9925 0 0 0
1357 3 25.179 28.776 32.373 0 0 0
1388 3 23.3805 34.1715 21.582 0 0 0
3079 3 5.3955 3.597 34.1715 0 0 0
1903 3 16.1865 7.194 19.7835 0 0 0
2084 3 16.1865 26.9775 0.0 0 0 0
3416 3 1.7985 1.7985 10.791 0 0 0
3773 3 3.597 32.373 10.791 0 0 0
3762 3 3.597 34.1715 1.7985 0 0 0
1840 3 16.1865 1.7985 32.373 0 0 0
2281 3 14.388 7.194 0.0 0 0 0
3520 3 1.7985 8.9925 32.373 0 0 0
717 3 28.776 7.194 32.373 0 0 0
2462 3 14.388 23.3805 19.7835 0 0 0
2518 3 14.388 26.9775 34.1715 0 0 0
3752 3 1.7985 30.5745 25.179 0 0 0
1250 3 25.179 23.3805 8.9925 0 0 0
1477 3 21.582 3.597 32.373 0 0 0
235 3 30.5745 0.0 30.5745 0 0 0
2313 3 14.388 7.194 28.776 0 0 0
1177 3 25.179 14.388 14.388 0 0 0
3658 3 3.597 23.3805 16.1865 0 0 0
3821 3 0.0 3.597 0.0 0 0 0
2184 3 16.1865 34.1715 17.985 0 0 0
3302 3 7.194 26.9775 19.7835 0 0 0
1919 3 16.1865 7.194 34.1715 0 0 0
1417 3 21.582 0.0 14.388 0 0 0
3145 3 7.194 10.791 21.582 0 0 0
2227 3 12.5895 0.0 23.3805 0 0 0
2920 3 8.9925 26.9775 32.373 0 0 0
2303 3 12.5895 7.194 19.7835 0 0 0
2643 3 8.9925 3.597 1.7985 0 0 0
835 3 26.9775 17.985 30.5745 0 0 0
3586 3 3.597 16.1865 23.3805 0 0 0
2572 3 12.5895 34.1715 7.194 0 0 0
1081 3 25.179 7.194 0.0 0 0 0
2799 3 8.9925 14.388 34.1715 0 0 0
230 3 32.373 1.7985 26.9775 0 0 0
3049 3 7.194 3.597 7.194 0 0 0
1479 3 19.7835 3.597 34.1715 0 0 0
3366 3 7.194 34.1715 5.3955 0 0 0
2183 3 16.1865 32.373 19.7835 0 0 0
780 3 26.9775 16.1865 14.388 0 0 0
3737 3 3.597 28.776 14.388 0 0 0
2491 3 12.5895 25.179 8.9925 0 0 0
3848 3 0.0 8.9925 12.5895 0 0 0
3232 3 5.3955 19.7835 25.179 0 0 0
512 3 30.5745 26.9775 25.179 0 0 0
3672 3 1.7985 23.3805 25.179 0 0 0
354 3 32.373 12.5895 30.5745 0 0 0
11 3 34.1715 0.0 19.7835 0 0 0
377 3 32.373 14.388 14.388 0 0 0
1818 3 17.985 1.7985 16.1865 0 0 0
3854 3 0.0 8.9925 23.3805 0 0 0
1524 3 19.7835 12.5895 0.0 0 0 0
3410 3 3.597 1.7985 8.9925 0 0 0
1054 3 25.179 5.3955 12.5895 0 0 0
1675 3 19.7835 21.582 30.5745 0 0 0
2098 3 17.985 26.9775 16.1865 0 0 0
2560 3 12.5895 30.5745 32.373 0 0 0
3041 3 7.194 3.597 0.0 0 0 0
2813 3 10.791 17.985 10.791 0 0 0
966 3 28.776 34.1715 5.3955 0 0 0
1058 3 25.179 5.3955 16.1865 0 0 0
1472 3 19.7835 5.3955 25.179 0 0 0
3517 3 3.597 7.194 32.373 0 0 0
3351 3 5.3955 28.776 26.9775 0 0 0
1728 3 19.7835 30.5745 3.597 0 0 0
285 3 32.373 7.194 3.597 0 0 0
1523 3 19.7835 10.791 1.7985 0 0 0
3447 3 1.7985 3.597 5.3955 0 0 0
1770 3 21.582 34.1715 8.9925 0 0 0
741 3 28.776 10.791 17.985 0 0 0
3638 3 3.597 19.7835 34.1715 0 0 0
1353 3 25.179 28.776 28.776 0 0 0
3283 3 5.3955 25.179 1.7985 0 0 0
68 3 34.1715 12.5895 10.791 0 0 0
3178 3 7.194 16.1865 16.1865 0 0 0
413 3 32.373 17.985 10.791 0 0 0
2471 3 12.5895 21.582 26.9775 0 0 0
657 3 28.776 3.597 14.388 0 0 0
3949 3 0.0 25.179 14.388 0 0 0
3692 3 1.7985 26.9775 7.194 0 0 0
1062 3 25.179 5.3955 19.7835 0 0 0
1931 3 16.1865 10.791 8.9925 0 0 0
180 3 34.1715 30.5745 32.373 0 0 0
56 3 34.1715 8.9925 25.179 0 0 0
1822 3 17.985 1.7985 19.7835 0 0 0
3424 3 1.7985 1.7985 17.985 0 0 0
2604 3 8.9925 1.7985 0.0 0 0 0
256 3 30.5745 5.3955 10.791 0 0 0
3130 3 7.194 12.5895 8.9925 0 0 0
912 3 26.9775 26.9775 25.179 0 0 0
3543 3 1.7985 10.791 19.7835 0 0 0
2385 3 14.388 14.388 21.582 0 0 0
365 3 32.373 14.388 3.597 0 0 0
1947 3 16.1865 10.791 23.3805 0 0 0
3112 3 5.3955 8.9925 25.179 0 0 0
2324 3 12.5895 12.5895 0.0 0 0 0
421 3 32.373 17.985 17.985 0 0 0
2804 3 8.9925 19.7835 0.0 0 0 0
155 3 34.1715 25.179 26.9775 0 0 0
3315 3 5.3955 25.179 30.5745 0 0 0
209 3 32.373 0.0 7.194 0 0 0
2971 3 8.9925 32.373 8.9925 0 0 0
1412 3 19.7835 1.7985 7.194 0 0 0
2402 3 14.388 19.7835 1.7985 0 0 0
3 3 34.1715 0.0 5.3955 0 0 0
1491 3 19.7835 7.194 8.9925 0 0 0
312 3 30.5745 8.9925 25.179 0 0 0
894 3 28.776 26.9775 12.5895 0 0 0
551 3 30.5745 28.776 26.9775 0 0 0
3014 3 7.194 1.7985 12.5895 0 0 0
1901 3 17.985 7.194 17.985 0 0 0
1346 3 25.179 30.5745 23.3805 0 0 0
2151 3 16.1865 28.776 26.9775 0 0 0
910 3 28.776 26.9775 26.9775 0 0 0
523 3 30.5745 28.776 1.7985 0 0 0
1952 3 16.1865 12.5895 25.179 0 0 0
36 3 34.1715 5.3955 25.179 0 0 0
2128 3 16.1865 30.5745 3.597 0 0 0
293 3 32.373 7.194 10.791 0 0 0
2108 3 16.1865 26.9775 21.582 0 0 0
953 3 28.776 28.776 28.776 0 0 0
1843 3 16.1865 3.597 1.7985 0 0 0
1327 3 23.3805 28.776 5.3955 0 0 0
3409 3 3.597 0.0 7.194 0 0 0
3823 3 0.0 3.597 3.597 0 0 0
2753 3 10.791 10.791 28.776 0 0 0
3683 3 1.7985 25.179 1.7985 0 0 0
1659 3 19.7835 21.582 16.1865 0 0 0
3830 3 0.0 5.3955 16.1865 0 0 0
1740 3 19.7835 30.5745 14.388 0 0 0
1559 3 19.7835 10.791 34.1715 0 0 0
3842 3 0.0 8.9925 1.7985 0 0 0
2777 3 10.791 14.388 14.388 0 0 0
3729 3 3.597 28.776 7.194 0 0 0
3043 3 5.3955 3.597 1.7985 0 0 0
1123 3 23.3805 10.791 1.7985 0 0 0
392 3 30.5745 16.1865 25.179 0 0 0
47 3 34.1715 7.194 12.5895 0 0 0
1929 3 17.985 10.791 7.194 0 0 0
113 3 34.1715 17.985 23.3805 0 0 0
2708 3 8.9925 8.9925 21.582 0 0 0
3448 3 1.7985 5.3955 3.597 0 0 0
824 3 26.9775 19.7835 17.985 0 0 0
704 3 26.9775 8.9925 17.985 0 0 0
3708 3 1.7985 26.9775 21.582 0 0 0
34 3 34.1715 5.3955 21.582 0 0 0
3920 3 0.0 19.7835 34.1715 0 0 0
2425 3 14.388 17.985 21.582 0 0 0
1157 3 25.179 10.791 32.373 0 0 0
3767 3 1.7985 32.373 5.3955 0 0 0
1743 3 19.7835 28.776 19.7835 0 0 0
3481 3 3.597 7.194 0.0 0 0 0
2177 3 17.985 32.373 14.388 0 0 0
411 3 30.5745 17.985 8.9925 0 0 0
1993 3 17.985 14.388 28.776 0 0 0
2463 3 12.5895 21.582 19.7835 0 0 0
640 3 26.9775 1.7985 32.373 0 0 0
2230 3 14.388 1.7985 26.9775 0 0 0
2590 3 14.388 34.1715 26.9775 0 0 0
1950 3 17.985 12.5895 26.9775 0 0 0
1022 3 25.179 1.7985 19.7835 0 0 0
2745 3 10.791 10.791 21.582 0 0 0
1246 3 25.179 23.3805 5.3955 0 0 0
2254 3 14.388 5.3955 12.5895 0 0 0
2475 3 12.5895 21.582 30.5745 0 0 0
3554 3 3.597 12.5895 30.5745 0 0 0
111 3 34.1715 17.985 19.7835 0 0 0
2780 3 8.9925 16.1865 14.388 0 0 0
3395 3 5.3955 32.373 30.5745 0 0 0
3957 3 0.0 25.179 28.776 0 0 0
1174 3 25.179 16.1865 12.5895 0 0 0
3176 3 5.3955 16.1865 10.791 0 0 0
227 3 30.5745 0.0 23.3805 0 0 0
3974 3 0.0 30.5745 23.3805 0 0 0
203 3 30.5745 0.0 1.7985 0 0 0
387 3 30.5745 14.388 23.3805 0 0 0
2430 3 14.388 19.7835 26.9775 0 0 0
3993 3 0.0 32.373 21.582 0 0 0
1853 3 17.985 3.597 10.791 0 0 0
2389 3 14.388 14.388 25.179 0 0 0
2762 3 10.791 16.1865 1.7985 0 0 0
665 3 28.776 3.597 21.582 0 0 0
2412 3 12.5895 19.7835 7.194 0 0 0
1573 3 21.582 14.388 10.791 0 0 0
600 3 30.5745 34.1715 32.373 0 0 0
3707 3 1.7985 25.179 23.3805 0 0 0
1323 3 23.3805 28.776 1.7985 0 0 0
3756 3 1.7985 30.5745 28.776 0 0 0
1875 3 16.1865 3.597 30.5745 0 0 0
1329 3 25.179 28.776 7.194 0 0 0
934 3 28.776 30.5745 12.5895 0 0 0
1321 3 25.179 28.776 0.0 0 0 0
2760 3 8.9925 12.5895 32.373 0 0 0
585 3 32.373 32.373 21.582 0 0 0
1555 3 19.7835 10.791 30.5745 0 0 0
3812 3 0.0 1.7985 19.7835 0 0 0
3467 3 1.7985 3.597 23.3805 0 0 0
2096 3 16.1865 26.9775 10.791 0 0 0
1801 3 17.985 0.0 0.0 0 0 0
772 3 26.9775 16.1865 7.194 0 0 0
2377 3 14.388 14.388 14.388 0 0 0
3392 3 5.3955 34.1715 25.179 0 0 0
3337 3 7.194 28.776 14.388 0 0 0
2767 3 8.9925 14.388 5.3955 0 0 0
2074 3 17.985 23.3805 30.5745 0 0 0
3389 3 7.194 32.373 25.179 0 0 0
1328 3 23.3805 30.5745 3.597 0 0 0
2599 3 12.5895 32.373 34.1715 0 0 0
929 3 28.776 28.776 7.194 0 0 0
1276 3 23.3805 23.3805 28.776 0 0 0
1647 3 19.7835 21.582 5.3955 0 0 0
1331 3 23.3805 28.776 8.9925 0 0 0
2477 3 14.388 21.582 32.373 0 0 0
2942 3 10.791 30.5745 19.7835 0 0 0
1314 3 25.179 26.9775 30.5745 0 0 0
1059 3 23.3805 3.597 16.1865 0 0 0
2193 3 17.985 32.373 28.776 0 0 0
2242 3 14.388 5.3955 1.7985 0 0 0
2120 3 16.1865 26.9775 32.373 0 0 0
2849 3 10.791 21.582 7.194 0 0 0
3191 3 5.3955 14.388 26.9775 0 0 0
3089 3 7.194 7.194 7.194 0 0 0
1441 3 21.582 3.597 0.0 0 0 0
3540 3 1.7985 12.5895 14.388 0 0 0
622 3 28.776 1.7985 19.7835 0 0 0
447 3 30.5745 21.582 5.3955 0 0 0
2187 3 16.1865 32.373 23.3805 0 0 0
1574 3 21.582 16.1865 12.5895 0 0 0
1948 3 16.1865 12.5895 21.582 0 0 0
2457 3 14.388 21.582 14.388 0 0 0
2426 3 14.388 19.7835 23.3805 0 0 0
412 3 30.5745 19.7835 7.194 0 0 0
2743 3 8.9925 10.791 19.7835 0 0 0
3207 3 5.3955 17.985 5.3955 0 0 0
3414 3 3.597 1.7985 12.5895 0 0 0
1874 3 17.985 5.3955 30.5745 0 0 0
3208 3 5.3955 19.7835 3.597 0 0 0
1316 3 23.3805 26.9775 28.776 0 0 0
3032 3 5.3955 1.7985 25.179 0 0 0
1976 3 16.1865 16.1865 10.791 0 0 0
2072 3 16.1865 23.3805 25.179 0 0 0
2722 3 10.791 12.5895 1.7985 0 0 0
1283 3 23.3805 25.179 1.7985 0 0 0
1532 3 19.7835 12.5895 7.194 0 0 0
1439 3 19.7835 0.0 34.1715 0 0 0
2452 3 12.5895 23.3805 7.194 0 0 0
3603 3 1.7985 17.985 1.7985 0 0 0
1790 3 21.582 34.1715 26.9775 0 0 0
3789 3 3.597 32.373 25.179 0 0 0
3023 3 5.3955 0.0 19.7835 0 0 0
2260 3 12.5895 5.3955 14.388 0 0 0
1436 3 19.7835 1.7985 28.776 0 0 0
3489 3 3.597 7.194 7.194 0 0 0
1040 3 23.3805 1.7985 32.373 0 0 0
2968 3 8.9925 34.1715 3.597 0 0 0
3655 3 1.7985 21.582 12.5895 0 0 0
1302 3 25.179 26.9775 19.7835 0 0 0
3104 3 5.3955 8.9925 17.985 0 0 0
1019 3 23.3805 0.0 16.1865 0 0 0
1188 3 23.3805 16.1865 21.582 0 0 0
726 3 28.776 12.5895 5.3955 0 0 0
1854 3 17.985 5.3955 12.5895 0 0 0
3796 3 1.7985 34.1715 28.776 0 0 0
1189 3 25.179 14.388 25.179 0 0 0
3945 4 0.0 25.179 7.194 0 0 0
2061 4 17.985 21.582 17.985 0 0 0
689 4 28.776 7.194 7.194 0 0 0
3338 4 7.194 30.5745 16.1865 0 0 0
1306 4 25.179 26.9775 23.3805 0 0 0
2279 4 12.5895 3.597 34.1715 0 0 0
3929 4 0.0 21.582 14.388 0 0 0
673 4 28.776 3.597 28.776 0 0 0
636 4 26.9775 1.7985 28.776 0 0 0
1180 4 23.3805 16.1865 14.388 0 0 0
2701 4 10.791 7.194 17.985 0 0 0
1484 4 19.7835 8.9925 0.0 0 0 0
2375 4 12.5895 14.388 12.5895 0 0 0
1630 4 21.582 19.7835 26.9775 0 0 0
1308 4 23.3805 26.9775 21.582 0 0 0
2381 4 14.388 14.388 17.985 0 0 0
3779 4 1.7985 32.373 16.1865 0 0 0
1048 4 23.3805 5.3955 3.597 0 0 0
2341 4 14.388 10.791 17.985 0 0 0
921 4 28.776 28.776 0.0 0 0 0
334 4 32.373 12.5895 12.5895 0 0 0
1985 4 17.985 14.388 21.582 0 0 0
2436 4 12.5895 19.7835 28.776 0 0 0
1449 4 21.582 3.597 7.194 0 0 0
721 4 28.776 10.791 0.0 0 0 0
3418 4 3.597 1.7985 16.1865 0 0 0
3131 4 5.3955 10.791 8.9925 0 0 0
3769 4 3.597 32.373 7.194 0 0 0
1995 4 16.1865 14.388 30.5745 0 0 0
1122 4 25.179 12.5895 1.7985 0 0 0
2483 4 12.5895 25.179 1.7985 0 0 0
565 4 32.373 32.373 3.597 0 0 0
2290 4 14.388 8.9925 8.9925 0 0 0
3122 4 7.194 12.5895 1.7985 0 0 0
1191 4 23.3805 14.388 26.9775 0 0 0
194 4 34.1715 34.1715 21.582 0 0 0
2422 4 14.388 19.7835 19.7835 0 0 0
95 4 34.1715 14.388 26.9775 0 0 0
2685 4 10.791 7.194 3.597 0 0 0
2299 4 12.5895 7.194 16.1865 0 0 0
757 4 28.776 10.791 32.373 0 0 0
2488 4 12.5895 26.9775 3.597 0 0 0
964 4 26.9775 34.1715 0.0 0 0 0
491 4 30.5745 25.179 8.9925 0 0 0
1444 4 19.7835 5.3955 0.0 0 0 0
3379 4 5.3955 32.373 16.1865 0 0 0
2243 4 12.5895 3.597 1.7985 0 0 0
231 4 30.5745 0.0 26.9775 0 0 0
1034 4 25.179 1.7985 30.5745 0 0 0
2304 4 12.5895 8.9925 17.985 0 0 0
173 4 34.1715 28.776 23.3805 0 0 0
2663 4 8.9925 3.597 19.7835 0 0 0
610 4 28.776 1.7985 8.9925 0 0 0
2736 4 8.9925 12.5895 10.791 0 0 0
2814 4 10.791 19.7835 12.5895 0 0 0
271 4 30.5745 3.597 26.9775 0 0 0
2531 4 12.5895 28.776 8.9925 0 0 0
225 4 32.373 0.0 21.582 0 0 0
1554 4 21.582 12.5895 30.5745 0 0 0
147 4 34.1715 25.179 12.5895 0 0 0
1507 4 19.7835 7.194 23.3805 0 0 0
30 4 34.1715 5.3955 14.388 0 0 0
3456 4 1.7985 5.3955 10.791 0 0 0
2616 4 8.9925 1.7985 10.791 0 0 0
1701 4 21.582 25.179 17.985 0 0 0
2489 4 14.388 25.179 7.194 0 0 0
1579 4 19.7835 14.388 16.1865 0 0 0
1606 4 21.582 19.7835 5.3955 0 0 0
164 4 34.1715 30.5745 3.597 0 0 0
702 4 28.776 8.9925 19.7835 0 0 0
2274 4 14.388 5.3955 30.5745 0 0 0
2137 4 17.985 28.776 14.388 0 0 0
1035 4 23.3805 0.0 30.5745 0 0 0
776 4 26.9775 16.1865 10.791 0 0 0
628 4 26.9775 1.7985 21.582 0 0 0
2959 4 8.9925 28.776 34.1715 0 0 0
1913 4 17.985 7.194 28.776 0 0 0
2325 4 14.388 10.791 3.597 0 0 0
3213 4 7.194 17.985 10.791 0 0 0
2442 4 14.388 23.3805 1.7985 0 0 0
3666 4 3.597 23.3805 23.3805 0 0 0
1495 4 19.7835 7.194 12.5895 0 0 0
2291 4 12.5895 7.194 8.9925 0 0 0
2118 4 17.985 26.9775 34.1715 0 0 0
1270 4 25.179 23.3805 26.9775 0 0 0
3430 4 3.597 1.7985 26.9775 0 0 0
1422 4 21.582 1.7985 19.7835 0 0 0
913 4 28.776 25.179 28.776 0 0 0
3882 4 0.0 16.1865 1.7985 0 0 0
845 4 28.776 21.582 3.597 0 0 0
3793 4 3.597 32.373 28.776 0 0 0
2912 4 8.9925 26.9775 25.179 0 0 0
1846 4 17.985 5.3955 5.3955 0 0 0
1224 4 23.3805 19.7835 17.985 0 0 0
3700 4 1.7985 26.9775 14.388 0 0 0
3892 4 0.0 16.1865 19.7835 0 0 0
1898 4 17.985 8.9925 16.1865 0 0 0
2664 4 8.9925 5.3955 17.985 0 0 0
2574 4 14.388 34.1715 12.5895 0 0 0
1625 4 21.582 17.985 21.582 0 0 0
3146 4 7.194 12.5895 23.3805 0 0 0
3566 4 3.597 16.1865 5.3955 0 0 0
2429 4 14.388 17.985 25.179 0 0 0
2196 4 16.1865 34.1715 28.776 0 0 0
2363 4 12.5895 14.388 1.7985 0 0 0
242 4 32.373 5.3955 1.7985 0 0 0
3394 4 7.194 34.1715 30.5745 0 0 0
2404 4 12.5895 19.7835 0.0 0 0 0
3845 4 0.0 7.194 7.194 0 0 0
1209 4 25.179 17.985 7.194 0 0 0
3209 4 7.194 17.985 7.194 0 0 0
1836 4 16.1865 1.7985 28.776 0 0 0
2306 4 14.388 8.9925 23.3805 0 0 0
1848 4 16.1865 5.3955 3.597 0 0 0
1241 4 25.179 21.582 0.0 0 0 0
1722 4 21.582 30.5745 1.7985 0 0 0
1116 4 23.3805 8.9925 28.776 0 0 0
3152 4 5.3955 12.5895 25.179 0 0 0
3194 4 7.194 16.1865 30.5745 0 0 0
2161 4 17.985 32.373 0.0 0 0 0
2374 4 14.388 16.1865 12.5895 0 0 0
2740 4 8.9925 12.5895 14.388 0 0 0
10 4 34.1715 1.7985 14.388 0 0 0
409 4 32.373 17.985 7.194 0 0 0
3278 4 7.194 23.3805 34.1715 0 0 0
137 4 34.1715 21.582 30.5745 0 0 0
1226 4 25.179 19.7835 23.3805 0 0 0
2635 4 8.9925 0.0 30.5745 0 0 0
851 4 26.9775 21.582 8.9925 0 0 0
1432 4 19.7835 1.7985 25.179 0 0 0
2797 4 10.791 14.388 32.373 0 0 0
2805 4 10.791 17.985 3.597 0 0 0
3900 4 0.0 16.1865 34.1715 0 0 0
2443 4 12.5895 21.582 1.7985 0 0 0
452 4 30.5745 23.3805 7.194 0 0 0
2640 4 8.9925 1.7985 32.373 0 0 0
129 4 34.1715 21.582 16.1865 0 0 0
1233 4 25.179 17.985 28.776 0 0 0
632 4 26.9775 1.7985 25.179 0 0 0
2334 4 14.388 12.5895 12.5895 0 0 0
1384 4 23.3805 34.1715 17.985 0 0 0
2277 4 14.388 3.597 32.373 0 0 0
811 4 26.9775 17.985 8.9925 0 0 0
2070 4 17.985 23.3805 26.9775 0 0 0
3069 4 7.194 3.597 25.179 0 0 0
1066 4 25.179 5.3955 23.3805 0 0 0
343 4 30.5745 10.791 19.7835 0 0 0
78 4 34.1715 12.5895 28.776 0 0 0
348 4 30.5745 12.5895 21.582 0 0 0
1522 4 21.582 12.5895 1.7985 0 0 0
1205 4 25.179 17.985 3.597 0 0 0
3356 4 5.3955 30.5745 28.776 0 0 0
1992 4 16.1865 16.1865 25.179 0 0 0
946 4 28.776 30.5745 23.3805 0 0 0
1172 4 23.3805 16.1865 7.194 0 0 0
4000 4 0.0 34.1715 34.1715 0 0 0
3981 4 0.0 32.373 0.0 0 0 0
3482 4 3.597 8.9925 1.7985 0 0 0
1672 4 19.7835 23.3805 25.179 0 0 0
3227 4 5.3955 17.985 23.3805 0 0 0
438 4 32.373 19.7835 34.1715 0 0 0
2155 4 16.1865 28.776 30.5745 0 0 0
3688 4 1.7985 26.9775 3.597 0 0 0
3387 4 5.3955 32.373 23.3805 0 0 0
1753 4 21.582 28.776 28.776 0 0 0
302 4 32.373 8.9925 19.7835 0 0 0
408 4 30.5745 19.7835 3.597 0 0 0
3454 4 3.597 5.3955 12.5895 0 0 0
1859 4 16.1865 3.597 16.1865 0 0 0
2085 4 17.985 25.179 3.597 0 0 0
2527 4 12.5895 28.776 5.3955 0 0 0
2105 4 17.985 25.179 21.582 0 0 0
2259 4 12.5895 3.597 16.1865 0 0 0
956 4 26.9775 30.5745 28.776 0 0 0
647 4 26.9775 3.597 5.3955 0 0 0
2043 4 16.1865 21.582 1.7985 0 0 0
3136 4 5.3955 12.5895 10.791 0 0 0
45 4 34.1715 7.194 8.9925 0 0 0
143 4 34.1715 25.179 5.3955 0 0 0
688 4 26.9775 8.9925 3.597 0 0 0
116 4 34.1715 19.7835 25.179 0 0 0
3500 4 1.7985 8.9925 14.388 0 0 0
1808 4 16.1865 1.7985 3.597 0 0 0
2474 4 14.388 23.3805 30.5745 0 0 0
3526 4 3.597 12.5895 5.3955 0 0 0
295 4 30.5745 7.194 12.5895 0 0 0
3950 4 0.0 26.9775 16.1865 0 0 0
3601 4 3.597 17.985 0.0 0 0 0
2742 4 10.791 12.5895 19.7835 0 0 0
2881 4 10.791 25.179 0.0 0 0 0
2487 4 12.5895 25.179 5.3955 0 0 0
1591 4 19.7835 14.388 26.9775 0 0 0
2598 4 14.388 34.1715 34.1715 0 0 0
1136 4 23.3805 12.5895 10.791 0 0 0
130 4 34.1715 23.3805 14.388 0 0 0
3598 4 3.597 16.1865 34.1715 0 0 0
3867 4 0.0 10.791 10.791 0 0 0
3783 4 1.7985 32.373 19.7835 0 0 0
33 4 34.1715 3.597 23.3805 0 0 0
3829 4 0.0 3.597 14.388 0 0 0
952 4 26.9775 30.5745 25.179 0 0 0
763 4 26.9775 14.388 1.7985 0 0 0
3148 4 5.3955 12.5895 21.582 0 0 0
2069 4 17.985 21.582 25.179 0 0 0
2217 4 14.388 0.0 14.388 0 0 0
3797 4 3.597 32.373 32.373 0 0 0
1784 4 19.7835 34.1715 17.985 0 0 0
3246 4 7.194 23.3805 5.3955 0 0 0
201 4 32.373 0.0 0.0 0 0 0
3180 4 5.3955 16.1865 14.388 0 0 0
831 4 26.9775 17.985 26.9775 0 0 0
3675 4 1.7985 21.582 30.5745 0 0 0
2073 4 17.985 21.582 28.776 0 0 0
3237 4 7.194 17.985 32.373 0 0 0
1115 4 23.3805 7.194 30.5745 0 0 0
2060 4 16.1865 23.3805 14.388 0 0 0
2790 4 10.791 16.1865 26.9775 0 0 0
1278 4 25.179 23.3805 34.1715 0 0 0
743 4 26.9775 10.791 19.7835 0 0 0
1143 4 23.3805 10.791 19.7835 0 0 0
2923 4 8.9925 28.776 1.7985 0 0 0
1290 4 25.179 26.9775 8.9925 0 0 0
1656 4 19.7835 23.3805 10.791 0 0 0
2080 4 16.1865 23.3805 32.373 0 0 0
3210 4 7.194 19.7835 8.9925 0 0 0
1936 4 16.1865 12.5895 10.791 0 0 0
2215 4 12.5895 0.0 12.5895 0 0 0
3186 4 7.194 16.1865 23.3805 0 0 0
644 4 26.9775 5.3955 0.0 0 0 0
1704 4 19.7835 26.9775 17.985 0 0 0
1771 4 19.7835 32.373 8.9925 0 0 0
1091 4 23.3805 7.194 8.9925 0 0 0
3749 4 3.597 28.776 25.179 0 0 0
3198 4 7.194 16.1865 34.1715 0 0 0
3309 4 7.194 25.179 25.179 0 0 0
901 4 28.776 25.179 17.985 0 0 0
2276 4 12.5895 5.3955 28.776 0 0 0
1528 4 19.7835 12.5895 3.597 0 0 0
140 4 34.1715 23.3805 32.373 0 0 0
1751 4 19.7835 28.776 26.9775 0 0 0
1641 4 21.582 21.582 0.0 0 0 0
2781 4 10.791 14.388 17.985 0 0 0
2332 4 12.5895 12.5895 7.194 0 0 0
3818 4 0.0 1.7985 30.5745 0 0 0
788 4 26.9775 16.1865 21.582 0 0 0
3545 4 3.597 10.791 21.582 0 0 0
1777 4 21.582 32.373 14.388 0 0 0
335 4 30.5745 10.791 12.5895 0 0 0
3357 4 7.194 28.776 32.373 0 0 0
77 4 34.1715 10.791 30.5745 0 0 0
762 4 28.776 16.1865 1.7985 0 0 0
1944 4 16.1865 12.5895 17.985 0 0 0
1731 4 19.7835 28.776 8.9925 0 0 0
251 4 30.5745 3.597 8.9925 0 0 0
875 4 26.9775 21.582 30.5745 0 0 0
2931 4 8.9925 28.776 8.9925 0 0 0
661 4 28.776 3.597 17.985 0 0 0
43 4 34.1715 7.194 5.3955 0 0 0
533 4 32.373 28.776 10.791 0 0 0
3187 4 5.3955 14.388 23.3805 0 0 0
1197 4 25.179 14.388 32.373 0 0 0
3588 4 1.7985 16.1865 21.582 0 0 0
2411 4 12.5895 17.985 8.9925 0 0 0
3016 4 5.3955 1.7985 10.791 0 0 0
2522 4 14.388 30.5745 1.7985 0 0 0
1719 4 19.7835 25.179 34.1715 0 0 0
3745 4 3.597 28.776 21.582 0 0 0
318 4 32.373 8.9925 34.1715 0 0 0
2713 4 10.791 7.194 28.776 0 0 0
760 4 26.9775 12.5895 32.373 0 0 0
2348 4 12.5895 12.5895 21.582 0 0 0
1049 4 25.179 3.597 7.194 0 0 0
211 4 30.5745 0.0 8.9925 0 0 0
1882 4 17.985 8.9925 1.7985 0 0 0
3487 4 1.7985 7.194 5.3955 0 0 0
1351 4 23.3805 28.776 26.9775 0 0 0
701 4 28.776 7.194 17.985 0 0 0
2028 4 16.1865 19.7835 21.582 0 0 0
786 4 28.776 16.1865 23.3805 0 0 0
2326 4 14.388 12.5895 5.3955 0 0 0
1562 4 21.582 16.1865 1.7985 0 0 0
3059 4 5.3955 3.597 16.1865 0 0 0
1677 4 21.582 21.582 32.373 0 0 0
3422 4 3.597 1.7985 19.7835 0 0 0
3253 4 7.194 21.582 10.791 0 0 0
1426 4 21.582 1.7985 23.3805 0 0 0
1842 4 17.985 5.3955 1.7985 0 0 0
1963 4 16.1865 14.388 1.7985 0 0 0
1895 4 16.1865 7.194 12.5895 0 0 0
2305 4 14.388 7.194 21.582 0 0 0
995 4 26.9775 32.373 30.5745 0 0 0
998 4 28.776 34.1715 34.1715 0 0 0
379 4 30.5745 14.388 16.1865 0 0 0
735 4 26.9775 10.791 12.5895 0 0 0
2379 4 12.5895 14.388 16.1865 0 0 0
46 4 34.1715 8.9925 7.194 0 0 0
3465 4 3.597 3.597 21.582 0 0 0
594 4 32.373 34.1715 30.5745 0 0 0
1711 4 19.7835 25.179 26.9775 0 0 0
842 4 28.776 23.3805 1.7985 0 0 0
239 4 30.5745 0.0 34.1715 0 0 0
639 4 26.9775 0.0 34.1715 0 0 0
1469 4 21.582 3.597 25.179 0 0 0
3087 4 5.3955 7.194 5.3955 0 0 0
1610 4 21.582 19.7835 8.9925 0 0 0
3898 4 0.0 16.1865 30.5745 0 0 0
1581 4 21.582 14.388 17.985 0 0 0
485 4 32.373 25.179 3.597 0 0 0
692 4 26.9775 8.9925 7.194 0 0 0
1074 4 25.179 5.3955 30.5745 0 0 0
2523 4 12.5895 28.776 1.7985 0 0 0
3731 4 1.7985 28.776 8.9925 0 0 0
1943 4 16.1865 10.791 19.7835 0 0 0
1158 4 25.179 12.5895 34.1715 0 0 0
2350 4 14.388 12.5895 26.9775 0 0 0
391 4 30.5745 14.388 26.9775 0 0 0
3862 4 0.0 12.5895 1.7985 0 0 0
2873 4 10.791 21.582 28.776 0 0 0
2828 4 8.9925 19.7835 21.582 0 0 0
3239 4 5.3955 17.985 34.1715 0 0 0
2793 4 10.791 14.388 28.776 0 0 0
3577 4 3.597 14.388 14.388 0 0 0
1706 4 21.582 26.9775 23.3805 0 0 0
1456 4 19.7835 5.3955 10.791 0 0 0
2234 4 14.388 1.7985 30.5745 0 0 0
1924 4 16.1865 12.5895 0.0 0 0 0
2362 4 14.388 16.1865 1.7985 0 0 0
3301 4 7.194 25.179 17.985 0 0 0
1216 4 23.3805 19.7835 10.791 0 0 0
1956 4 16.1865 12.5895 28.776 0 0 0
1460 4 19.7835 5.3955 14.388 0 0 0
2368 4 12.5895 16.1865 3.597 0 0 0
2321 4 14.388 10.791 0.0 0 0 0
3340 4 5.3955 30.5745 14.388 0 0 0
1368 4 23.3805 34.1715 3.597 0 0 0
3609 4 3.597 17.985 7.194 0 0 0
3546 4 3.597 12.5895 23.3805 0 0 0
435 4 30.5745 17.985 30.5745 0 0 0
2505 4 14.388 25.179 21.582 0 0 0
2138 4 17.985 30.5745 16.1865 0 0 0
252 4 30.5745 5.3955 7.194 0 0 0
181 4 34.1715 32.373 1.7985 0 0 0
124 4 34.1715 23.3805 3.597 0 0 0
3062 4 7.194 5.3955 19.7835 0 0 0
3109 4 7.194 7.194 25.179 0 0 0
3970 4 0.0 30.5745 16.1865 0 0 0
3973 4 0.0 28.776 21.582 0 0 0
2997 4 10.791 32.373 32.373 0 0 0
2840 4 8.9925 19.7835 32.373 0 0 0
3095 4 5.3955 7.194 12.5895 0 0 0
920 4 26.9775 26.9775 32.373 0 0 0
1287 4 23.3805 25.179 5.3955 0 0 0
2891 4 8.9925 25.179 8.9925 0 0 0
97 4 34.1715 14.388 30.5745 0 0 0
2054 4 17.985 23.3805 12.5895 0 0 0
145 4 34.1715 25.179 8.9925 0 0 0
3004 4 5.3955 1.7985 0.0 0 0 0
1813 4 17.985 0.0 10.791 0 0 0
2270 4 14.388 5.3955 26.9775 0 0 0
2694 4 10.791 8.9925 12.5895 0 0 0
2257 4 14.388 3.597 14.388 0 0 0
2890 4 10.791 26.9775 8.9925 0 0 0
1207 4 23.3805 17.985 5.3955 0 0 0
2497 4 14.388 25.179 14.388 0 0 0
2261 4 14.388 3.597 17.985 0 0 0
2016 4 16.1865 19.7835 10.791 0 0 0
1756 4 19.7835 30.5745 28.776 0 0 0
2889 4 10.791 25.179 7.194 0 0 0
2314 4 14.388 8.9925 30.5745 0 0 0
2278 4 14.388 5.3955 34.1715 0 0 0
753 4 28.776 10.791 28.776 0 0 0
2145 4 17.985 28.776 21.582 0 0 0
1807 4 16.1865 0.0 5.3955 0 0 0
902 4 28.776 26.9775 19.7835 0 0 0
2127 4 16.1865 28.776 5.3955 0 0 0
1208 4 23.3805 19.7835 3.597 0 0 0
756 4 26.9775 12.5895 28.776 0 0 0
1548 4 19.7835 12.5895 21.582 0 0 0
3157 4 7.194 10.791 32.373 0 0 0
1440 4 19.7835 1.7985 32.373 0 0 0
3777 4 3.597 32.373 14.388 0 0 0
958 4 28.776 30.5745 34.1715 0 0 0
859 4 26.9775 21.582 16.1865 0 0 0
592 4 30.5745 34.1715 25.179 0 0 0
559 4 30.5745 28.776 34.1715 0 0 0
1271 4 23.3805 21.582 26.9775 0 0 0
3065 4 7.194 3.597 21.582 0 0 0
3875 4 0.0 10.791 25.179 0 0 0
3217 4 7.194 17.985 14.388 0 0 0
3140 4 5.3955 12.5895 14.388 0 0 0
1635 4 19.7835 17.985 30.5745 0 0 0
1660 4 19.7835 23.3805 14.388 0 0 0
3497 4 3.597 7.194 14.388 0 0 0
195 4 34.1715 32.373 26.9775 0 0 0
3254 4 7.194 23.3805 12.5895 0 0 0
9 4 34.1715 0.0 16.1865 0 0 0
1374 4 25.179 34.1715 12.5895 0 0 0
2005 4 17.985 17.985 3.597 0 0 0
691 4 26.9775 7.194 8.9925 0 0 0
1709 4 21.582 25.179 25.179 0 0 0
1811 4 16.1865 0.0 8.9925 0 0 0
2750 4 10.791 12.5895 26.9775 0 0 0
3466 4 3.597 5.3955 23.3805 0 0 0
1333 4 25.179 28.776 10.791 0 0 0
968 4 26.9775 34.1715 3.597 0 0 0
924 4 26.9775 30.5745 0.0 0 0 0
3361 4 7.194 32.373 0.0 0 0 0
497 4 32.373 25.179 14.388 0 0 0
1145 4 25.179 10.791 21.582 0 0 0
2798 4 10.791 16.1865 34.1715 0 0 0
2396 4 12.5895 16.1865 28.776 0 0 0
1680 4 19.7835 23.3805 32.373 0 0 0
3236 4 5.3955 19.7835 28.776 0 0 0
2670 4 10.791 5.3955 26.9775 0 0 0
663 4 26.9775 3.597 19.7835 0 0 0
2099 4 16.1865 25.179 16.1865 0 0 0
1165 4 25.179 14.388 3.597 0 0 0
3628 4 1.7985 19.7835 21.582 0 0 0
112 4 34.1715 19.7835 17.985 0 0 0
19 4 34.1715 0.0 34.1715 0 0 0
464 4 30.5745 23.3805 17.985 0 0 0
2925 4 10.791 28.776 3.597 0 0 0
1176 4 23.3805 16.1865 10.791 0 0 0
2836 4 8.9925 19.7835 28.776 0 0 0
2237 4 14.388 0.0 32.373 0 0 0
3120 4 5.3955 8.9925 32.373 0 0 0
3582 4 3.597 16.1865 19.7835 0 0 0
2637 4 10.791 0.0 32.373 0 0 0
2092 4 16.1865 26.9775 7.194 0 0 0
3552 4 1.7985 12.5895 25.179 0 0 0
2393 4 14.388 14.388 28.776 0 0 0
530 4 32.373 30.5745 8.9925 0 0 0
1261 4 25.179 21.582 17.985 0 0 0
2189 4 17.985 32.373 25.179 0 0 0
2419 4 12.5895 17.985 16.1865 0 0 0
3245 4 7.194 21.582 3.597 0 0 0
1487 4 19.7835 7.194 5.3955 0 0 0
156 4 34.1715 26.9775 25.179 0 0 0
120 4 34.1715 19.7835 32.373 0 0 0
3028 4 5.3955 1.7985 21.582 0 0 0
1489 4 21.582 7.194 7.194 0 0 0
1096 4 23.3805 8.9925 10.791 0 0 0
3786 4 3.597 34.1715 23.3805 0 0 0
1700 4 19.7835 26.9775 14.388 0 0 0
3579 4 1.7985 14.388 16.1865 0 0 0
1203 4 23.3805 17.985 1.7985 0 0 0
2316 4 12.5895 8.9925 28.776 0 0 0
853 4 28.776 21.582 10.791 0 0 0
2538 4 14.388 30.5745 16.1865 0 0 0
2768 4 8.9925 16.1865 3.597 0 0 0
2562 4 14.388 34.1715 1.7985 0 0 0
3657 4 3.597 21.582 14.388 0 0 0
2535 4 12.5895 28.776 12.5895 0 0 0
1517 4 21.582 7.194 32.373 0 0 0
462 4 32.373 23.3805 19.7835 0 0 0
3287 4 5.3955 25.179 5.3955 0 0 0
3567 4 1.7985 14.388 5.3955 0 0 0
2062 4 17.985 23.3805 19.7835 0 0 0
236 4 30.5745 1.7985 28.776 0 0 0
3290 4 7.194 26.9775 8.9925 0 0 0
2194 4 17.985 34.1715 30.5745 0 0 0
2053 4 17.985 21.582 10.791 0 0 0
3348 4 5.3955 30.5745 21.582 0 0 0
1289 4 25.179 25.179 7.194 0 0 0
3636 4 1.7985 19.7835 28.776 0 0 0
569 4 32.373 32.373 7.194 0 0 0
153 4 34.1715 25.179 23.3805 0 0 0
2810 4 10.791 19.7835 8.9925 0 0 0
511 4 30.5745 25.179 26.9775 0 0 0
3612 4 1.7985 19.7835 7.194 0 0 0
3319 4 5.3955 25.179 34.1715 0 0 0
3374 4 7.194 34.1715 12.5895 0 0 0
2354 4 14.388 12.5895 30.5745 0 0 0
2575 4 12.5895 32.373 12.5895 0 0 0
1798 4 21.582 34.1715 34.1715 0 0 0
1359 4 23.3805 28.776 34.1715 0 0 0
2077 4 17.985 21.582 32.373 0 0 0
1989 4 17.985 14.388 25.179 0 0 0
3284 4 5.3955 26.9775 0.0 0 0 0
908 4 26.9775 26.9775 21.582 0 0 0
3958 4 0.0 26.9775 30.5745 0 0 0
328 4 30.5745 12.5895 3.597 0 0 0
3462 4 3.597 5.3955 19.7835 0 0 0
1589 4 21.582 14.388 25.179 0 0 0
575 4 30.5745 32.373 12.5895 0 0 0
3282 4 7.194 26.9775 1.7985 0 0 0
396 4 30.5745 16.1865 28.776 0 0 0
3519 4 1.7985 7.194 34.1715 0 0 0
3528 4 1.7985 12.5895 3.597 0 0 0
1163 4 23.3805 14.388 1.7985 0 0 0
2307 4 12.5895 7.194 23.3805 0 0 0
2517 4 14.388 25.179 32.373 0 0 0
1098 4 25.179 8.9925 16.1865 0 0 0
1348 4 23.3805 30.5745 21.582 0 0 0
214 4 32.373 1.7985 12.5895 0 0 0
3100 4 5.3955 8.9925 14.388 0 0 0
1389 4 25.179 32.373 25.179 0 0 0
2359 4 12.5895 10.791 34.1715 0 0 0
2725 4 10.791 10.791 3.597 0 0 0
2493 4 14.388 25.179 10.791 0 0 0
67 4 34.1715 10.791 12.5895 0 0 0
3581 4 3.597 14.388 17.985 0 0 0
2629 4 10.791 0.0 25.179 0 0 0
2503 4 12.5895 25.179 19.7835 0 0 0
732 4 26.9775 12.5895 7.194 0 0 0
3292 4 5.3955 26.9775 7.194 0 0 0
1461 4 21.582 3.597 17.985 0 0 0
1885 4 17.985 7.194 3.597 0 0 0
1957 4 17.985 10.791 32.373 0 0 0
1598 4 21.582 16.1865 34.1715 0 0 0
255 4 30.5745 3.597 12.5895 0 0 0
2482 4 14.388 26.9775 1.7985 0 0 0
3921 4 0.0 21.582 0.0 0 0 0
1745 4 21.582 28.776 21.582 0 0 0
3190 4 7.194 16.1865 26.9775 0 0 0
3154 4 7.194 12.5895 30.5745 0 0 0
1277 4 25.179 21.582 32.373 0 0 0
1284 4 23.3805 26.9775 0.0 0 0 0
1361 4 25.179 32.373 0.0 0 0 0
3097 4 7.194 7.194 14.388 0 0 0
3872 4 0.0 12.5895 19.7835 0 0 0
848 4 26.9775 23.3805 3.597 0 0 0
159 4 34.1715 25.179 34.1715 0 0 0
2964 4 8.9925 34.1715 0.0 0 0 0
2878 4 10.791 23.3805 34.1715 0 0 0
2630 4 10.791 1.7985 26.9775 0 0 0
1148 4 23.3805 12.5895 21.582 0 0 0
2330 4 14.388 12.5895 8.9925 0 0 0
905 4 28.776 25.179 21.582 0 0 0
2687 4 8.9925 7.194 5.3955 0 0 0
3584 4 1.7985 16.1865 17.985 0 0 0
3128 4 5.3955 12.5895 3.597 0 0 0
2231 4 12.5895 0.0 26.9775 0 0 0
3684 4 1.7985 26.9775 0.0 0 0 0
705 4 28.776 7.194 21.582 0 0 0
1959 4 16.1865 10.791 34.1715 0 0 0
1369 4 25.179 32.373 7.194 0 0 0
272 4 30.5745 5.3955 25.179 0 0 0
3524 4 1.7985 12.5895 0.0 0 0 0
3874 4 0.0 12.5895 23.3805 0 0 0
2013 4 17.985 17.985 10.791 0 0 0
493 4 32.373 25.179 10.791 0 0 0
3570 4 3.597 16.1865 8.9925 0 0 0
3259 4 5.3955 21.582 16.1865 0 0 0
3542 4 3.597 12.5895 19.7835 0 0 0
1282 4 25.179 26.9775 1.7985 0 0 0
3323 4 5.3955 28.776 1.7985 0 0 0
733 4 28.776 10.791 10.791 0 0 0
2628 4 8.9925 1.7985 21.582 0 0 0
2850 4 10.791 23.3805 8.9925 0 0 0
1166 4 25.179 16.1865 5.3955 0 0 0
2915 4 8.9925 25.179 30.5745 0 0 0
357 4 32.373 10.791 32.373 0 0 0
1257 4 25.179 21.582 14.388 0 0 0
1597 4 21.582 14.388 32.373 0 0 0
446 4 32.373 23.3805 5.3955 0 0 0
2965 4 10.791 32.373 3.597 0 0 0
1221 4 25.179 17.985 17.985 0 0 0
3647 4 1.7985 21.582 5.3955 0 0 0
654 4 28.776 5.3955 12.5895 0 0 0
1102 4 25.179 8.9925 19.7835 0 0 0
1378 4 25.179 34.1715 16.1865 0 0 0
1326 4 25.179 30.5745 5.3955 0 0 0
897 4 28.776 25.179 14.388 0 0 0
2342 4 14.388 12.5895 19.7835 0 0 0
1322 4 25.179 30.5745 1.7985 0 0 0
2872 4 8.9925 23.3805 25.179 0 0 0
648 4 26.9775 5.3955 3.597 0 0 0
3870 4 0.0 12.5895 16.1865 0 0 0
3307 4 5.3955 25.179 23.3805 0 0 0
2097 4 17.985 25.179 14.388 0 0 0
228 4 30.5745 1.7985 21.582 0 0 0
2984 4 8.9925 34.1715 17.985 0 0 0
417 4 32.373 17.985 14.388 0 0 0
1838 4 17.985 1.7985 34.1715 0 0 0
843 4 26.9775 21.582 1.7985 0 0 0
2265 4 14.388 3.597 21.582 0 0 0
3809 4 0.0 0.0 14.388 0 0 0
3800 4 1.7985 34.1715 32.373 0 0 0
1961 4 17.985 14.388 0.0 0 0 0
635 4 26.9775 0.0 30.5745 0 0 0
176 4 34.1715 30.5745 25.179 0 0 0
3963 4 0.0 28.776 3.597 0 0 0
3320 4 5.3955 26.9775 32.373 0 0 0
2751 4 8.9925 10.791 26.9775 0 0 0
3948 4 0.0 26.9775 12.5895 0 0 0
248 4 30.5745 5.3955 3.597 0 0 0
198 4 34.1715 34.1715 28.776 0 0 0
3260 4 5.3955 23.3805 14.388 0 0 0
3020 4 5.3955 1.7985 14.388 0 0 0
1198 4 25.179 16.1865 34.1715 0 0 0
1869 4 17.985 3.597 25.179 0 0 0
3279 4 5.3955 21.582 34.1715 0 0 0
1855 4 16.1865 3.597 12.5895 0 0 0
262 4 32.373 5.3955 19.7835 0 0 0
118 4 34.1715 19.7835 28.776 0 0 0
3400 4 5.3955 34.1715 32.373 0 0 0
3917 4 0.0 17.985 28.776 0 0 0
1112 4 23.3805 8.9925 25.179 0 0 0
812 4 26.9775 19.7835 7.194 0 0 0
2357 4 14.388 10.791 32.373 0 0 0
3698 4 3.597 26.9775 16.1865 0 0 0
2985 4 10.791 32.373 21.582 0 0 0
483 4 30.5745 25.179 1.7985 0 0 0
2338 4 14.388 12.5895 16.1865 0 0 0
1587 4 19.7835 14.388 23.3805 0 0 0
3569 4 3.597 14.388 7.194 0 0 0
677 4 28.776 3.597 32.373 0 0 0
3058 4 7.194 5.3955 16.1865 0 0 0
3702 4 3.597 26.9775 19.7835 0 0 0
630 4 28.776 1.7985 26.9775 0 0 0
2106 4 17.985 26.9775 23.3805 0 0 0
3444 4 1.7985 5.3955 0.0 0 0 0
3571 4 1.7985 14.388 8.9925 0 0 0
3815 4 0.0 0.0 25.179 0 0 0
2649 4 10.791 3.597 7.194 0 0 0
2846 4 10.791 23.3805 5.3955 0 0 0
314 4 32.373 8.9925 30.5745 0 0 0
264 4 30.5745 5.3955 17.985 0 0 0
3256 4 5.3955 23.3805 10.791 0 0 0
1694 4 21.582 26.9775 12.5895 0 0 0
2413 4 14.388 17.985 10.791 0 0 0
2132 4 16.1865 30.5745 7.194 0 0 0
1785 4 21.582 32.373 21.582 0 0 0
3204 4 5.3955 19.7835 0.0 0 0 0
3602 4 3.597 19.7835 1.7985 0 0 0
2451 4 12.5895 21.582 8.9925 0 0 0
659 4 26.9775 3.597 16.1865 0 0 0
2692 4 8.9925 8.9925 7.194 0 0 0
1173 4 25.179 14.388 10.791 0 0 0
3896 4 0.0 16.1865 26.9775 0 0 0
2987 4 8.9925 32.373 23.3805 0 0 0
1429 4 21.582 0.0 25.179 0 0 0
904 4 26.9775 26.9775 17.985 0 0 0
3029 4 7.194 0.0 25.179 0 0 0
3607 4 1.7985 17.985 5.3955 0 0 0
1867 4 16.1865 3.597 23.3805 0 0 0
1267 4 23.3805 21.582 23.3805 0 0 0
589 4 32.373 32.373 25.179 0 0 0
2041 4 17.985 21.582 0.0 0 0 0
3390 4 7.194 34.1715 26.9775 0 0 0
764 4 26.9775 16.1865 0.0 0 0 0
3269 4 7.194 21.582 25.179 0 0 0
291 4 30.5745 7.194 8.9925 0 0 0
2167 4 16.1865 32.373 5.3955 0 0 0
1349 4 25.179 28.776 25.179 0 0 0
1033 4 25.179 0.0 28.776 0 0 0
1608 4 19.7835 19.7835 3.597 0 0 0
2178 4 17.985 34.1715 16.1865 0 0 0
2476 4 12.5895 23.3805 28.776 0 0 0
747 4 26.9775 10.791 23.3805 0 0 0
1215 4 23.3805 17.985 12.5895 0 0 0
3537 4 3.597 10.791 14.388 0 0 0
385 4 32.373 14.388 21.582 0 0 0
1977 4 17.985 14.388 14.388 0 0 0
3129 4 7.194 10.791 7.194 0 0 0
1576 4 19.7835 16.1865 10.791 0 0 0
2135 4 16.1865 28.776 12.5895 0 0 0
3847 4 0.0 7.194 10.791 0 0 0
1969 4 17.985 14.388 7.194 0 0 0
3464 4 1.7985 5.3955 17.985 0 0 0
1070 4 25.179 5.3955 26.9775 0 0 0
337 4 32.373 10.791 14.388 0 0 0
1629 4 21.582 17.985 25.179 0 0 0
1988 4 16.1865 16.1865 21.582 0 0 0
1170 4 25.179 16.1865 8.9925 0 0 0
1340 4 23.3805 30.5745 14.388 0 0 0
449 4 32.373 21.582 7.194 0 0 0
3381 4 7.194 32.373 17.985 0 0 0
927 4 26.9775 28.776 5.3955 0 0 0
844 4 26.9775 23.3805 0.0 0 0 0
818 4 28.776 19.7835 16.1865 0 0 0
3625 4 3.597 17.985 21.582 0 0 0
1463 4 19.7835 3.597 19.7835 0 0 0
3705 4 3.597 25.179 21.582 0 0 0
2504 4 12.5895 26.9775 17.985 0 0 0
1093 4 25.179 7.194 10.791 0 0 0
1939 4 16.1865 10.791 16.1865 0 0 0
3806 4 0.0 1.7985 8.9925 0 0 0
2961 4 10.791 32.373 0.0 0 0 0
238 4 32.373 1.7985 34.1715 0 0 0
2447 4 12.5895 21.582 5.3955 0 0 0
200 4 34.1715 34.1715 32.373 0 0 0
3942 4 0.0 26.9775 1.7985 0 0 0
3843 4 0.0 7.194 3.597 0 0 0
2913 4 10.791 25.179 28.776 0 0 0
1103 4 23.3805 7.194 19.7835 0 0 0
1497 4 21.582 7.194 14.388 0 0 0
3463 4 1.7985 3.597 19.7835 0 0 0
498 4 32.373 26.9775 16.1865 0 0 0
1344 4 23.3805 30.5745 17.985 0 0 0
229 4 32.373 0.0 25.179 0 0 0
2343 4 12.5895 10.791 19.7835 0 0 0
773 4 28.776 14.388 10.791 0 0 0
1169 4 25.179 14.388 7.194 0 0 0
1970 4 17.985 16.1865 8.9925 0 0 0
3944 4 0.0 26.9775 5.3955 0 0 0
1285 4 25.179 25.179 3.597 0 0 0
2514 4 14.388 26.9775 30.5745 0 0 0
2287 4 12.5895 7.194 5.3955 0 0 0
2335 4 12.5895 10.791 12.5895 0 0 0
754 4 28.776 12.5895 30.5745 0 0 0
2775 4 8.9925 14.388 12.5895 0 0 0
317 4 32.373 7.194 32.373 0 0 0
270 4 32.373 5.3955 26.9775 0 0 0
2936 4 8.9925 30.5745 10.791 0 0 0
2875 4 8.9925 21.582 30.5745 0 0 0
963 4 26.9775 32.373 1.7985 0 0 0
2479 4 12.5895 21.582 34.1715 0 0 0
1255 4 23.3805 21.582 12.5895 0 0 0
3563 4 1.7985 14.388 1.7985 0 0 0
1230 4 25.179 19.7835 26.9775 0 0 0
2731 4 8.9925 10.791 8.9925 0 0 0
3407 4 1.7985 0.0 5.3955 0 0 0
2427 4 12.5895 17.985 23.3805 0 0 0
516 4 30.5745 26.9775 28.776 0 0 0
3555 4 1.7985 10.791 30.5745 0 0 0
714 4 28.776 8.9925 30.5745 0 0 0
258 4 32.373 5.3955 16.1865 0 0 0
3088 4 5.3955 8.9925 3.597 0 0 0
577 4 32.373 32.373 14.388 0 0 0
2671 4 8.9925 3.597 26.9775 0 0 0
3518 4 3.597 8.9925 34.1715 0 0 0
13 5 34.1715 0.0 23.3805 0 0 0
15 5 34.1715 0.0 26.9775 0 0 0
16 5 34.1715 1.7985 25.179 0 0 0
18 5 34.1715 1.7985 28.776 0 0 0
22 5 34.1715 5.3955 0.0 0 0 0
23 5 34.1715 3.597 5.3955 0 0 0
38 5 34.1715 5.3955 28.776 0 0 0
39 5 34.1715 3.597 34.1715 0 0 0
49 5 34.1715 7.194 16.1865 0 0 0
51 5 34.1715 7.194 19.7835 0 0 0
53 5 34.1715 7.194 23.3805 0 0 0
54 5 34.1715 8.9925 21.582 0 0 0
58 5 34.1715 8.9925 28.776 0 0 0
61 5 34.1715 10.791 1.7985 0 0 0
64 5 34.1715 12.5895 3.597 0 0 0
81 5 34.1715 14.388 1.7985 0 0 0
85 5 34.1715 14.388 8.9925 0 0 0
86 5 34.1715 16.1865 7.194 0 0 0
87 5 34.1715 14.388 12.5895 0 0 0
88 5 34.1715 16.1865 10.791 0 0 0
90 5 34.1715 16.1865 14.388 0 0 0
92 5 34.1715 16.1865 17.985 0 0 0
98 5 34.1715 16.1865 28.776 0 0 0
99 5 34.1715 14.388 34.1715 0 0 0
102 5 34.1715 19.7835 0.0 0 0 0
103 5 34.1715 17.985 5.3955 0 0 0
105 5 34.1715 17.985 8.9925 0 0 0
107 5 34.1715 17.985 12.5895 0 0 0
108 5 34.1715 19.7835 10.791 0 0 0
115 5 34.1715 17.985 26.9775 0 0 0
117 5 34.1715 17.985 30.5745 0 0 0
121 5 34.1715 21.582 1.7985 0 0 0
122 5 34.1715 23.3805 0.0 0 0 0
125 5 34.1715 21.582 8.9925 0 0 0
133 5 34.1715 21.582 23.3805 0 0 0
134 5 34.1715 23.3805 21.582 0 0 0
135 5 34.1715 21.582 26.9775 0 0 0
138 5 34.1715 23.3805 28.776 0 0 0
142 5 34.1715 26.9775 0.0 0 0 0
148 5 34.1715 26.9775 10.791 0 0 0
151 5 34.1715 25.179 19.7835 0 0 0
162 5 34.1715 30.5745 0.0 0 0 0
163 5 34.1715 28.776 5.3955 0 0 0
166 5 34.1715 30.5745 7.194 0 0 0
169 5 34.1715 28.776 16.1865 0 0 0
177 5 34.1715 28.776 30.5745 0 0 0
178 5 34.1715 30.5745 28.776 0 0 0
187 5 34.1715 32.373 12.5895 0 0 0
188 5 34.1715 34.1715 10.791 0 0 0
191 5 34.1715 32.373 19.7835 0 0 0
193 5 34.1715 32.373 23.3805 0 0 0
197 5 34.1715 32.373 30.5745 0 0 0
199 5 34.1715 32.373 34.1715 0 0 0
205 5 32.373 0.0 3.597 0 0 0
207 5 30.5745 0.0 5.3955 0 0 0
208 5 30.5745 1.7985 3.597 0 0 0
212 5 30.5745 1.7985 7.194 0 0 0
216 5 30.5745 1.7985 10.791 0 0 0
220 5 30.5745 1.7985 14.388 0 0 0
222 5 32.373 1.7985 19.7835 0 0 0
224 5 30.5745 1.7985 17.985 0 0 0
232 5 30.5745 1.7985 25.179 0 0 0
233 5 32.373 0.0 28.776 0 0 0
237 5 32.373 0.0 32.373 0 0 0
244 5 30.5745 5.3955 0.0 0 0 0
245 5 32.373 3.597 3.597 0 0 0
249 5 32.373 3.597 7.194 0 0 0
257 5 32.373 3.597 14.388 0 0 0
259 5 30.5745 3.597 16.1865 0 0 0
263 5 30.5745 3.597 19.7835 0 0 0
266 5 32.373 5.3955 23.3805 0 0 0
275 5 30.5745 3.597 30.5745 0 0 0
277 5 32.373 3.597 32.373 0 0 0
280 5 30.5745 5.3955 32.373 0 0 0
281 5 32.373 7.194 0.0 0 0 0
282 5 32.373 8.9925 1.7985 0 0 0
283 5 30.5745 7.194 1.7985 0 0 0
284 5 30.5745 8.9925 0.0 0 0 0
288 5 30.5745 8.9925 3.597 0 0 0
289 5 32.373 7.194 7.194 0 0 0
294 5 32.373 8.9925 12.5895 0 0 0
297 5 32.373 7.194 14.388 0 0 0
299 5 30.5745 7.194 16.1865 0 0 0
301 5 32.373 7.194 17.985 0 0 0
307 5 30.5745 7.194 23.3805 0 0 0
310 5 32.373 8.9925 26.9775 0 0 0
313 5 32.373 7.194 28.776 0 0 0
321 5 32.373 10.791 0.0 0 0 0
322 5 32.373 12.5895 1.7985 0 0 0
323 5 30.5745 10.791 1.7985 0 0 0
327 5 30.5745 10.791 5.3955 0 0 0
332 5 30.5745 12.5895 7.194 0 0 0
341 5 32.373 10.791 17.985 0 0 0
342 5 32.373 12.5895 19.7835 0 0 0
346 5 32.373 12.5895 23.3805 0 0 0
347 5 30.5745 10.791 23.3805 0 0 0
350 5 32.373 12.5895 26.9775 0 0 0
355 5 30.5745 10.791 30.5745 0 0 0
366 5 32.373 16.1865 5.3955 0 0 0
368 5 30.5745 16.1865 3.597 0 0 0
369 5 32.373 14.388 7.194 0 0 0
370 5 32.373 16.1865 8.9925 0 0 0
371 5 30.5745 14.388 8.9925 0 0 0
374 5 32.373 16.1865 12.5895 0 0 0
376 5 30.5745 16.1865 10.791 0 0 0
380 5 30.5745 16.1865 14.388 0 0 0
382 5 32.373 16.1865 19.7835 0 0 0
383 5 30.5745 14.388 19.7835 0 0 0
388 5 30.5745 16.1865 21.582 0 0 0
390 5 32.373 16.1865 26.9775 0 0 0
394 5 32.373 16.1865 30.5745 0 0 0
395 5 30.5745 14.388 30.5745 0 0 0
397 5 32.373 14.388 32.373 0 0 0
398 5 32.373 16.1865 34.1715 0 0 0
399 5 30.5745 14.388 34.1715 0 0 0
405 5 32.373 17.985 3.597 0 0 0
407 5 30.5745 17.985 5.3955 0 0 0
414 5 32.373 19.7835 12.5895 0 0 0
418 5 32.373 19.7835 16.1865 0 0 0
422 5 32.373 19.7835 19.7835 0 0 0
424 5 30.5745 19.7835 17.985 0 0 0
425 5 32.373 17.985 21.582 0 0 0
430 5 32.373 19.7835 26.9775 0 0 0
432 5 30.5745 19.7835 25.179 0 0 0
437 5 32.373 17.985 32.373 0 0 0
439 5 30.5745 17.985 34.1715 0 0 0
440 5 30.5745 19.7835 32.373 0 0 0
455 5 30.5745 21.582 12.5895 0 0 0
457 5 32.373 21.582 14.388 0 0 0
463 5 30.5745 21.582 19.7835 0 0 0
467 5 30.5745 21.582 23.3805 0 0 0
470 5 32.373 23.3805 26.9775 0 0 0
471 5 30.5745 21.582 26.9775 0 0 0
477 5 32.373 21.582 32.373 0 0 0
479 5 30.5745 21.582 34.1715 0 0 0
482 5 32.373 26.9775 1.7985 0 0 0
487 5 30.5745 25.179 5.3955 0 0 0
490 5 32.373 26.9775 8.9925 0 0 0
500 5 30.5745 26.9775 14.388 0 0 0
501 5 32.373 25.179 17.985 0 0 0
503 5 30.5745 25.179 19.7835 0 0 0
504 5 30.5745 26.9775 17.985 0 0 0
510 5 32.373 26.9775 26.9775 0 0 0
514 5 32.373 26.9775 30.5745 0 0 0
517 5 32.373 25.179 32.373 0 0 0
521 5 32.373 28.776 0.0 0 0 0
524 5 30.5745 30.5745 0.0 0 0 0
525 5 32.373 28.776 3.597 0 0 0
531 5 30.5745 28.776 8.9925 0 0 0
535 5 30.5745 28.776 12.5895 0 0 0
536 5 30.5745 30.5745 10.791 0 0 0
537 5 32.373 28.776 14.388 0 0 0
538 5 32.373 30.5745 16.1865 0 0 0
542 5 32.373 30.5745 19.7835 0 0 0
544 5 30.5745 30.5745 17.985 0 0 0
547 5 30.5745 28.776 23.3805 0 0 0
554 5 32.373 30.5745 30.5745 0 0 0
567 5 30.5745 32.373 5.3955 0 0 0
568 5 30.5745 34.1715 3.597 0 0 0
574 5 32.373 34.1715 12.5895 0 0 0
576 5 30.5745 34.1715 10.791 0 0 0
578 5 32.373 34.1715 16.1865 0 0 0
581 5 32.373 32.373 17.985 0 0 0
582 5 32.373 34.1715 19.7835 0 0 0
584 5 30.5745 34.1715 17.985 0 0 0
590 5 32.373 34.1715 26.9775 0 0 0
601 5 28.776 0.0 0.0 0 0 0
602 5 28.776 1.7985 1.7985 0 0 0
605 5 28.776 0.0 3.597 0 0 0
607 5 26.9775 0.0 5.3955 0 0 0
608 5 26.9775 1.7985 3.597 0 0 0
611 5 26.9775 0.0 8.9925 0 0 0
613 5 28.776 0.0 10.791 0 0 0
614 5 28.776 1.7985 12.5895 0 0 0
617 5 28.776 0.0 14.388 0 0 0
621 5 28.776 0.0 17.985 0 0 0
623 5 26.9775 0.0 19.7835 0 0 0
634 5 28.776 1.7985 30.5745 0 0 0
638 5 28.776 1.7985 34.1715 0 0 0
642 5 28.776 5.3955 1.7985 0 0 0
645 5 28.776 3.597 3.597 0 0 0
646 5 28.776 5.3955 5.3955 0 0 0
649 5 28.776 3.597 7.194 0 0 0
650 5 28.776 5.3955 8.9925 0 0 0
656 5 26.9775 5.3955 10.791 0 0 0
664 5 26.9775 5.3955 17.985 0 0 0
667 5 26.9775 3.597 23.3805 0 0 0
672 5 26.9775 5.3955 25.179 0 0 0
674 5 28.776 5.3955 30.5745 0 0 0
678 5 28.776 5.3955 34.1715 0 0 0
679 5 26.9775 3.597 34.1715 0 0 0
680 5 26.9775 5.3955 32.373 0 0 0
683 5 26.9775 7.194 1.7985 0 0 0
686 5 28.776 8.9925 5.3955 0 0 0
693 5 28.776 7.194 10.791 0 0 0
706 5 28.776 8.9925 23.3805 0 0 0
707 5 26.9775 7.194 23.3805 0 0 0
712 5 26.9775 8.9925 25.179 0 0 0
727 5 26.9775 10.791 5.3955 0 0 0
729 5 28.776 10.791 7.194 0 0 0
730 5 28.776 12.5895 8.9925 0 0 0
742 5 28.776 12.5895 19.7835 0 0 0
746 5 28.776 12.5895 23.3805 0 0 0
748 5 26.9775 12.5895 21.582 0 0 0
749 5 28.776 10.791 25.179 0 0 0
750 5 28.776 12.5895 26.9775 0 0 0
752 5 26.9775 12.5895 25.179 0 0 0
766 5 28.776 16.1865 5.3955 0 0 0
771 5 26.9775 14.388 8.9925 0 0 0
774 5 28.776 16.1865 12.5895 0 0 0
781 5 28.776 14.388 17.985 0 0 0
783 5 26.9775 14.388 19.7835 0 0 0
784 5 26.9775 16.1865 17.985 0 0 0
787 5 26.9775 14.388 23.3805 0 0 0
790 5 28.776 16.1865 26.9775 0 0 0
793 5 28.776 14.388 28.776 0 0 0
795 5 26.9775 14.388 30.5745 0 0 0
801 5 28.776 17.985 0.0 0 0 0
802 5 28.776 19.7835 1.7985 0 0 0
803 5 26.9775 17.985 1.7985 0 0 0
804 5 26.9775 19.7835 0.0 0 0 0
809 5 28.776 17.985 7.194 0 0 0
813 5 28.776 17.985 10.791 0 0 0
817 5 28.776 17.985 14.388 0 0 0
827 5 26.9775 17.985 23.3805 0 0 0
828 5 26.9775 19.7835 21.582 0 0 0
847 5 26.9775 21.582 5.3955 0 0 0
849 5 28.776 21.582 7.194 0 0 0
857 5 28.776 21.582 14.388 0 0 0
862 5 28.776 23.3805 19.7835 0 0 0
865 5 28.776 21.582 21.582 0 0 0
866 5 28.776 23.3805 23.3805 0 0 0
867 5 26.9775 21.582 23.3805 0 0 0
868 5 26.9775 23.3805 21.582 0 0 0
869 5 28.776 21.582 25.179 0 0 0
872 5 26.9775 23.3805 25.179 0 0 0
877 5 28.776 21.582 32.373 0 0 0
879 5 26.9775 21.582 34.1715 0 0 0
881 5 28.776 25.179 0.0 0 0 0
885 5 28.776 25.179 3.597 0 0 0
887 5 26.9775 25.179 5.3955 0 0 0
891 5 26.9775 25.179 8.9925 0 0 0
896 5 26.9775 26.9775 10.791 0 0 0
900 5 26.9775 26.9775 14.388 0 0 0
903 5 26.9775 25.179 19.7835 0 0 0
906 5 28.776 26.9775 23.3805 0 0 0
911 5 26.9775 25.179 26.9775 0 0 0
915 5 26.9775 25.179 30.5745 0 0 0
917 5 28.776 25.179 32.373 0 0 0
922 5 28.776 30.5745 1.7985 0 0 0
923 5 26.9775 28.776 1.7985 0 0 0
930 5 28.776 30.5745 8.9925 0 0 0
931 5 26.9775 28.776 8.9925 0 0 0
938 5 28.776 30.5745 16.1865 0 0 0
939 5 26.9775 28.776 16.1865 0 0 0
940 5 26.9775 30.5745 14.388 0 0 0
941 5 28.776 28.776 17.985 0 0 0
942 5 28.776 30.5745 19.7835 0 0 0
947 5 26.9775 28.776 23.3805 0 0 0
948 5 26.9775 30.5745 21.582 0 0 0
955 5 26.9775 28.776 30.5745 0 0 0
957 5 28.776 28.776 32.373 0 0 0
959 5 26.9775 28.776 34.1715 0 0 0
965 5 28.776 32.373 3.597 0 0 0
973 5 28.776 32.373 10.791 0 0 0
982 5 28.776 34.1715 19.7835 0 0 0
983 5 26.9775 32.373 19.7835 0 0 0
986 5 28.776 34.1715 23.3805 0 0 0
997 5 28.776 32.373 32.373 0 0 0
1000 5 26.9775 34.1715 32.373 0 0 0
1004 5 23.3805 1.7985 0.0 0 0 0
1010 5 25.179 1.7985 8.9925 0 0 0
1014 5 25.179 1.7985 12.5895 0 0 0
1015 5 23.3805 0.0 12.5895 0 0 0
1016 5 23.3805 1.7985 10.791 0 0 0
1020 5 23.3805 1.7985 14.388 0 0 0
1023 5 23.3805 0.0 19.7835 0 0 0
1026 5 25.179 1.7985 23.3805 0 0 0
1029 5 25.179 0.0 25.179 0 0 0
1041 5 25.179 3.597 0.0 0 0 0
1042 5 25.179 5.3955 1.7985 0 0 0
1044 5 23.3805 5.3955 0.0 0 0 0
1047 5 23.3805 3.597 5.3955 0 0 0
1050 5 25.179 5.3955 8.9925 0 0 0
1051 5 23.3805 3.597 8.9925 0 0 0
1052 5 23.3805 5.3955 7.194 0 0 0
1053 5 25.179 3.597 10.791 0 0 0
1057 5 25.179 3.597 14.388 0 0 0
1060 5 23.3805 5.3955 14.388 0 0 0
1068 5 23.3805 5.3955 21.582 0 0 0
1076 5 23.3805 5.3955 28.776 0 0 0
1078 5 25.179 5.3955 34.1715 0 0 0
1084 5 23.3805 8.9925 0.0 0 0 0
1089 5 25.179 7.194 7.194 0 0 0
1092 5 23.3805 8.9925 7.194 0 0 0
1095 5 23.3805 7.194 12.5895 0 0 0
1097 5 25.179 7.194 14.388 0 0 0
1100 5 23.3805 8.9925 14.388 0 0 0
1105 5 25.179 7.194 21.582 0 0 0
1120 5 23.3805 8.9925 32.373 0 0 0
1128 5 23.3805 12.5895 3.597 0 0 0
1130 5 25.179 12.5895 8.9925 0 0 0
1132 5 23.3805 12.5895 7.194 0 0 0
1133 5 25.179 10.791 10.791 0 0 0
1135 5 23.3805 10.791 12.5895 0 0 0
1138 5 25.179 12.5895 16.1865 0 0 0
1139 5 23.3805 10.791 16.1865 0 0 0
1149 5 25.179 10.791 25.179 0 0 0
1150 5 25.179 12.5895 26.9775 0 0 0
1151 5 23.3805 10.791 26.9775 0 0 0
1155 5 23.3805 10.791 30.5745 0 0 0
1159 5 23.3805 10.791 34.1715 0 0 0
1161 5 25.179 14.388 0.0 0 0 0
1162 5 25.179 16.1865 1.7985 0 0 0
1171 5 23.3805 14.388 8.9925 0 0 0
1179 5 23.3805 14.388 16.1865 0 0 0
1181 5 25.179 14.388 17.985 0 0 0
1183 5 23.3805 14.388 19.7835 0 0 0
1186 5 25.179 16.1865 23.3805 0 0 0
1187 5 23.3805 14.388 23.3805 0 0 0
1190 5 25.179 16.1865 26.9775 0 0 0
1193 5 25.179 14.388 28.776 0 0 0
1195 5 23.3805 14.388 30.5745 0 0 0
1200 5 23.3805 16.1865 32.373 0 0 0
1217 5 25.179 17.985 14.388 0 0 0
1218 5 25.179 19.7835 16.1865 0 0 0
1220 5 23.3805 19.7835 14.388 0 0 0
1223 5 23.3805 17.985 19.7835 0 0 0
1232 5 23.3805 19.7835 25.179 0 0 0
1234 5 25.179 19.7835 30.5745 0 0 0
1239 5 23.3805 17.985 34.1715 0 0 0
1244 5 23.3805 23.3805 0.0 0 0 0
1248 5 23.3805 23.3805 3.597 0 0 0
1249 5 25.179 21.582 7.194 0 0 0
1252 5 23.3805 23.3805 7.194 0 0 0
1254 5 25.179 23.3805 12.5895 0 0 0
1259 5 23.3805 21.582 16.1865 0 0 0
1264 5 23.3805 23.3805 17.985 0 0 0
1265 5 25.179 21.582 21.582 0 0 0
1266 5 25.179 23.3805 23.3805 0 0 0
1268 5 23.3805 23.3805 21.582 0 0 0
1269 5 25.179 21.582 25.179 0 0 0
1272 5 23.3805 23.3805 25.179 0 0 0
1279 5 23.3805 21.582 34.1715 0 0 0
1281 5 25.179 25.179 0.0 0 0 0
1292 5 23.3805 26.9775 7.194 0 0 0
1298 5 25.179 26.9775 16.1865 0 0 0
1299 5 23.3805 25.179 16.1865 0 0 0
1305 5 25.179 25.179 21.582 0 0 0
1317 5 25.179 25.179 32.373 0 0 0
1319 5 23.3805 25.179 34.1715 0 0 0
1320 5 23.3805 26.9775 32.373 0 0 0
1324 5 23.3805 30.5745 0.0 0 0 0
1334 5 25.179 30.5745 12.5895 0 0 0
1335 5 23.3805 28.776 12.5895 0 0 0
1336 5 23.3805 30.5745 10.791 0 0 0
1339 5 23.3805 28.776 16.1865 0 0 0
1341 5 25.179 28.776 17.985 0 0 0
1342 5 25.179 30.5745 19.7835 0 0 0
1347 5 23.3805 28.776 23.3805 0 0 0
1350 5 25.179 30.5745 26.9775 0 0 0
1355 5 23.3805 28.776 30.5745 0 0 0
1362 5 25.179 34.1715 1.7985 0 0 0
1364 5 23.3805 34.1715 0.0 0 0 0
1365 5 25.179 32.373 3.597 0 0 0
1371 5 23.3805 32.373 8.9925 0 0 0
1373 5 25.179 32.373 10.791 0 0 0
1376 5 23.3805 34.1715 10.791 0 0 0
1377 5 25.179 32.373 14.388 0 0 0
1379 5 23.3805 32.373 16.1865 0 0 0
1385 5 25.179 32.373 21.582 0 0 0
1386 5 25.179 34.1715 23.3805 0 0 0
1391 5 23.3805 32.373 26.9775 0 0 0
1392 5 23.3805 34.1715 25.179 0 0 0
1394 5 25.179 34.1715 30.5745 0 0 0
1395 5 23.3805 32.373 30.5745 0 0 0
1396 5 23.3805 34.1715 28.776 0 0 0
1398 5 25.179 34.1715 34.1715 0 0 0
1407 5 19.7835 0.0 5.3955 0 0 0
1409 5 21.582 0.0 7.194 0 0 0
1419 5 19.7835 0.0 16.1865 0 0 0
1424 5 19.7835 1.7985 17.985 0 0 0
1425 5 21.582 0.0 21.582 0 0 0
1427 5 19.7835 0.0 23.3805 0 0 0
1428 5 19.7835 1.7985 21.582 0 0 0
1433 5 21.582 0.0 28.776 0 0 0
1437 5 21.582 0.0 32.373 0 0 0
1443 5 19.7835 3.597 1.7985 0 0 0
1445 5 21.582 3.597 3.597 0 0 0
1448 5 19.7835 5.3955 3.597 0 0 0
1455 5 19.7835 3.597 12.5895 0 0 0
1457 5 21.582 3.597 14.388 0 0 0
1459 5 19.7835 3.597 16.1865 0 0 0
1470 5 21.582 5.3955 26.9775 0 0 0
1471 5 19.7835 3.597 26.9775 0 0 0
1473 5 21.582 3.597 28.776 0 0 0
1474 5 21.582 5.3955 30.5745 0 0 0
1475 5 19.7835 3.597 30.5745 0 0 0
1478 5 21.582 5.3955 34.1715 0 0 0
1485 5 21.582 7.194 3.597 0 0 0
1492 5 19.7835 8.9925 7.194 0 0 0
1498 5 21.582 8.9925 16.1865 0 0 0
1499 5 19.7835 7.194 16.1865 0 0 0
1501 5 21.582 7.194 17.985 0 0 0
1502 5 21.582 8.9925 19.7835 0 0 0
1505 5 21.582 7.194 21.582 0 0 0
1510 5 21.582 8.9925 26.9775 0 0 0
1513 5 21.582 7.194 28.776 0 0 0
1514 5 21.582 8.9925 30.5745 0 0 0
1515 5 19.7835 7.194 30.5745 0 0 0
1536 5 19.7835 12.5895 10.791 0 0 0
1539 5 19.7835 10.791 16.1865 0 0 0
1541 5 21.582 10.791 17.985 0 0 0
1543 5 19.7835 10.791 19.7835 0 0 0
1552 5 19.7835 12.5895 25.179 0 0 0
1553 5 21.582 10.791 28.776 0 0 0
1558 5 21.582 12.5895 34.1715 0 0 0
1564 5 19.7835 16.1865 0.0 0 0 0
1569 5 21.582 14.388 7.194 0 0 0
1570 5 21.582 16.1865 8.9925 0 0 0
1575 5 19.7835 14.388 12.5895 0 0 0
1580 5 19.7835 16.1865 14.388 0 0 0
1588 5 19.7835 16.1865 21.582 0 0 0
1590 5 21.582 16.1865 26.9775 0 0 0
1592 5 19.7835 16.1865 25.179 0 0 0
1596 5 19.7835 16.1865 28.776 0 0 0
1601 5 21.582 17.985 0.0 0 0 0
1602 5 21.582 19.7835 1.7985 0 0 0
1604 5 19.7835 19.7835 0.0 0 0 0
1605 5 21.582 17.985 3.597 0 0 0
1611 5 19.7835 17.985 8.9925 0 0 0
1616 5 19.7835 19.7835 10.791 0 0 0
1619 5 19.7835 17.985 16.1865 0 0 0
1624 5 19.7835 19.7835 17.985 0 0 0
1632 5 19.7835 19.7835 25.179 0 0 0
1634 5 21.582 19.7835 30.5745 0 0 0
1637 5 21.582 17.985 32.373 0 0 0
1638 5 21.582 19.7835 34.1715 0 0 0
1639 5 19.7835 17.985 34.1715 0 0 0
1646 5 21.582 23.3805 5.3955 0 0 0
1648 5 19.7835 23.3805 3.597 0 0 0
1651 5 19.7835 21.582 8.9925 0 0 0
1653 5 21.582 21.582 10.791 0 0 0
1654 5 21.582 23.3805 12.5895 0 0 0
1657 5 21.582 21.582 14.388 0 0 0
1658 5 21.582 23.3805 16.1865 0 0 0
1664 5 19.7835 23.3805 17.985 0 0 0
1666 5 21.582 23.3805 23.3805 0 0 0
1667 5 19.7835 21.582 23.3805 0 0 0
1670 5 21.582 23.3805 26.9775 0 0 0
1673 5 21.582 21.582 28.776 0 0 0
1678 5 21.582 23.3805 34.1715 0 0 0
1682 5 21.582 26.9775 1.7985 0 0 0
1685 5 21.582 25.179 3.597 0 0 0
1686 5 21.582 26.9775 5.3955 0 0 0
1689 5 21.582 25.179 7.194 0 0 0
1691 5 19.7835 25.179 8.9925 0 0 0
1693 5 21.582 25.179 10.791 0 0 0
1697 5 21.582 25.179 14.388 0 0 0
1698 5 21.582 26.9775 16.1865 0 0 0
1703 5 19.7835 25.179 19.7835 0 0 0
1707 5 19.7835 25.179 23.3805 0 0 0
1710 5 21.582 26.9775 26.9775 0 0 0
1716 5 19.7835 26.9775 28.776 0 0 0
1717 5 21.582 25.179 32.373 0 0 0
1721 5 21.582 28.776 0.0 0 0 0
1724 5 19.7835 30.5745 0.0 0 0 0
1727 5 19.7835 28.776 5.3955 0 0 0
1730 5 21.582 30.5745 8.9925 0 0 0
1735 5 19.7835 28.776 12.5895 0 0 0
1737 5 21.582 28.776 14.388 0 0 0
1738 5 21.582 30.5745 16.1865 0 0 0
1742 5 21.582 30.5745 19.7835 0 0 0
1746 5 21.582 30.5745 23.3805 0 0 0
1754 5 21.582 30.5745 30.5745 0 0 0
1762 5 21.582 34.1715 1.7985 0 0 0
1765 5 21.582 32.373 3.597 0 0 0
1773 5 21.582 32.373 10.791 0 0 0
1775 5 19.7835 32.373 12.5895 0 0 0
1776 5 19.7835 34.1715 10.791 0 0 0
1782 5 21.582 34.1715 19.7835 0 0 0
1788 5 19.7835 34.1715 21.582 0 0 0
1794 5 21.582 34.1715 30.5745 0 0 0
1797 5 21.582 32.373 32.373 0 0 0
1800 5 19.7835 34.1715 32.373 0 0 0
1802 5 17.985 1.7985 1.7985 0 0 0
1804 5 16.1865 1.7985 0.0 0 0 0
1805 5 17.985 0.0 3.597 0 0 0
1809 5 17.985 0.0 7.194 0 0 0
1819 5 16.1865 0.0 16.1865 0 0 0
1820 5 16.1865 1.7985 14.388 0 0 0
1827 5 16.1865 0.0 23.3805 0 0 0
1833 5 17.985 0.0 28.776 0 0 0
1839 5 16.1865 0.0 34.1715 0 0 0
1841 5 17.985 3.597 0.0 0 0 0
1845 5 17.985 3.597 3.597 0 0 0
1849 5 17.985 3.597 7.194 0 0 0
1856 5 16.1865 5.3955 10.791 0 0 0
1857 5 17.985 3.597 14.388 0 0 0
1863 5 16.1865 3.597 19.7835 0 0 0
1864 5 16.1865 5.3955 17.985 0 0 0
1865 5 17.985 3.597 21.582 0 0 0
1870 5 17.985 5.3955 26.9775 0 0 0
1871 5 16.1865 3.597 26.9775 0 0 0
1872 5 16.1865 5.3955 25.179 0 0 0
1873 5 17.985 3.597 28.776 0 0 0
1876 5 16.1865 5.3955 28.776 0 0 0
1879 5 16.1865 3.597 34.1715 0 0 0
1883 5 16.1865 7.194 1.7985 0 0 0
1884 5 16.1865 8.9925 0.0 0 0 0
1890 5 17.985 8.9925 8.9925 0 0 0
1893 5 17.985 7.194 10.791 0 0 0
1894 5 17.985 8.9925 12.5895 0 0 0
1897 5 17.985 7.194 14.388 0 0 0
1900 5 16.1865 8.9925 14.388 0 0 0
1904 5 16.1865 8.9925 17.985 0 0 0
1906 5 17.985 8.9925 23.3805 0 0 0
1909 5 17.985 7.194 25.179 0 0 0
1911 5 16.1865 7.194 26.9775 0 0 0
1914 5 17.985 8.9925 30.5745 0 0 0
1916 5 16.1865 8.9925 28.776 0 0 0
1918 5 17.985 8.9925 34.1715 0 0 0
1920 5 16.1865 8.9925 32.373 0 0 0
1923 5 16.1865 10.791 1.7985 0 0 0
1925 5 17.985 10.791 3.597 0 0 0
1926 5 17.985 12.5895 5.3955 0 0 0
1927 5 16.1865 10.791 5.3955 0 0 0
1928 5 16.1865 12.5895 3.597 0 0 0
1932 5 16.1865 12.5895 7.194 0 0 0
1933 5 17.985 10.791 10.791 0 0 0
1937 5 17.985 10.791 14.388 0 0 0
1938 5 17.985 12.5895 16.1865 0 0 0
1941 5 17.985 10.791 17.985 0 0 0
1945 5 17.985 10.791 21.582 0 0 0
1964 5 16.1865 16.1865 0.0 0 0 0
1965 5 17.985 14.388 3.597 0 0 0
1968 5 16.1865 16.1865 3.597 0 0 0
1972 5 16.1865 16.1865 7.194 0 0 0
1975 5 16.1865 14.388 12.5895 0 0 0
1979 5 16.1865 14.388 16.1865 0 0 0
1981 5 17.985 14.388 17.985 0 0 0
1986 5 17.985 16.1865 23.3805 0 0 0
1990 5 17.985 16.1865 26.9775 0 0 0
2006 5 17.985 19.7835 5.3955 0 0 0
2007 5 16.1865 17.985 5.3955 0 0 0
2012 5 16.1865 19.7835 7.194 0 0 0
2014 5 17.985 19.7835 12.5895 0 0 0
2015 5 16.1865 17.985 12.5895 0 0 0
2020 5 16.1865 19.7835 14.388 0 0 0
2021 5 17.985 17.985 17.985 0 0 0
2022 5 17.985 19.7835 19.7835 0 0 0
2023 5 16.1865 17.985 19.7835 0 0 0
2026 5 17.985 19.7835 23.3805 0 0 0
2034 5 17.985 19.7835 30.5745 0 0 0
2037 5 17.985 17.985 32.373 0 0 0
2040 5 16.1865 19.7835 32.373 0 0 0
2042 5 17.985 23.3805 1.7985 0 0 0
2044 5 16.1865 23.3805 0.0 0 0 0
2045 5 17.985 21.582 3.597 0 0 0
2047 5 16.1865 21.582 5.3955 0 0 0
2048 5 16.1865 23.3805 3.597 0 0 0
2049 5 17.985 21.582 7.194 0 0 0
2050 5 17.985 23.3805 8.9925 0 0 0
2055 5 16.1865 21.582 12.5895 0 0 0
2056 5 16.1865 23.3805 10.791 0 0 0
2063 5 16.1865 21.582 19.7835 0 0 0
2064 5 16.1865 23.3805 17.985 0 0 0
2067 5 16.1865 21.582 23.3805 0 0 0
2078 5 17.985 23.3805 34.1715 0 0 0
2079 5 16.1865 21.582 34.1715 0 0 0
2086 5 17.985 26.9775 5.3955 0 0 0
2094 5 17.985 26.9775 12.5895 0 0 0
2095 5 16.1865 25.179 12.5895 0 0 0
2101 5 17.985 25.179 17.985 0 0 0
2103 5 16.1865 25.179 19.7835 0 0 0
2104 5 16.1865 26.9775 17.985 0 0 0
2107 5 16.1865 25.179 23.3805 0 0 0
2112 5 16.1865 26.9775 25.179 0 0 0
2113 5 17.985 25.179 28.776 0 0 0
2115 5 16.1865 25.179 30.5745 0 0 0
2119 5 16.1865 25.179 34.1715 0 0 0
2122 5 17.985 30.5745 1.7985 0 0 0
2126 5 17.985 30.5745 5.3955 0 0 0
2131 5 16.1865 28.776 8.9925 0 0 0
2133 5 17.985 28.776 10.791 0 0 0
2134 5 17.985 30.5745 12.5895 0 0 0
2141 5 17.985 28.776 17.985 0 0 0
2142 5 17.985 30.5745 19.7835 0 0 0
2144 5 16.1865 30.5745 17.985 0 0 0
2147 5 16.1865 28.776 23.3805 0 0 0
2150 5 17.985 30.5745 26.9775 0 0 0
2157 5 17.985 28.776 32.373 0 0 0
2158 5 17.985 30.5745 34.1715 0 0 0
2159 5 16.1865 28.776 34.1715 0 0 0
2163 5 16.1865 32.373 1.7985 0 0 0
2166 5 17.985 34.1715 5.3955 0 0 0
2174 5 17.985 34.1715 12.5895 0 0 0
2175 5 16.1865 32.373 12.5895 0 0 0
2176 5 16.1865 34.1715 10.791 0 0 0
2180 5 16.1865 34.1715 14.388 0 0 0
2191 5 16.1865 32.373 26.9775 0 0 0
2197 5 17.985 32.373 32.373 0 0 0
2198 5 17.985 34.1715 34.1715 0 0 0
2209 5 14.388 0.0 7.194 0 0 0
2212 5 12.5895 1.7985 7.194 0 0 0
2213 5 14.388 0.0 10.791 0 0 0
2216 5 12.5895 1.7985 10.791 0 0 0
2218 5 14.388 1.7985 16.1865 0 0 0
2220 5 12.5895 1.7985 14.388 0 0 0
2221 5 14.388 0.0 17.985 0 0 0
2222 5 14.388 1.7985 19.7835 0 0 0
2225 5 14.388 0.0 21.582 0 0 0
2245 5 14.388 3.597 3.597 0 0 0
2246 5 14.388 5.3955 5.3955 0 0 0
2248 5 12.5895 5.3955 3.597 0 0 0
2251 5 12.5895 3.597 8.9925 0 0 0
2255 5 12.5895 3.597 12.5895 0 0 0
2263 5 12.5895 3.597 19.7835 0 0 0
2275 5 12.5895 3.597 30.5745 0 0 0
2282 5 14.388 8.9925 1.7985 0 0 0
2284 5 12.5895 8.9925 0.0 0 0 0
2288 5 12.5895 8.9925 3.597 0 0 0
2289 5 14.388 7.194 7.194 0 0 0
2292 5 12.5895 8.9925 7.194 0 0 0
2293 5 14.388 7.194 10.791 0 0 0
2297 5 14.388 7.194 14.388 0 0 0
2310 5 14.388 8.9925 26.9775 0 0 0
2315 5 12.5895 7.194 30.5745 0 0 0
2317 5 14.388 7.194 32.373 0 0 0
2331 5 12.5895 10.791 8.9925 0 0 0
2333 5 14.388 10.791 10.791 0 0 0
2339 5 12.5895 10.791 16.1865 0 0 0
2340 5 12.5895 12.5895 14.388 0 0 0
2344 5 12.5895 12.5895 17.985 0 0 0
2352 5 12.5895 12.5895 25.179 0 0 0
2355 5 12.5895 10.791 30.5745 0 0 0
2361 5 14.388 14.388 0.0 0 0 0
2371 5 12.5895 14.388 8.9925 0 0 0
2382 5 14.388 16.1865 19.7835 0 0 0
2383 5 12.5895 14.388 19.7835 0 0 0
2384 5 12.5895 16.1865 17.985 0 0 0
2388 5 12.5895 16.1865 21.582 0 0 0
2394 5 14.388 16.1865 30.5745 0 0 0
2395 5 12.5895 14.388 30.5745 0 0 0
2400 5 12.5895 16.1865 32.373 0 0 0
2401 5 14.388 17.985 0.0 0 0 0
2408 5 12.5895 19.7835 3.597 0 0 0
2409 5 14.388 17.985 7.194 0 0 0
2410 5 14.388 19.7835 8.9925 0 0 0
2415 5 12.5895 17.985 12.5895 0 0 0
2416 5 12.5895 19.7835 10.791 0 0 0
2418 5 14.388 19.7835 16.1865 0 0 0
2420 5 12.5895 19.7835 14.388 0 0 0
2421 5 14.388 17.985 17.985 0 0 0
2428 5 12.5895 19.7835 21.582 0 0 0
2434 5 14.388 19.7835 30.5745 0 0 0
2441 5 14.388 21.582 0.0 0 0 0
2444 5 12.5895 23.3805 0.0 0 0 0
2450 5 14.388 23.3805 8.9925 0 0 0
2453 5 14.388 21.582 10.791 0 0 0
2454 5 14.388 23.3805 12.5895 0 0 0
2455 5 12.5895 21.582 12.5895 0 0 0
2464 5 12.5895 23.3805 17.985 0 0 0
2467 5 12.5895 21.582 23.3805 0 0 0
2470 5 14.388 23.3805 26.9775 0 0 0
2472 5 12.5895 23.3805 25.179 0 0 0
2480 5 12.5895 23.3805 32.373 0 0 0
2481 5 14.388 25.179 0.0 0 0 0
2490 5 14.388 26.9775 8.9925 0 0 0
2498 5 14.388 26.9775 16.1865 0 0 0
2499 5 12.5895 25.179 16.1865 0 0 0
2506 5 14.388 26.9775 23.3805 0 0 0
2508 5 12.5895 26.9775 21.582 0 0 0
2512 5 12.5895 26.9775 25.179 0 0 0
2515 5 12.5895 25.179 30.5745 0 0 0
2516 5 12.5895 26.9775 28.776 0 0 0
2519 5 12.5895 25.179 34.1715 0 0 0
2521 5 14.388 28.776 0.0 0 0 0
2524 5 12.5895 30.5745 0.0 0 0 0
2525 5 14.388 28.776 3.597 0 0 0
2528 5 12.5895 30.5745 3.597 0 0 0
2530 5 14.388 30.5745 8.9925 0 0 0
2532 5 12.5895 30.5745 7.194 0 0 0
2534 5 14.388 30.5745 12.5895 0 0 0
2540 5 12.5895 30.5745 14.388 0 0 0
2543 5 12.5895 28.776 19.7835 0 0 0
2544 5 12.5895 30.5745 17.985 0 0 0
2545 5 14.388 28.776 21.582 0 0 0
2547 5 12.5895 28.776 23.3805 0 0 0
2550 5 14.388 30.5745 26.9775 0 0 0
2554 5 14.388 30.5745 30.5745 0 0 0
2555 5 12.5895 28.776 30.5745 0 0 0
2559 5 12.5895 28.776 34.1715 0 0 0
2566 5 14.388 34.1715 5.3955 0 0 0
2567 5 12.5895 32.373 5.3955 0 0 0
2569 5 14.388 32.373 7.194 0 0 0
2573 5 14.388 32.373 10.791 0 0 0
2577 5 14.388 32.373 14.388 0 0 0
2579 5 12.5895 32.373 16.1865 0 0 0
2580 5 12.5895 34.1715 14.388 0 0 0
2581 5 14.388 32.373 17.985 0 0 0
2583 5 12.5895 32.373 19.7835 0 0 0
2584 5 12.5895 34.1715 17.985 0 0 0
2585 5 14.388 32.373 21.582 0 0 0
2586 5 14.388 34.1715 23.3805 0 0 0
2587 5 12.5895 32.373 23.3805 0 0 0
2588 5 12.5895 34.1715 21.582 0 0 0
2594 5 14.388 34.1715 30.5745 0 0 0
2596 5 12.5895 34.1715 28.776 0 0 0
2602 5 10.791 1.7985 1.7985 0 0 0
2606 5 10.791 1.7985 5.3955 0 0 0
2611 5 8.9925 0.0 8.9925 0 0 0
2614 5 10.791 1.7985 12.5895 0 0 0
2619 5 8.9925 0.0 16.1865 0 0 0
2620 5 8.9925 1.7985 14.388 0 0 0
2622 5 10.791 1.7985 19.7835 0 0 0
2624 5 8.9925 1.7985 17.985 0 0 0
2626 5 10.791 1.7985 23.3805 0 0 0
2631 5 8.9925 0.0 26.9775 0 0 0
2636 5 8.9925 1.7985 28.776 0 0 0
2646 5 10.791 5.3955 5.3955 0 0 0
2652 5 8.9925 5.3955 7.194 0 0 0
2653 5 10.791 3.597 10.791 0 0 0
2656 5 8.9925 5.3955 10.791 0 0 0
2657 5 10.791 3.597 14.388 0 0 0
2659 5 8.9925 3.597 16.1865 0 0 0
2669 5 10.791 3.597 25.179 0 0 0
2677 5 10.791 3.597 32.373 0 0 0
2679 5 8.9925 3.597 34.1715 0 0 0
2686 5 10.791 8.9925 5.3955 0 0 0
2689 5 10.791 7.194 7.194 0 0 0
2690 5 10.791 8.9925 8.9925 0 0 0
2691 5 8.9925 7.194 8.9925 0 0 0
2695 5 8.9925 7.194 12.5895 0 0 0
2700 5 8.9925 8.9925 14.388 0 0 0
2704 5 8.9925 8.9925 17.985 0 0 0
2705 5 10.791 7.194 21.582 0 0 0
2707 5 8.9925 7.194 23.3805 0 0 0
2719 5 8.9925 7.194 34.1715 0 0 0
2737 5 10.791 10.791 14.388 0 0 0
2739 5 8.9925 10.791 16.1865 0 0 0
2741 5 10.791 10.791 17.985 0 0 0
2748 5 8.9925 12.5895 21.582 0 0 0
2754 5 10.791 12.5895 30.5745 0 0 0
2764 5 8.9925 16.1865 0.0 0 0 0
2771 5 8.9925 14.388 8.9925 0 0 0
2776 5 8.9925 16.1865 10.791 0 0 0
2779 5 8.9925 14.388 16.1865 0 0 0
2785 5 10.791 14.388 21.582 0 0 0
2786 5 10.791 16.1865 23.3805 0 0 0
2791 5 8.9925 14.388 26.9775 0 0 0
2792 5 8.9925 16.1865 25.179 0 0 0
2794 5 10.791 16.1865 30.5745 0 0 0
2801 5 10.791 17.985 0.0 0 0 0
2806 5 10.791 19.7835 5.3955 0 0 0
2811 5 8.9925 17.985 8.9925 0 0 0
2812 5 8.9925 19.7835 7.194 0 0 0
2819 5 8.9925 17.985 16.1865 0 0 0
2820 5 8.9925 19.7835 14.388 0 0 0
2822 5 10.791 19.7835 19.7835 0 0 0
2824 5 8.9925 19.7835 17.985 0 0 0
2831 5 8.9925 17.985 26.9775 0 0 0
2832 5 8.9925 19.7835 25.179 0 0 0
2837 5 10.791 17.985 32.373 0 0 0
2845 5 10.791 21.582 3.597 0 0 0
2847 5 8.9925 21.582 5.3955 0 0 0
2857 5 10.791 21.582 14.388 0 0 0
2858 5 10.791 23.3805 16.1865 0 0 0
2861 5 10.791 21.582 17.985 0 0 0
2867 5 8.9925 21.582 23.3805 0 0 0
2868 5 8.9925 23.3805 21.582 0 0 0
2876 5 8.9925 23.3805 28.776 0 0 0
2882 5 10.791 26.9775 1.7985 0 0 0
2885 5 10.791 25.179 3.597 0 0 0
2888 5 8.9925 26.9775 3.597 0 0 0
2892 5 8.9925 26.9775 7.194 0 0 0
2894 5 10.791 26.9775 12.5895 0 0 0
2895 5 8.9925 25.179 12.5895 0 0 0
2897 5 10.791 25.179 14.388 0 0 0
2899 5 8.9925 25.179 16.1865 0 0 0
2905 5 10.791 25.179 21.582 0 0 0
2906 5 10.791 26.9775 23.3805 0 0 0
2917 5 10.791 25.179 32.373 0 0 0
2918 5 10.791 26.9775 34.1715 0 0 0
2924 5 8.9925 30.5745 0.0 0 0 0
2928 5 8.9925 30.5745 3.597 0 0 0
2929 5 10.791 28.776 7.194 0 0 0
2930 5 10.791 30.5745 8.9925 0 0 0
2932 5 8.9925 30.5745 7.194 0 0 0
2934 5 10.791 30.5745 12.5895 0 0 0
2937 5 10.791 28.776 14.388 0 0 0
2945 5 10.791 28.776 21.582 0 0 0
2947 5 8.9925 28.776 23.3805 0 0 0
2949 5 10.791 28.776 25.179 0 0 0
2955 5 8.9925 28.776 30.5745 0 0 0
2958 5 10.791 30.5745 34.1715 0 0 0
2966 5 10.791 34.1715 5.3955 0 0 0
2969 5 10.791 32.373 7.194 0 0 0
2972 5 8.9925 34.1715 7.194 0 0 0
2988 5 8.9925 34.1715 21.582 0 0 0
2993 5 10.791 32.373 28.776 0 0 0
2996 5 8.9925 34.1715 28.776 0 0 0
2998 5 10.791 34.1715 34.1715 0 0 0
3001 5 7.194 0.0 0.0 0 0 0
3003 5 5.3955 0.0 1.7985 0 0 0
3005 5 7.194 0.0 3.597 0 0 0
3008 5 5.3955 1.7985 3.597 0 0 0
3009 5 7.194 0.0 7.194 0 0 0
3011 5 5.3955 0.0 8.9925 0 0 0
3013 5 7.194 0.0 10.791 0 0 0
3019 5 5.3955 0.0 16.1865 0 0 0
3022 5 7.194 1.7985 19.7835 0 0 0
3030 5 7.194 1.7985 26.9775 0 0 0
3036 5 5.3955 1.7985 28.776 0 0 0
3044 5 5.3955 5.3955 0.0 0 0 0
3047 5 5.3955 3.597 5.3955 0 0 0
3052 5 5.3955 5.3955 7.194 0 0 0
3056 5 5.3955 5.3955 10.791 0 0 0
3063 5 5.3955 3.597 19.7835 0 0 0
3066 5 7.194 5.3955 23.3805 0 0 0
3070 5 7.194 5.3955 26.9775 0 0 0
3071 5 5.3955 3.597 26.9775 0 0 0
3073 5 7.194 3.597 28.776 0 0 0
3075 5 5.3955 3.597 30.5745 0 0 0
3083 5 5.3955 7.194 1.7985 0 0 0
3084 5 5.3955 8.9925 0.0 0 0 0
3090 5 7.194 8.9925 8.9925 0 0 0
3094 5 7.194 8.9925 12.5895 0 0 0
3096 5 5.3955 8.9925 10.791 0 0 0
3098 5 7.194 8.9925 16.1865 0 0 0
3103 5 5.3955 7.194 19.7835 0 0 0
3106 5 7.194 8.9925 23.3805 0 0 0
3107 5 5.3955 7.194 23.3805 0 0 0
3108 5 5.3955 8.9925 21.582 0 0 0
3110 5 7.194 8.9925 26.9775 0 0 0
3111 5 5.3955 7.194 26.9775 0 0 0
3115 5 5.3955 7.194 30.5745 0 0 0
3118 5 7.194 8.9925 34.1715 0 0 0
3119 5 5.3955 7.194 34.1715 0 0 0
3135 5 5.3955 10.791 12.5895 0 0 0
3137 5 7.194 10.791 14.388 0 0 0
3139 5 5.3955 10.791 16.1865 0 0 0
3141 5 7.194 10.791 17.985 0 0 0
3142 5 7.194 12.5895 19.7835 0 0 0
3153 5 7.194 10.791 28.776 0 0 0
3156 5 5.3955 12.5895 28.776 0 0 0
3158 5 7.194 12.5895 34.1715 0 0 0
3161 5 7.194 14.388 0.0 0 0 0
3162 5 7.194 16.1865 1.7985 0 0 0
3164 5 5.3955 16.1865 0.0 0 0 0
3168 5 5.3955 16.1865 3.597 0 0 0
3170 5 7.194 16.1865 8.9925 0 0 0
3173 5 7.194 14.388 10.791 0 0 0
3179 5 5.3955 14.388 16.1865 0 0 0
3182 5 7.194 16.1865 19.7835 0 0 0
3183 5 5.3955 14.388 19.7835 0 0 0
3185 5 7.194 14.388 21.582 0 0 0
3193 5 7.194 14.388 28.776 0 0 0
3195 5 5.3955 14.388 30.5745 0 0 0
3199 5 5.3955 14.388 34.1715 0 0 0
3205 5 7.194 17.985 3.597 0 0 0
3206 5 7.194 19.7835 5.3955 0 0 0
3218 5 7.194 19.7835 16.1865 0 0 0
3221 5 7.194 17.985 17.985 0 0 0
3226 5 7.194 19.7835 23.3805 0 0 0
3228 5 5.3955 19.7835 21.582 0 0 0
3229 5 7.194 17.985 25.179 0 0 0
3230 5 7.194 19.7835 26.9775 0 0 0
3231 5 5.3955 17.985 26.9775 0 0 0
3235 5 5.3955 17.985 30.5745 0 0 0
3243 5 5.3955 21.582 1.7985 0 0 0
3252 5 5.3955 23.3805 7.194 0 0 0
3258 5 7.194 23.3805 16.1865 0 0 0
3261 5 7.194 21.582 17.985 0 0 0
3265 5 7.194 21.582 21.582 0 0 0
3268 5 5.3955 23.3805 21.582 0 0 0
3277 5 7.194 21.582 32.373 0 0 0
3280 5 5.3955 23.3805 32.373 0 0 0
3289 5 7.194 25.179 7.194 0 0 0
3295 5 5.3955 25.179 12.5895 0 0 0
3298 5 7.194 26.9775 16.1865 0 0 0
3299 5 5.3955 25.179 16.1865 0 0 0
3300 5 5.3955 26.9775 14.388 0 0 0
3303 5 5.3955 25.179 19.7835 0 0 0
3310 5 7.194 26.9775 26.9775 0 0 0
3313 5 7.194 25.179 28.776 0 0 0
3316 5 5.3955 26.9775 28.776 0 0 0
3318 5 7.194 26.9775 34.1715 0 0 0
3321 5 7.194 28.776 0.0 0 0 0
3324 5 5.3955 30.5745 0.0 0 0 0
3329 5 7.194 28.776 7.194 0 0 0
3330 5 7.194 30.5745 8.9925 0 0 0
3331 5 5.3955 28.776 8.9925 0 0 0
3333 5 7.194 28.776 10.791 0 0 0
3336 5 5.3955 30.5745 10.791 0 0 0
3341 5 7.194 28.776 17.985 0 0 0
3344 5 5.3955 30.5745 17.985 0 0 0
3345 5 7.194 28.776 21.582 0 0 0
3346 5 7.194 30.5745 23.3805 0 0 0
3347 5 5.3955 28.776 23.3805 0 0 0
3349 5 7.194 28.776 25.179 0 0 0
3362 5 7.194 34.1715 1.7985 0 0 0
3369 5 7.194 32.373 7.194 0 0 0
3378 5 7.194 34.1715 16.1865 0 0 0
3382 5 7.194 34.1715 19.7835 0 0 0
3384 5 5.3955 34.1715 17.985 0 0 0
3385 5 7.194 32.373 21.582 0 0 0
3388 5 5.3955 34.1715 21.582 0 0 0
3399 5 5.3955 32.373 34.1715 0 0 0
3404 5 1.7985 1.7985 0.0 0 0 0
3419 5 1.7985 0.0 16.1865 0 0 0
3426 5 3.597 1.7985 23.3805 0 0 0
3427 5 1.7985 0.0 23.3805 0 0 0
3428 5 1.7985 1.7985 21.582 0 0 0
3433 5 3.597 0.0 28.776 0 0 0
3435 5 1.7985 0.0 30.5745 0 0 0
3437 5 3.597 0.0 32.373 0 0 0
3438 5 3.597 1.7985 34.1715 0 0 0
3442 5 3.597 5.3955 1.7985 0 0 0
3445 5 3.597 3.597 3.597 0 0 0
3451 5 1.7985 3.597 8.9925 0 0 0
3457 5 3.597 3.597 14.388 0 0 0
3460 5 1.7985 5.3955 14.388 0 0 0
3468 5 1.7985 5.3955 21.582 0 0 0
3473 5 3.597 3.597 28.776 0 0 0
3474 5 3.597 5.3955 30.5745 0 0 0
3477 5 3.597 3.597 32.373 0 0 0
3480 5 1.7985 5.3955 32.373 0 0 0
3486 5 3.597 8.9925 5.3955 0 0 0
3490 5 3.597 8.9925 8.9925 0 0 0
3492 5 1.7985 8.9925 7.194 0 0 0
3493 5 3.597 7.194 10.791 0 0 0
3494 5 3.597 8.9925 12.5895 0 0 0
3496 5 1.7985 8.9925 10.791 0 0 0
3499 5 1.7985 7.194 16.1865 0 0 0
3505 5 3.597 7.194 21.582 0 0 0
3511 5 1.7985 7.194 26.9775 0 0 0
3522 5 3.597 12.5895 1.7985 0 0 0
3525 5 3.597 10.791 3.597 0 0 0
3529 5 3.597 10.791 7.194 0 0 0
3530 5 3.597 12.5895 8.9925 0 0 0
3533 5 3.597 10.791 10.791 0 0 0
3541 5 3.597 10.791 17.985 0 0 0
3544 5 1.7985 12.5895 17.985 0 0 0
3547 5 1.7985 10.791 23.3805 0 0 0
3551 5 1.7985 10.791 26.9775 0 0 0
3557 5 3.597 10.791 32.373 0 0 0
3558 5 3.597 12.5895 34.1715 0 0 0
3561 5 3.597 14.388 0.0 0 0 0
3562 5 3.597 16.1865 1.7985 0 0 0
3568 5 1.7985 16.1865 3.597 0 0 0
3573 5 3.597 14.388 10.791 0 0 0
3580 5 1.7985 16.1865 14.388 0 0 0
3585 5 3.597 14.388 21.582 0 0 0
3599 5 1.7985 14.388 34.1715 0 0 0
3606 5 3.597 19.7835 5.3955 0 0 0
3616 5 1.7985 19.7835 10.791 0 0 0
3617 5 3.597 17.985 14.388 0 0 0
3621 5 3.597 17.985 17.985 0 0 0
3627 5 1.7985 17.985 23.3805 0 0 0
3630 5 3.597 19.7835 26.9775 0 0 0
3637 5 3.597 17.985 32.373 0 0 0
3640 5 1.7985 19.7835 32.373 0 0 0
3645 5 3.597 21.582 3.597 0 0 0
3654 5 3.597 23.3805 12.5895 0 0 0
3659 5 1.7985 21.582 16.1865 0 0 0
3660 5 1.7985 23.3805 14.388 0 0 0
3661 5 3.597 21.582 17.985 0 0 0
3662 5 3.597 23.3805 19.7835 0 0 0
3665 5 3.597 21.582 21.582 0 0 0
3667 5 1.7985 21.582 23.3805 0 0 0
3670 5 3.597 23.3805 26.9775 0 0 0
3671 5 1.7985 21.582 26.9775 0 0 0
3681 5 3.597 25.179 0.0 0 0 0
3686 5 3.597 26.9775 5.3955 0 0 0
3693 5 3.597 25.179 10.791 0 0 0
3696 5 1.7985 26.9775 10.791 0 0 0
3710 5 3.597 26.9775 26.9775 0 0 0
3711 5 1.7985 25.179 26.9775 0 0 0
3715 5 1.7985 25.179 30.5745 0 0 0
3719 5 1.7985 25.179 34.1715 0 0 0
3720 5 1.7985 26.9775 32.373 0 0 0
3721 5 3.597 28.776 0.0 0 0 0
3723 5 1.7985 28.776 1.7985 0 0 0
3725 5 3.597 28.776 3.597 0 0 0
3728 5 1.7985 30.5745 3.597 0 0 0
3736 5 1.7985 30.5745 10.791 0 0 0
3740 5 1.7985 30.5745 14.388 0 0 0
3742 5 3.597 30.5745 19.7835 0 0 0
3744 5 1.7985 30.5745 17.985 0 0 0
3764 5 1.7985 34.1715 0.0 0 0 0
3765 5 3.597 32.373 3.597 0 0 0
3766 5 3.597 34.1715 5.3955 0 0 0
3771 5 1.7985 32.373 8.9925 0 0 0
3775 5 1.7985 32.373 12.5895 0 0 0
3776 5 1.7985 34.1715 10.791 0 0 0
3778 5 3.597 34.1715 16.1865 0 0 0
3780 5 1.7985 34.1715 14.388 0 0 0
3791 5 1.7985 32.373 26.9775 0 0 0
3802 5 0.0 1.7985 1.7985 0 0 0
3804 5 0.0 1.7985 5.3955 0 0 0
3813 5 0.0 0.0 21.582 0 0 0
3814 5 0.0 1.7985 23.3805 0 0 0
3822 5 0.0 5.3955 1.7985 0 0 0
3828 5 0.0 5.3955 12.5895 0 0 0
3831 5 0.0 3.597 17.985 0 0 0
3837 5 0.0 3.597 28.776 0 0 0
3838 5 0.0 5.3955 30.5745 0 0 0
3850 5 0.0 8.9925 16.1865 0 0 0
3852 5 0.0 8.9925 19.7835 0 0 0
3857 5 0.0 7.194 28.776 0 0 0
3858 5 0.0 8.9925 30.5745 0 0 0
3859 5 0.0 7.194 32.373 0 0 0
3863 5 0.0 10.791 3.597 0 0 0
3864 5 0.0 12.5895 5.3955 0 0 0
3871 5 0.0 10.791 17.985 0 0 0
3873 5 0.0 10.791 21.582 0 0 0
3878 5 0.0 12.5895 30.5745 0 0 0
3879 5 0.0 10.791 32.373 0 0 0
3883 5 0.0 14.388 3.597 0 0 0
3884 5 0.0 16.1865 5.3955 0 0 0
3885 5 0.0 14.388 7.194 0 0 0
3886 5 0.0 16.1865 8.9925 0 0 0
3890 5 0.0 16.1865 16.1865 0 0 0
3891 5 0.0 14.388 17.985 0 0 0
3894 5 0.0 16.1865 23.3805 0 0 0
3903 5 0.0 17.985 3.597 0 0 0
3904 5 0.0 19.7835 5.3955 0 0 0
3907 5 0.0 17.985 10.791 0 0 0
3908 5 0.0 19.7835 12.5895 0 0 0
3909 5 0.0 17.985 14.388 0 0 0
3911 5 0.0 17.985 17.985 0 0 0
3919 5 0.0 17.985 32.373 0 0 0
3925 5 0.0 21.582 7.194 0 0 0
3927 5 0.0 21.582 10.791 0 0 0
3931 5 0.0 21.582 17.985 0 0 0
3934 5 0.0 23.3805 23.3805 0 0 0
3943 5 0.0 25.179 3.597 0 0 0
3951 5 0.0 25.179 17.985 0 0 0
3953 5 0.0 25.179 21.582 0 0 0
3954 5 0.0 26.9775 23.3805 0 0 0
3956 5 0.0 26.9775 26.9775 0 0 0
3959 5 0.0 25.179 32.373 0 0 0
3961 5 0.0 28.776 0.0 0 0 0
3967 5 0.0 28.776 10.791 0 0 0
3969 5 0.0 28.776 14.388 0 0 0
3971 5 0.0 28.776 17.985 0 0 0
3978 5 0.0 30.5745 30.5745 0 0 0
3990 5 0.0 34.1715 16.1865 0 0 0
3995 5 0.0 32.373 25.179 0 0 0
3998 5 0.0 34.1715 30.5745 0 0 0
3999 5 0.0 32.373 32.373 0 0 0
