LAMMPS data file via write_data version 30 Jul 2021 timestep = 0
4000 atoms
5 atom types
0 35.97 xlo xhi
0 35.97 ylo yhi
0 35.97 zlo zhi
0.0 0.0 0.0 xy xz yz
 
Masses
 
1 1.0
2 2.0
3 3.0
4 4.0
5 5.0
 
Atoms  # atomic
 
2909 1 10.791 25.179 25.179 0 0 0
315 1 30.5745 7.194 30.5745 0 0 0
2975 1 8.9925 32.373 12.5895 0 0 0
2218 1 14.388 1.7985 16.1865 0 0 0
152 1 34.1715 26.9775 17.985 0 0 0
1391 1 23.3805 32.373 26.9775 0 0 0
2898 1 10.791 26.9775 16.1865 0 0 0
1704 1 19.7835 26.9775 17.985 0 0 0
2441 1 14.388 21.582 0.0 0 0 0
1461 1 21.582 3.597 17.985 0 0 0
2663 1 8.9925 3.597 19.7835 0 0 0
2464 1 12.5895 23.3805 17.985 0 0 0
2469 1 14.388 21.582 25.179 0 0 0
707 1 26.9775 7.194 23.3805 0 0 0
2905 1 10.791 25.179 21.582 0 0 0
961 1 28.776 32.373 0.0 0 0 0
1543 1 19.7835 10.791 19.7835 0 0 0
3083 1 5.3955 7.194 1.7985 0 0 0
591 1 30.5745 32.373 26.9775 0 0 0
3935 1 0.0 21.582 25.179 0 0 0
2198 1 17.985 34.1715 34.1715 0 0 0
2090 1 17.985 26.9775 8.9925 0 0 0
674 1 28.776 5.3955 30.5745 0 0 0
3187 1 5.3955 14.388 23.3805 0 0 0
1222 1 25.179 19.7835 19.7835 0 0 0
2103 1 16.1865 25.179 19.7835 0 0 0
3288 1 5.3955 26.9775 3.597 0 0 0
1231 1 23.3805 17.985 26.9775 0 0 0
1071 1 23.3805 3.597 26.9775 0 0 0
748 1 26.9775 12.5895 21.582 0 0 0
915 1 26.9775 25.179 30.5745 0 0 0
1096 1 23.3805 8.9925 10.791 0 0 0
2459 1 12.5895 21.582 16.1865 0 0 0
2665 1 10.791 3.597 21.582 0 0 0
3384 1 5.3955 34.1715 17.985 0 0 0
510 1 32.373 26.9775 26.9775 0 0 0
3756 1 1.7985 30.5745 28.776 0 0 0
3523 1 1.7985 10.791 1.7985 0 0 0
578 1 32.373 34.1715 16.1865 0 0 0
1403 1 19.7835 0.0 1.7985 0 0 0
247 1 30.5745 3.597 5.3955 0 0 0
1962 1 17.985 16.1865 1.7985 0 0 0
3877 1 0.0 10.791 28.776 0 0 0
1246 1 25.179 23.3805 5.3955 0 0 0
2435 1 12.5895 17.985 30.5745 0 0 0
3072 1 5.3955 5.3955 25.179 0 0 0
2832 1 8.9925 19.7835 25.179 0 0 0
3144 1 5.3955 12.5895 17.985 0 0 0
1419 1 19.7835 0.0 16.1865 0 0 0
1915 1 16.1865 7.194 30.5745 0 0 0
2016 1 16.1865 19.7835 10.791 0 0 0
3400 1 5.3955 34.1715 32.373 0 0 0
2684 1 8.9925 8.9925 0.0 0 0 0
298 1 32.373 8.9925 16.1865 0 0 0
3059 1 5.3955 3.597 16.1865 0 0 0
2011 1 16.1865 17.985 8.9925 0 0 0
1898 1 17.985 8.9925 16.1865 0 0 0
2287 1 12.5895 7.194 5.3955 0 0 0
3528 1 1.7985 12.5895 3.597 0 0 0
1000 1 26.9775 34.1715 32.373 0 0 0
1870 1 17.985 5.3955 26.9775 0 0 0
1498 1 21.582 8.9925 16.1865 0 0 0
3078 1 7.194 5.3955 34.1715 0 0 0
1903 1 16.1865 7.194 19.7835 0 0 0
13 1 34.1715 0.0 23.3805 0 0 0
1138 1 25.179 12.5895 16.1865 0 0 0
2089 1 17.985 25.179 7.194 0 0 0
2782 1 10.791 16.1865 19.7835 0 0 0
530 1 32.373 30.5745 8.9925 0 0 0
588 1 30.5745 34.1715 21.582 0 0 0
593 1 32.373 32.373 28.776 0 0 0
99 1 34.1715 14.388 34.1715 0 0 0
2750 1 10.791 12.5895 26.9775 0 0 0
1194 1 25.179 16.1865 30.5745 0 0 0
3699 1 1.7985 25.179 16.1865 0 0 0
113 1 34.1715 17.985 23.3805 0 0 0
3991 1 0.0 32.373 17.985 0 0 0
2454 1 14.388 23.3805 12.5895 0 0 0
1421 1 21.582 0.0 17.985 0 0 0
3600 1 1.7985 16.1865 32.373 0 0 0
574 1 32.373 34.1715 12.5895 0 0 0
1646 1 21.582 23.3805 5.3955 0 0 0
1685 1 21.582 25.179 3.597 0 0 0
194 1 34.1715 34.1715 21.582 0 0 0
3839 1 0.0 3.597 32.373 0 0 0
3798 1 3.597 34.1715 34.1715 0 0 0
3446 1 3.597 5.3955 5.3955 0 0 0
1094 1 25.179 8.9925 12.5895 0 0 0
220 1 30.5745 1.7985 14.388 0 0 0
2720 1 8.9925 8.9925 32.373 0 0 0
239 1 30.5745 0.0 34.1715 0 0 0
1791 1 19.7835 32.373 26.9775 0 0 0
1736 1 19.7835 30.5745 10.791 0 0 0
3168 1 5.3955 16.1865 3.597 0 0 0
8 1 34.1715 1.7985 10.791 0 0 0
958 1 28.776 30.5745 34.1715 0 0 0
2969 1 10.791 32.373 7.194 0 0 0
1587 1 19.7835 14.388 23.3805 0 0 0
3198 1 7.194 16.1865 34.1715 0 0 0
3160 1 5.3955 12.5895 32.373 0 0 0
121 1 34.1715 21.582 1.7985 0 0 0
394 1 32.373 16.1865 30.5745 0 0 0
2613 1 10.791 0.0 10.791 0 0 0
967 1 26.9775 32.373 5.3955 0 0 0
1351 1 23.3805 28.776 26.9775 0 0 0
2730 1 10.791 12.5895 8.9925 0 0 0
2877 1 10.791 21.582 32.373 0 0 0
3382 1 7.194 34.1715 19.7835 0 0 0
196 1 34.1715 34.1715 25.179 0 0 0
3859 1 0.0 7.194 32.373 0 0 0
3319 1 5.3955 25.179 34.1715 0 0 0
2013 1 17.985 17.985 10.791 0 0 0
620 1 26.9775 1.7985 14.388 0 0 0
607 1 26.9775 0.0 5.3955 0 0 0
2725 1 10.791 10.791 3.597 0 0 0
1657 1 21.582 21.582 14.388 0 0 0
1114 1 25.179 8.9925 30.5745 0 0 0
2796 1 8.9925 16.1865 28.776 0 0 0
3689 1 3.597 25.179 7.194 0 0 0
399 1 30.5745 14.388 34.1715 0 0 0
1693 1 21.582 25.179 10.791 0 0 0
2903 1 8.9925 25.179 19.7835 0 0 0
736 1 26.9775 12.5895 10.791 0 0 0
2121 1 17.985 28.776 0.0 0 0 0
3540 1 1.7985 12.5895 14.388 0 0 0
655 1 26.9775 3.597 12.5895 0 0 0
1896 1 16.1865 8.9925 10.791 0 0 0
3172 1 5.3955 16.1865 7.194 0 0 0
2815 1 8.9925 17.985 12.5895 0 0 0
379 1 30.5745 14.388 16.1865 0 0 0
1401 1 21.582 0.0 0.0 0 0 0
1584 1 19.7835 16.1865 17.985 0 0 0
2882 1 10.791 26.9775 1.7985 0 0 0
3855 1 0.0 7.194 25.179 0 0 0
3316 1 5.3955 26.9775 28.776 0 0 0
1127 1 23.3805 10.791 5.3955 0 0 0
208 1 30.5745 1.7985 3.597 0 0 0
2610 1 10.791 1.7985 8.9925 0 0 0
1191 1 23.3805 14.388 26.9775 0 0 0
1270 1 25.179 23.3805 26.9775 0 0 0
2217 1 14.388 0.0 14.388 0 0 0
1494 1 21.582 8.9925 12.5895 0 0 0
1355 1 23.3805 28.776 30.5745 0 0 0
91 1 34.1715 14.388 19.7835 0 0 0
198 1 34.1715 34.1715 28.776 0 0 0
3945 1 0.0 25.179 7.194 0 0 0
1278 1 25.179 23.3805 34.1715 0 0 0
2054 1 17.985 23.3805 12.5895 0 0 0
2008 1 16.1865 19.7835 3.597 0 0 0
2967 1 8.9925 32.373 5.3955 0 0 0
1941 1 17.985 10.791 17.985 0 0 0
2913 1 10.791 25.179 28.776 0 0 0
2322 1 14.388 12.5895 1.7985 0 0 0
3002 1 7.194 1.7985 1.7985 0 0 0
1945 1 17.985 10.791 21.582 0 0 0
3872 1 0.0 12.5895 19.7835 0 0 0
2384 1 12.5895 16.1865 17.985 0 0 0
1026 1 25.179 1.7985 23.3805 0 0 0
1976 1 16.1865 16.1865 10.791 0 0 0
3581 1 3.597 14.388 17.985 0 0 0
3952 1 0.0 26.9775 19.7835 0 0 0
159 1 34.1715 25.179 34.1715 0 0 0
3587 1 1.7985 14.388 23.3805 0 0 0
1758 1 21.582 30.5745 34.1715 0 0 0
3390 1 7.194 34.1715 26.9775 0 0 0
781 1 28.776 14.388 17.985 0 0 0
1299 1 23.3805 25.179 16.1865 0 0 0
3967 1 0.0 28.776 10.791 0 0 0
1379 1 23.3805 32.373 16.1865 0 0 0
2342 1 14.388 12.5895 19.7835 0 0 0
321 1 32.373 10.791 0.0 0 0 0
858 1 28.776 23.3805 16.1865 0 0 0
2917 1 10.791 25.179 32.373 0 0 0
630 1 28.776 1.7985 26.9775 0 0 0
2952 1 8.9925 30.5745 25.179 0 0 0
3866 1 0.0 12.5895 8.9925 0 0 0
3182 1 7.194 16.1865 19.7835 0 0 0
3772 1 1.7985 34.1715 7.194 0 0 0
1588 1 19.7835 16.1865 21.582 0 0 0
1281 1 25.179 25.179 0.0 0 0 0
513 1 32.373 25.179 28.776 0 0 0
2942 1 10.791 30.5745 19.7835 0 0 0
2818 1 10.791 19.7835 16.1865 0 0 0
288 1 30.5745 8.9925 3.597 0 0 0
1989 1 17.985 14.388 25.179 0 0 0
3986 1 0.0 34.1715 8.9925 0 0 0
273 1 32.373 3.597 28.776 0 0 0
165 1 34.1715 28.776 8.9925 0 0 0
705 1 28.776 7.194 21.582 0 0 0
865 1 28.776 21.582 21.582 0 0 0
2760 1 8.9925 12.5895 32.373 0 0 0
2084 1 16.1865 26.9775 0.0 0 0 0
1467 1 19.7835 3.597 23.3805 0 0 0
3963 1 0.0 28.776 3.597 0 0 0
3775 1 1.7985 32.373 12.5895 0 0 0
3335 1 5.3955 28.776 12.5895 0 0 0
2956 1 8.9925 30.5745 28.776 0 0 0
1683 1 19.7835 25.179 1.7985 0 0 0
3128 1 5.3955 12.5895 3.597 0 0 0
1799 1 19.7835 32.373 34.1715 0 0 0
1610 1 21.582 19.7835 8.9925 0 0 0
2496 1 12.5895 26.9775 10.791 0 0 0
2386 1 14.388 16.1865 23.3805 0 0 0
3777 1 3.597 32.373 14.388 0 0 0
2631 1 8.9925 0.0 26.9775 0 0 0
3898 1 0.0 16.1865 30.5745 0 0 0
833 1 28.776 17.985 28.776 0 0 0
1991 1 16.1865 14.388 26.9775 0 0 0
1738 1 21.582 30.5745 16.1865 0 0 0
3573 1 3.597 14.388 10.791 0 0 0
14 1 34.1715 1.7985 21.582 0 0 0
3900 1 0.0 16.1865 34.1715 0 0 0
2175 1 16.1865 32.373 12.5895 0 0 0
2535 1 12.5895 28.776 12.5895 0 0 0
3047 1 5.3955 3.597 5.3955 0 0 0
2507 1 12.5895 25.179 23.3805 0 0 0
931 1 26.9775 28.776 8.9925 0 0 0
1892 1 16.1865 8.9925 7.194 0 0 0
2772 1 8.9925 16.1865 7.194 0 0 0
850 1 28.776 23.3805 8.9925 0 0 0
1298 1 25.179 26.9775 16.1865 0 0 0
2486 1 14.388 26.9775 5.3955 0 0 0
3751 1 1.7985 28.776 26.9775 0 0 0
2098 1 17.985 26.9775 16.1865 0 0 0
2323 1 12.5895 10.791 1.7985 0 0 0
496 1 30.5745 26.9775 10.791 0 0 0
2378 1 14.388 16.1865 16.1865 0 0 0
542 1 32.373 30.5745 19.7835 0 0 0
3095 1 5.3955 7.194 12.5895 0 0 0
3077 1 7.194 3.597 32.373 0 0 0
2111 1 16.1865 25.179 26.9775 0 0 0
1047 1 23.3805 3.597 5.3955 0 0 0
1823 1 16.1865 0.0 19.7835 0 0 0
2541 1 14.388 28.776 17.985 0 0 0
2377 1 14.388 14.388 14.388 0 0 0
1235 1 23.3805 17.985 30.5745 0 0 0
3296 1 5.3955 26.9775 10.791 0 0 0
2842 1 10.791 23.3805 1.7985 0 0 0
1509 1 21.582 7.194 25.179 0 0 0
3521 1 3.597 10.791 0.0 0 0 0
3748 1 1.7985 30.5745 21.582 0 0 0
922 1 28.776 30.5745 1.7985 0 0 0
3492 1 1.7985 8.9925 7.194 0 0 0
3575 1 1.7985 14.388 12.5895 0 0 0
3118 1 7.194 8.9925 34.1715 0 0 0
543 1 30.5745 28.776 19.7835 0 0 0
993 1 28.776 32.373 28.776 0 0 0
3444 1 1.7985 5.3955 0.0 0 0 0
950 1 28.776 30.5745 26.9775 0 0 0
275 1 30.5745 3.597 30.5745 0 0 0
1388 1 23.3805 34.1715 21.582 0 0 0
87 1 34.1715 14.388 12.5895 0 0 0
124 1 34.1715 23.3805 3.597 0 0 0
3293 1 7.194 25.179 10.791 0 0 0
3011 1 5.3955 0.0 8.9925 0 0 0
573 1 32.373 32.373 10.791 0 0 0
1446 1 21.582 5.3955 5.3955 0 0 0
1164 1 23.3805 16.1865 0.0 0 0 0
3638 1 3.597 19.7835 34.1715 0 0 0
2872 1 8.9925 23.3805 25.179 0 0 0
2256 1 12.5895 5.3955 10.791 0 0 0
2889 1 10.791 25.179 7.194 0 0 0
1273 1 25.179 21.582 28.776 0 0 0
3710 1 3.597 26.9775 26.9775 0 0 0
1097 1 25.179 7.194 14.388 0 0 0
452 1 30.5745 23.3805 7.194 0 0 0
2808 1 8.9925 19.7835 3.597 0 0 0
3746 1 3.597 30.5745 23.3805 0 0 0
982 1 28.776 34.1715 19.7835 0 0 0
3499 1 1.7985 7.194 16.1865 0 0 0
959 1 26.9775 28.776 34.1715 0 0 0
2124 1 16.1865 30.5745 0.0 0 0 0
2664 1 8.9925 5.3955 17.985 0 0 0
855 1 26.9775 21.582 12.5895 0 0 0
346 1 32.373 12.5895 23.3805 0 0 0
3392 1 5.3955 34.1715 25.179 0 0 0
1782 1 21.582 34.1715 19.7835 0 0 0
1968 1 16.1865 16.1865 3.597 0 0 0
223 1 30.5745 0.0 19.7835 0 0 0
3153 1 7.194 10.791 28.776 0 0 0
3853 1 0.0 7.194 21.582 0 0 0
2586 1 14.388 34.1715 23.3805 0 0 0
2066 1 17.985 23.3805 23.3805 0 0 0
936 1 26.9775 30.5745 10.791 0 0 0
3112 1 5.3955 8.9925 25.179 0 0 0
1457 1 21.582 3.597 14.388 0 0 0
85 1 34.1715 14.388 8.9925 0 0 0
1642 1 21.582 23.3805 1.7985 0 0 0
2911 1 8.9925 25.179 26.9775 0 0 0
1203 1 23.3805 17.985 1.7985 0 0 0
662 1 28.776 5.3955 19.7835 0 0 0
1653 1 21.582 21.582 10.791 0 0 0
3297 1 7.194 25.179 14.388 0 0 0
1090 1 25.179 8.9925 8.9925 0 0 0
1821 1 17.985 0.0 17.985 0 0 0
1631 1 19.7835 17.985 26.9775 0 0 0
1992 1 16.1865 16.1865 25.179 0 0 0
2392 1 12.5895 16.1865 25.179 0 0 0
2302 1 14.388 8.9925 19.7835 0 0 0
3261 1 7.194 21.582 17.985 0 0 0
204 1 30.5745 1.7985 0.0 0 0 0
1385 1 25.179 32.373 21.582 0 0 0
601 1 28.776 0.0 0.0 0 0 0
3018 1 7.194 1.7985 16.1865 0 0 0
187 1 34.1715 32.373 12.5895 0 0 0
3305 1 7.194 25.179 21.582 0 0 0
3267 1 5.3955 21.582 23.3805 0 0 0
448 1 30.5745 23.3805 3.597 0 0 0
3765 1 3.597 32.373 3.597 0 0 0
1400 1 23.3805 34.1715 32.373 0 0 0
104 1 34.1715 19.7835 3.597 0 0 0
3465 1 3.597 3.597 21.582 0 0 0
112 2 34.1715 19.7835 17.985 0 0 0
3812 2 0.0 1.7985 19.7835 0 0 0
300 2 30.5745 8.9925 14.388 0 0 0
2674 2 10.791 5.3955 30.5745 0 0 0
32 2 34.1715 5.3955 17.985 0 0 0
2787 2 8.9925 14.388 23.3805 0 0 0
53 2 34.1715 7.194 23.3805 0 0 0
544 2 30.5745 30.5745 17.985 0 0 0
3932 2 0.0 23.3805 19.7835 0 0 0
499 2 30.5745 25.179 16.1865 0 0 0
2759 2 8.9925 10.791 34.1715 0 0 0
2902 2 10.791 26.9775 19.7835 0 0 0
684 2 26.9775 8.9925 0.0 0 0 0
563 2 30.5745 32.373 1.7985 0 0 0
1073 2 25.179 3.597 28.776 0 0 0
2582 2 14.388 34.1715 19.7835 0 0 0
490 2 32.373 26.9775 8.9925 0 0 0
1068 2 23.3805 5.3955 21.582 0 0 0
387 2 30.5745 14.388 23.3805 0 0 0
1755 2 19.7835 28.776 30.5745 0 0 0
672 2 26.9775 5.3955 25.179 0 0 0
3565 2 3.597 14.388 3.597 0 0 0
1161 2 25.179 14.388 0.0 0 0 0
3015 2 5.3955 0.0 12.5895 0 0 0
1597 2 21.582 14.388 32.373 0 0 0
540 2 30.5745 30.5745 14.388 0 0 0
1888 2 16.1865 8.9925 3.597 0 0 0
1486 2 21.582 8.9925 5.3955 0 0 0
390 2 32.373 16.1865 26.9775 0 0 0
3729 2 3.597 28.776 7.194 0 0 0
749 2 28.776 10.791 25.179 0 0 0
2900 2 8.9925 26.9775 14.388 0 0 0
1285 2 25.179 25.179 3.597 0 0 0
3780 2 1.7985 34.1715 14.388 0 0 0
3494 2 3.597 8.9925 12.5895 0 0 0
942 2 28.776 30.5745 19.7835 0 0 0
1132 2 23.3805 12.5895 7.194 0 0 0
3732 2 1.7985 30.5745 7.194 0 0 0
3076 2 5.3955 5.3955 28.776 0 0 0
1802 2 17.985 1.7985 1.7985 0 0 0
2213 2 14.388 0.0 10.791 0 0 0
3048 2 5.3955 5.3955 3.597 0 0 0
927 2 26.9775 28.776 5.3955 0 0 0
1730 2 21.582 30.5745 8.9925 0 0 0
3520 2 1.7985 8.9925 32.373 0 0 0
1506 2 21.582 8.9925 23.3805 0 0 0
192 2 34.1715 34.1715 17.985 0 0 0
2410 2 14.388 19.7835 8.9925 0 0 0
1568 2 19.7835 16.1865 3.597 0 0 0
3552 2 1.7985 12.5895 25.179 0 0 0
1996 2 16.1865 16.1865 28.776 0 0 0
2546 2 14.388 30.5745 23.3805 0 0 0
3702 2 3.597 26.9775 19.7835 0 0 0
1206 2 25.179 19.7835 5.3955 0 0 0
725 2 28.776 10.791 3.597 0 0 0
175 2 34.1715 28.776 26.9775 0 0 0
2351 2 12.5895 10.791 26.9775 0 0 0
1109 2 25.179 7.194 25.179 0 0 0
2057 2 17.985 21.582 14.388 0 0 0
3768 2 1.7985 34.1715 3.597 0 0 0
1963 2 16.1865 14.388 1.7985 0 0 0
2237 2 14.388 0.0 32.373 0 0 0
2834 2 10.791 19.7835 30.5745 0 0 0
671 2 26.9775 3.597 26.9775 0 0 0
3717 2 3.597 25.179 32.373 0 0 0
700 2 26.9775 8.9925 14.388 0 0 0
1292 2 23.3805 26.9775 7.194 0 0 0
634 2 28.776 1.7985 30.5745 0 0 0
1655 2 19.7835 21.582 12.5895 0 0 0
2892 2 8.9925 26.9775 7.194 0 0 0
2506 2 14.388 26.9775 23.3805 0 0 0
2158 2 17.985 30.5745 34.1715 0 0 0
1775 2 19.7835 32.373 12.5895 0 0 0
2816 2 8.9925 19.7835 10.791 0 0 0
12 2 34.1715 1.7985 17.985 0 0 0
1241 2 25.179 21.582 0.0 0 0 0
1834 2 17.985 1.7985 30.5745 0 0 0
2332 2 12.5895 12.5895 7.194 0 0 0
3736 2 1.7985 30.5745 10.791 0 0 0
2545 2 14.388 28.776 21.582 0 0 0
2547 2 12.5895 28.776 23.3805 0 0 0
3376 2 5.3955 34.1715 10.791 0 0 0
129 2 34.1715 21.582 16.1865 0 0 0
2813 2 10.791 17.985 10.791 0 0 0
2949 2 10.791 28.776 25.179 0 0 0
2139 2 16.1865 28.776 16.1865 0 0 0
2612 2 8.9925 1.7985 7.194 0 0 0
78 2 34.1715 12.5895 28.776 0 0 0
1640 2 19.7835 19.7835 32.373 0 0 0
1912 2 16.1865 8.9925 25.179 0 0 0
1148 2 23.3805 12.5895 21.582 0 0 0
2027 2 16.1865 17.985 23.3805 0 0 0
636 2 26.9775 1.7985 28.776 0 0 0
140 2 34.1715 23.3805 32.373 0 0 0
1413 2 21.582 0.0 10.791 0 0 0
746 2 28.776 12.5895 23.3805 0 0 0
427 2 30.5745 17.985 23.3805 0 0 0
2017 2 17.985 17.985 14.388 0 0 0
2611 2 8.9925 0.0 8.9925 0 0 0
456 2 30.5745 23.3805 10.791 0 0 0
1939 2 16.1865 10.791 16.1865 0 0 0
1537 2 21.582 10.791 14.388 0 0 0
2415 2 12.5895 17.985 12.5895 0 0 0
342 2 32.373 12.5895 19.7835 0 0 0
362 2 32.373 16.1865 1.7985 0 0 0
2381 2 14.388 14.388 17.985 0 0 0
3286 2 7.194 26.9775 5.3955 0 0 0
3564 2 1.7985 16.1865 0.0 0 0 0
1890 2 17.985 8.9925 8.9925 0 0 0
1708 2 19.7835 26.9775 21.582 0 0 0
3482 2 3.597 8.9925 1.7985 0 0 0
1636 2 19.7835 19.7835 28.776 0 0 0
3518 2 3.597 8.9925 34.1715 0 0 0
839 2 26.9775 17.985 34.1715 0 0 0
3696 2 1.7985 26.9775 10.791 0 0 0
903 2 26.9775 25.179 19.7835 0 0 0
1325 2 25.179 28.776 3.597 0 0 0
2204 2 12.5895 1.7985 0.0 0 0 0
676 2 26.9775 5.3955 28.776 0 0 0
2401 2 14.388 17.985 0.0 0 0 0
3833 2 0.0 3.597 21.582 0 0 0
3098 2 7.194 8.9925 16.1865 0 0 0
134 2 34.1715 23.3805 21.582 0 0 0
483 2 30.5745 25.179 1.7985 0 0 0
2356 2 12.5895 12.5895 28.776 0 0 0
1933 2 17.985 10.791 10.791 0 0 0
3219 2 5.3955 17.985 16.1865 0 0 0
2177 2 17.985 32.373 14.388 0 0 0
1280 2 23.3805 23.3805 32.373 0 0 0
2427 2 12.5895 17.985 23.3805 0 0 0
2430 2 14.388 19.7835 26.9775 0 0 0
1603 2 19.7835 17.985 1.7985 0 0 0
2835 2 8.9925 17.985 30.5745 0 0 0
3380 2 5.3955 34.1715 14.388 0 0 0
3148 2 5.3955 12.5895 21.582 0 0 0
2180 2 16.1865 34.1715 14.388 0 0 0
1448 2 19.7835 5.3955 3.597 0 0 0
1366 2 25.179 34.1715 5.3955 0 0 0
2737 2 10.791 10.791 14.388 0 0 0
3711 2 1.7985 25.179 26.9775 0 0 0
295 2 30.5745 7.194 12.5895 0 0 0
2234 2 14.388 1.7985 30.5745 0 0 0
932 2 26.9775 30.5745 7.194 0 0 0
2639 2 8.9925 0.0 34.1715 0 0 0
2279 2 12.5895 3.597 34.1715 0 0 0
2020 2 16.1865 19.7835 14.388 0 0 0
1402 2 21.582 1.7985 1.7985 0 0 0
2301 2 14.388 7.194 17.985 0 0 0
1290 2 25.179 26.9775 8.9925 0 0 0
465 2 32.373 21.582 21.582 0 0 0
2751 2 8.9925 10.791 26.9775 0 0 0
3190 2 7.194 16.1865 26.9775 0 0 0
3574 2 3.597 16.1865 12.5895 0 0 0
3174 2 7.194 16.1865 12.5895 0 0 0
131 2 34.1715 21.582 19.7835 0 0 0
3137 2 7.194 10.791 14.388 0 0 0
289 2 32.373 7.194 7.194 0 0 0
624 2 26.9775 1.7985 17.985 0 0 0
1942 2 17.985 12.5895 19.7835 0 0 0
701 2 28.776 7.194 17.985 0 0 0
1572 2 19.7835 16.1865 7.194 0 0 0
715 2 26.9775 7.194 30.5745 0 0 0
3326 2 7.194 30.5745 5.3955 0 0 0
3121 2 7.194 10.791 0.0 0 0 0
1014 2 25.179 1.7985 12.5895 0 0 0
20 2 34.1715 1.7985 32.373 0 0 0
1139 2 23.3805 10.791 16.1865 0 0 0
608 2 26.9775 1.7985 3.597 0 0 0
2875 2 8.9925 21.582 30.5745 0 0 0
1916 2 16.1865 8.9925 28.776 0 0 0
2771 2 8.9925 14.388 8.9925 0 0 0
1966 2 17.985 16.1865 5.3955 0 0 0
2957 2 10.791 28.776 32.373 0 0 0
1029 2 25.179 0.0 25.179 0 0 0
3787 2 1.7985 32.373 23.3805 0 0 0
2317 2 14.388 7.194 32.373 0 0 0
3436 2 1.7985 1.7985 28.776 0 0 0
2579 2 12.5895 32.373 16.1865 0 0 0
164 2 34.1715 30.5745 3.597 0 0 0
614 2 28.776 1.7985 12.5895 0 0 0
1762 2 21.582 34.1715 1.7985 0 0 0
690 2 28.776 8.9925 8.9925 0 0 0
2680 2 8.9925 5.3955 32.373 0 0 0
2921 2 10.791 28.776 0.0 0 0 0
1423 2 19.7835 0.0 19.7835 0 0 0
3189 2 7.194 14.388 25.179 0 0 0
733 2 28.776 10.791 10.791 0 0 0
3049 2 7.194 3.597 7.194 0 0 0
2685 2 10.791 7.194 3.597 0 0 0
2651 2 8.9925 3.597 8.9925 0 0 0
412 2 30.5745 19.7835 7.194 0 0 0
395 2 30.5745 14.388 30.5745 0 0 0
3505 2 3.597 7.194 21.582 0 0 0
664 2 26.9775 5.3955 17.985 0 0 0
227 2 30.5745 0.0 23.3805 0 0 0
3175 2 5.3955 14.388 12.5895 0 0 0
1479 2 19.7835 3.597 34.1715 0 0 0
2717 2 10.791 7.194 32.373 0 0 0
3167 2 5.3955 14.388 5.3955 0 0 0
2087 2 16.1865 25.179 5.3955 0 0 0
613 2 28.776 0.0 10.791 0 0 0
1732 2 19.7835 30.5745 7.194 0 0 0
1620 2 19.7835 19.7835 14.388 0 0 0
3595 2 1.7985 14.388 30.5745 0 0 0
1891 2 16.1865 7.194 8.9925 0 0 0
731 2 26.9775 10.791 8.9925 0 0 0
3677 2 3.597 21.582 32.373 0 0 0
1192 2 23.3805 16.1865 25.179 0 0 0
1561 2 21.582 14.388 0.0 0 0 0
1664 2 19.7835 23.3805 17.985 0 0 0
2305 2 14.388 7.194 21.582 0 0 0
1849 2 17.985 3.597 7.194 0 0 0
3827 2 0.0 3.597 10.791 0 0 0
1091 2 23.3805 7.194 8.9925 0 0 0
2798 2 10.791 16.1865 34.1715 0 0 0
1787 2 19.7835 32.373 23.3805 0 0 0
2248 2 12.5895 5.3955 3.597 0 0 0
1267 2 23.3805 21.582 23.3805 0 0 0
404 2 30.5745 19.7835 0.0 0 0 0
1796 2 19.7835 34.1715 28.776 0 0 0
1393 2 25.179 32.373 28.776 0 0 0
3909 2 0.0 17.985 14.388 0 0 0
3683 2 1.7985 25.179 1.7985 0 0 0
3466 2 3.597 5.3955 23.3805 0 0 0
1590 2 21.582 16.1865 26.9775 0 0 0
2852 2 8.9925 23.3805 7.194 0 0 0
3941 2 0.0 25.179 0.0 0 0 0
2713 2 10.791 7.194 28.776 0 0 0
3116 2 5.3955 8.9925 28.776 0 0 0
622 2 28.776 1.7985 19.7835 0 0 0
2254 2 14.388 5.3955 12.5895 0 0 0
1783 2 19.7835 32.373 19.7835 0 0 0
1303 2 23.3805 25.179 19.7835 0 0 0
409 2 32.373 17.985 7.194 0 0 0
2723 2 8.9925 10.791 1.7985 0 0 0
840 2 26.9775 19.7835 32.373 0 0 0
1980 2 16.1865 16.1865 14.388 0 0 0
3497 2 3.597 7.194 14.388 0 0 0
2673 2 10.791 3.597 28.776 0 0 0
2688 2 8.9925 8.9925 3.597 0 0 0
3636 2 1.7985 19.7835 28.776 0 0 0
1158 2 25.179 12.5895 34.1715 0 0 0
3468 2 1.7985 5.3955 21.582 0 0 0
1925 2 17.985 10.791 3.597 0 0 0
1343 2 23.3805 28.776 19.7835 0 0 0
3649 2 3.597 21.582 7.194 0 0 0
1171 2 23.3805 14.388 8.9925 0 0 0
1875 2 16.1865 3.597 30.5745 0 0 0
1740 2 19.7835 30.5745 14.388 0 0 0
831 2 26.9775 17.985 26.9775 0 0 0
3330 2 7.194 30.5745 8.9925 0 0 0
3341 2 7.194 28.776 17.985 0 0 0
911 2 26.9775 25.179 26.9775 0 0 0
972 2 26.9775 34.1715 7.194 0 0 0
623 2 26.9775 0.0 19.7835 0 0 0
1951 2 16.1865 10.791 26.9775 0 0 0
3730 2 3.597 30.5745 8.9925 0 0 0
3064 2 5.3955 5.3955 17.985 0 0 0
1276 2 23.3805 23.3805 28.776 0 0 0
2959 2 8.9925 28.776 34.1715 0 0 0
1854 2 17.985 5.3955 12.5895 0 0 0
3635 2 1.7985 17.985 30.5745 0 0 0
642 2 28.776 5.3955 1.7985 0 0 0
2606 2 10.791 1.7985 5.3955 0 0 0
1476 2 19.7835 5.3955 28.776 0 0 0
1862 2 17.985 5.3955 19.7835 0 0 0
3036 2 5.3955 1.7985 28.776 0 0 0
3287 2 5.3955 25.179 5.3955 0 0 0
517 2 32.373 25.179 32.373 0 0 0
2943 2 8.9925 28.776 19.7835 0 0 0
3045 2 7.194 3.597 3.597 0 0 0
3100 2 5.3955 8.9925 14.388 0 0 0
3353 2 7.194 28.776 28.776 0 0 0
571 2 30.5745 32.373 8.9925 0 0 0
1981 2 17.985 14.388 17.985 0 0 0
2360 2 12.5895 12.5895 32.373 0 0 0
2081 2 17.985 25.179 0.0 0 0 0
166 2 34.1715 30.5745 7.194 0 0 0
3491 2 1.7985 7.194 8.9925 0 0 0
277 2 32.373 3.597 32.373 0 0 0
3860 2 0.0 8.9925 34.1715 0 0 0
2530 2 14.388 30.5745 8.9925 0 0 0
3126 2 7.194 12.5895 5.3955 0 0 0
2878 2 10.791 23.3805 34.1715 0 0 0
3572 2 1.7985 16.1865 7.194 0 0 0
3759 2 1.7985 28.776 34.1715 0 0 0
143 2 34.1715 25.179 5.3955 0 0 0
2742 2 10.791 12.5895 19.7835 0 0 0
2484 2 12.5895 26.9775 0.0 0 0 0
80 2 34.1715 12.5895 32.373 0 0 0
11 2 34.1715 0.0 19.7835 0 0 0
546 2 32.373 30.5745 23.3805 0 0 0
1323 2 23.3805 28.776 1.7985 0 0 0
3538 2 3.597 12.5895 16.1865 0 0 0
2079 2 16.1865 21.582 34.1715 0 0 0
3207 2 5.3955 17.985 5.3955 0 0 0
667 2 26.9775 3.597 23.3805 0 0 0
340 2 30.5745 12.5895 14.388 0 0 0
3070 2 7.194 5.3955 26.9775 0 0 0
3275 2 5.3955 21.582 30.5745 0 0 0
3044 2 5.3955 5.3955 0.0 0 0 0
1540 2 19.7835 12.5895 14.388 0 0 0
2534 2 14.388 30.5745 12.5895 0 0 0
1125 2 25.179 10.791 3.597 0 0 0
2940 2 8.9925 30.5745 14.388 0 0 0
3092 2 5.3955 8.9925 7.194 0 0 0
3089 2 7.194 7.194 7.194 0 0 0
2894 2 10.791 26.9775 12.5895 0 0 0
3069 2 7.194 3.597 25.179 0 0 0
3928 2 0.0 23.3805 12.5895 0 0 0
3437 2 3.597 0.0 32.373 0 0 0
378 2 32.373 16.1865 16.1865 0 0 0
3374 2 7.194 34.1715 12.5895 0 0 0
3698 2 3.597 26.9775 16.1865 0 0 0
2718 2 10.791 8.9925 34.1715 0 0 0
2502 2 14.388 26.9775 19.7835 0 0 0
2624 2 8.9925 1.7985 17.985 0 0 0
1377 2 25.179 32.373 14.388 0 0 0
905 2 28.776 25.179 21.582 0 0 0
2890 2 10.791 26.9775 8.9925 0 0 0
1154 2 25.179 12.5895 30.5745 0 0 0
3621 2 3.597 17.985 17.985 0 0 0
193 2 34.1715 32.373 23.3805 0 0 0
2622 2 10.791 1.7985 19.7835 0 0 0
30 2 34.1715 5.3955 14.388 0 0 0
264 2 30.5745 5.3955 17.985 0 0 0
2641 2 10.791 3.597 0.0 0 0 0
1256 2 23.3805 23.3805 10.791 0 0 0
3413 2 3.597 0.0 10.791 0 0 0
2574 2 14.388 34.1715 12.5895 0 0 0
2931 2 8.9925 28.776 8.9925 0 0 0
717 2 28.776 7.194 32.373 0 0 0
1442 2 21.582 5.3955 1.7985 0 0 0
2145 2 17.985 28.776 21.582 0 0 0
380 2 30.5745 16.1865 14.388 0 0 0
1734 2 21.582 30.5745 12.5895 0 0 0
1022 2 25.179 1.7985 19.7835 0 0 0
899 2 26.9775 25.179 16.1865 0 0 0
3170 2 7.194 16.1865 8.9925 0 0 0
1456 2 19.7835 5.3955 10.791 0 0 0
956 2 26.9775 30.5745 28.776 0 0 0
3475 2 1.7985 3.597 30.5745 0 0 0
3726 2 3.597 30.5745 5.3955 0 0 0
841 2 28.776 21.582 0.0 0 0 0
1389 2 25.179 32.373 25.179 0 0 0
3028 2 5.3955 1.7985 21.582 0 0 0
3278 2 7.194 23.3805 34.1715 0 0 0
3435 2 1.7985 0.0 30.5745 0 0 0
60 2 34.1715 8.9925 32.373 0 0 0
2132 2 16.1865 30.5745 7.194 0 0 0
2770 2 10.791 16.1865 8.9925 0 0 0
539 2 30.5745 28.776 16.1865 0 0 0
2349 2 14.388 10.791 25.179 0 0 0
945 2 28.776 28.776 21.582 0 0 0
1795 2 19.7835 32.373 30.5745 0 0 0
485 2 32.373 25.179 3.597 0 0 0
2652 2 8.9925 5.3955 7.194 0 0 0
2277 2 14.388 3.597 32.373 0 0 0
3761 2 3.597 32.373 0.0 0 0 0
3432 2 1.7985 1.7985 25.179 0 0 0
2394 2 14.388 16.1865 30.5745 0 0 0
3580 2 1.7985 16.1865 14.388 0 0 0
2560 2 12.5895 30.5745 32.373 0 0 0
1279 2 23.3805 21.582 34.1715 0 0 0
3181 2 7.194 14.388 17.985 0 0 0
139 2 34.1715 21.582 34.1715 0 0 0
3930 2 0.0 23.3805 16.1865 0 0 0
317 2 32.373 7.194 32.373 0 0 0
1532 2 19.7835 12.5895 7.194 0 0 0
92 2 34.1715 16.1865 17.985 0 0 0
2176 2 16.1865 34.1715 10.791 0 0 0
886 2 28.776 26.9775 5.3955 0 0 0
2848 2 8.9925 23.3805 3.597 0 0 0
621 2 28.776 0.0 17.985 0 0 0
864 2 26.9775 23.3805 17.985 0 0 0
2240 2 12.5895 1.7985 32.373 0 0 0
426 2 32.373 19.7835 23.3805 0 0 0
3378 2 7.194 34.1715 16.1865 0 0 0
1119 2 23.3805 7.194 34.1715 0 0 0
1737 2 21.582 28.776 14.388 0 0 0
2791 2 8.9925 14.388 26.9775 0 0 0
3453 2 3.597 3.597 10.791 0 0 0
1101 2 25.179 7.194 17.985 0 0 0
2629 2 10.791 0.0 25.179 0 0 0
2107 2 16.1865 25.179 23.3805 0 0 0
3766 2 3.597 34.1715 5.3955 0 0 0
3114 2 7.194 8.9925 30.5745 0 0 0
1058 2 25.179 5.3955 16.1865 0 0 0
473 2 32.373 21.582 28.776 0 0 0
1397 2 25.179 32.373 32.373 0 0 0
2825 2 10.791 17.985 21.582 0 0 0
3025 2 7.194 0.0 21.582 0 0 0
268 2 30.5745 5.3955 21.582 0 0 0
1190 2 25.179 16.1865 26.9775 0 0 0
2738 2 10.791 12.5895 16.1865 0 0 0
201 2 32.373 0.0 0.0 0 0 0
2776 2 8.9925 16.1865 10.791 0 0 0
878 2 28.776 23.3805 34.1715 0 0 0
2369 2 14.388 14.388 7.194 0 0 0
1471 2 19.7835 3.597 26.9775 0 0 0
3416 2 1.7985 1.7985 10.791 0 0 0
1889 2 17.985 7.194 7.194 0 0 0
2887 2 8.9925 25.179 5.3955 0 0 0
2603 2 8.9925 0.0 1.7985 0 0 0
1772 2 19.7835 34.1715 7.194 0 0 0
2691 2 8.9925 7.194 8.9925 0 0 0
3549 2 3.597 10.791 25.179 0 0 0
68 2 34.1715 12.5895 10.791 0 0 0
1639 2 19.7835 17.985 34.1715 0 0 0
3124 2 5.3955 12.5895 0.0 0 0 0
3700 2 1.7985 26.9775 14.388 0 0 0
3362 2 7.194 34.1715 1.7985 0 0 0
1921 2 17.985 10.791 0.0 0 0 0
1936 2 16.1865 12.5895 10.791 0 0 0
3950 2 0.0 26.9775 16.1865 0 0 0
2494 2 14.388 26.9775 12.5895 0 0 0
628 2 26.9775 1.7985 21.582 0 0 0
663 2 26.9775 3.597 19.7835 0 0 0
1523 2 19.7835 10.791 1.7985 0 0 0
212 2 30.5745 1.7985 7.194 0 0 0
2122 2 17.985 30.5745 1.7985 0 0 0
1729 2 21.582 28.776 7.194 0 0 0
484 2 30.5745 26.9775 0.0 0 0 0
1236 2 23.3805 19.7835 28.776 0 0 0
1133 2 25.179 10.791 10.791 0 0 0
2671 2 8.9925 3.597 26.9775 0 0 0
1238 2 25.179 19.7835 34.1715 0 0 0
1842 2 17.985 5.3955 1.7985 0 0 0
3224 2 5.3955 19.7835 17.985 0 0 0
1510 2 21.582 8.9925 26.9775 0 0 0
1425 2 21.582 0.0 21.582 0 0 0
1181 2 25.179 14.388 17.985 0 0 0
3129 2 7.194 10.791 7.194 0 0 0
901 2 28.776 25.179 17.985 0 0 0
2722 2 10.791 12.5895 1.7985 0 0 0
1357 2 25.179 28.776 32.373 0 0 0
3675 2 1.7985 21.582 30.5745 0 0 0
1037 2 25.179 0.0 32.373 0 0 0
1475 2 19.7835 3.597 30.5745 0 0 0
869 2 28.776 21.582 25.179 0 0 0
3669 2 3.597 21.582 25.179 0 0 0
1195 2 23.3805 14.388 30.5745 0 0 0
2195 2 16.1865 32.373 30.5745 0 0 0
428 2 30.5745 19.7835 21.582 0 0 0
3728 2 1.7985 30.5745 3.597 0 0 0
3111 2 5.3955 7.194 26.9775 0 0 0
3164 2 5.3955 16.1865 0.0 0 0 0
1780 2 19.7835 34.1715 14.388 0 0 0
58 2 34.1715 8.9925 28.776 0 0 0
3370 2 7.194 34.1715 8.9925 0 0 0
1984 2 16.1865 16.1865 17.985 0 0 0
2557 2 14.388 28.776 32.373 0 0 0
670 2 28.776 5.3955 26.9775 0 0 0
3247 2 5.3955 21.582 5.3955 0 0 0
1088 2 23.3805 8.9925 3.597 0 0 0
879 2 26.9775 21.582 34.1715 0 0 0
1364 2 23.3805 34.1715 0.0 0 0 0
1785 2 21.582 32.373 21.582 0 0 0
2836 2 8.9925 19.7835 28.776 0 0 0
2473 2 14.388 21.582 28.776 0 0 0
2082 2 17.985 26.9775 1.7985 0 0 0
2338 2 14.388 12.5895 16.1865 0 0 0
101 2 34.1715 17.985 1.7985 0 0 0
557 2 32.373 28.776 32.373 0 0 0
1115 2 23.3805 7.194 30.5745 0 0 0
50 2 34.1715 8.9925 14.388 0 0 0
3199 2 5.3955 14.388 34.1715 0 0 0
290 2 32.373 8.9925 8.9925 0 0 0
721 2 28.776 10.791 0.0 0 0 0
1184 2 23.3805 16.1865 17.985 0 0 0
1669 2 21.582 21.582 25.179 0 0 0
371 2 30.5745 14.388 8.9925 0 0 0
1619 2 19.7835 17.985 16.1865 0 0 0
3637 2 3.597 17.985 32.373 0 0 0
1478 2 21.582 5.3955 34.1715 0 0 0
3658 2 3.597 23.3805 16.1865 0 0 0
294 2 32.373 8.9925 12.5895 0 0 0
3831 2 0.0 3.597 17.985 0 0 0
2281 2 14.388 7.194 0.0 0 0 0
3522 2 3.597 12.5895 1.7985 0 0 0
1247 2 23.3805 21.582 5.3955 0 0 0
1048 2 23.3805 5.3955 3.597 0 0 0
3337 2 7.194 28.776 14.388 0 0 0
1861 2 17.985 3.597 17.985 0 0 0
1287 2 23.3805 25.179 5.3955 0 0 0
1198 2 25.179 16.1865 34.1715 0 0 0
810 2 28.776 19.7835 8.9925 0 0 0
3891 2 0.0 14.388 17.985 0 0 0
848 2 26.9775 23.3805 3.597 0 0 0
1836 2 16.1865 1.7985 28.776 0 0 0
31 2 34.1715 3.597 19.7835 0 0 0
1183 2 23.3805 14.388 19.7835 0 0 0
1805 2 17.985 0.0 3.597 0 0 0
2893 2 10.791 25.179 10.791 0 0 0
559 2 30.5745 28.776 34.1715 0 0 0
2693 2 10.791 7.194 10.791 0 0 0
2748 2 8.9925 12.5895 21.582 0 0 0
3244 2 5.3955 23.3805 0.0 0 0 0
702 2 28.776 8.9925 19.7835 0 0 0
1917 2 17.985 7.194 32.373 0 0 0
2065 2 17.985 21.582 21.582 0 0 0
3694 2 3.597 26.9775 12.5895 0 0 0
755 2 26.9775 10.791 30.5745 0 0 0
3905 2 0.0 17.985 7.194 0 0 0
301 2 32.373 7.194 17.985 0 0 0
2116 2 16.1865 26.9775 28.776 0 0 0
3949 2 0.0 25.179 14.388 0 0 0
3959 2 0.0 25.179 32.373 0 0 0
1268 2 23.3805 23.3805 21.582 0 0 0
2864 2 8.9925 23.3805 17.985 0 0 0
2245 2 14.388 3.597 3.597 0 0 0
1036 2 23.3805 1.7985 28.776 0 0 0
2343 2 12.5895 10.791 19.7835 0 0 0
2403 2 12.5895 17.985 1.7985 0 0 0
2781 2 10.791 14.388 17.985 0 0 0
3277 2 7.194 21.582 32.373 0 0 0
2962 2 10.791 34.1715 1.7985 0 0 0
978 2 28.776 34.1715 16.1865 0 0 0
1001 2 25.179 0.0 0.0 0 0 0
1249 2 25.179 21.582 7.194 0 0 0
3681 2 3.597 25.179 0.0 0 0 0
3902 2 0.0 19.7835 1.7985 0 0 0
1061 2 25.179 3.597 17.985 0 0 0
3989 2 0.0 32.373 14.388 0 0 0
1957 2 17.985 10.791 32.373 0 0 0
526 2 32.373 30.5745 5.3955 0 0 0
42 2 34.1715 8.9925 0.0 0 0 0
3294 2 7.194 26.9775 12.5895 0 0 0
553 2 32.373 28.776 28.776 0 0 0
3793 2 3.597 32.373 28.776 0 0 0
2119 2 16.1865 25.179 34.1715 0 0 0
1497 2 21.582 7.194 14.388 0 0 0
2241 2 14.388 3.597 0.0 0 0 0
3449 2 3.597 3.597 7.194 0 0 0
1384 2 23.3805 34.1715 17.985 0 0 0
3351 2 5.3955 28.776 26.9775 0 0 0
2003 2 16.1865 17.985 1.7985 0 0 0
2368 2 12.5895 16.1865 3.597 0 0 0
2049 2 17.985 21.582 7.194 0 0 0
551 2 30.5745 28.776 26.9775 0 0 0
2666 2 10.791 5.3955 23.3805 0 0 0
779 2 26.9775 14.388 16.1865 0 0 0
1122 2 25.179 12.5895 1.7985 0 0 0
1761 2 21.582 32.373 0.0 0 0 0
2306 2 14.388 8.9925 23.3805 0 0 0
2936 2 8.9925 30.5745 10.791 0 0 0
1488 2 19.7835 8.9925 3.597 0 0 0
2309 2 14.388 7.194 25.179 0 0 0
3927 2 0.0 21.582 10.791 0 0 0
770 2 28.776 16.1865 8.9925 0 0 0
2811 2 8.9925 17.985 8.9925 0 0 0
2619 2 8.9925 0.0 16.1865 0 0 0
1583 2 19.7835 14.388 19.7835 0 0 0
2480 2 12.5895 23.3805 32.373 0 0 0
442 2 32.373 23.3805 1.7985 0 0 0
825 2 28.776 17.985 21.582 0 0 0
3879 2 0.0 10.791 32.373 0 0 0
2423 2 12.5895 17.985 19.7835 0 0 0
1441 2 21.582 3.597 0.0 0 0 0
2105 2 17.985 25.179 21.582 0 0 0
1269 2 25.179 21.582 25.179 0 0 0
1650 2 21.582 23.3805 8.9925 0 0 0
216 2 30.5745 1.7985 10.791 0 0 0
677 2 28.776 3.597 32.373 0 0 0
2829 2 10.791 17.985 25.179 0 0 0
3704 2 1.7985 26.9775 17.985 0 0 0
1314 2 25.179 26.9775 30.5745 0 0 0
1406 2 21.582 1.7985 5.3955 0 0 0
555 2 30.5745 28.776 30.5745 0 0 0
2251 2 12.5895 3.597 8.9925 0 0 0
2272 2 12.5895 5.3955 25.179 0 0 0
1205 2 25.179 17.985 3.597 0 0 0
1180 2 23.3805 16.1865 14.388 0 0 0
1422 2 21.582 1.7985 19.7835 0 0 0
1594 2 21.582 16.1865 30.5745 0 0 0
177 2 34.1715 28.776 30.5745 0 0 0
2432 2 12.5895 19.7835 25.179 0 0 0
2883 2 8.9925 25.179 1.7985 0 0 0
2532 2 12.5895 30.5745 7.194 0 0 0
3234 2 7.194 19.7835 30.5745 0 0 0
190 2 34.1715 34.1715 14.388 0 0 0
3985 2 0.0 32.373 7.194 0 0 0
3624 2 1.7985 19.7835 17.985 0 0 0
3741 2 3.597 28.776 17.985 0 0 0
2006 2 17.985 19.7835 5.3955 0 0 0
3868 2 0.0 12.5895 12.5895 0 0 0
777 2 28.776 14.388 14.388 0 0 0
1433 2 21.582 0.0 28.776 0 0 0
775 2 26.9775 14.388 12.5895 0 0 0
146 2 34.1715 26.9775 7.194 0 0 0
2273 2 14.388 3.597 28.776 0 0 0
3377 2 7.194 32.373 14.388 0 0 0
3560 2 1.7985 12.5895 32.373 0 0 0
3779 2 1.7985 32.373 16.1865 0 0 0
633 2 28.776 0.0 28.776 0 0 0
966 2 28.776 34.1715 5.3955 0 0 0
2015 2 16.1865 17.985 12.5895 0 0 0
3533 2 3.597 10.791 10.791 0 0 0
2233 2 14.388 0.0 28.776 0 0 0
2511 2 12.5895 25.179 26.9775 0 0 0
2607 2 8.9925 0.0 5.3955 0 0 0
989 2 28.776 32.373 25.179 0 0 0
1784 2 19.7835 34.1715 17.985 0 0 0
1239 2 23.3805 17.985 34.1715 0 0 0
1312 2 23.3805 26.9775 25.179 0 0 0
3990 2 0.0 34.1715 16.1865 0 0 0
2886 2 10.791 26.9775 5.3955 0 0 0
1958 2 17.985 12.5895 34.1715 0 0 0
3106 2 7.194 8.9925 23.3805 0 0 0
3156 2 5.3955 12.5895 28.776 0 0 0
3651 2 1.7985 21.582 8.9925 0 0 0
2436 2 12.5895 19.7835 28.776 0 0 0
2806 2 10.791 19.7835 5.3955 0 0 0
545 2 32.373 28.776 21.582 0 0 0
2390 2 14.388 16.1865 26.9775 0 0 0
3254 2 7.194 23.3805 12.5895 0 0 0
727 2 26.9775 10.791 5.3955 0 0 0
2553 2 14.388 28.776 28.776 0 0 0
1021 2 25.179 0.0 17.985 0 0 0
709 2 28.776 7.194 25.179 0 0 0
1625 2 21.582 17.985 21.582 0 0 0
1137 2 25.179 10.791 14.388 0 0 0
661 2 28.776 3.597 17.985 0 0 0
71 2 34.1715 10.791 19.7835 0 0 0
3813 2 0.0 0.0 21.582 0 0 0
3585 2 3.597 14.388 21.582 0 0 0
3080 2 5.3955 5.3955 32.373 0 0 0
3419 2 1.7985 0.0 16.1865 0 0 0
1261 2 25.179 21.582 17.985 0 0 0
2904 2 8.9925 26.9775 17.985 0 0 0
3854 2 0.0 8.9925 23.3805 0 0 0
1003 2 23.3805 0.0 1.7985 0 0 0
2455 2 12.5895 21.582 12.5895 0 0 0
1209 2 25.179 17.985 7.194 0 0 0
3708 2 1.7985 26.9775 21.582 0 0 0
1934 2 17.985 12.5895 12.5895 0 0 0
3774 2 3.597 34.1715 12.5895 0 0 0
2094 2 17.985 26.9775 12.5895 0 0 0
1030 2 25.179 1.7985 26.9775 0 0 0
3515 2 1.7985 7.194 30.5745 0 0 0
150 2 34.1715 26.9775 14.388 0 0 0
1538 2 21.582 12.5895 16.1865 0 0 0
2310 2 14.388 8.9925 26.9775 0 0 0
3131 2 5.3955 10.791 8.9925 0 0 0
1326 2 25.179 30.5745 5.3955 0 0 0
2265 2 14.388 3.597 21.582 0 0 0
1847 2 16.1865 3.597 5.3955 0 0 0
805 2 28.776 17.985 3.597 0 0 0
3343 2 5.3955 28.776 19.7835 0 0 0
3554 2 3.597 12.5895 30.5745 0 0 0
3445 2 3.597 3.597 3.597 0 0 0
2897 2 10.791 25.179 14.388 0 0 0
1375 2 23.3805 32.373 12.5895 0 0 0
1760 2 19.7835 30.5745 32.373 0 0 0
2837 2 10.791 17.985 32.373 0 0 0
136 2 34.1715 23.3805 25.179 0 0 0
2357 2 14.388 10.791 32.373 0 0 0
1454 2 21.582 5.3955 12.5895 0 0 0
1541 2 21.582 10.791 17.985 0 0 0
3897 2 0.0 14.388 28.776 0 0 0
3237 2 7.194 17.985 32.373 0 0 0
199 2 34.1715 32.373 34.1715 0 0 0
2697 2 10.791 7.194 14.388 0 0 0
872 2 26.9775 23.3805 25.179 0 0 0
1827 2 16.1865 0.0 23.3805 0 0 0
3454 2 3.597 5.3955 12.5895 0 0 0
984 2 26.9775 34.1715 17.985 0 0 0
1016 2 23.3805 1.7985 10.791 0 0 0
2571 2 12.5895 32.373 8.9925 0 0 0
291 2 30.5745 7.194 8.9925 0 0 0
2871 2 8.9925 21.582 26.9775 0 0 0
2555 2 12.5895 28.776 30.5745 0 0 0
311 2 30.5745 7.194 26.9775 0 0 0
2168 2 16.1865 34.1715 3.597 0 0 0
3135 2 5.3955 10.791 12.5895 0 0 0
2210 2 14.388 1.7985 8.9925 0 0 0
348 2 30.5745 12.5895 21.582 0 0 0
3712 2 1.7985 26.9775 25.179 0 0 0
3200 2 5.3955 16.1865 32.373 0 0 0
1622 2 21.582 19.7835 19.7835 0 0 0
520 2 30.5745 26.9775 32.373 0 0 0
994 2 28.776 34.1715 30.5745 0 0 0
3641 2 3.597 21.582 0.0 0 0 0
302 2 32.373 8.9925 19.7835 0 0 0
2164 2 16.1865 34.1715 0.0 0 0 0
3557 2 3.597 10.791 32.373 0 0 0
2820 2 8.9925 19.7835 14.388 0 0 0
826 2 28.776 19.7835 23.3805 0 0 0
319 2 30.5745 7.194 34.1715 0 0 0
537 2 32.373 28.776 14.388 0 0 0
1609 2 21.582 17.985 7.194 0 0 0
3672 2 1.7985 23.3805 25.179 0 0 0
2690 2 10.791 8.9925 8.9925 0 0 0
808 2 26.9775 19.7835 3.597 0 0 0
1365 2 25.179 32.373 3.597 0 0 0
680 2 26.9775 5.3955 32.373 0 0 0
3411 2 1.7985 0.0 8.9925 0 0 0
3016 2 5.3955 1.7985 10.791 0 0 0
1745 2 21.582 28.776 21.582 0 0 0
1146 2 25.179 12.5895 23.3805 0 0 0
1084 2 23.3805 8.9925 0.0 0 0 0
1524 2 19.7835 12.5895 0.0 0 0 0
2440 2 12.5895 19.7835 32.373 0 0 0
1965 2 17.985 14.388 3.597 0 0 0
1368 2 23.3805 34.1715 3.597 0 0 0
1525 2 21.582 10.791 3.597 0 0 0
762 2 28.776 16.1865 1.7985 0 0 0
514 2 32.373 26.9775 30.5745 0 0 0
2467 2 12.5895 21.582 23.3805 0 0 0
906 2 28.776 26.9775 23.3805 0 0 0
1085 2 25.179 7.194 3.597 0 0 0
3281 2 7.194 25.179 0.0 0 0 0
3914 2 0.0 19.7835 23.3805 0 0 0
1952 2 16.1865 12.5895 25.179 0 0 0
3605 2 3.597 17.985 3.597 0 0 0
2819 2 8.9925 17.985 16.1865 0 0 0
1707 2 19.7835 25.179 23.3805 0 0 0
2768 2 8.9925 16.1865 3.597 0 0 0
1311 2 23.3805 25.179 26.9775 0 0 0
1652 2 19.7835 23.3805 7.194 0 0 0
1350 2 25.179 30.5745 26.9775 0 0 0
2925 2 10.791 28.776 3.597 0 0 0
1559 2 19.7835 10.791 34.1715 0 0 0
2686 2 10.791 8.9925 5.3955 0 0 0
974 2 28.776 34.1715 12.5895 0 0 0
106 2 34.1715 19.7835 7.194 0 0 0
3817 2 0.0 0.0 28.776 0 0 0
1428 2 19.7835 1.7985 21.582 0 0 0
2450 2 14.388 23.3805 8.9925 0 0 0
2965 2 10.791 32.373 3.597 0 0 0
1551 2 19.7835 10.791 26.9775 0 0 0
730 2 28.776 12.5895 8.9925 0 0 0
64 2 34.1715 12.5895 3.597 0 0 0
2973 2 10.791 32.373 10.791 0 0 0
2244 2 12.5895 5.3955 0.0 0 0 0
2503 2 12.5895 25.179 19.7835 0 0 0
2312 2 12.5895 8.9925 25.179 0 0 0
1977 2 17.985 14.388 14.388 0 0 0
1874 2 17.985 5.3955 30.5745 0 0 0
1905 2 17.985 7.194 21.582 0 0 0
3204 2 5.3955 19.7835 0.0 0 0 0
801 2 28.776 17.985 0.0 0 0 0
2667 2 8.9925 3.597 23.3805 0 0 0
784 2 26.9775 16.1865 17.985 0 0 0
2374 2 14.388 16.1865 12.5895 0 0 0
3627 2 1.7985 17.985 23.3805 0 0 0
1706 2 21.582 26.9775 23.3805 0 0 0
2849 2 10.791 21.582 7.194 0 0 0
1407 2 19.7835 0.0 5.3955 0 0 0
3757 2 3.597 28.776 32.373 0 0 0
2071 2 16.1865 21.582 26.9775 0 0 0
1304 2 23.3805 26.9775 17.985 0 0 0
2083 2 16.1865 25.179 1.7985 0 0 0
792 2 26.9775 16.1865 25.179 0 0 0
2648 2 8.9925 5.3955 3.597 0 0 0
3824 2 0.0 5.3955 5.3955 0 0 0
2602 2 10.791 1.7985 1.7985 0 0 0
3003 2 5.3955 0.0 1.7985 0 0 0
10 2 34.1715 1.7985 14.388 0 0 0
3433 2 3.597 0.0 28.776 0 0 0
1720 2 19.7835 26.9775 32.373 0 0 0
3895 2 0.0 14.388 25.179 0 0 0
2860 2 8.9925 23.3805 14.388 0 0 0
531 2 30.5745 28.776 8.9925 0 0 0
1764 2 19.7835 34.1715 0.0 0 0 0
1408 2 19.7835 1.7985 3.597 0 0 0
902 2 28.776 26.9775 19.7835 0 0 0
161 2 34.1715 28.776 1.7985 0 0 0
1680 2 19.7835 23.3805 32.373 0 0 0
1237 2 25.179 17.985 32.373 0 0 0
3911 2 0.0 17.985 17.985 0 0 0
3737 2 3.597 28.776 14.388 0 0 0
174 2 34.1715 30.5745 21.582 0 0 0
316 2 30.5745 8.9925 28.776 0 0 0
1660 2 19.7835 23.3805 14.388 0 0 0
1318 2 25.179 26.9775 34.1715 0 0 0
350 2 32.373 12.5895 26.9775 0 0 0
1824 2 16.1865 1.7985 17.985 0 0 0
1675 2 19.7835 21.582 30.5745 0 0 0
410 2 32.373 19.7835 8.9925 0 0 0
3983 2 0.0 32.373 3.597 0 0 0
1427 2 19.7835 0.0 23.3805 0 0 0
785 2 28.776 14.388 21.582 0 0 0
2590 2 14.388 34.1715 26.9775 0 0 0
2183 2 16.1865 32.373 19.7835 0 0 0
1305 2 25.179 25.179 21.582 0 0 0
28 2 34.1715 5.3955 10.791 0 0 0
2581 2 14.388 32.373 17.985 0 0 0
1169 2 25.179 14.388 7.194 0 0 0
248 2 30.5745 5.3955 3.597 0 0 0
1185 2 25.179 14.388 21.582 0 0 0
738 2 28.776 12.5895 16.1865 0 0 0
1025 2 25.179 0.0 21.582 0 0 0
669 2 28.776 3.597 25.179 0 0 0
2955 2 8.9925 28.776 30.5745 0 0 0
791 2 26.9775 14.388 26.9775 0 0 0
1522 2 21.582 12.5895 1.7985 0 0 0
960 2 26.9775 30.5745 32.373 0 0 0
587 2 30.5745 32.373 23.3805 0 0 0
3589 2 3.597 14.388 25.179 0 0 0
1698 2 21.582 26.9775 16.1865 0 0 0
72 2 34.1715 12.5895 17.985 0 0 0
3933 2 0.0 21.582 21.582 0 0 0
625 2 28.776 0.0 21.582 0 0 0
2290 2 14.388 8.9925 8.9925 0 0 0
3551 2 1.7985 10.791 26.9775 0 0 0
2324 2 12.5895 12.5895 0.0 0 0 0
2463 2 12.5895 21.582 19.7835 0 0 0
1345 2 25.179 28.776 21.582 0 0 0
2615 2 8.9925 0.0 12.5895 0 0 0
3455 2 1.7985 3.597 12.5895 0 0 0
2163 2 16.1865 32.373 1.7985 0 0 0
3029 2 7.194 0.0 25.179 0 0 0
1665 2 21.582 21.582 21.582 0 0 0
416 2 30.5745 19.7835 10.791 0 0 0
3979 2 0.0 28.776 32.373 0 0 0
1204 2 23.3805 19.7835 0.0 0 0 0
327 2 30.5745 10.791 5.3955 0 0 0
2731 2 8.9925 10.791 8.9925 0 0 0
1056 2 23.3805 5.3955 10.791 0 0 0
3041 2 7.194 3.597 0.0 0 0 0
3825 2 0.0 3.597 7.194 0 0 0
3848 2 0.0 8.9925 12.5895 0 0 0
157 2 34.1715 25.179 30.5745 0 0 0
3530 2 3.597 12.5895 8.9925 0 0 0
1229 2 25.179 17.985 25.179 0 0 0
2482 2 14.388 26.9775 1.7985 0 0 0
2498 2 14.388 26.9775 16.1865 0 0 0
1969 2 17.985 14.388 7.194 0 0 0
2974 2 10.791 34.1715 12.5895 0 0 0
2895 2 8.9925 25.179 12.5895 0 0 0
102 2 34.1715 19.7835 0.0 0 0 0
3546 2 3.597 12.5895 23.3805 0 0 0
3250 2 7.194 23.3805 8.9925 0 0 0
1552 2 19.7835 12.5895 25.179 0 0 0
1612 2 19.7835 19.7835 7.194 0 0 0
1632 2 19.7835 19.7835 25.179 0 0 0
3577 2 3.597 14.388 14.388 0 0 0
1826 2 17.985 1.7985 23.3805 0 0 0
1083 2 23.3805 7.194 1.7985 0 0 0
1970 3 17.985 16.1865 8.9925 0 0 0
3659 3 1.7985 21.582 16.1865 0 0 0
386 3 32.373 16.1865 23.3805 0 0 0
1846 3 17.985 5.3955 5.3955 0 0 0
913 3 28.776 25.179 28.776 0 0 0
2981 3 10.791 32.373 17.985 0 0 0
1098 3 25.179 8.9925 16.1865 0 0 0
1349 3 25.179 28.776 25.179 0 0 0
609 3 28.776 0.0 7.194 0 0 0
3822 3 0.0 5.3955 1.7985 0 0 0
998 3 28.776 34.1715 34.1715 0 0 0
3203 3 5.3955 17.985 1.7985 0 0 0
1869 3 17.985 3.597 25.179 0 0 0
320 3 30.5745 8.9925 32.373 0 0 0
3776 3 1.7985 34.1715 10.791 0 0 0
2587 3 12.5895 32.373 23.3805 0 0 0
1033 3 25.179 0.0 28.776 0 0 0
341 3 32.373 10.791 17.985 0 0 0
2518 3 14.388 26.9775 34.1715 0 0 0
577 3 32.373 32.373 14.388 0 0 0
2793 3 10.791 14.388 28.776 0 0 0
2055 3 16.1865 21.582 12.5895 0 0 0
3988 3 0.0 34.1715 12.5895 0 0 0
3249 3 7.194 21.582 7.194 0 0 0
338 3 32.373 12.5895 16.1865 0 0 0
137 3 34.1715 21.582 30.5745 0 0 0
795 3 26.9775 14.388 30.5745 0 0 0
236 3 30.5745 1.7985 28.776 0 0 0
1894 3 17.985 8.9925 12.5895 0 0 0
3584 3 1.7985 16.1865 17.985 0 0 0
619 3 26.9775 0.0 16.1865 0 0 0
200 3 34.1715 34.1715 32.373 0 0 0
1731 3 19.7835 28.776 8.9925 0 0 0
2589 3 14.388 32.373 25.179 0 0 0
1432 3 19.7835 1.7985 25.179 0 0 0
3674 3 3.597 23.3805 30.5745 0 0 0
369 3 32.373 14.388 7.194 0 0 0
2316 3 12.5895 8.9925 28.776 0 0 0
469 3 32.373 21.582 25.179 0 0 0
1779 3 19.7835 32.373 16.1865 0 0 0
1769 3 21.582 32.373 7.194 0 0 0
358 3 32.373 12.5895 34.1715 0 0 0
3020 3 5.3955 1.7985 14.388 0 0 0
1759 3 19.7835 28.776 34.1715 0 0 0
3099 3 5.3955 7.194 16.1865 0 0 0
1873 3 17.985 3.597 28.776 0 0 0
3037 3 7.194 0.0 32.373 0 0 0
888 3 26.9775 26.9775 3.597 0 0 0
920 3 26.9775 26.9775 32.373 0 0 0
313 3 32.373 7.194 28.776 0 0 0
3375 3 5.3955 32.373 12.5895 0 0 0
660 3 26.9775 5.3955 14.388 0 0 0
1626 3 21.582 19.7835 23.3805 0 0 0
3750 3 3.597 30.5745 26.9775 0 0 0
3625 3 3.597 17.985 21.582 0 0 0
231 3 30.5745 0.0 26.9775 0 0 0
1167 3 23.3805 14.388 5.3955 0 0 0
3503 3 1.7985 7.194 19.7835 0 0 0
3161 3 7.194 14.388 0.0 0 0 0
2605 3 10.791 0.0 3.597 0 0 0
773 3 28.776 14.388 10.791 0 0 0
2352 3 12.5895 12.5895 25.179 0 0 0
1042 3 25.179 5.3955 1.7985 0 0 0
638 3 28.776 1.7985 34.1715 0 0 0
3529 3 3.597 10.791 7.194 0 0 0
535 3 30.5745 28.776 12.5895 0 0 0
1023 3 23.3805 0.0 19.7835 0 0 0
2654 3 10.791 5.3955 12.5895 0 0 0
1436 3 19.7835 1.7985 28.776 0 0 0
3372 3 5.3955 34.1715 7.194 0 0 0
245 3 32.373 3.597 3.597 0 0 0
3022 3 7.194 1.7985 19.7835 0 0 0
1043 3 23.3805 3.597 1.7985 0 0 0
747 3 26.9775 10.791 23.3805 0 0 0
1897 3 17.985 7.194 14.388 0 0 0
2395 3 12.5895 14.388 30.5745 0 0 0
3586 3 3.597 16.1865 23.3805 0 0 0
3987 3 0.0 32.373 10.791 0 0 0
1322 3 25.179 30.5745 1.7985 0 0 0
2934 3 10.791 30.5745 12.5895 0 0 0
1618 3 21.582 19.7835 16.1865 0 0 0
2858 3 10.791 23.3805 16.1865 0 0 0
444 3 30.5745 23.3805 0.0 0 0 0
2803 3 8.9925 17.985 1.7985 0 0 0
1546 3 21.582 12.5895 23.3805 0 0 0
3652 3 1.7985 23.3805 7.194 0 0 0
1252 3 23.3805 23.3805 7.194 0 0 0
881 3 28.776 25.179 0.0 0 0 0
2841 3 10.791 21.582 0.0 0 0 0
525 3 32.373 28.776 3.597 0 0 0
536 3 30.5745 30.5745 10.791 0 0 0
3591 3 1.7985 14.388 26.9775 0 0 0
2984 3 8.9925 34.1715 17.985 0 0 0
51 3 34.1715 7.194 19.7835 0 0 0
370 3 32.373 16.1865 8.9925 0 0 0
206 3 32.373 1.7985 5.3955 0 0 0
144 3 34.1715 26.9775 3.597 0 0 0
3804 3 0.0 1.7985 5.3955 0 0 0
2972 3 8.9925 34.1715 7.194 0 0 0
3599 3 1.7985 14.388 34.1715 0 0 0
2926 3 10.791 30.5745 5.3955 0 0 0
9 3 34.1715 0.0 16.1865 0 0 0
154 3 34.1715 26.9775 21.582 0 0 0
2141 3 17.985 28.776 17.985 0 0 0
2347 3 12.5895 10.791 23.3805 0 0 0
3257 3 7.194 21.582 14.388 0 0 0
3749 3 3.597 28.776 25.179 0 0 0
842 3 28.776 23.3805 1.7985 0 0 0
3412 3 1.7985 1.7985 7.194 0 0 0
287 3 30.5745 7.194 5.3955 0 0 0
3134 3 7.194 12.5895 12.5895 0 0 0
1754 3 21.582 30.5745 30.5745 0 0 0
2576 3 12.5895 34.1715 10.791 0 0 0
222 3 32.373 1.7985 19.7835 0 0 0
3889 3 0.0 14.388 14.388 0 0 0
3722 3 3.597 30.5745 1.7985 0 0 0
1430 3 21.582 1.7985 26.9775 0 0 0
1866 3 17.985 5.3955 23.3805 0 0 0
2110 3 17.985 26.9775 26.9775 0 0 0
1531 3 19.7835 10.791 8.9925 0 0 0
3617 3 3.597 17.985 14.388 0 0 0
2154 3 17.985 30.5745 30.5745 0 0 0
1320 3 23.3805 26.9775 32.373 0 0 0
1608 3 19.7835 19.7835 3.597 0 0 0
2189 3 17.985 32.373 25.179 0 0 0
1705 3 21.582 25.179 21.582 0 0 0
3904 3 0.0 19.7835 5.3955 0 0 0
1118 3 25.179 8.9925 34.1715 0 0 0
2383 3 12.5895 14.388 19.7835 0 0 0
859 3 26.9775 21.582 16.1865 0 0 0
230 3 32.373 1.7985 26.9775 0 0 0
151 3 34.1715 25.179 19.7835 0 0 0
40 3 34.1715 5.3955 32.373 0 0 0
1516 3 19.7835 8.9925 28.776 0 0 0
292 3 30.5745 8.9925 7.194 0 0 0
3795 3 1.7985 32.373 30.5745 0 0 0
1309 3 25.179 25.179 25.179 0 0 0
2104 3 16.1865 26.9775 17.985 0 0 0
2632 3 8.9925 1.7985 25.179 0 0 0
3940 3 0.0 23.3805 34.1715 0 0 0
1901 3 17.985 7.194 17.985 0 0 0
3298 3 7.194 26.9775 16.1865 0 0 0
2221 3 14.388 0.0 17.985 0 0 0
3291 3 5.3955 25.179 8.9925 0 0 0
2786 3 10.791 16.1865 23.3805 0 0 0
3460 3 1.7985 5.3955 14.388 0 0 0
673 3 28.776 3.597 28.776 0 0 0
3150 3 7.194 12.5895 26.9775 0 0 0
1748 3 19.7835 30.5745 21.582 0 0 0
3568 3 1.7985 16.1865 3.597 0 0 0
3977 3 0.0 28.776 28.776 0 0 0
3876 3 0.0 12.5895 26.9775 0 0 0
3583 3 1.7985 14.388 19.7835 0 0 0
532 3 30.5745 30.5745 7.194 0 0 0
876 3 26.9775 23.3805 28.776 0 0 0
2656 3 8.9925 5.3955 10.791 0 0 0
1179 3 23.3805 14.388 16.1865 0 0 0
2767 3 8.9925 14.388 5.3955 0 0 0
2844 3 8.9925 23.3805 0.0 0 0 0
57 3 34.1715 7.194 30.5745 0 0 0
1886 3 17.985 8.9925 5.3955 0 0 0
1019 3 23.3805 0.0 16.1865 0 0 0
3654 3 3.597 23.3805 12.5895 0 0 0
1644 3 19.7835 23.3805 0.0 0 0 0
1038 3 25.179 1.7985 34.1715 0 0 0
1492 3 19.7835 8.9925 7.194 0 0 0
2608 3 8.9925 1.7985 3.597 0 0 0
1110 3 25.179 8.9925 26.9775 0 0 0
1569 3 21.582 14.388 7.194 0 0 0
617 3 28.776 0.0 14.388 0 0 0
2703 3 8.9925 7.194 19.7835 0 0 0
2264 3 12.5895 5.3955 17.985 0 0 0
425 3 32.373 17.985 21.582 0 0 0
595 3 30.5745 32.373 30.5745 0 0 0
3679 3 1.7985 21.582 34.1715 0 0 0
3966 3 0.0 30.5745 8.9925 0 0 0
1147 3 23.3805 10.791 23.3805 0 0 0
2593 3 14.388 32.373 28.776 0 0 0
1409 3 21.582 0.0 7.194 0 0 0
3509 3 3.597 7.194 25.179 0 0 0
2630 3 10.791 1.7985 26.9775 0 0 0
128 3 34.1715 23.3805 10.791 0 0 0
2986 3 10.791 34.1715 23.3805 0 0 0
2023 3 16.1865 17.985 19.7835 0 0 0
1997 3 17.985 14.388 32.373 0 0 0
1964 3 16.1865 16.1865 0.0 0 0 0
2845 3 10.791 21.582 3.597 0 0 0
1676 3 19.7835 23.3805 28.776 0 0 0
2069 3 17.985 21.582 25.179 0 0 0
2046 3 17.985 23.3805 5.3955 0 0 0
135 3 34.1715 21.582 26.9775 0 0 0
1567 3 19.7835 14.388 5.3955 0 0 0
15 3 34.1715 0.0 26.9775 0 0 0
1424 3 19.7835 1.7985 17.985 0 0 0
2989 3 10.791 32.373 25.179 0 0 0
365 3 32.373 14.388 3.597 0 0 0
1908 3 16.1865 8.9925 21.582 0 0 0
3951 3 0.0 25.179 17.985 0 0 0
2371 3 12.5895 14.388 8.9925 0 0 0
723 3 26.9775 10.791 1.7985 0 0 0
3119 3 5.3955 7.194 34.1715 0 0 0
356 3 30.5745 12.5895 28.776 0 0 0
3191 3 5.3955 14.388 26.9775 0 0 0
2212 3 12.5895 1.7985 7.194 0 0 0
2879 3 8.9925 21.582 34.1715 0 0 0
996 3 26.9775 34.1715 28.776 0 0 0
534 3 32.373 30.5745 12.5895 0 0 0
1105 3 25.179 7.194 21.582 0 0 0
1688 3 19.7835 26.9775 3.597 0 0 0
1113 3 25.179 7.194 28.776 0 0 0
2238 3 14.388 1.7985 34.1715 0 0 0
3803 3 0.0 0.0 3.597 0 0 0
492 3 30.5745 26.9775 7.194 0 0 0
3662 3 3.597 23.3805 19.7835 0 0 0
2715 3 8.9925 7.194 30.5745 0 0 0
2695 3 8.9925 7.194 12.5895 0 0 0
1723 3 19.7835 28.776 1.7985 0 0 0
1445 3 21.582 3.597 3.597 0 0 0
1089 3 25.179 7.194 7.194 0 0 0
63 3 34.1715 10.791 5.3955 0 0 0
2687 3 8.9925 7.194 5.3955 0 0 0
3394 3 7.194 34.1715 30.5745 0 0 0
2564 3 12.5895 34.1715 0.0 0 0 0
2527 3 12.5895 28.776 5.3955 0 0 0
188 3 34.1715 34.1715 10.791 0 0 0
2118 3 17.985 26.9775 34.1715 0 0 0
2453 3 14.388 21.582 10.791 0 0 0
2635 3 8.9925 0.0 30.5745 0 0 0
1283 3 23.3805 25.179 1.7985 0 0 0
704 3 26.9775 8.9925 17.985 0 0 0
898 3 28.776 26.9775 16.1865 0 0 0
953 3 28.776 28.776 28.776 0 0 0
2670 3 10.791 5.3955 26.9775 0 0 0
990 3 28.776 34.1715 26.9775 0 0 0
1751 3 19.7835 28.776 26.9775 0 0 0
1188 3 23.3805 16.1865 21.582 0 0 0
3506 3 3.597 8.9925 23.3805 0 0 0
449 3 32.373 21.582 7.194 0 0 0
2227 3 12.5895 0.0 23.3805 0 0 0
1054 3 25.179 5.3955 12.5895 0 0 0
2044 3 16.1865 23.3805 0.0 0 0 0
1035 3 23.3805 0.0 30.5745 0 0 0
3368 3 5.3955 34.1715 3.597 0 0 0
1496 3 19.7835 8.9925 10.791 0 0 0
1792 3 19.7835 34.1715 25.179 0 0 0
3539 3 1.7985 10.791 16.1865 0 0 0
2004 3 16.1865 19.7835 0.0 0 0 0
2657 3 10.791 3.597 14.388 0 0 0
3263 3 5.3955 21.582 19.7835 0 0 0
2517 3 14.388 25.179 32.373 0 0 0
3068 3 5.3955 5.3955 21.582 0 0 0
3970 3 0.0 30.5745 16.1865 0 0 0
2999 3 8.9925 32.373 34.1715 0 0 0
251 3 30.5745 3.597 8.9925 0 0 0
149 3 34.1715 25.179 16.1865 0 0 0
1714 3 21.582 26.9775 30.5745 0 0 0
1511 3 19.7835 7.194 26.9775 0 0 0
3336 3 5.3955 30.5745 10.791 0 0 0
3255 3 5.3955 21.582 12.5895 0 0 0
3536 3 1.7985 12.5895 10.791 0 0 0
528 3 30.5745 30.5745 3.597 0 0 0
1208 3 23.3805 19.7835 3.597 0 0 0
1790 3 21.582 34.1715 26.9775 0 0 0
1661 3 21.582 21.582 17.985 0 0 0
26 3 34.1715 5.3955 7.194 0 0 0
846 3 28.776 23.3805 5.3955 0 0 0
49 3 34.1715 7.194 16.1865 0 0 0
752 3 26.9775 12.5895 25.179 0 0 0
171 3 34.1715 28.776 19.7835 0 0 0
790 3 28.776 16.1865 26.9775 0 0 0
2968 3 8.9925 34.1715 3.597 0 0 0
2805 3 10.791 17.985 3.597 0 0 0
1307 3 23.3805 25.179 23.3805 0 0 0
799 3 26.9775 14.388 34.1715 0 0 0
2034 3 17.985 19.7835 30.5745 0 0 0
2699 3 8.9925 7.194 16.1865 0 0 0
3061 3 7.194 3.597 17.985 0 0 0
2126 3 17.985 30.5745 5.3955 0 0 0
1601 3 21.582 17.985 0.0 0 0 0
1624 3 19.7835 19.7835 17.985 0 0 0
1173 3 25.179 14.388 10.791 0 0 0
2554 3 14.388 30.5745 30.5745 0 0 0
764 3 26.9775 16.1865 0.0 0 0 0
3349 3 7.194 28.776 25.179 0 0 0
2070 3 17.985 23.3805 26.9775 0 0 0
345 3 32.373 10.791 21.582 0 0 0
3299 3 5.3955 25.179 16.1865 0 0 0
3534 3 3.597 12.5895 12.5895 0 0 0
3556 3 1.7985 12.5895 28.776 0 0 0
592 3 30.5745 34.1715 25.179 0 0 0
94 3 34.1715 16.1865 21.582 0 0 0
2444 3 12.5895 23.3805 0.0 0 0 0
182 3 34.1715 34.1715 0.0 0 0 0
2147 3 16.1865 28.776 23.3805 0 0 0
2283 3 12.5895 7.194 1.7985 0 0 0
887 3 26.9775 25.179 5.3955 0 0 0
1694 3 21.582 26.9775 12.5895 0 0 0
935 3 26.9775 28.776 12.5895 0 0 0
2293 3 14.388 7.194 10.791 0 0 0
2876 3 8.9925 23.3805 28.776 0 0 0
2655 3 8.9925 3.597 12.5895 0 0 0
3880 3 0.0 12.5895 34.1715 0 0 0
1289 3 25.179 25.179 7.194 0 0 0
1749 3 21.582 28.776 25.179 0 0 0
3317 3 7.194 25.179 32.373 0 0 0
75 3 34.1715 10.791 26.9775 0 0 0
423 3 30.5745 17.985 19.7835 0 0 0
1152 3 23.3805 12.5895 25.179 0 0 0
2190 3 17.985 34.1715 26.9775 0 0 0
2074 3 17.985 23.3805 30.5745 0 0 0
2677 3 10.791 3.597 32.373 0 0 0
3000 3 8.9925 34.1715 32.373 0 0 0
305 3 32.373 7.194 21.582 0 0 0
590 3 32.373 34.1715 26.9775 0 0 0
3216 3 5.3955 19.7835 10.791 0 0 0
1274 3 25.179 23.3805 30.5745 0 0 0
761 3 28.776 14.388 0.0 0 0 0
415 3 30.5745 17.985 12.5895 0 0 0
2740 3 8.9925 12.5895 14.388 0 0 0
2426 3 14.388 19.7835 23.3805 0 0 0
1757 3 21.582 28.776 32.373 0 0 0
6 3 34.1715 1.7985 7.194 0 0 0
2397 3 14.388 14.388 32.373 0 0 0
2219 3 12.5895 0.0 16.1865 0 0 0
2625 3 10.791 0.0 21.582 0 0 0
2085 3 17.985 25.179 3.597 0 0 0
970 3 28.776 34.1715 8.9925 0 0 0
1570 3 21.582 16.1865 8.9925 0 0 0
3576 3 1.7985 16.1865 10.791 0 0 0
3791 3 1.7985 32.373 26.9775 0 0 0
1910 3 17.985 8.9925 26.9775 0 0 0
1149 3 25.179 10.791 25.179 0 0 0
1960 3 16.1865 12.5895 32.373 0 0 0
400 3 30.5745 16.1865 32.373 0 0 0
586 3 32.373 34.1715 23.3805 0 0 0
3743 3 1.7985 28.776 19.7835 0 0 0
1077 3 25.179 3.597 32.373 0 0 0
1491 3 19.7835 7.194 8.9925 0 0 0
1012 3 23.3805 1.7985 7.194 0 0 0
572 3 30.5745 34.1715 7.194 0 0 0
2388 3 12.5895 16.1865 21.582 0 0 0
2802 3 10.791 19.7835 1.7985 0 0 0
450 3 32.373 23.3805 8.9925 0 0 0
575 3 30.5745 32.373 12.5895 0 0 0
3934 3 0.0 23.3805 23.3805 0 0 0
3953 3 0.0 25.179 21.582 0 0 0
2644 3 8.9925 5.3955 0.0 0 0 0
769 3 28.776 14.388 7.194 0 0 0
257 3 32.373 3.597 14.388 0 0 0
3920 3 0.0 19.7835 34.1715 0 0 0
1750 3 21.582 30.5745 26.9775 0 0 0
1884 3 16.1865 8.9925 0.0 0 0 0
1710 3 21.582 26.9775 26.9775 0 0 0
2173 3 17.985 32.373 10.791 0 0 0
3735 3 1.7985 28.776 12.5895 0 0 0
1227 3 23.3805 17.985 23.3805 0 0 0
930 3 28.776 30.5745 8.9925 0 0 0
2709 3 10.791 7.194 25.179 0 0 0
2363 3 12.5895 14.388 1.7985 0 0 0
2018 3 17.985 19.7835 16.1865 0 0 0
1950 3 17.985 12.5895 26.9775 0 0 0
2162 3 17.985 34.1715 1.7985 0 0 0
357 3 32.373 10.791 32.373 0 0 0
2262 3 14.388 5.3955 19.7835 0 0 0
3502 3 3.597 8.9925 19.7835 0 0 0
3359 3 5.3955 28.776 34.1715 0 0 0
472 3 30.5745 23.3805 25.179 0 0 0
941 3 28.776 28.776 17.985 0 0 0
1371 3 23.3805 32.373 8.9925 0 0 0
3088 3 5.3955 8.9925 3.597 0 0 0
3881 3 0.0 14.388 0.0 0 0 0
3723 3 1.7985 28.776 1.7985 0 0 0
117 3 34.1715 17.985 30.5745 0 0 0
3921 3 0.0 21.582 0.0 0 0 0
3543 3 1.7985 10.791 19.7835 0 0 0
285 3 32.373 7.194 3.597 0 0 0
3165 3 7.194 14.388 3.597 0 0 0
1361 3 25.179 32.373 0.0 0 0 0
432 3 30.5745 19.7835 25.179 0 0 0
1690 3 21.582 26.9775 8.9925 0 0 0
215 3 30.5745 0.0 12.5895 0 0 0
45 3 34.1715 7.194 8.9925 0 0 0
1611 3 19.7835 17.985 8.9925 0 0 0
3896 3 0.0 16.1865 26.9775 0 0 0
524 3 30.5745 30.5745 0.0 0 0 0
2184 3 16.1865 34.1715 17.985 0 0 0
424 3 30.5745 19.7835 17.985 0 0 0
3321 3 7.194 28.776 0.0 0 0 0
359 3 30.5745 10.791 34.1715 0 0 0
1216 3 23.3805 19.7835 10.791 0 0 0
2133 3 17.985 28.776 10.791 0 0 0
407 3 30.5745 17.985 5.3955 0 0 0
497 3 32.373 25.179 14.388 0 0 0
2993 3 10.791 32.373 28.776 0 0 0
2348 3 12.5895 12.5895 21.582 0 0 0
3501 3 3.597 7.194 17.985 0 0 0
3995 3 0.0 32.373 25.179 0 0 0
2920 3 8.9925 26.9775 32.373 0 0 0
2370 3 14.388 16.1865 8.9925 0 0 0
1987 3 16.1865 14.388 23.3805 0 0 0
37 3 34.1715 3.597 30.5745 0 0 0
2048 3 16.1865 23.3805 3.597 0 0 0
480 3 30.5745 23.3805 32.373 0 0 0
1067 3 23.3805 3.597 23.3805 0 0 0
2228 3 12.5895 1.7985 21.582 0 0 0
1483 3 19.7835 7.194 1.7985 0 0 0
2888 3 8.9925 26.9775 3.597 0 0 0
2928 3 8.9925 30.5745 3.597 0 0 0
1080 3 23.3805 5.3955 32.373 0 0 0
2645 3 10.791 3.597 3.597 0 0 0
3021 3 7.194 0.0 17.985 0 0 0
1845 3 17.985 3.597 3.597 0 0 0
19 3 34.1715 0.0 34.1715 0 0 0
3665 3 3.597 21.582 21.582 0 0 0
3604 3 1.7985 19.7835 0.0 0 0 0
3009 3 7.194 0.0 7.194 0 0 0
2705 3 10.791 7.194 21.582 0 0 0
2626 3 10.791 1.7985 23.3805 0 0 0
866 3 28.776 23.3805 23.3805 0 0 0
481 3 32.373 25.179 0.0 0 0 0
1637 3 21.582 17.985 32.373 0 0 0
2328 3 12.5895 12.5895 3.597 0 0 0
2700 3 8.9925 8.9925 14.388 0 0 0
643 3 26.9775 3.597 1.7985 0 0 0
916 3 26.9775 26.9775 28.776 0 0 0
3962 3 0.0 30.5745 1.7985 0 0 0
1850 3 17.985 5.3955 8.9925 0 0 0
1883 3 16.1865 7.194 1.7985 0 0 0
2746 3 10.791 12.5895 23.3805 0 0 0
699 3 26.9775 7.194 16.1865 0 0 0
2414 3 14.388 19.7835 12.5895 0 0 0
659 3 26.9775 3.597 16.1865 0 0 0
2263 3 12.5895 3.597 19.7835 0 0 0
1417 3 21.582 0.0 14.388 0 0 0
973 3 28.776 32.373 10.791 0 0 0
3622 3 3.597 19.7835 19.7835 0 0 0
3835 3 0.0 3.597 25.179 0 0 0
3788 3 1.7985 34.1715 21.582 0 0 0
3322 3 7.194 30.5745 1.7985 0 0 0
1811 3 16.1865 0.0 8.9925 0 0 0
382 3 32.373 16.1865 19.7835 0 0 0
3071 3 5.3955 3.597 26.9775 0 0 0
515 3 30.5745 25.179 30.5745 0 0 0
2831 3 8.9925 17.985 26.9775 0 0 0
3364 3 5.3955 34.1715 0.0 0 0 0
2976 3 8.9925 34.1715 10.791 0 0 0
1310 3 25.179 26.9775 26.9775 0 0 0
2174 3 17.985 34.1715 12.5895 0 0 0
3295 3 5.3955 25.179 12.5895 0 0 0
3065 3 7.194 3.597 21.582 0 0 0
2229 3 14.388 0.0 25.179 0 0 0
2979 3 8.9925 32.373 16.1865 0 0 0
1360 3 23.3805 30.5745 32.373 0 0 0
1719 3 19.7835 25.179 34.1715 0 0 0
1727 3 19.7835 28.776 5.3955 0 0 0
3292 3 5.3955 26.9775 7.194 0 0 0
468 3 30.5745 23.3805 21.582 0 0 0
2992 3 8.9925 34.1715 25.179 0 0 0
794 3 28.776 16.1865 30.5745 0 0 0
567 3 30.5745 32.373 5.3955 0 0 0
170 3 34.1715 30.5745 14.388 0 0 0
1820 3 16.1865 1.7985 14.388 0 0 0
1621 3 21.582 17.985 17.985 0 0 0
1443 3 19.7835 3.597 1.7985 0 0 0
3314 3 7.194 26.9775 30.5745 0 0 0
1452 3 19.7835 5.3955 7.194 0 0 0
3019 3 5.3955 0.0 16.1865 0 0 0
3612 3 1.7985 19.7835 7.194 0 0 0
103 3 34.1715 17.985 5.3955 0 0 0
2672 3 8.9925 5.3955 25.179 0 0 0
209 3 32.373 0.0 7.194 0 0 0
1840 3 16.1865 1.7985 32.373 0 0 0
3874 3 0.0 12.5895 23.3805 0 0 0
854 3 28.776 23.3805 12.5895 0 0 0
511 3 30.5745 25.179 26.9775 0 0 0
2258 3 14.388 5.3955 16.1865 0 0 0
2465 3 14.388 21.582 21.582 0 0 0
873 3 28.776 21.582 28.776 0 0 0
1202 3 25.179 19.7835 1.7985 0 0 0
589 3 32.373 32.373 25.179 0 0 0
1634 3 21.582 19.7835 30.5745 0 0 0
757 3 28.776 10.791 32.373 0 0 0
5 3 34.1715 0.0 8.9925 0 0 0
3657 3 3.597 21.582 14.388 0 0 0
2389 3 14.388 14.388 25.179 0 0 0
1837 3 17.985 0.0 32.373 0 0 0
334 3 32.373 12.5895 12.5895 0 0 0
604 3 26.9775 1.7985 0.0 0 0 0
2734 3 10.791 12.5895 12.5895 0 0 0
363 3 30.5745 14.388 1.7985 0 0 0
1449 3 21.582 3.597 7.194 0 0 0
402 3 32.373 19.7835 1.7985 0 0 0
1328 3 23.3805 30.5745 3.597 0 0 0
3017 3 7.194 0.0 14.388 0 0 0
2214 3 14.388 1.7985 12.5895 0 0 0
1282 3 25.179 26.9775 1.7985 0 0 0
3365 3 7.194 32.373 3.597 0 0 0
3195 3 5.3955 14.388 30.5745 0 0 0
3814 3 0.0 1.7985 23.3805 0 0 0
1060 3 23.3805 5.3955 14.388 0 0 0
2136 3 16.1865 30.5745 10.791 0 0 0
1614 3 21.582 19.7835 12.5895 0 0 0
3899 3 0.0 14.388 32.373 0 0 0
433 3 32.373 17.985 28.776 0 0 0
90 3 34.1715 16.1865 14.388 0 0 0
67 3 34.1715 10.791 12.5895 0 0 0
2025 3 17.985 17.985 21.582 0 0 0
3459 3 1.7985 3.597 16.1865 0 0 0
1334 3 25.179 30.5745 12.5895 0 0 0
3818 3 0.0 1.7985 30.5745 0 0 0
1793 3 21.582 32.373 28.776 0 0 0
2255 3 12.5895 3.597 12.5895 0 0 0
86 3 34.1715 16.1865 7.194 0 0 0
2005 3 17.985 17.985 3.597 0 0 0
708 3 26.9775 8.9925 21.582 0 0 0
3666 3 3.597 23.3805 23.3805 0 0 0
1638 3 21.582 19.7835 34.1715 0 0 0
3758 3 3.597 30.5745 34.1715 0 0 0
1579 3 19.7835 14.388 16.1865 0 0 0
1075 3 23.3805 3.597 30.5745 0 0 0
1102 3 25.179 8.9925 19.7835 0 0 0
2001 3 17.985 17.985 0.0 0 0 0
331 3 30.5745 10.791 8.9925 0 0 0
653 3 28.776 3.597 10.791 0 0 0
3410 3 3.597 1.7985 8.9925 0 0 0
983 3 26.9775 32.373 19.7835 0 0 0
1605 3 21.582 17.985 3.597 0 0 0
3152 3 5.3955 12.5895 25.179 0 0 0
939 3 26.9775 28.776 16.1865 0 0 0
3158 3 7.194 12.5895 34.1715 0 0 0
3541 3 3.597 10.791 17.985 0 0 0
3014 3 7.194 1.7985 12.5895 0 0 0
1526 3 21.582 12.5895 5.3955 0 0 0
2950 3 10.791 30.5745 26.9775 0 0 0
2840 3 8.9925 19.7835 32.373 0 0 0
260 3 30.5745 5.3955 14.388 0 0 0
1771 3 19.7835 32.373 8.9925 0 0 0
1344 3 23.3805 30.5745 17.985 0 0 0
122 3 34.1715 23.3805 0.0 0 0 0
2373 3 14.388 14.388 10.791 0 0 0
2714 3 10.791 8.9925 30.5745 0 0 0
3974 3 0.0 30.5745 23.3805 0 0 0
943 3 26.9775 28.776 19.7835 0 0 0
1031 3 23.3805 0.0 26.9775 0 0 0
66 3 34.1715 12.5895 7.194 0 0 0
2874 3 10.791 23.3805 30.5745 0 0 0
1112 3 23.3805 8.9925 25.179 0 0 0
2487 3 12.5895 25.179 5.3955 0 0 0
2032 3 16.1865 19.7835 25.179 0 0 0
115 3 34.1715 17.985 26.9775 0 0 0
3558 3 3.597 12.5895 34.1715 0 0 0
1207 3 23.3805 17.985 5.3955 0 0 0
817 3 28.776 17.985 14.388 0 0 0
739 3 26.9775 10.791 16.1865 0 0 0
3944 3 0.0 26.9775 5.3955 0 0 0
3821 3 0.0 3.597 0.0 0 0 0
3639 3 1.7985 17.985 34.1715 0 0 0
666 3 28.776 5.3955 23.3805 0 0 0
118 3 34.1715 19.7835 28.776 0 0 0
167 3 34.1715 28.776 12.5895 0 0 0
318 3 32.373 8.9925 34.1715 0 0 0
1548 3 19.7835 12.5895 21.582 0 0 0
366 3 32.373 16.1865 5.3955 0 0 0
1768 3 19.7835 34.1715 3.597 0 0 0
654 3 28.776 5.3955 12.5895 0 0 0
1742 3 21.582 30.5745 19.7835 0 0 0
1504 3 19.7835 8.9925 17.985 0 0 0
1687 3 19.7835 25.179 5.3955 0 0 0
2398 3 14.388 16.1865 34.1715 0 0 0
789 3 28.776 14.388 25.179 0 0 0
3366 3 7.194 34.1715 5.3955 0 0 0
1248 3 23.3805 23.3805 3.597 0 0 0
637 3 28.776 0.0 32.373 0 0 0
3578 3 3.597 16.1865 16.1865 0 0 0
602 3 28.776 1.7985 1.7985 0 0 0
1593 3 21.582 14.388 28.776 0 0 0
2638 3 10.791 1.7985 34.1715 0 0 0
2735 3 8.9925 10.791 12.5895 0 0 0
1907 3 16.1865 7.194 23.3805 0 0 0
2209 3 14.388 0.0 7.194 0 0 0
274 3 32.373 5.3955 30.5745 0 0 0
211 3 30.5745 0.0 8.9925 0 0 0
1275 3 23.3805 21.582 30.5745 0 0 0
3993 3 0.0 32.373 21.582 0 0 0
2140 3 16.1865 30.5745 14.388 0 0 0
3495 3 1.7985 7.194 12.5895 0 0 0
766 3 28.776 16.1865 5.3955 0 0 0
207 3 30.5745 0.0 5.3955 0 0 0
364 3 30.5745 16.1865 0.0 0 0 0
1812 3 16.1865 1.7985 7.194 0 0 0
889 3 28.776 25.179 7.194 0 0 0
1453 3 21.582 3.597 10.791 0 0 0
729 3 28.776 10.791 7.194 0 0 0
3847 3 0.0 7.194 10.791 0 0 0
2304 3 12.5895 8.9925 17.985 0 0 0
1571 3 19.7835 14.388 8.9925 0 0 0
896 3 26.9775 26.9775 10.791 0 0 0
3193 3 7.194 14.388 28.776 0 0 0
2838 3 10.791 19.7835 34.1715 0 0 0
3687 3 1.7985 25.179 5.3955 0 0 0
3973 3 0.0 28.776 21.582 0 0 0
728 3 26.9775 12.5895 3.597 0 0 0
303 3 30.5745 7.194 19.7835 0 0 0
1120 3 23.3805 8.9925 32.373 0 0 0
420 3 30.5745 19.7835 14.388 0 0 0
3939 3 0.0 21.582 32.373 0 0 0
3094 3 7.194 8.9925 12.5895 0 0 0
3668 3 1.7985 23.3805 21.582 0 0 0
824 3 26.9775 19.7835 17.985 0 0 0
1649 3 21.582 21.582 7.194 0 0 0
2508 3 12.5895 26.9775 21.582 0 0 0
615 3 26.9775 0.0 12.5895 0 0 0
218 3 32.373 1.7985 16.1865 0 0 0
2578 3 14.388 34.1715 16.1865 0 0 0
2529 3 14.388 28.776 7.194 0 0 0
1353 3 25.179 28.776 28.776 0 0 0
3358 3 7.194 30.5745 34.1715 0 0 0
3660 3 1.7985 23.3805 14.388 0 0 0
2196 3 16.1865 34.1715 28.776 0 0 0
3429 3 3.597 0.0 25.179 0 0 0
1009 3 25.179 0.0 7.194 0 0 0
2980 3 8.9925 34.1715 14.388 0 0 0
2495 3 12.5895 25.179 12.5895 0 0 0
2413 3 14.388 17.985 10.791 0 0 0
2565 3 14.388 32.373 3.597 0 0 0
1258 3 25.179 23.3805 16.1865 0 0 0
2242 3 14.388 5.3955 1.7985 0 0 0
3701 3 3.597 25.179 17.985 0 0 0
98 3 34.1715 16.1865 28.776 0 0 0
3709 3 3.597 25.179 25.179 0 0 0
923 3 26.9775 28.776 1.7985 0 0 0
455 3 30.5745 21.582 12.5895 0 0 0
2580 3 12.5895 34.1715 14.388 0 0 0
2884 3 8.9925 26.9775 0.0 0 0 0
2520 3 12.5895 26.9775 32.373 0 0 0
3493 3 3.597 7.194 10.791 0 0 0
856 3 26.9775 23.3805 10.791 0 0 0
2028 3 16.1865 19.7835 21.582 0 0 0
309 3 32.373 7.194 25.179 0 0 0
2594 3 14.388 34.1715 30.5745 0 0 0
3108 3 5.3955 8.9925 21.582 0 0 0
2268 3 12.5895 5.3955 21.582 0 0 0
1935 3 16.1865 10.791 12.5895 0 0 0
2551 3 12.5895 28.776 26.9775 0 0 0
2194 3 17.985 34.1715 30.5745 0 0 0
1293 3 25.179 25.179 10.791 0 0 0
1881 3 17.985 7.194 0.0 0 0 0
648 3 26.9775 5.3955 3.597 0 0 0
1863 3 16.1865 3.597 19.7835 0 0 0
1151 3 23.3805 10.791 26.9775 0 0 0
1362 3 25.179 34.1715 1.7985 0 0 0
2431 3 12.5895 17.985 26.9775 0 0 0
3802 3 0.0 1.7985 1.7985 0 0 0
18 3 34.1715 1.7985 28.776 0 0 0
2964 3 8.9925 34.1715 0.0 0 0 0
1616 3 19.7835 19.7835 10.791 0 0 0
3810 3 0.0 1.7985 16.1865 0 0 0
3311 3 5.3955 25.179 26.9775 0 0 0
1998 3 17.985 16.1865 34.1715 0 0 0
894 3 28.776 26.9775 12.5895 0 0 0
1753 3 21.582 28.776 28.776 0 0 0
2266 3 14.388 5.3955 23.3805 0 0 0
263 3 30.5745 3.597 19.7835 0 0 0
688 3 26.9775 8.9925 3.597 0 0 0
693 3 28.776 7.194 10.791 0 0 0
2150 3 17.985 30.5745 26.9775 0 0 0
3645 3 3.597 21.582 3.597 0 0 0
1354 3 25.179 30.5745 30.5745 0 0 0
3887 3 0.0 14.388 10.791 0 0 0
626 3 28.776 1.7985 23.3805 0 0 0
138 3 34.1715 23.3805 28.776 0 0 0
2524 3 12.5895 30.5745 0.0 0 0 0
1034 3 25.179 1.7985 30.5745 0 0 0
2448 3 12.5895 23.3805 3.597 0 0 0
1165 3 25.179 14.388 3.597 0 0 0
1517 3 21.582 7.194 32.373 0 0 0
3745 3 3.597 28.776 21.582 0 0 0
3884 3 0.0 16.1865 5.3955 0 0 0
1015 3 23.3805 0.0 12.5895 0 0 0
2303 3 12.5895 7.194 19.7835 0 0 0
2512 3 12.5895 26.9775 25.179 0 0 0
3425 3 3.597 0.0 21.582 0 0 0
2024 3 16.1865 19.7835 17.985 0 0 0
3185 3 7.194 14.388 21.582 0 0 0
2308 3 12.5895 8.9925 21.582 0 0 0
937 3 28.776 28.776 14.388 0 0 0
2067 3 16.1865 21.582 23.3805 0 0 0
3415 3 1.7985 0.0 12.5895 0 0 0
1978 3 17.985 16.1865 16.1865 0 0 0
1560 3 19.7835 12.5895 32.373 0 0 0
195 3 34.1715 32.373 26.9775 0 0 0
2549 3 14.388 28.776 25.179 0 0 0
2577 3 14.388 32.373 14.388 0 0 0
610 3 28.776 1.7985 8.9925 0 0 0
3916 3 0.0 19.7835 26.9775 0 0 0
1565 3 21.582 14.388 3.597 0 0 0
2505 3 14.388 25.179 21.582 0 0 0
293 3 32.373 7.194 10.791 0 0 0
2337 3 14.388 10.791 14.388 0 0 0
1682 3 21.582 26.9775 1.7985 0 0 0
2115 3 16.1865 25.179 30.5745 0 0 0
1557 3 21.582 10.791 32.373 0 0 0
1744 3 19.7835 30.5745 17.985 0 0 0
3272 3 5.3955 23.3805 25.179 0 0 0
2707 3 8.9925 7.194 23.3805 0 0 0
79 3 34.1715 10.791 34.1715 0 0 0
2321 3 14.388 10.791 0.0 0 0 0
2142 3 17.985 30.5745 19.7835 0 0 0
1973 3 17.985 14.388 10.791 0 0 0
391 3 30.5745 14.388 26.9775 0 0 0
52 3 34.1715 8.9925 17.985 0 0 0
3918 3 0.0 19.7835 30.5745 0 0 0
1838 3 17.985 1.7985 34.1715 0 0 0
2438 3 14.388 19.7835 34.1715 0 0 0
3588 3 1.7985 16.1865 21.582 0 0 0
3230 3 7.194 19.7835 26.9775 0 0 0
640 3 26.9775 1.7985 32.373 0 0 0
740 3 26.9775 12.5895 14.388 0 0 0
2479 3 12.5895 21.582 34.1715 0 0 0
550 3 32.373 30.5745 26.9775 0 0 0
2983 3 8.9925 32.373 19.7835 0 0 0
776 3 26.9775 16.1865 10.791 0 0 0
692 3 26.9775 8.9925 7.194 0 0 0
827 3 26.9775 17.985 23.3805 0 0 0
2320 3 12.5895 8.9925 32.373 0 0 0
495 3 30.5745 25.179 12.5895 0 0 0
3422 3 3.597 1.7985 19.7835 0 0 0
4 3 34.1715 1.7985 3.597 0 0 0
3201 3 7.194 17.985 0.0 0 0 0
3423 3 1.7985 0.0 19.7835 0 0 0
2744 3 8.9925 12.5895 17.985 0 0 0
1463 3 19.7835 3.597 19.7835 0 0 0
786 3 28.776 16.1865 23.3805 0 0 0
548 3 30.5745 30.5745 21.582 0 0 0
891 3 26.9775 25.179 8.9925 0 0 0
2361 3 14.388 14.388 0.0 0 0 0
3878 3 0.0 12.5895 30.5745 0 0 0
3524 3 1.7985 12.5895 0.0 0 0 0
3457 3 3.597 3.597 14.388 0 0 0
1306 3 25.179 26.9775 23.3805 0 0 0
2799 3 8.9925 14.388 34.1715 0 0 0
3243 3 5.3955 21.582 1.7985 0 0 0
3313 3 7.194 25.179 28.776 0 0 0
2443 3 12.5895 21.582 1.7985 0 0 0
1489 3 21.582 7.194 7.194 0 0 0
3718 3 3.597 26.9775 34.1715 0 0 0
100 3 34.1715 16.1865 32.373 0 0 0
1103 3 23.3805 7.194 19.7835 0 0 0
249 3 32.373 3.597 7.194 0 0 0
2297 3 14.388 7.194 14.388 0 0 0
1591 3 19.7835 14.388 26.9775 0 0 0
3405 3 3.597 0.0 3.597 0 0 0
3127 3 5.3955 10.791 5.3955 0 0 0
93 3 34.1715 14.388 23.3805 0 0 0
501 3 32.373 25.179 17.985 0 0 0
554 3 32.373 30.5745 30.5745 0 0 0
232 3 30.5745 1.7985 25.179 0 0 0
1547 3 19.7835 10.791 23.3805 0 0 0
2733 3 10.791 10.791 10.791 0 0 0
627 3 26.9775 0.0 23.3805 0 0 0
3196 3 5.3955 16.1865 28.776 0 0 0
720 3 26.9775 8.9925 32.373 0 0 0
3235 3 5.3955 17.985 30.5745 0 0 0
2678 3 10.791 5.3955 34.1715 0 0 0
242 3 32.373 5.3955 1.7985 0 0 0
822 3 28.776 19.7835 19.7835 0 0 0
474 3 32.373 23.3805 30.5745 0 0 0
384 3 30.5745 16.1865 17.985 0 0 0
3886 3 0.0 16.1865 8.9925 0 0 0
2906 3 10.791 26.9775 23.3805 0 0 0
641 3 28.776 3.597 0.0 0 0 0
3478 3 3.597 5.3955 34.1715 0 0 0
2051 3 16.1865 21.582 8.9925 0 0 0
2097 3 17.985 25.179 14.388 0 0 0
1672 3 19.7835 23.3805 25.179 0 0 0
2634 3 10.791 1.7985 30.5745 0 0 0
857 3 28.776 21.582 14.388 0 0 0
1124 3 23.3805 12.5895 0.0 0 0 0
3178 3 7.194 16.1865 16.1865 0 0 0
2944 3 8.9925 30.5745 17.985 0 0 0
874 3 28.776 23.3805 30.5745 0 0 0
2073 3 17.985 21.582 28.776 0 0 0
477 3 32.373 21.582 32.373 0 0 0
3346 3 7.194 30.5745 23.3805 0 0 0
2387 3 12.5895 14.388 23.3805 0 0 0
1656 3 19.7835 23.3805 10.791 0 0 0
582 3 32.373 34.1715 19.7835 0 0 0
2497 3 14.388 25.179 14.388 0 0 0
1677 3 21.582 21.582 32.373 0 0 0
3836 3 0.0 5.3955 26.9775 0 0 0
3769 3 3.597 32.373 7.194 0 0 0
2562 3 14.388 34.1715 1.7985 0 0 0
2492 3 12.5895 26.9775 7.194 0 0 0
284 3 30.5745 8.9925 0.0 0 0 0
3673 3 3.597 21.582 28.776 0 0 0
912 3 26.9775 26.9775 25.179 0 0 0
3350 3 7.194 30.5745 26.9775 0 0 0
3046 3 7.194 5.3955 5.3955 0 0 0
2866 3 10.791 23.3805 23.3805 0 0 0
1735 3 19.7835 28.776 12.5895 0 0 0
3487 3 1.7985 7.194 5.3955 0 0 0
1166 3 25.179 16.1865 5.3955 0 0 0
2702 3 10.791 8.9925 19.7835 0 0 0
2938 3 10.791 30.5745 16.1865 0 0 0
2907 3 8.9925 25.179 23.3805 0 0 0
793 3 28.776 14.388 28.776 0 0 0
147 3 34.1715 25.179 12.5895 0 0 0
462 3 32.373 23.3805 19.7835 0 0 0
1993 3 17.985 14.388 28.776 0 0 0
1062 3 25.179 5.3955 19.7835 0 0 0
1666 3 21.582 23.3805 23.3805 0 0 0
475 3 30.5745 21.582 30.5745 0 0 0
3686 3 3.597 26.9775 5.3955 0 0 0
2828 3 8.9925 19.7835 21.582 0 0 0
3123 3 5.3955 10.791 1.7985 0 0 0
1778 3 21.582 34.1715 16.1865 0 0 0
447 3 30.5745 21.582 5.3955 0 0 0
457 3 32.373 21.582 14.388 0 0 0
2599 3 12.5895 32.373 34.1715 0 0 0
3473 3 3.597 3.597 28.776 0 0 0
2 3 34.1715 1.7985 0.0 0 0 0
2763 3 8.9925 14.388 1.7985 0 0 0
1336 3 23.3805 30.5745 10.791 0 0 0
1773 3 21.582 32.373 10.791 0 0 0
3208 3 5.3955 19.7835 3.597 0 0 0
999 3 26.9775 32.373 34.1715 0 0 0
3430 3 3.597 1.7985 26.9775 0 0 0
2490 3 14.388 26.9775 8.9925 0 0 0
2504 3 12.5895 26.9775 17.985 0 0 0
2826 3 10.791 19.7835 23.3805 0 0 0
2757 3 10.791 10.791 32.373 0 0 0
1549 3 21.582 10.791 25.179 0 0 0
3961 3 0.0 28.776 0.0 0 0 0
1394 3 25.179 34.1715 30.5745 0 0 0
172 3 34.1715 30.5745 17.985 0 0 0
3968 3 0.0 30.5745 12.5895 0 0 0
828 3 26.9775 19.7835 21.582 0 0 0
1938 3 17.985 12.5895 16.1865 0 0 0
3512 3 1.7985 8.9925 25.179 0 0 0
3965 3 0.0 28.776 7.194 0 0 0
3246 3 7.194 23.3805 5.3955 0 0 0
189 3 34.1715 32.373 16.1865 0 0 0
3040 3 5.3955 1.7985 32.373 0 0 0
3535 3 1.7985 10.791 12.5895 0 0 0
1117 3 25.179 7.194 32.373 0 0 0
2472 3 12.5895 23.3805 25.179 0 0 0
647 3 26.9775 3.597 5.3955 0 0 0
3273 3 7.194 21.582 28.776 0 0 0
70 3 34.1715 12.5895 14.388 0 0 0
2092 3 16.1865 26.9775 7.194 0 0 0
2187 3 16.1865 32.373 23.3805 0 0 0
2536 3 12.5895 30.5745 10.791 0 0 0
1104 3 23.3805 8.9925 17.985 0 0 0
3484 3 1.7985 8.9925 0.0 0 0 0
3507 3 1.7985 7.194 23.3805 0 0 0
2810 3 10.791 19.7835 8.9925 0 0 0
2859 3 8.9925 21.582 16.1865 0 0 0
2334 3 14.388 12.5895 12.5895 0 0 0
3850 3 0.0 8.9925 16.1865 0 0 0
2901 3 10.791 25.179 17.985 0 0 0
1725 3 21.582 28.776 3.597 0 0 0
3155 3 5.3955 10.791 30.5745 0 0 0
1857 3 17.985 3.597 14.388 0 0 0
2857 3 10.791 21.582 14.388 0 0 0
3107 3 5.3955 7.194 23.3805 0 0 0
2022 3 17.985 19.7835 19.7835 0 0 0
2202 3 14.388 1.7985 1.7985 0 0 0
2260 3 12.5895 5.3955 14.388 0 0 0
2170 3 17.985 34.1715 8.9925 0 0 0
2918 3 10.791 26.9775 34.1715 0 0 0
266 3 32.373 5.3955 23.3805 0 0 0
3428 3 1.7985 1.7985 21.582 0 0 0
1317 3 25.179 25.179 32.373 0 0 0
3133 3 7.194 10.791 10.791 0 0 0
1555 3 19.7835 10.791 30.5745 0 0 0
1493 3 21.582 7.194 10.791 0 0 0
606 3 28.776 1.7985 5.3955 0 0 0
3236 3 5.3955 19.7835 28.776 0 0 0
2732 3 8.9925 12.5895 7.194 0 0 0
635 3 26.9775 0.0 30.5745 0 0 0
1262 3 25.179 23.3805 19.7835 0 0 0
471 3 30.5745 21.582 26.9775 0 0 0
3832 3 0.0 5.3955 19.7835 0 0 0
1985 3 17.985 14.388 21.582 0 0 0
2364 3 12.5895 16.1865 0.0 0 0 0
3907 3 0.0 17.985 10.791 0 0 0
3713 3 3.597 25.179 28.776 0 0 0
2203 3 12.5895 0.0 1.7985 0 0 0
2642 3 10.791 5.3955 1.7985 0 0 0
494 3 32.373 26.9775 12.5895 0 0 0
2080 3 16.1865 23.3805 32.373 0 0 0
3385 3 7.194 32.373 21.582 0 0 0
3483 3 1.7985 7.194 1.7985 0 0 0
3395 3 5.3955 32.373 30.5745 0 0 0
3023 3 5.3955 0.0 19.7835 0 0 0
1923 3 16.1865 10.791 1.7985 0 0 0
652 3 26.9775 5.3955 7.194 0 0 0
2041 3 17.985 21.582 0.0 0 0 0
1512 3 19.7835 8.9925 25.179 0 0 0
2960 3 8.9925 30.5745 32.373 0 0 0
2068 3 16.1865 23.3805 21.582 0 0 0
1301 3 25.179 25.179 17.985 0 0 0
123 3 34.1715 21.582 5.3955 0 0 0
1577 3 21.582 14.388 14.388 0 0 0
1533 3 21.582 10.791 10.791 0 0 0
3664 3 1.7985 23.3805 17.985 0 0 0
502 3 32.373 26.9775 19.7835 0 0 0
39 3 34.1715 3.597 34.1715 0 0 0
3867 3 0.0 10.791 10.791 0 0 0
929 3 28.776 28.776 7.194 0 0 0
221 3 32.373 0.0 17.985 0 0 0
1979 3 16.1865 14.388 16.1865 0 0 0
566 3 32.373 34.1715 5.3955 0 0 0
3090 3 7.194 8.9925 8.9925 0 0 0
965 3 28.776 32.373 3.597 0 0 0
3270 3 7.194 23.3805 26.9775 0 0 0
1844 3 16.1865 5.3955 0.0 0 0 0
2765 3 10.791 14.388 3.597 0 0 0
910 3 28.776 26.9775 26.9775 0 0 0
921 3 28.776 28.776 0.0 0 0 0
519 3 30.5745 25.179 34.1715 0 0 0
2319 3 12.5895 7.194 34.1715 0 0 0
1178 3 25.179 16.1865 16.1865 0 0 0
1986 3 17.985 16.1865 23.3805 0 0 0
838 3 28.776 19.7835 34.1715 0 0 0
3139 3 5.3955 10.791 16.1865 0 0 0
2205 3 14.388 0.0 3.597 0 0 0
1284 3 23.3805 26.9775 0.0 0 0 0
1716 3 19.7835 26.9775 28.776 0 0 0
2026 3 17.985 19.7835 23.3805 0 0 0
2724 3 8.9925 12.5895 0.0 0 0 0
1930 3 17.985 12.5895 8.9925 0 0 0
3688 3 1.7985 26.9775 3.597 0 0 0
570 3 32.373 34.1715 8.9925 0 0 0
1810 3 17.985 1.7985 8.9925 0 0 0
596 3 30.5745 34.1715 28.776 0 0 0
2850 3 10.791 23.3805 8.9925 0 0 0
1136 3 23.3805 12.5895 10.791 0 0 0
1596 3 19.7835 16.1865 28.776 0 0 0
3805 3 0.0 0.0 7.194 0 0 0
3901 3 0.0 17.985 0.0 0 0 0
2945 3 10.791 28.776 21.582 0 0 0
3323 3 5.3955 28.776 1.7985 0 0 0
3342 3 7.194 30.5745 19.7835 0 0 0
1438 3 21.582 1.7985 34.1715 0 0 0
1346 3 25.179 30.5745 23.3805 0 0 0
2400 3 12.5895 16.1865 32.373 0 0 0
1369 3 25.179 32.373 7.194 0 0 0
797 3 28.776 14.388 32.373 0 0 0
3079 3 5.3955 3.597 34.1715 0 0 0
3269 3 7.194 21.582 25.179 0 0 0
1260 3 23.3805 23.3805 14.388 0 0 0
3908 3 0.0 19.7835 12.5895 0 0 0
629 3 28.776 0.0 25.179 0 0 0
820 3 26.9775 19.7835 14.388 0 0 0
1544 3 19.7835 12.5895 17.985 0 0 0
1107 3 23.3805 7.194 23.3805 0 0 0
988 3 26.9775 34.1715 21.582 0 0 0
2014 3 17.985 19.7835 12.5895 0 0 0
2628 3 8.9925 1.7985 21.582 0 0 0
3149 3 7.194 10.791 25.179 0 0 0
2000 3 16.1865 16.1865 32.373 0 0 0
1701 3 21.582 25.179 17.985 0 0 0
2880 3 8.9925 23.3805 32.373 0 0 0
3978 3 0.0 30.5745 30.5745 0 0 0
3678 3 3.597 23.3805 34.1715 0 0 0
2220 3 12.5895 1.7985 14.388 0 0 0
2330 3 14.388 12.5895 8.9925 0 0 0
675 3 26.9775 3.597 30.5745 0 0 0
262 3 32.373 5.3955 19.7835 0 0 0
3120 3 5.3955 8.9925 32.373 0 0 0
3615 3 1.7985 17.985 12.5895 0 0 0
2692 3 8.9925 8.9925 7.194 0 0 0
1929 3 17.985 10.791 7.194 0 0 0
3242 3 7.194 23.3805 1.7985 0 0 0
1789 3 21.582 32.373 25.179 0 0 0
986 3 28.776 34.1715 23.3805 0 0 0
1352 3 23.3805 30.5745 25.179 0 0 0
3060 3 5.3955 5.3955 14.388 0 0 0
1331 3 23.3805 28.776 8.9925 0 0 0
529 3 32.373 28.776 7.194 0 0 0
2062 3 17.985 23.3805 19.7835 0 0 0
683 3 26.9775 7.194 1.7985 0 0 0
3562 3 3.597 16.1865 1.7985 0 0 0
1763 3 19.7835 32.373 1.7985 0 0 0
430 3 32.373 19.7835 26.9775 0 0 0
1724 3 19.7835 30.5745 0.0 0 0 0
2422 3 14.388 19.7835 19.7835 0 0 0
414 3 32.373 19.7835 12.5895 0 0 0
3431 3 1.7985 0.0 26.9775 0 0 0
180 3 34.1715 30.5745 32.373 0 0 0
774 3 28.776 16.1865 12.5895 0 0 0
1766 3 21.582 34.1715 5.3955 0 0 0
1832 3 16.1865 1.7985 25.179 0 0 0
783 3 26.9775 14.388 19.7835 0 0 0
3969 3 0.0 28.776 14.388 0 0 0
718 3 28.776 8.9925 34.1715 0 0 0
145 3 34.1715 25.179 8.9925 0 0 0
3276 3 5.3955 23.3805 28.776 0 0 0
3794 3 3.597 34.1715 30.5745 0 0 0
2881 3 10.791 25.179 0.0 0 0 0
2774 3 10.791 16.1865 12.5895 0 0 0
261 3 32.373 3.597 17.985 0 0 0
2072 3 16.1865 23.3805 25.179 0 0 0
3401 3 3.597 0.0 0.0 0 0 0
665 3 28.776 3.597 21.582 0 0 0
2996 3 8.9925 34.1715 28.776 0 0 0
3842 3 0.0 8.9925 1.7985 0 0 0
3517 3 3.597 7.194 32.373 0 0 0
1399 3 23.3805 32.373 34.1715 0 0 0
2982 3 10.791 34.1715 19.7835 0 0 0
516 3 30.5745 26.9775 28.776 0 0 0
1420 3 19.7835 1.7985 14.388 0 0 0
324 3 30.5745 12.5895 0.0 0 0 0
3516 3 1.7985 8.9925 28.776 0 0 0
1828 3 16.1865 1.7985 21.582 0 0 0
3628 3 1.7985 19.7835 21.582 0 0 0
3338 3 7.194 30.5745 16.1865 0 0 0
3692 3 1.7985 26.9775 7.194 0 0 0
1002 3 25.179 1.7985 1.7985 0 0 0
871 3 26.9775 21.582 26.9775 0 0 0
3290 3 7.194 26.9775 8.9925 0 0 0
1743 3 19.7835 28.776 19.7835 0 0 0
116 3 34.1715 19.7835 25.179 0 0 0
1128 3 23.3805 12.5895 3.597 0 0 0
3670 3 3.597 23.3805 26.9775 0 0 0
2192 3 16.1865 34.1715 25.179 0 0 0
2030 3 17.985 19.7835 26.9775 0 0 0
2543 3 12.5895 28.776 19.7835 0 0 0
2327 3 12.5895 10.791 5.3955 0 0 0
3671 3 1.7985 21.582 26.9775 0 0 0
3947 3 0.0 25.179 10.791 0 0 0
2344 3 12.5895 12.5895 17.985 0 0 0
3140 3 5.3955 12.5895 14.388 0 0 0
2226 3 14.388 1.7985 23.3805 0 0 0
2451 3 12.5895 21.582 8.9925 0 0 0
2102 3 17.985 26.9775 19.7835 0 0 0
3171 3 5.3955 14.388 8.9925 0 0 0
2314 3 14.388 8.9925 30.5745 0 0 0
3315 3 5.3955 25.179 30.5745 0 0 0
3752 3 1.7985 30.5745 25.179 0 0 0
3303 3 5.3955 25.179 19.7835 0 0 0
547 3 30.5745 28.776 23.3805 0 0 0
3282 3 7.194 26.9775 1.7985 0 0 0
732 3 26.9775 12.5895 7.194 0 0 0
398 3 32.373 16.1865 34.1715 0 0 0
235 3 30.5745 0.0 30.5745 0 0 0
3361 3 7.194 32.373 0.0 0 0 0
3606 3 3.597 19.7835 5.3955 0 0 0
47 3 34.1715 7.194 12.5895 0 0 0
893 3 28.776 25.179 10.791 0 0 0
2271 3 12.5895 3.597 26.9775 0 0 0
2572 3 12.5895 34.1715 7.194 0 0 0
2679 3 8.9925 3.597 34.1715 0 0 0
2646 3 10.791 5.3955 5.3955 0 0 0
1615 3 19.7835 17.985 12.5895 0 0 0
3500 3 1.7985 8.9925 14.388 0 0 0
2552 3 12.5895 30.5745 25.179 0 0 0
2762 3 10.791 16.1865 1.7985 0 0 0
1499 3 19.7835 7.194 16.1865 0 0 0
88 3 34.1715 16.1865 10.791 0 0 0
3056 3 5.3955 5.3955 10.791 0 0 0
7 3 34.1715 0.0 12.5895 0 0 0
1356 3 23.3805 30.5745 28.776 0 0 0
1266 3 25.179 23.3805 23.3805 0 0 0
3925 3 0.0 21.582 7.194 0 0 0
3264 3 5.3955 23.3805 17.985 0 0 0
3532 3 1.7985 12.5895 7.194 0 0 0
3504 3 1.7985 8.9925 17.985 0 0 0
1877 3 17.985 3.597 32.373 0 0 0
3104 3 5.3955 8.9925 17.985 0 0 0
2396 3 12.5895 16.1865 28.776 0 0 0
1983 3 16.1865 14.388 19.7835 0 0 0
1641 3 21.582 21.582 0.0 0 0 0
2191 3 16.1865 32.373 26.9775 0 0 0
1887 3 16.1865 7.194 5.3955 0 0 0
272 3 30.5745 5.3955 25.179 0 0 0
2042 3 17.985 23.3805 1.7985 0 0 0
17 3 34.1715 0.0 30.5745 0 0 0
849 3 28.776 21.582 7.194 0 0 0
1535 3 19.7835 10.791 12.5895 0 0 0
3360 3 5.3955 30.5745 32.373 0 0 0
2537 3 14.388 28.776 14.388 0 0 0
1536 3 19.7835 12.5895 10.791 0 0 0
3693 3 3.597 25.179 10.791 0 0 0
3734 3 3.597 30.5745 12.5895 0 0 0
243 3 30.5745 3.597 1.7985 0 0 0
1382 3 25.179 34.1715 19.7835 0 0 0
35 3 34.1715 3.597 26.9775 0 0 0
1722 3 21.582 30.5745 1.7985 0 0 0
3451 3 1.7985 3.597 8.9925 0 0 0
3043 3 5.3955 3.597 1.7985 0 0 0
2711 3 8.9925 7.194 26.9775 0 0 0
1651 3 19.7835 21.582 8.9925 0 0 0
1994 3 17.985 16.1865 30.5745 0 0 0
1940 3 16.1865 12.5895 14.388 0 0 0
3716 3 1.7985 26.9775 28.776 0 0 0
1347 3 23.3805 28.776 23.3805 0 0 0
3256 3 5.3955 23.3805 10.791 0 0 0
3851 3 0.0 7.194 17.985 0 0 0
2367 3 12.5895 14.388 5.3955 0 0 0
4000 3 0.0 34.1715 34.1715 0 0 0
3300 3 5.3955 26.9775 14.388 0 0 0
3863 3 0.0 10.791 3.597 0 0 0
3388 3 5.3955 34.1715 21.582 0 0 0
254 3 32.373 5.3955 12.5895 0 0 0
3318 3 7.194 26.9775 34.1715 0 0 0
1954 3 17.985 12.5895 30.5745 0 0 0
1078 3 25.179 5.3955 34.1715 0 0 0
368 3 30.5745 16.1865 3.597 0 0 0
353 3 32.373 10.791 28.776 0 0 0
3956 3 0.0 26.9775 26.9775 0 0 0
541 3 32.373 28.776 17.985 0 0 0
3481 3 3.597 7.194 0.0 0 0 0
2031 3 16.1865 17.985 26.9775 0 0 0
737 3 28.776 10.791 14.388 0 0 0
3602 3 3.597 19.7835 1.7985 0 0 0
3553 3 3.597 10.791 28.776 0 0 0
3613 3 3.597 17.985 10.791 0 0 0
2199 3 16.1865 32.373 34.1715 0 0 0
2515 3 12.5895 25.179 30.5745 0 0 0
1135 3 23.3805 10.791 12.5895 0 0 0
3837 3 0.0 3.597 28.776 0 0 0
349 3 32.373 10.791 25.179 0 0 0
3138 3 7.194 12.5895 16.1865 0 0 0
2043 3 16.1865 21.582 1.7985 0 0 0
2225 3 14.388 0.0 21.582 0 0 0
65 3 34.1715 10.791 8.9925 0 0 0
895 3 26.9775 25.179 12.5895 0 0 0
3331 3 5.3955 28.776 8.9925 0 0 0
1174 3 25.179 16.1865 12.5895 0 0 0
2804 3 8.9925 19.7835 0.0 0 0 0
1455 3 19.7835 3.597 12.5895 0 0 0
1215 3 23.3805 17.985 12.5895 0 0 0
1909 3 17.985 7.194 25.179 0 0 0
3542 3 3.597 12.5895 19.7835 0 0 0
2528 3 12.5895 30.5745 3.597 0 0 0
948 3 26.9775 30.5745 21.582 0 0 0
3192 3 5.3955 16.1865 25.179 0 0 0
710 3 28.776 8.9925 26.9775 0 0 0
3489 3 3.597 7.194 7.194 0 0 0
2617 3 10.791 0.0 14.388 0 0 0
2439 3 12.5895 17.985 34.1715 0 0 0
2573 3 14.388 32.373 10.791 0 0 0
1927 3 16.1865 10.791 5.3955 0 0 0
73 3 34.1715 10.791 23.3805 0 0 0
914 3 28.776 26.9775 30.5745 0 0 0
3005 3 7.194 0.0 3.597 0 0 0
405 3 32.373 17.985 3.597 0 0 0
3206 3 7.194 19.7835 5.3955 0 0 0
3714 3 3.597 26.9775 30.5745 0 0 0
2559 3 12.5895 28.776 34.1715 0 0 0
3280 3 5.3955 23.3805 32.373 0 0 0
687 3 26.9775 7.194 5.3955 0 0 0
48 3 34.1715 8.9925 10.791 0 0 0
375 3 30.5745 14.388 12.5895 0 0 0
1899 3 16.1865 7.194 16.1865 0 0 0
2286 3 14.388 8.9925 5.3955 0 0 0
2117 3 17.985 25.179 32.373 0 0 0
3747 3 1.7985 28.776 23.3805 0 0 0
1613 3 21.582 17.985 10.791 0 0 0
1808 3 16.1865 1.7985 3.597 0 0 0
997 3 28.776 32.373 32.373 0 0 0
1259 3 23.3805 21.582 16.1865 0 0 0
2488 3 12.5895 26.9775 3.597 0 0 0
3101 3 7.194 7.194 17.985 0 0 0
1172 3 23.3805 16.1865 7.194 0 0 0
105 3 34.1715 17.985 8.9925 0 0 0
644 3 26.9775 5.3955 0.0 0 0 0
3253 3 7.194 21.582 10.791 0 0 0
3607 3 1.7985 17.985 5.3955 0 0 0
1592 3 19.7835 16.1865 25.179 0 0 0
2300 3 12.5895 8.9925 14.388 0 0 0
3186 3 7.194 16.1865 23.3805 0 0 0
954 3 28.776 30.5745 30.5745 0 0 0
712 3 26.9775 8.9925 25.179 0 0 0
2269 3 14.388 3.597 25.179 0 0 0
832 3 26.9775 19.7835 25.179 0 0 0
2462 3 14.388 23.3805 19.7835 0 0 0
1168 3 23.3805 16.1865 3.597 0 0 0
1196 3 23.3805 16.1865 28.776 0 0 0
691 3 26.9775 7.194 8.9925 0 0 0
2299 3 12.5895 7.194 16.1865 0 0 0
1822 3 17.985 1.7985 19.7835 0 0 0
2216 3 12.5895 1.7985 10.791 0 0 0
408 3 30.5745 19.7835 3.597 0 0 0
1321 3 25.179 28.776 0.0 0 0 0
3283 3 5.3955 25.179 1.7985 0 0 0
1395 3 23.3805 32.373 30.5745 0 0 0
3309 3 7.194 25.179 25.179 0 0 0
241 3 32.373 3.597 0.0 0 0 0
3661 3 3.597 21.582 17.985 0 0 0
110 3 34.1715 19.7835 14.388 0 0 0
3844 3 0.0 8.9925 5.3955 0 0 0
2420 3 12.5895 19.7835 14.388 0 0 0
393 3 32.373 14.388 28.776 0 0 0
631 3 26.9775 0.0 26.9775 0 0 0
1647 3 19.7835 21.582 5.3955 0 0 0
2452 3 12.5895 23.3805 7.194 0 0 0
1691 3 19.7835 25.179 8.9925 0 0 0
3633 3 3.597 17.985 28.776 0 0 0
3218 3 7.194 19.7835 16.1865 0 0 0
1092 3 23.3805 8.9925 7.194 0 0 0
1667 3 19.7835 21.582 23.3805 0 0 0
2341 3 14.388 10.791 17.985 0 0 0
441 3 32.373 21.582 0.0 0 0 0
860 3 26.9775 23.3805 14.388 0 0 0
3062 3 7.194 5.3955 19.7835 0 0 0
2035 3 16.1865 17.985 30.5745 0 0 0
1645 3 21.582 21.582 3.597 0 0 0
1872 3 16.1865 5.3955 25.179 0 0 0
141 3 34.1715 25.179 1.7985 0 0 0
197 3 34.1715 32.373 30.5745 0 0 0
3623 3 1.7985 17.985 19.7835 0 0 0
1330 3 25.179 30.5745 8.9925 0 0 0
2171 3 16.1865 32.373 8.9925 0 0 0
3630 3 3.597 19.7835 26.9775 0 0 0
1949 3 17.985 10.791 25.179 0 0 0
2795 3 8.9925 14.388 30.5745 0 0 0
168 3 34.1715 30.5745 10.791 0 0 0
562 3 32.373 34.1715 1.7985 0 0 0
3109 3 7.194 7.194 25.179 0 0 0
3239 3 5.3955 17.985 34.1715 0 0 0
2951 3 8.9925 28.776 26.9775 0 0 0
1817 3 17.985 0.0 14.388 0 0 0
1581 3 21.582 14.388 17.985 0 0 0
1848 3 16.1865 5.3955 3.597 0 0 0
3781 4 3.597 32.373 17.985 0 0 0
1329 4 25.179 28.776 7.194 0 0 0
2002 4 17.985 19.7835 1.7985 0 0 0
552 4 30.5745 30.5745 25.179 0 0 0
3778 4 3.597 34.1715 16.1865 0 0 0
2522 4 14.388 30.5745 1.7985 0 0 0
3463 4 1.7985 3.597 19.7835 0 0 0
3733 4 3.597 28.776 10.791 0 0 0
3721 4 3.597 28.776 0.0 0 0 0
3 4 34.1715 0.0 5.3955 0 0 0
3857 4 0.0 7.194 28.776 0 0 0
3697 4 3.597 25.179 14.388 0 0 0
2929 4 10.791 28.776 7.194 0 0 0
1747 4 19.7835 28.776 23.3805 0 0 0
2758 4 10.791 12.5895 34.1715 0 0 0
1598 4 21.582 16.1865 34.1715 0 0 0
479 4 30.5745 21.582 34.1715 0 0 0
3169 4 7.194 14.388 7.194 0 0 0
2662 4 10.791 5.3955 19.7835 0 0 0
2891 4 8.9925 25.179 8.9925 0 0 0
782 4 28.776 16.1865 19.7835 0 0 0
1074 4 25.179 5.3955 30.5745 0 0 0
1809 4 17.985 0.0 7.194 0 0 0
2501 4 14.388 25.179 17.985 0 0 0
27 4 34.1715 3.597 12.5895 0 0 0
3740 4 1.7985 30.5745 14.388 0 0 0
2556 4 12.5895 30.5745 28.776 0 0 0
3082 4 7.194 8.9925 1.7985 0 0 0
2823 4 8.9925 17.985 19.7835 0 0 0
2761 4 10.791 14.388 0.0 0 0 0
3929 4 0.0 21.582 14.388 0 0 0
3157 4 7.194 10.791 32.373 0 0 0
3474 4 3.597 5.3955 30.5745 0 0 0
883 4 26.9775 25.179 1.7985 0 0 0
183 4 34.1715 32.373 5.3955 0 0 0
724 4 26.9775 12.5895 0.0 0 0 0
2416 4 12.5895 19.7835 10.791 0 0 0
132 4 34.1715 23.3805 17.985 0 0 0
1106 4 25.179 8.9925 23.3805 0 0 0
1955 4 16.1865 10.791 30.5745 0 0 0
1372 4 23.3805 34.1715 7.194 0 0 0
3381 4 7.194 32.373 17.985 0 0 0
186 4 34.1715 34.1715 7.194 0 0 0
2019 4 16.1865 17.985 16.1865 0 0 0
1257 4 25.179 21.582 14.388 0 0 0
454 4 32.373 23.3805 12.5895 0 0 0
726 4 28.776 12.5895 5.3955 0 0 0
1713 4 21.582 25.179 28.776 0 0 0
2471 4 12.5895 21.582 26.9775 0 0 0
385 4 32.373 14.388 21.582 0 0 0
1865 4 17.985 3.597 21.582 0 0 0
3220 4 5.3955 19.7835 14.388 0 0 0
2375 4 12.5895 14.388 12.5895 0 0 0
335 4 30.5745 10.791 12.5895 0 0 0
1294 4 25.179 26.9775 12.5895 0 0 0
853 4 28.776 21.582 10.791 0 0 0
917 4 28.776 25.179 32.373 0 0 0
74 4 34.1715 12.5895 21.582 0 0 0
713 4 28.776 7.194 28.776 0 0 0
2009 4 17.985 17.985 7.194 0 0 0
1781 4 21.582 32.373 17.985 0 0 0
522 4 32.373 30.5745 1.7985 0 0 0
2325 4 14.388 10.791 3.597 0 0 0
2060 4 16.1865 23.3805 14.388 0 0 0
259 4 30.5745 3.597 16.1865 0 0 0
500 4 30.5745 26.9775 14.388 0 0 0
3846 4 0.0 8.9925 8.9925 0 0 0
2779 4 8.9925 14.388 16.1865 0 0 0
2064 4 16.1865 23.3805 17.985 0 0 0
780 4 26.9775 16.1865 14.388 0 0 0
2036 4 16.1865 19.7835 28.776 0 0 0
2380 4 12.5895 16.1865 14.388 0 0 0
778 4 28.776 16.1865 16.1865 0 0 0
2161 4 17.985 32.373 0.0 0 0 0
2595 4 12.5895 32.373 30.5745 0 0 0
3823 4 0.0 3.597 3.597 0 0 0
505 4 32.373 25.179 21.582 0 0 0
3616 4 1.7985 19.7835 10.791 0 0 0
992 4 26.9775 34.1715 25.179 0 0 0
1254 4 25.179 23.3805 12.5895 0 0 0
54 4 34.1715 8.9925 21.582 0 0 0
1709 4 21.582 25.179 25.179 0 0 0
3663 4 1.7985 21.582 19.7835 0 0 0
3097 4 7.194 7.194 14.388 0 0 0
2681 4 10.791 7.194 0.0 0 0 0
877 4 28.776 21.582 32.373 0 0 0
466 4 32.373 23.3805 23.3805 0 0 0
3103 4 5.3955 7.194 19.7835 0 0 0
3146 4 7.194 12.5895 23.3805 0 0 0
3861 4 0.0 10.791 0.0 0 0 0
3184 4 5.3955 16.1865 17.985 0 0 0
3964 4 0.0 30.5745 5.3955 0 0 0
3024 4 5.3955 1.7985 17.985 0 0 0
809 4 28.776 17.985 7.194 0 0 0
580 4 30.5745 34.1715 14.388 0 0 0
1142 4 25.179 12.5895 19.7835 0 0 0
2365 4 14.388 14.388 3.597 0 0 0
2970 4 10.791 34.1715 8.9925 0 0 0
706 4 28.776 8.9925 23.3805 0 0 0
1922 4 17.985 12.5895 1.7985 0 0 0
1982 4 17.985 16.1865 19.7835 0 0 0
3363 4 5.3955 32.373 1.7985 0 0 0
1600 4 19.7835 16.1865 32.373 0 0 0
1739 4 19.7835 28.776 16.1865 0 0 0
2873 4 10.791 21.582 28.776 0 0 0
2788 4 8.9925 16.1865 21.582 0 0 0
421 4 32.373 17.985 17.985 0 0 0
3954 4 0.0 26.9775 23.3805 0 0 0
3485 4 3.597 7.194 3.597 0 0 0
3770 4 3.597 34.1715 8.9925 0 0 0
169 4 34.1715 28.776 16.1865 0 0 0
3289 4 7.194 25.179 7.194 0 0 0
3355 4 5.3955 28.776 30.5745 0 0 0
585 4 32.373 32.373 21.582 0 0 0
81 4 34.1715 14.388 1.7985 0 0 0
3271 4 5.3955 21.582 26.9775 0 0 0
2236 4 12.5895 1.7985 28.776 0 0 0
422 4 32.373 19.7835 19.7835 0 0 0
373 4 32.373 14.388 10.791 0 0 0
283 4 30.5745 7.194 1.7985 0 0 0
750 4 28.776 12.5895 26.9775 0 0 0
1052 4 23.3805 5.3955 7.194 0 0 0
2362 4 14.388 16.1865 1.7985 0 0 0
296 4 30.5745 8.9925 10.791 0 0 0
2489 4 14.388 25.179 7.194 0 0 0
219 4 30.5745 0.0 16.1865 0 0 0
1046 4 25.179 5.3955 5.3955 0 0 0
2539 4 12.5895 28.776 16.1865 0 0 0
3329 4 7.194 28.776 7.194 0 0 0
25 4 34.1715 3.597 8.9925 0 0 0
2298 4 14.388 8.9925 16.1865 0 0 0
2405 4 14.388 17.985 3.597 0 0 0
2637 4 10.791 0.0 32.373 0 0 0
1435 4 19.7835 0.0 30.5745 0 0 0
413 4 32.373 17.985 10.791 0 0 0
3695 4 1.7985 25.179 12.5895 0 0 0
3399 4 5.3955 32.373 34.1715 0 0 0
226 4 32.373 1.7985 23.3805 0 0 0
439 4 30.5745 17.985 34.1715 0 0 0
434 4 32.373 19.7835 30.5745 0 0 0
1681 4 21.582 25.179 0.0 0 0 0
1711 4 19.7835 25.179 26.9775 0 0 0
2366 4 14.388 16.1865 5.3955 0 0 0
1995 4 16.1865 14.388 30.5745 0 0 0
1338 4 25.179 30.5745 16.1865 0 0 0
1508 4 19.7835 8.9925 21.582 0 0 0
107 4 34.1715 17.985 12.5895 0 0 0
3667 4 1.7985 21.582 23.3805 0 0 0
1255 4 23.3805 21.582 12.5895 0 0 0
716 4 26.9775 8.9925 28.776 0 0 0
1220 4 23.3805 19.7835 14.388 0 0 0
1502 4 21.582 8.9925 19.7835 0 0 0
1507 4 19.7835 7.194 23.3805 0 0 0
82 4 34.1715 16.1865 0.0 0 0 0
2726 4 10.791 12.5895 5.3955 0 0 0
1175 4 23.3805 14.388 12.5895 0 0 0
3424 4 1.7985 1.7985 17.985 0 0 0
1534 4 21.582 12.5895 12.5895 0 0 0
119 4 34.1715 17.985 34.1715 0 0 0
2333 4 14.388 10.791 10.791 0 0 0
1230 4 25.179 19.7835 26.9775 0 0 0
2267 4 12.5895 3.597 23.3805 0 0 0
815 4 26.9775 17.985 12.5895 0 0 0
2569 4 14.388 32.373 7.194 0 0 0
438 4 32.373 19.7835 34.1715 0 0 0
3656 4 1.7985 23.3805 10.791 0 0 0
3013 4 7.194 0.0 10.791 0 0 0
3841 4 0.0 7.194 0.0 0 0 0
29 4 34.1715 3.597 16.1865 0 0 0
3344 4 5.3955 30.5745 17.985 0 0 0
2134 4 17.985 30.5745 12.5895 0 0 0
2794 4 10.791 16.1865 30.5745 0 0 0
445 4 32.373 21.582 3.597 0 0 0
3320 4 5.3955 26.9775 32.373 0 0 0
446 4 32.373 23.3805 5.3955 0 0 0
2912 4 8.9925 26.9775 25.179 0 0 0
2971 4 8.9925 32.373 8.9925 0 0 0
2345 4 14.388 10.791 21.582 0 0 0
3035 4 5.3955 0.0 30.5745 0 0 0
3873 4 0.0 10.791 21.582 0 0 0
1481 4 21.582 7.194 0.0 0 0 0
2474 4 14.388 23.3805 30.5745 0 0 0
3610 4 3.597 19.7835 8.9925 0 0 0
1519 4 19.7835 7.194 34.1715 0 0 0
1470 4 21.582 5.3955 26.9775 0 0 0
813 4 28.776 17.985 10.791 0 0 0
1554 4 21.582 12.5895 30.5745 0 0 0
3786 4 3.597 34.1715 23.3805 0 0 0
2246 4 14.388 5.3955 5.3955 0 0 0
3912 4 0.0 19.7835 19.7835 0 0 0
3816 4 0.0 1.7985 26.9775 0 0 0
2985 4 10.791 32.373 21.582 0 0 0
2591 4 12.5895 32.373 26.9775 0 0 0
2896 4 8.9925 26.9775 10.791 0 0 0
504 4 30.5745 26.9775 17.985 0 0 0
742 4 28.776 12.5895 19.7835 0 0 0
3719 4 1.7985 25.179 34.1715 0 0 0
3760 4 1.7985 30.5745 32.373 0 0 0
361 4 32.373 14.388 0.0 0 0 0
603 4 26.9775 0.0 1.7985 0 0 0
2908 4 8.9925 26.9775 21.582 0 0 0
2159 4 16.1865 28.776 34.1715 0 0 0
1177 4 25.179 14.388 14.388 0 0 0
3472 4 1.7985 5.3955 25.179 0 0 0
2289 4 14.388 7.194 7.194 0 0 0
3834 4 0.0 5.3955 23.3805 0 0 0
2601 4 10.791 0.0 0.0 0 0 0
3087 4 5.3955 7.194 5.3955 0 0 0
658 4 28.776 5.3955 16.1865 0 0 0
3653 4 3.597 21.582 10.791 0 0 0
618 4 28.776 1.7985 16.1865 0 0 0
2127 4 16.1865 28.776 5.3955 0 0 0
829 4 28.776 17.985 25.179 0 0 0
3050 4 7.194 5.3955 8.9925 0 0 0
1777 4 21.582 32.373 14.388 0 0 0
1337 4 25.179 28.776 14.388 0 0 0
3265 4 7.194 21.582 21.582 0 0 0
1176 4 23.3805 16.1865 10.791 0 0 0
459 4 30.5745 21.582 16.1865 0 0 0
3597 4 3.597 14.388 32.373 0 0 0
650 4 28.776 5.3955 8.9925 0 0 0
2947 4 8.9925 28.776 23.3805 0 0 0
2568 4 12.5895 34.1715 3.597 0 0 0
1545 4 21.582 10.791 21.582 0 0 0
2235 4 12.5895 0.0 30.5745 0 0 0
2148 4 16.1865 30.5745 21.582 0 0 0
3259 4 5.3955 21.582 16.1865 0 0 0
308 4 30.5745 8.9925 21.582 0 0 0
24 4 34.1715 5.3955 3.597 0 0 0
3210 4 7.194 19.7835 8.9925 0 0 0
3948 4 0.0 26.9775 12.5895 0 0 0
127 4 34.1715 21.582 12.5895 0 0 0
918 4 28.776 26.9775 34.1715 0 0 0
1860 4 16.1865 5.3955 14.388 0 0 0
355 4 30.5745 10.791 30.5745 0 0 0
1059 4 23.3805 3.597 16.1865 0 0 0
3903 4 0.0 17.985 3.597 0 0 0
2185 4 17.985 32.373 21.582 0 0 0
1291 4 23.3805 25.179 8.9925 0 0 0
2010 4 17.985 19.7835 8.9925 0 0 0
3031 4 5.3955 0.0 26.9775 0 0 0
3058 4 7.194 5.3955 16.1865 0 0 0
3051 4 5.3955 3.597 8.9925 0 0 0
3334 4 7.194 30.5745 12.5895 0 0 0
834 4 28.776 19.7835 30.5745 0 0 0
1487 4 19.7835 7.194 5.3955 0 0 0
1839 4 16.1865 0.0 34.1715 0 0 0
1297 4 25.179 25.179 14.388 0 0 0
2206 4 14.388 1.7985 5.3955 0 0 0
2137 4 17.985 28.776 14.388 0 0 0
2597 4 14.388 32.373 32.373 0 0 0
2843 4 8.9925 21.582 1.7985 0 0 0
1271 4 23.3805 21.582 26.9775 0 0 0
2958 4 10.791 30.5745 34.1715 0 0 0
3544 4 1.7985 12.5895 17.985 0 0 0
2186 4 17.985 34.1715 23.3805 0 0 0
487 4 30.5745 25.179 5.3955 0 0 0
2288 4 12.5895 8.9925 3.597 0 0 0
3593 4 3.597 14.388 28.776 0 0 0
234 4 32.373 1.7985 30.5745 0 0 0
2592 4 12.5895 34.1715 25.179 0 0 0
3143 4 5.3955 10.791 19.7835 0 0 0
3840 4 0.0 5.3955 34.1715 0 0 0
2376 4 12.5895 16.1865 10.791 0 0 0
176 4 34.1715 30.5745 25.179 0 0 0
1039 4 23.3805 0.0 34.1715 0 0 0
3075 4 5.3955 3.597 30.5745 0 0 0
3324 4 5.3955 30.5745 0.0 0 0 0
1415 4 19.7835 0.0 12.5895 0 0 0
2193 4 17.985 32.373 28.776 0 0 0
751 4 26.9775 10.791 26.9775 0 0 0
142 4 34.1715 26.9775 0.0 0 0 0
3510 4 3.597 8.9925 26.9775 0 0 0
2766 4 10.791 16.1865 5.3955 0 0 0
885 4 28.776 25.179 3.597 0 0 0
2076 4 16.1865 23.3805 28.776 0 0 0
735 4 26.9775 10.791 12.5895 0 0 0
1715 4 19.7835 25.179 30.5745 0 0 0
1396 4 23.3805 34.1715 28.776 0 0 0
2650 4 10.791 5.3955 8.9925 0 0 0
928 4 26.9775 30.5745 3.597 0 0 0
2833 4 10.791 17.985 28.776 0 0 0
2313 4 14.388 7.194 28.776 0 0 0
2683 4 8.9925 7.194 1.7985 0 0 0
2696 4 8.9925 8.9925 10.791 0 0 0
3603 4 1.7985 17.985 1.7985 0 0 0
1988 4 16.1865 16.1865 21.582 0 0 0
806 4 28.776 19.7835 5.3955 0 0 0
2870 4 10.791 23.3805 26.9775 0 0 0
3310 4 7.194 26.9775 26.9775 0 0 0
3151 4 5.3955 10.791 26.9775 0 0 0
1623 4 19.7835 17.985 19.7835 0 0 0
3982 4 0.0 34.1715 1.7985 0 0 0
907 4 26.9775 25.179 23.3805 0 0 0
3238 4 7.194 19.7835 34.1715 0 0 0
698 4 28.776 8.9925 16.1865 0 0 0
95 4 34.1715 14.388 26.9775 0 0 0
191 4 34.1715 32.373 19.7835 0 0 0
1505 4 21.582 7.194 21.582 0 0 0
600 4 30.5745 34.1715 32.373 0 0 0
3724 4 1.7985 30.5745 0.0 0 0 0
392 4 30.5745 16.1865 25.179 0 0 0
2865 4 10.791 21.582 21.582 0 0 0
527 4 30.5745 28.776 5.3955 0 0 0
2075 4 16.1865 21.582 30.5745 0 0 0
3194 4 7.194 16.1865 30.5745 0 0 0
1300 4 23.3805 26.9775 14.388 0 0 0
1931 4 16.1865 10.791 8.9925 0 0 0
237 4 32.373 0.0 32.373 0 0 0
2797 4 10.791 14.388 32.373 0 0 0
3858 4 0.0 8.9925 30.5745 0 0 0
2224 4 12.5895 1.7985 17.985 0 0 0
957 4 28.776 28.776 32.373 0 0 0
2682 4 10.791 8.9925 1.7985 0 0 0
1521 4 21.582 10.791 0.0 0 0 0
347 4 30.5745 10.791 23.3805 0 0 0
3547 4 1.7985 10.791 23.3805 0 0 0
1686 4 21.582 26.9775 5.3955 0 0 0
440 4 30.5745 19.7835 32.373 0 0 0
2282 4 14.388 8.9925 1.7985 0 0 0
2789 4 10.791 14.388 25.179 0 0 0
297 4 32.373 7.194 14.388 0 0 0
3784 4 1.7985 34.1715 17.985 0 0 0
512 4 30.5745 26.9775 25.179 0 0 0
3744 4 1.7985 30.5745 17.985 0 0 0
639 4 26.9775 0.0 34.1715 0 0 0
1201 4 25.179 17.985 0.0 0 0 0
3955 4 0.0 25.179 25.179 0 0 0
1804 4 16.1865 1.7985 0.0 0 0 0
772 4 26.9775 16.1865 7.194 0 0 0
2863 4 8.9925 21.582 19.7835 0 0 0
925 4 28.776 28.776 3.597 0 0 0
2429 4 14.388 17.985 25.179 0 0 0
3479 4 1.7985 3.597 34.1715 0 0 0
1243 4 23.3805 21.582 1.7985 0 0 0
3248 4 5.3955 23.3805 3.597 0 0 0
3888 4 0.0 16.1865 12.5895 0 0 0
2243 4 12.5895 3.597 1.7985 0 0 0
1967 4 16.1865 14.388 5.3955 0 0 0
397 4 32.373 14.388 32.373 0 0 0
3308 4 5.3955 26.9775 21.582 0 0 0
2710 4 10.791 8.9925 26.9775 0 0 0
1586 4 21.582 16.1865 23.3805 0 0 0
2475 4 12.5895 21.582 30.5745 0 0 0
34 4 34.1715 5.3955 21.582 0 0 0
3125 4 7.194 10.791 3.597 0 0 0
3312 4 5.3955 26.9775 25.179 0 0 0
435 4 30.5745 17.985 30.5745 0 0 0
2946 4 10.791 30.5745 23.3805 0 0 0
1520 4 19.7835 8.9925 32.373 0 0 0
69 4 34.1715 10.791 16.1865 0 0 0
178 4 34.1715 30.5745 28.776 0 0 0
3569 4 3.597 14.388 7.194 0 0 0
2222 4 14.388 1.7985 19.7835 0 0 0
1211 4 23.3805 17.985 8.9925 0 0 0
217 4 32.373 0.0 14.388 0 0 0
2916 4 8.9925 26.9775 28.776 0 0 0
2922 4 10.791 30.5745 1.7985 0 0 0
2339 4 12.5895 10.791 16.1865 0 0 0
2340 4 12.5895 12.5895 14.388 0 0 0
2294 4 14.388 8.9925 12.5895 0 0 0
3030 4 7.194 1.7985 26.9775 0 0 0
711 4 26.9775 7.194 26.9775 0 0 0
933 4 28.776 28.776 10.791 0 0 0
343 4 30.5745 10.791 19.7835 0 0 0
3684 4 1.7985 26.9775 0.0 0 0 0
2643 4 8.9925 3.597 1.7985 0 0 0
3864 4 0.0 12.5895 5.3955 0 0 0
3655 4 1.7985 21.582 12.5895 0 0 0
787 4 26.9775 14.388 23.3805 0 0 0
2570 4 14.388 34.1715 8.9925 0 0 0
2160 4 16.1865 30.5745 32.373 0 0 0
460 4 30.5745 23.3805 14.388 0 0 0
2460 4 12.5895 23.3805 14.388 0 0 0
3274 4 7.194 23.3805 30.5745 0 0 0
1518 4 21.582 8.9925 34.1715 0 0 0
3875 4 0.0 10.791 25.179 0 0 0
3513 4 3.597 7.194 28.776 0 0 0
3871 4 0.0 10.791 17.985 0 0 0
3397 4 7.194 32.373 32.373 0 0 0
788 4 26.9775 16.1865 21.582 0 0 0
2544 4 12.5895 30.5745 17.985 0 0 0
396 4 30.5745 16.1865 28.776 0 0 0
3173 4 7.194 14.388 10.791 0 0 0
3808 4 0.0 1.7985 12.5895 0 0 0
800 4 26.9775 16.1865 32.373 0 0 0
1562 4 21.582 16.1865 1.7985 0 0 0
1858 4 17.985 5.3955 16.1865 0 0 0
2476 4 12.5895 23.3805 28.776 0 0 0
1974 4 17.985 16.1865 12.5895 0 0 0
443 4 30.5745 21.582 1.7985 0 0 0
1774 4 21.582 34.1715 12.5895 0 0 0
1316 4 23.3805 26.9775 28.776 0 0 0
995 4 26.9775 32.373 30.5745 0 0 0
1439 4 19.7835 0.0 34.1715 0 0 0
3680 4 1.7985 23.3805 32.373 0 0 0
3122 4 7.194 12.5895 1.7985 0 0 0
3404 4 1.7985 1.7985 0.0 0 0 0
173 4 34.1715 28.776 23.3805 0 0 0
3790 4 3.597 34.1715 26.9775 0 0 0
3306 4 7.194 26.9775 23.3805 0 0 0
3456 4 1.7985 5.3955 10.791 0 0 0
1272 4 23.3805 23.3805 25.179 0 0 0
3632 4 1.7985 19.7835 25.179 0 0 0
2250 4 14.388 5.3955 8.9925 0 0 0
2869 4 10.791 21.582 25.179 0 0 0
3418 4 3.597 1.7985 16.1865 0 0 0
2987 4 8.9925 32.373 23.3805 0 0 0
3773 4 3.597 32.373 10.791 0 0 0
2990 4 10.791 34.1715 26.9775 0 0 0
233 4 32.373 0.0 28.776 0 0 0
2447 4 12.5895 21.582 5.3955 0 0 0
2596 4 12.5895 34.1715 28.776 0 0 0
2531 4 12.5895 28.776 8.9925 0 0 0
1864 4 16.1865 5.3955 17.985 0 0 0
1920 4 16.1865 8.9925 32.373 0 0 0
560 4 30.5745 30.5745 32.373 0 0 0
2078 4 17.985 23.3805 34.1715 0 0 0
158 4 34.1715 26.9775 28.776 0 0 0
3559 4 1.7985 10.791 34.1715 0 0 0
1879 4 16.1865 3.597 34.1715 0 0 0
2966 4 10.791 34.1715 5.3955 0 0 0
2924 4 8.9925 30.5745 0.0 0 0 0
1447 4 19.7835 3.597 5.3955 0 0 0
339 4 30.5745 10.791 16.1865 0 0 0
1841 4 17.985 3.597 0.0 0 0 0
803 4 26.9775 17.985 1.7985 0 0 0
1726 4 21.582 30.5745 5.3955 0 0 0
3389 4 7.194 32.373 25.179 0 0 0
597 4 32.373 32.373 32.373 0 0 0
3345 4 7.194 28.776 21.582 0 0 0
3913 4 0.0 17.985 21.582 0 0 0
38 4 34.1715 5.3955 28.776 0 0 0
2434 4 14.388 19.7835 30.5745 0 0 0
3691 4 1.7985 25.179 8.9925 0 0 0
3212 4 5.3955 19.7835 7.194 0 0 0
1121 4 25.179 10.791 0.0 0 0 0
3566 4 3.597 16.1865 5.3955 0 0 0
579 4 30.5745 32.373 16.1865 0 0 0
1825 4 17.985 0.0 21.582 0 0 0
951 4 26.9775 28.776 26.9775 0 0 0
3754 4 3.597 30.5745 30.5745 0 0 0
1937 4 17.985 10.791 14.388 0 0 0
2418 4 14.388 19.7835 16.1865 0 0 0
240 4 30.5745 1.7985 32.373 0 0 0
2800 4 8.9925 16.1865 32.373 0 0 0
1813 4 17.985 0.0 10.791 0 0 0
1024 4 23.3805 1.7985 17.985 0 0 0
3731 4 1.7985 28.776 8.9925 0 0 0
2792 4 8.9925 16.1865 25.179 0 0 0
3590 4 3.597 16.1865 26.9775 0 0 0
754 4 28.776 12.5895 30.5745 0 0 0
802 4 28.776 19.7835 1.7985 0 0 0
3039 4 5.3955 0.0 34.1715 0 0 0
1770 4 21.582 34.1715 8.9925 0 0 0
882 4 28.776 26.9775 1.7985 0 0 0
979 4 26.9775 32.373 16.1865 0 0 0
2274 4 14.388 5.3955 30.5745 0 0 0
3619 4 1.7985 17.985 16.1865 0 0 0
2521 4 14.388 28.776 0.0 0 0 0
1765 4 21.582 32.373 3.597 0 0 0
2179 4 16.1865 32.373 16.1865 0 0 0
649 4 28.776 3.597 7.194 0 0 0
3285 4 7.194 25.179 3.597 0 0 0
695 4 26.9775 7.194 12.5895 0 0 0
3427 4 1.7985 0.0 23.3805 0 0 0
1514 4 21.582 8.9925 30.5745 0 0 0
2978 4 10.791 34.1715 16.1865 0 0 0
2052 4 16.1865 23.3805 7.194 0 0 0
3393 4 7.194 32.373 28.776 0 0 0
46 4 34.1715 8.9925 7.194 0 0 0
2425 4 14.388 17.985 21.582 0 0 0
1469 4 21.582 3.597 25.179 0 0 0
210 4 32.373 1.7985 8.9925 0 0 0
1327 4 23.3805 28.776 5.3955 0 0 0
696 4 26.9775 8.9925 10.791 0 0 0
1226 4 25.179 19.7835 23.3805 0 0 0
3396 4 5.3955 34.1715 28.776 0 0 0
2698 4 10.791 8.9925 16.1865 0 0 0
3301 4 7.194 25.179 17.985 0 0 0
3471 4 1.7985 3.597 26.9775 0 0 0
2747 4 8.9925 10.791 23.3805 0 0 0
3620 4 1.7985 19.7835 14.388 0 0 0
1602 4 21.582 19.7835 1.7985 0 0 0
568 4 30.5745 34.1715 3.597 0 0 0
470 4 32.373 23.3805 26.9775 0 0 0
1853 4 17.985 3.597 10.791 0 0 0
968 4 26.9775 34.1715 3.597 0 0 0
203 4 30.5745 0.0 1.7985 0 0 0
312 4 30.5745 8.9925 25.179 0 0 0
804 4 26.9775 19.7835 0.0 0 0 0
3142 4 7.194 12.5895 19.7835 0 0 0
1182 4 25.179 16.1865 19.7835 0 0 0
84 4 34.1715 16.1865 3.597 0 0 0
714 4 28.776 8.9925 30.5745 0 0 0
2419 4 12.5895 17.985 16.1865 0 0 0
2408 4 12.5895 19.7835 3.597 0 0 0
2812 4 8.9925 19.7835 7.194 0 0 0
3608 4 1.7985 19.7835 3.597 0 0 0
2053 4 17.985 21.582 10.791 0 0 0
3147 4 5.3955 10.791 23.3805 0 0 0
506 4 32.373 26.9775 23.3805 0 0 0
1654 4 21.582 23.3805 12.5895 0 0 0
3231 4 5.3955 17.985 26.9775 0 0 0
2047 4 16.1865 21.582 5.3955 0 0 0
1990 4 17.985 16.1865 26.9775 0 0 0
3596 4 1.7985 16.1865 28.776 0 0 0
768 4 26.9775 16.1865 3.597 0 0 0
1580 4 19.7835 16.1865 14.388 0 0 0
2563 4 12.5895 32.373 1.7985 0 0 0
2773 4 10.791 14.388 10.791 0 0 0
1411 4 19.7835 0.0 8.9925 0 0 0
3262 4 7.194 23.3805 19.7835 0 0 0
816 4 26.9775 19.7835 10.791 0 0 0
3943 4 0.0 25.179 3.597 0 0 0
2721 4 10.791 10.791 0.0 0 0 0
686 4 28.776 8.9925 5.3955 0 0 0
818 4 28.776 19.7835 16.1865 0 0 0
1200 4 23.3805 16.1865 32.373 0 0 0
851 4 26.9775 21.582 8.9925 0 0 0
3994 4 0.0 34.1715 23.3805 0 0 0
3325 4 7.194 28.776 3.597 0 0 0
2855 4 8.9925 21.582 12.5895 0 0 0
2640 4 8.9925 1.7985 32.373 0 0 0
374 4 32.373 16.1865 12.5895 0 0 0
2542 4 14.388 30.5745 19.7835 0 0 0
3644 4 1.7985 23.3805 0.0 0 0 0
2135 4 16.1865 28.776 12.5895 0 0 0
2109 4 17.985 25.179 25.179 0 0 0
830 4 28.776 19.7835 26.9775 0 0 0
2056 4 16.1865 23.3805 10.791 0 0 0
114 4 34.1715 19.7835 21.582 0 0 0
3038 4 7.194 1.7985 34.1715 0 0 0
2914 4 10.791 26.9775 30.5745 0 0 0
2623 4 8.9925 0.0 19.7835 0 0 0
3215 4 5.3955 17.985 12.5895 0 0 0
3402 4 3.597 1.7985 1.7985 0 0 0
1852 4 16.1865 5.3955 7.194 0 0 0
2830 4 10.791 19.7835 26.9775 0 0 0
980 4 26.9775 34.1715 14.388 0 0 0
1515 4 19.7835 7.194 30.5745 0 0 0
518 4 32.373 26.9775 34.1715 0 0 0
3145 4 7.194 10.791 21.582 0 0 0
1574 4 21.582 16.1865 12.5895 0 0 0
2402 4 14.388 19.7835 1.7985 0 0 0
2037 4 17.985 17.985 32.373 0 0 0
682 4 28.776 8.9925 1.7985 0 0 0
981 4 28.776 32.373 17.985 0 0 0
3356 4 5.3955 30.5745 28.776 0 0 0
1659 4 19.7835 21.582 16.1865 0 0 0
2007 4 16.1865 17.985 5.3955 0 0 0
1450 4 21.582 5.3955 8.9925 0 0 0
2100 4 16.1865 26.9775 14.388 0 0 0
1095 4 23.3805 7.194 12.5895 0 0 0
3527 4 1.7985 10.791 5.3955 0 0 0
2561 4 14.388 32.373 0.0 0 0 0
1733 4 21.582 28.776 10.791 0 0 0
681 4 28.776 7.194 0.0 0 0 0
3579 4 1.7985 14.388 16.1865 0 0 0
2050 4 17.985 23.3805 8.9925 0 0 0
377 4 32.373 14.388 14.388 0 0 0
1815 4 16.1865 0.0 12.5895 0 0 0
2077 4 17.985 21.582 32.373 0 0 0
2704 4 8.9925 8.9925 17.985 0 0 0
3519 4 1.7985 7.194 34.1715 0 0 0
125 4 34.1715 21.582 8.9925 0 0 0
431 4 30.5745 17.985 26.9775 0 0 0
565 4 32.373 32.373 3.597 0 0 0
1358 4 25.179 30.5745 34.1715 0 0 0
1451 4 19.7835 3.597 8.9925 0 0 0
533 4 32.373 28.776 10.791 0 0 0
2807 4 8.9925 17.985 5.3955 0 0 0
835 4 26.9775 17.985 30.5745 0 0 0
3462 4 3.597 5.3955 19.7835 0 0 0
3999 4 0.0 32.373 32.373 0 0 0
2063 4 16.1865 21.582 19.7835 0 0 0
3441 4 3.597 3.597 0.0 0 0 0
97 4 34.1715 14.388 30.5745 0 0 0
2181 4 17.985 32.373 17.985 0 0 0
2997 4 10.791 32.373 32.373 0 0 0
2753 4 10.791 10.791 28.776 0 0 0
1918 4 17.985 8.9925 34.1715 0 0 0
2120 4 16.1865 26.9775 32.373 0 0 0
2039 4 16.1865 17.985 34.1715 0 0 0
1288 4 23.3805 26.9775 3.597 0 0 0
3163 4 5.3955 14.388 1.7985 0 0 0
3480 4 1.7985 5.3955 32.373 0 0 0
1539 4 19.7835 10.791 16.1865 0 0 0
2910 4 10.791 26.9775 26.9775 0 0 0
2393 4 14.388 14.388 28.776 0 0 0
1150 4 25.179 12.5895 26.9775 0 0 0
1315 4 23.3805 25.179 30.5745 0 0 0
304 4 30.5745 8.9925 17.985 0 0 0
3514 4 3.597 8.9925 30.5745 0 0 0
3406 4 3.597 1.7985 5.3955 0 0 0
645 4 28.776 3.597 3.597 0 0 0
1678 4 21.582 23.3805 34.1715 0 0 0
2778 4 10.791 16.1865 16.1865 0 0 0
2653 4 10.791 3.597 10.791 0 0 0
3526 4 3.597 12.5895 5.3955 0 0 0
1643 4 19.7835 21.582 1.7985 0 0 0
3066 4 7.194 5.3955 23.3805 0 0 0
2379 4 12.5895 14.388 16.1865 0 0 0
1130 4 25.179 12.5895 8.9925 0 0 0
944 4 26.9775 30.5745 17.985 0 0 0
2307 4 12.5895 7.194 23.3805 0 0 0
376 4 30.5745 16.1865 10.791 0 0 0
323 4 30.5745 10.791 1.7985 0 0 0
3357 4 7.194 28.776 32.373 0 0 0
581 4 32.373 32.373 17.985 0 0 0
333 4 32.373 10.791 10.791 0 0 0
2456 4 12.5895 23.3805 10.791 0 0 0
991 4 26.9775 32.373 26.9775 0 0 0
3221 4 7.194 17.985 17.985 0 0 0
867 4 26.9775 21.582 23.3805 0 0 0
3434 4 3.597 1.7985 30.5745 0 0 0
2114 4 17.985 26.9775 30.5745 0 0 0
1050 4 25.179 5.3955 8.9925 0 0 0
3162 4 7.194 16.1865 1.7985 0 0 0
62 4 34.1715 12.5895 0.0 0 0 0
1829 4 17.985 0.0 25.179 0 0 0
418 4 32.373 19.7835 16.1865 0 0 0
1689 4 21.582 25.179 7.194 0 0 0
3643 4 1.7985 21.582 1.7985 0 0 0
2538 4 14.388 30.5745 16.1865 0 0 0
2230 4 14.388 1.7985 26.9775 0 0 0
403 4 30.5745 17.985 1.7985 0 0 0
3767 4 1.7985 32.373 5.3955 0 0 0
2647 4 8.9925 3.597 5.3955 0 0 0
2600 4 12.5895 34.1715 32.373 0 0 0
3403 4 1.7985 0.0 1.7985 0 0 0
971 4 26.9775 32.373 8.9925 0 0 0
2149 4 17.985 28.776 25.179 0 0 0
2661 4 10.791 3.597 17.985 0 0 0
2457 4 14.388 21.582 14.388 0 0 0
2954 4 10.791 30.5745 30.5745 0 0 0
3705 4 3.597 25.179 21.582 0 0 0
1961 4 17.985 14.388 0.0 0 0 0
185 4 34.1715 32.373 8.9925 0 0 0
2280 4 12.5895 5.3955 32.373 0 0 0
1495 4 19.7835 7.194 12.5895 0 0 0
1081 4 25.179 7.194 0.0 0 0 0
2350 4 14.388 12.5895 26.9775 0 0 0
2533 4 14.388 28.776 10.791 0 0 0
2478 4 14.388 23.3805 34.1715 0 0 0
3012 4 5.3955 1.7985 7.194 0 0 0
1186 4 25.179 16.1865 23.3805 0 0 0
3555 4 1.7985 10.791 30.5745 0 0 0
3682 4 3.597 26.9775 1.7985 0 0 0
2353 4 14.388 10.791 28.776 0 0 0
2708 4 8.9925 8.9925 21.582 0 0 0
985 4 28.776 32.373 21.582 0 0 0
464 4 30.5745 23.3805 17.985 0 0 0
286 4 32.373 8.9925 5.3955 0 0 0
2311 4 12.5895 7.194 26.9775 0 0 0
1700 4 19.7835 26.9775 14.388 0 0 0
1263 4 23.3805 21.582 19.7835 0 0 0
798 4 28.776 16.1865 34.1715 0 0 0
2157 4 17.985 28.776 32.373 0 0 0
1868 4 16.1865 5.3955 21.582 0 0 0
2977 4 10.791 32.373 14.388 0 0 0
1627 4 19.7835 17.985 23.3805 0 0 0
2412 4 12.5895 19.7835 7.194 0 0 0
2510 4 14.388 26.9775 26.9775 0 0 0
3938 4 0.0 23.3805 30.5745 0 0 0
1741 4 21.582 28.776 17.985 0 0 0
2101 4 17.985 25.179 17.985 0 0 0
458 4 32.373 23.3805 16.1865 0 0 0
1553 4 21.582 10.791 28.776 0 0 0
2296 4 12.5895 8.9925 10.791 0 0 0
880 4 26.9775 23.3805 32.373 0 0 0
753 4 28.776 10.791 28.776 0 0 0
3634 4 3.597 19.7835 30.5745 0 0 0
1556 4 19.7835 12.5895 28.776 0 0 0
1692 4 19.7835 26.9775 7.194 0 0 0
1339 4 23.3805 28.776 16.1865 0 0 0
3183 4 5.3955 14.388 19.7835 0 0 0
3601 4 3.597 17.985 0.0 0 0 0
1416 4 19.7835 1.7985 10.791 0 0 0
2156 4 16.1865 30.5745 28.776 0 0 0
870 4 28.776 23.3805 26.9775 0 0 0
1429 4 21.582 0.0 25.179 0 0 0
1390 4 25.179 34.1715 26.9775 0 0 0
326 4 32.373 12.5895 5.3955 0 0 0
3387 4 5.3955 32.373 23.3805 0 0 0
3073 4 7.194 3.597 28.776 0 0 0
3488 4 1.7985 8.9925 3.597 0 0 0
2995 4 8.9925 32.373 30.5745 0 0 0
1673 4 21.582 21.582 28.776 0 0 0
1501 4 21.582 7.194 17.985 0 0 0
3715 4 1.7985 25.179 30.5745 0 0 0
2745 4 10.791 10.791 21.582 0 0 0
1010 4 25.179 1.7985 8.9925 0 0 0
2108 4 16.1865 26.9775 21.582 0 0 0
2424 4 12.5895 19.7835 17.985 0 0 0
3642 4 3.597 23.3805 1.7985 0 0 0
1589 4 21.582 14.388 25.179 0 0 0
2112 4 16.1865 26.9775 25.179 0 0 0
3703 4 1.7985 25.179 19.7835 0 0 0
2764 4 8.9925 16.1865 0.0 0 0 0
1444 4 19.7835 5.3955 0.0 0 0 0
2550 4 14.388 30.5745 26.9775 0 0 0
3727 4 1.7985 28.776 5.3955 0 0 0
1049 4 25.179 3.597 7.194 0 0 0
3582 4 3.597 16.1865 19.7835 0 0 0
111 4 34.1715 17.985 19.7835 0 0 0
1959 4 16.1865 10.791 34.1715 0 0 0
3205 4 7.194 17.985 3.597 0 0 0
44 4 34.1715 8.9925 3.597 0 0 0
2409 4 14.388 17.985 7.194 0 0 0
2689 4 10.791 7.194 7.194 0 0 0
1999 4 16.1865 14.388 34.1715 0 0 0
2785 4 10.791 14.388 21.582 0 0 0
2636 4 8.9925 1.7985 28.776 0 0 0
863 4 26.9775 21.582 19.7835 0 0 0
1129 4 25.179 10.791 7.194 0 0 0
1405 4 21.582 0.0 3.597 0 0 0
279 4 30.5745 3.597 34.1715 0 0 0
1670 4 21.582 23.3805 26.9775 0 0 0
1386 4 25.179 34.1715 23.3805 0 0 0
3057 4 7.194 3.597 14.388 0 0 0
1005 4 25.179 0.0 3.597 0 0 0
2012 4 16.1865 19.7835 7.194 0 0 0
1684 4 19.7835 26.9775 0.0 0 0 0
299 4 30.5745 7.194 16.1865 0 0 0
814 4 28.776 19.7835 12.5895 0 0 0
3347 4 5.3955 28.776 23.3805 0 0 0
3447 4 1.7985 3.597 5.3955 0 0 0
2247 4 12.5895 3.597 5.3955 0 0 0
3458 4 3.597 5.3955 16.1865 0 0 0
3052 4 5.3955 5.3955 7.194 0 0 0
3179 4 5.3955 14.388 16.1865 0 0 0
160 4 34.1715 26.9775 32.373 0 0 0
1308 4 23.3805 26.9775 21.582 0 0 0
1831 4 16.1865 0.0 26.9775 0 0 0
2113 4 17.985 25.179 28.776 0 0 0
3417 4 3.597 0.0 14.388 0 0 0
3923 4 0.0 21.582 3.597 0 0 0
463 4 30.5745 21.582 19.7835 0 0 0
3792 4 1.7985 34.1715 25.179 0 0 0
1392 4 23.3805 34.1715 25.179 0 0 0
467 4 30.5745 21.582 23.3805 0 0 0
1924 4 16.1865 12.5895 0.0 0 0 0
823 4 26.9775 17.985 19.7835 0 0 0
1876 4 16.1865 5.3955 28.776 0 0 0
2232 4 12.5895 1.7985 25.179 0 0 0
3826 4 0.0 5.3955 8.9925 0 0 0
3340 4 5.3955 30.5745 14.388 0 0 0
1855 4 16.1865 3.597 12.5895 0 0 0
745 4 28.776 10.791 21.582 0 0 0
2442 4 14.388 23.3805 1.7985 0 0 0
1473 4 21.582 3.597 28.776 0 0 0
685 4 28.776 7.194 3.597 0 0 0
1086 4 25.179 8.9925 5.3955 0 0 0
2088 4 16.1865 26.9775 3.597 0 0 0
2201 4 14.388 0.0 0.0 0 0 0
1051 4 23.3805 3.597 8.9925 0 0 0
3063 4 5.3955 3.597 19.7835 0 0 0
498 4 32.373 26.9775 16.1865 0 0 0
875 4 26.9775 21.582 30.5745 0 0 0
2249 4 14.388 3.597 7.194 0 0 0
2129 4 17.985 28.776 7.194 0 0 0
847 4 26.9775 21.582 5.3955 0 0 0
523 4 30.5745 28.776 1.7985 0 0 0
33 4 34.1715 3.597 23.3805 0 0 0
1418 4 21.582 1.7985 16.1865 0 0 0
1214 4 25.179 19.7835 12.5895 0 0 0
1028 4 23.3805 1.7985 21.582 0 0 0
2131 4 16.1865 28.776 8.9925 0 0 0
558 4 32.373 30.5745 34.1715 0 0 0
3508 4 1.7985 8.9925 21.582 0 0 0
306 4 32.373 8.9925 23.3805 0 0 0
1550 4 21.582 12.5895 26.9775 0 0 0
2417 4 14.388 17.985 14.388 0 0 0
2445 4 14.388 21.582 3.597 0 0 0
271 4 30.5745 3.597 26.9775 0 0 0
3233 4 7.194 17.985 28.776 0 0 0
3202 4 7.194 19.7835 1.7985 0 0 0
1699 4 19.7835 25.179 16.1865 0 0 0
1871 4 16.1865 3.597 26.9775 0 0 0
225 4 32.373 0.0 21.582 0 0 0
3241 4 7.194 21.582 0.0 0 0 0
646 4 28.776 5.3955 5.3955 0 0 0
2385 4 14.388 14.388 21.582 0 0 0
2961 4 10.791 32.373 0.0 0 0 0
3225 4 7.194 17.985 21.582 0 0 0
1414 4 21.582 1.7985 12.5895 0 0 0
55 4 34.1715 7.194 26.9775 0 0 0
1882 4 17.985 8.9925 1.7985 0 0 0
2827 4 8.9925 17.985 23.3805 0 0 0
1788 4 19.7835 34.1715 21.582 0 0 0
3690 4 3.597 26.9775 8.9925 0 0 0
2346 4 14.388 12.5895 23.3805 0 0 0
1460 4 19.7835 5.3955 14.388 0 0 0
2437 4 14.388 17.985 32.373 0 0 0
2331 4 12.5895 10.791 8.9925 0 0 0
2144 4 16.1865 30.5745 17.985 0 0 0
1956 4 16.1865 12.5895 28.776 0 0 0
1880 4 16.1865 5.3955 32.373 0 0 0
3926 4 0.0 23.3805 8.9925 0 0 0
3829 4 0.0 3.597 14.388 0 0 0
1100 4 23.3805 8.9925 14.388 0 0 0
1332 4 23.3805 30.5745 7.194 0 0 0
1801 4 17.985 0.0 0.0 0 0 0
955 4 26.9775 28.776 30.5745 0 0 0
3284 4 5.3955 26.9775 0.0 0 0 0
890 4 28.776 26.9775 8.9925 0 0 0
2123 4 16.1865 28.776 1.7985 0 0 0
3631 4 1.7985 17.985 26.9775 0 0 0
861 4 28.776 21.582 17.985 0 0 0
2953 4 10.791 28.776 28.776 0 0 0
2575 4 12.5895 32.373 12.5895 0 0 0
3706 4 3.597 26.9775 23.3805 0 0 0
2854 4 10.791 23.3805 12.5895 0 0 0
1131 4 23.3805 10.791 8.9925 0 0 0
1859 4 16.1865 3.597 16.1865 0 0 0
3796 4 1.7985 34.1715 28.776 0 0 0
1885 4 17.985 7.194 3.597 0 0 0
1040 4 23.3805 1.7985 32.373 0 0 0
2021 4 17.985 17.985 17.985 0 0 0
1410 4 21.582 1.7985 8.9925 0 0 0
419 4 30.5745 17.985 16.1865 0 0 0
3407 4 1.7985 0.0 5.3955 0 0 0
3141 4 7.194 10.791 17.985 0 0 0
3720 4 1.7985 26.9775 32.373 0 0 0
3915 4 0.0 17.985 25.179 0 0 0
1210 4 25.179 19.7835 8.9925 0 0 0
678 4 28.776 5.3955 34.1715 0 0 0
3838 4 0.0 5.3955 30.5745 0 0 0
2315 4 12.5895 7.194 30.5745 0 0 0
1466 4 21.582 5.3955 23.3805 0 0 0
1926 4 17.985 12.5895 5.3955 0 0 0
2712 4 8.9925 8.9925 25.179 0 0 0
3570 4 3.597 16.1865 8.9925 0 0 0
605 4 28.776 0.0 3.597 0 0 0
1426 4 21.582 1.7985 23.3805 0 0 0
3924 4 0.0 23.3805 5.3955 0 0 0
1703 4 19.7835 25.179 19.7835 0 0 0
1013 4 25.179 0.0 10.791 0 0 0
584 4 30.5745 34.1715 17.985 0 0 0
224 4 30.5745 1.7985 17.985 0 0 0
1027 4 23.3805 0.0 23.3805 0 0 0
3211 4 5.3955 17.985 8.9925 0 0 0
900 4 26.9775 26.9775 14.388 0 0 0
3055 4 5.3955 3.597 12.5895 0 0 0
36 4 34.1715 5.3955 25.179 0 0 0
2588 4 12.5895 34.1715 21.582 0 0 0
1776 4 19.7835 34.1715 10.791 0 0 0
255 4 30.5745 3.597 12.5895 0 0 0
1484 4 19.7835 8.9925 0.0 0 0 0
202 4 32.373 1.7985 1.7985 0 0 0
1140 4 23.3805 12.5895 14.388 0 0 0
2801 4 10.791 17.985 0.0 0 0 0
3618 4 3.597 19.7835 16.1865 0 0 0
904 4 26.9775 26.9775 17.985 0 0 0
1635 4 19.7835 17.985 30.5745 0 0 0
977 4 28.776 32.373 14.388 0 0 0
2481 4 14.388 25.179 0.0 0 0 0
3753 4 3.597 28.776 28.776 0 0 0
884 4 26.9775 26.9775 0.0 0 0 0
3438 4 3.597 1.7985 34.1715 0 0 0
2941 4 10.791 28.776 17.985 0 0 0
3906 4 0.0 19.7835 8.9925 0 0 0
3598 4 3.597 16.1865 34.1715 0 0 0
488 4 30.5745 26.9775 3.597 0 0 0
507 4 30.5745 25.179 23.3805 0 0 0
3942 4 0.0 26.9775 1.7985 0 0 0
1530 4 21.582 12.5895 8.9925 0 0 0
461 4 32.373 21.582 17.985 0 0 0
1 5 34.1715 0.0 1.7985 0 0 0
16 5 34.1715 1.7985 25.179 0 0 0
21 5 34.1715 3.597 1.7985 0 0 0
22 5 34.1715 5.3955 0.0 0 0 0
23 5 34.1715 3.597 5.3955 0 0 0
41 5 34.1715 7.194 1.7985 0 0 0
43 5 34.1715 7.194 5.3955 0 0 0
56 5 34.1715 8.9925 25.179 0 0 0
59 5 34.1715 7.194 34.1715 0 0 0
61 5 34.1715 10.791 1.7985 0 0 0
76 5 34.1715 12.5895 25.179 0 0 0
77 5 34.1715 10.791 30.5745 0 0 0
83 5 34.1715 14.388 5.3955 0 0 0
89 5 34.1715 14.388 16.1865 0 0 0
96 5 34.1715 16.1865 25.179 0 0 0
108 5 34.1715 19.7835 10.791 0 0 0
109 5 34.1715 17.985 16.1865 0 0 0
120 5 34.1715 19.7835 32.373 0 0 0
126 5 34.1715 23.3805 7.194 0 0 0
130 5 34.1715 23.3805 14.388 0 0 0
133 5 34.1715 21.582 23.3805 0 0 0
148 5 34.1715 26.9775 10.791 0 0 0
153 5 34.1715 25.179 23.3805 0 0 0
155 5 34.1715 25.179 26.9775 0 0 0
156 5 34.1715 26.9775 25.179 0 0 0
162 5 34.1715 30.5745 0.0 0 0 0
163 5 34.1715 28.776 5.3955 0 0 0
179 5 34.1715 28.776 34.1715 0 0 0
181 5 34.1715 32.373 1.7985 0 0 0
184 5 34.1715 34.1715 3.597 0 0 0
205 5 32.373 0.0 3.597 0 0 0
213 5 32.373 0.0 10.791 0 0 0
214 5 32.373 1.7985 12.5895 0 0 0
228 5 30.5745 1.7985 21.582 0 0 0
229 5 32.373 0.0 25.179 0 0 0
238 5 32.373 1.7985 34.1715 0 0 0
244 5 30.5745 5.3955 0.0 0 0 0
246 5 32.373 5.3955 5.3955 0 0 0
250 5 32.373 5.3955 8.9925 0 0 0
252 5 30.5745 5.3955 7.194 0 0 0
253 5 32.373 3.597 10.791 0 0 0
256 5 30.5745 5.3955 10.791 0 0 0
258 5 32.373 5.3955 16.1865 0 0 0
265 5 32.373 3.597 21.582 0 0 0
267 5 30.5745 3.597 23.3805 0 0 0
269 5 32.373 3.597 25.179 0 0 0
270 5 32.373 5.3955 26.9775 0 0 0
276 5 30.5745 5.3955 28.776 0 0 0
278 5 32.373 5.3955 34.1715 0 0 0
280 5 30.5745 5.3955 32.373 0 0 0
281 5 32.373 7.194 0.0 0 0 0
282 5 32.373 8.9925 1.7985 0 0 0
307 5 30.5745 7.194 23.3805 0 0 0
310 5 32.373 8.9925 26.9775 0 0 0
314 5 32.373 8.9925 30.5745 0 0 0
322 5 32.373 12.5895 1.7985 0 0 0
325 5 32.373 10.791 3.597 0 0 0
328 5 30.5745 12.5895 3.597 0 0 0
329 5 32.373 10.791 7.194 0 0 0
330 5 32.373 12.5895 8.9925 0 0 0
332 5 30.5745 12.5895 7.194 0 0 0
336 5 30.5745 12.5895 10.791 0 0 0
337 5 32.373 10.791 14.388 0 0 0
344 5 30.5745 12.5895 17.985 0 0 0
351 5 30.5745 10.791 26.9775 0 0 0
352 5 30.5745 12.5895 25.179 0 0 0
354 5 32.373 12.5895 30.5745 0 0 0
360 5 30.5745 12.5895 32.373 0 0 0
367 5 30.5745 14.388 5.3955 0 0 0
372 5 30.5745 16.1865 7.194 0 0 0
381 5 32.373 14.388 17.985 0 0 0
383 5 30.5745 14.388 19.7835 0 0 0
388 5 30.5745 16.1865 21.582 0 0 0
389 5 32.373 14.388 25.179 0 0 0
401 5 32.373 17.985 0.0 0 0 0
406 5 32.373 19.7835 5.3955 0 0 0
411 5 30.5745 17.985 8.9925 0 0 0
417 5 32.373 17.985 14.388 0 0 0
429 5 32.373 17.985 25.179 0 0 0
436 5 30.5745 19.7835 28.776 0 0 0
437 5 32.373 17.985 32.373 0 0 0
451 5 30.5745 21.582 8.9925 0 0 0
453 5 32.373 21.582 10.791 0 0 0
476 5 30.5745 23.3805 28.776 0 0 0
478 5 32.373 23.3805 34.1715 0 0 0
482 5 32.373 26.9775 1.7985 0 0 0
486 5 32.373 26.9775 5.3955 0 0 0
489 5 32.373 25.179 7.194 0 0 0
491 5 30.5745 25.179 8.9925 0 0 0
493 5 32.373 25.179 10.791 0 0 0
503 5 30.5745 25.179 19.7835 0 0 0
508 5 30.5745 26.9775 21.582 0 0 0
509 5 32.373 25.179 25.179 0 0 0
521 5 32.373 28.776 0.0 0 0 0
538 5 32.373 30.5745 16.1865 0 0 0
549 5 32.373 28.776 25.179 0 0 0
556 5 30.5745 30.5745 28.776 0 0 0
561 5 32.373 32.373 0.0 0 0 0
564 5 30.5745 34.1715 0.0 0 0 0
569 5 32.373 32.373 7.194 0 0 0
576 5 30.5745 34.1715 10.791 0 0 0
583 5 30.5745 32.373 19.7835 0 0 0
594 5 32.373 34.1715 30.5745 0 0 0
598 5 32.373 34.1715 34.1715 0 0 0
599 5 30.5745 32.373 34.1715 0 0 0
611 5 26.9775 0.0 8.9925 0 0 0
612 5 26.9775 1.7985 7.194 0 0 0
616 5 26.9775 1.7985 10.791 0 0 0
632 5 26.9775 1.7985 25.179 0 0 0
651 5 26.9775 3.597 8.9925 0 0 0
656 5 26.9775 5.3955 10.791 0 0 0
657 5 28.776 3.597 14.388 0 0 0
668 5 26.9775 5.3955 21.582 0 0 0
679 5 26.9775 3.597 34.1715 0 0 0
689 5 28.776 7.194 7.194 0 0 0
694 5 28.776 8.9925 12.5895 0 0 0
697 5 28.776 7.194 14.388 0 0 0
703 5 26.9775 7.194 19.7835 0 0 0
719 5 26.9775 7.194 34.1715 0 0 0
722 5 28.776 12.5895 1.7985 0 0 0
734 5 28.776 12.5895 12.5895 0 0 0
741 5 28.776 10.791 17.985 0 0 0
743 5 26.9775 10.791 19.7835 0 0 0
744 5 26.9775 12.5895 17.985 0 0 0
756 5 26.9775 12.5895 28.776 0 0 0
758 5 28.776 12.5895 34.1715 0 0 0
759 5 26.9775 10.791 34.1715 0 0 0
760 5 26.9775 12.5895 32.373 0 0 0
763 5 26.9775 14.388 1.7985 0 0 0
765 5 28.776 14.388 3.597 0 0 0
767 5 26.9775 14.388 5.3955 0 0 0
771 5 26.9775 14.388 8.9925 0 0 0
796 5 26.9775 16.1865 28.776 0 0 0
807 5 26.9775 17.985 5.3955 0 0 0
811 5 26.9775 17.985 8.9925 0 0 0
812 5 26.9775 19.7835 7.194 0 0 0
819 5 26.9775 17.985 16.1865 0 0 0
821 5 28.776 17.985 17.985 0 0 0
836 5 26.9775 19.7835 28.776 0 0 0
837 5 28.776 17.985 32.373 0 0 0
843 5 26.9775 21.582 1.7985 0 0 0
844 5 26.9775 23.3805 0.0 0 0 0
845 5 28.776 21.582 3.597 0 0 0
852 5 26.9775 23.3805 7.194 0 0 0
862 5 28.776 23.3805 19.7835 0 0 0
868 5 26.9775 23.3805 21.582 0 0 0
892 5 26.9775 26.9775 7.194 0 0 0
897 5 28.776 25.179 14.388 0 0 0
908 5 26.9775 26.9775 21.582 0 0 0
909 5 28.776 25.179 25.179 0 0 0
919 5 26.9775 25.179 34.1715 0 0 0
924 5 26.9775 30.5745 0.0 0 0 0
926 5 28.776 30.5745 5.3955 0 0 0
934 5 28.776 30.5745 12.5895 0 0 0
938 5 28.776 30.5745 16.1865 0 0 0
940 5 26.9775 30.5745 14.388 0 0 0
946 5 28.776 30.5745 23.3805 0 0 0
947 5 26.9775 28.776 23.3805 0 0 0
949 5 28.776 28.776 25.179 0 0 0
952 5 26.9775 30.5745 25.179 0 0 0
962 5 28.776 34.1715 1.7985 0 0 0
963 5 26.9775 32.373 1.7985 0 0 0
964 5 26.9775 34.1715 0.0 0 0 0
969 5 28.776 32.373 7.194 0 0 0
975 5 26.9775 32.373 12.5895 0 0 0
976 5 26.9775 34.1715 10.791 0 0 0
987 5 26.9775 32.373 23.3805 0 0 0
1004 5 23.3805 1.7985 0.0 0 0 0
1006 5 25.179 1.7985 5.3955 0 0 0
1007 5 23.3805 0.0 5.3955 0 0 0
1008 5 23.3805 1.7985 3.597 0 0 0
1011 5 23.3805 0.0 8.9925 0 0 0
1017 5 25.179 0.0 14.388 0 0 0
1018 5 25.179 1.7985 16.1865 0 0 0
1020 5 23.3805 1.7985 14.388 0 0 0
1032 5 23.3805 1.7985 25.179 0 0 0
1041 5 25.179 3.597 0.0 0 0 0
1044 5 23.3805 5.3955 0.0 0 0 0
1045 5 25.179 3.597 3.597 0 0 0
1053 5 25.179 3.597 10.791 0 0 0
1055 5 23.3805 3.597 12.5895 0 0 0
1057 5 25.179 3.597 14.388 0 0 0
1063 5 23.3805 3.597 19.7835 0 0 0
1064 5 23.3805 5.3955 17.985 0 0 0
1065 5 25.179 3.597 21.582 0 0 0
1066 5 25.179 5.3955 23.3805 0 0 0
1069 5 25.179 3.597 25.179 0 0 0
1070 5 25.179 5.3955 26.9775 0 0 0
1072 5 23.3805 5.3955 25.179 0 0 0
1076 5 23.3805 5.3955 28.776 0 0 0
1079 5 23.3805 3.597 34.1715 0 0 0
1082 5 25.179 8.9925 1.7985 0 0 0
1087 5 23.3805 7.194 5.3955 0 0 0
1093 5 25.179 7.194 10.791 0 0 0
1099 5 23.3805 7.194 16.1865 0 0 0
1108 5 23.3805 8.9925 21.582 0 0 0
1111 5 23.3805 7.194 26.9775 0 0 0
1116 5 23.3805 8.9925 28.776 0 0 0
1123 5 23.3805 10.791 1.7985 0 0 0
1126 5 25.179 12.5895 5.3955 0 0 0
1134 5 25.179 12.5895 12.5895 0 0 0
1141 5 25.179 10.791 17.985 0 0 0
1143 5 23.3805 10.791 19.7835 0 0 0
1144 5 23.3805 12.5895 17.985 0 0 0
1145 5 25.179 10.791 21.582 0 0 0
1153 5 25.179 10.791 28.776 0 0 0
1155 5 23.3805 10.791 30.5745 0 0 0
1156 5 23.3805 12.5895 28.776 0 0 0
1157 5 25.179 10.791 32.373 0 0 0
1159 5 23.3805 10.791 34.1715 0 0 0
1160 5 23.3805 12.5895 32.373 0 0 0
1162 5 25.179 16.1865 1.7985 0 0 0
1163 5 23.3805 14.388 1.7985 0 0 0
1170 5 25.179 16.1865 8.9925 0 0 0
1187 5 23.3805 14.388 23.3805 0 0 0
1189 5 25.179 14.388 25.179 0 0 0
1193 5 25.179 14.388 28.776 0 0 0
1197 5 25.179 14.388 32.373 0 0 0
1199 5 23.3805 14.388 34.1715 0 0 0
1212 5 23.3805 19.7835 7.194 0 0 0
1213 5 25.179 17.985 10.791 0 0 0
1217 5 25.179 17.985 14.388 0 0 0
1218 5 25.179 19.7835 16.1865 0 0 0
1219 5 23.3805 17.985 16.1865 0 0 0
1221 5 25.179 17.985 17.985 0 0 0
1223 5 23.3805 17.985 19.7835 0 0 0
1224 5 23.3805 19.7835 17.985 0 0 0
1225 5 25.179 17.985 21.582 0 0 0
1228 5 23.3805 19.7835 21.582 0 0 0
1232 5 23.3805 19.7835 25.179 0 0 0
1233 5 25.179 17.985 28.776 0 0 0
1234 5 25.179 19.7835 30.5745 0 0 0
1240 5 23.3805 19.7835 32.373 0 0 0
1242 5 25.179 23.3805 1.7985 0 0 0
1244 5 23.3805 23.3805 0.0 0 0 0
1245 5 25.179 21.582 3.597 0 0 0
1250 5 25.179 23.3805 8.9925 0 0 0
1251 5 23.3805 21.582 8.9925 0 0 0
1253 5 25.179 21.582 10.791 0 0 0
1264 5 23.3805 23.3805 17.985 0 0 0
1265 5 25.179 21.582 21.582 0 0 0
1277 5 25.179 21.582 32.373 0 0 0
1286 5 25.179 26.9775 5.3955 0 0 0
1295 5 23.3805 25.179 12.5895 0 0 0
1296 5 23.3805 26.9775 10.791 0 0 0
1302 5 25.179 26.9775 19.7835 0 0 0
1313 5 25.179 25.179 28.776 0 0 0
1319 5 23.3805 25.179 34.1715 0 0 0
1324 5 23.3805 30.5745 0.0 0 0 0
1333 5 25.179 28.776 10.791 0 0 0
1335 5 23.3805 28.776 12.5895 0 0 0
1340 5 23.3805 30.5745 14.388 0 0 0
1341 5 25.179 28.776 17.985 0 0 0
1342 5 25.179 30.5745 19.7835 0 0 0
1348 5 23.3805 30.5745 21.582 0 0 0
1359 5 23.3805 28.776 34.1715 0 0 0
1363 5 23.3805 32.373 1.7985 0 0 0
1367 5 23.3805 32.373 5.3955 0 0 0
1370 5 25.179 34.1715 8.9925 0 0 0
1373 5 25.179 32.373 10.791 0 0 0
1374 5 25.179 34.1715 12.5895 0 0 0
1376 5 23.3805 34.1715 10.791 0 0 0
1378 5 25.179 34.1715 16.1865 0 0 0
1380 5 23.3805 34.1715 14.388 0 0 0
1381 5 25.179 32.373 17.985 0 0 0
1383 5 23.3805 32.373 19.7835 0 0 0
1387 5 23.3805 32.373 23.3805 0 0 0
1398 5 25.179 34.1715 34.1715 0 0 0
1404 5 19.7835 1.7985 0.0 0 0 0
1412 5 19.7835 1.7985 7.194 0 0 0
1431 5 19.7835 0.0 26.9775 0 0 0
1434 5 21.582 1.7985 30.5745 0 0 0
1437 5 21.582 0.0 32.373 0 0 0
1440 5 19.7835 1.7985 32.373 0 0 0
1458 5 21.582 5.3955 16.1865 0 0 0
1459 5 19.7835 3.597 16.1865 0 0 0
1462 5 21.582 5.3955 19.7835 0 0 0
1464 5 19.7835 5.3955 17.985 0 0 0
1465 5 21.582 3.597 21.582 0 0 0
1468 5 19.7835 5.3955 21.582 0 0 0
1472 5 19.7835 5.3955 25.179 0 0 0
1474 5 21.582 5.3955 30.5745 0 0 0
1477 5 21.582 3.597 32.373 0 0 0
1480 5 19.7835 5.3955 32.373 0 0 0
1482 5 21.582 8.9925 1.7985 0 0 0
1485 5 21.582 7.194 3.597 0 0 0
1490 5 21.582 8.9925 8.9925 0 0 0
1500 5 19.7835 8.9925 14.388 0 0 0
1503 5 19.7835 7.194 19.7835 0 0 0
1513 5 21.582 7.194 28.776 0 0 0
1527 5 19.7835 10.791 5.3955 0 0 0
1528 5 19.7835 12.5895 3.597 0 0 0
1529 5 21.582 10.791 7.194 0 0 0
1542 5 21.582 12.5895 19.7835 0 0 0
1558 5 21.582 12.5895 34.1715 0 0 0
1563 5 19.7835 14.388 1.7985 0 0 0
1564 5 19.7835 16.1865 0.0 0 0 0
1566 5 21.582 16.1865 5.3955 0 0 0
1573 5 21.582 14.388 10.791 0 0 0
1575 5 19.7835 14.388 12.5895 0 0 0
1576 5 19.7835 16.1865 10.791 0 0 0
1578 5 21.582 16.1865 16.1865 0 0 0
1582 5 21.582 16.1865 19.7835 0 0 0
1585 5 21.582 14.388 21.582 0 0 0
1595 5 19.7835 14.388 30.5745 0 0 0
1599 5 19.7835 14.388 34.1715 0 0 0
1604 5 19.7835 19.7835 0.0 0 0 0
1606 5 21.582 19.7835 5.3955 0 0 0
1607 5 19.7835 17.985 5.3955 0 0 0
1617 5 21.582 17.985 14.388 0 0 0
1628 5 19.7835 19.7835 21.582 0 0 0
1629 5 21.582 17.985 25.179 0 0 0
1630 5 21.582 19.7835 26.9775 0 0 0
1633 5 21.582 17.985 28.776 0 0 0
1648 5 19.7835 23.3805 3.597 0 0 0
1658 5 21.582 23.3805 16.1865 0 0 0
1662 5 21.582 23.3805 19.7835 0 0 0
1663 5 19.7835 21.582 19.7835 0 0 0
1668 5 19.7835 23.3805 21.582 0 0 0
1671 5 19.7835 21.582 26.9775 0 0 0
1674 5 21.582 23.3805 30.5745 0 0 0
1679 5 19.7835 21.582 34.1715 0 0 0
1695 5 19.7835 25.179 12.5895 0 0 0
1696 5 19.7835 26.9775 10.791 0 0 0
1697 5 21.582 25.179 14.388 0 0 0
1702 5 21.582 26.9775 19.7835 0 0 0
1712 5 19.7835 26.9775 25.179 0 0 0
1717 5 21.582 25.179 32.373 0 0 0
1718 5 21.582 26.9775 34.1715 0 0 0
1721 5 21.582 28.776 0.0 0 0 0
1728 5 19.7835 30.5745 3.597 0 0 0
1746 5 21.582 30.5745 23.3805 0 0 0
1752 5 19.7835 30.5745 25.179 0 0 0
1756 5 19.7835 30.5745 28.776 0 0 0
1767 5 19.7835 32.373 5.3955 0 0 0
1786 5 21.582 34.1715 23.3805 0 0 0
1794 5 21.582 34.1715 30.5745 0 0 0
1797 5 21.582 32.373 32.373 0 0 0
1798 5 21.582 34.1715 34.1715 0 0 0
1800 5 19.7835 34.1715 32.373 0 0 0
1803 5 16.1865 0.0 1.7985 0 0 0
1806 5 17.985 1.7985 5.3955 0 0 0
1807 5 16.1865 0.0 5.3955 0 0 0
1814 5 17.985 1.7985 12.5895 0 0 0
1816 5 16.1865 1.7985 10.791 0 0 0
1818 5 17.985 1.7985 16.1865 0 0 0
1819 5 16.1865 0.0 16.1865 0 0 0
1830 5 17.985 1.7985 26.9775 0 0 0
1833 5 17.985 0.0 28.776 0 0 0
1835 5 16.1865 0.0 30.5745 0 0 0
1843 5 16.1865 3.597 1.7985 0 0 0
1851 5 16.1865 3.597 8.9925 0 0 0
1856 5 16.1865 5.3955 10.791 0 0 0
1867 5 16.1865 3.597 23.3805 0 0 0
1878 5 17.985 5.3955 34.1715 0 0 0
1893 5 17.985 7.194 10.791 0 0 0
1895 5 16.1865 7.194 12.5895 0 0 0
1900 5 16.1865 8.9925 14.388 0 0 0
1902 5 17.985 8.9925 19.7835 0 0 0
1904 5 16.1865 8.9925 17.985 0 0 0
1906 5 17.985 8.9925 23.3805 0 0 0
1911 5 16.1865 7.194 26.9775 0 0 0
1913 5 17.985 7.194 28.776 0 0 0
1914 5 17.985 8.9925 30.5745 0 0 0
1919 5 16.1865 7.194 34.1715 0 0 0
1928 5 16.1865 12.5895 3.597 0 0 0
1932 5 16.1865 12.5895 7.194 0 0 0
1943 5 16.1865 10.791 19.7835 0 0 0
1944 5 16.1865 12.5895 17.985 0 0 0
1946 5 17.985 12.5895 23.3805 0 0 0
1947 5 16.1865 10.791 23.3805 0 0 0
1948 5 16.1865 12.5895 21.582 0 0 0
1953 5 17.985 10.791 28.776 0 0 0
1971 5 16.1865 14.388 8.9925 0 0 0
1972 5 16.1865 16.1865 7.194 0 0 0
1975 5 16.1865 14.388 12.5895 0 0 0
2029 5 17.985 17.985 25.179 0 0 0
2033 5 17.985 17.985 28.776 0 0 0
2038 5 17.985 19.7835 34.1715 0 0 0
2040 5 16.1865 19.7835 32.373 0 0 0
2045 5 17.985 21.582 3.597 0 0 0
2058 5 17.985 23.3805 16.1865 0 0 0
2059 5 16.1865 21.582 16.1865 0 0 0
2061 5 17.985 21.582 17.985 0 0 0
2086 5 17.985 26.9775 5.3955 0 0 0
2091 5 16.1865 25.179 8.9925 0 0 0
2093 5 17.985 25.179 10.791 0 0 0
2095 5 16.1865 25.179 12.5895 0 0 0
2096 5 16.1865 26.9775 10.791 0 0 0
2099 5 16.1865 25.179 16.1865 0 0 0
2106 5 17.985 26.9775 23.3805 0 0 0
2125 5 17.985 28.776 3.597 0 0 0
2128 5 16.1865 30.5745 3.597 0 0 0
2130 5 17.985 30.5745 8.9925 0 0 0
2138 5 17.985 30.5745 16.1865 0 0 0
2143 5 16.1865 28.776 19.7835 0 0 0
2146 5 17.985 30.5745 23.3805 0 0 0
2151 5 16.1865 28.776 26.9775 0 0 0
2152 5 16.1865 30.5745 25.179 0 0 0
2153 5 17.985 28.776 28.776 0 0 0
2155 5 16.1865 28.776 30.5745 0 0 0
2165 5 17.985 32.373 3.597 0 0 0
2166 5 17.985 34.1715 5.3955 0 0 0
2167 5 16.1865 32.373 5.3955 0 0 0
2169 5 17.985 32.373 7.194 0 0 0
2172 5 16.1865 34.1715 7.194 0 0 0
2178 5 17.985 34.1715 16.1865 0 0 0
2182 5 17.985 34.1715 19.7835 0 0 0
2188 5 16.1865 34.1715 21.582 0 0 0
2197 5 17.985 32.373 32.373 0 0 0
2200 5 16.1865 34.1715 32.373 0 0 0
2207 5 12.5895 0.0 5.3955 0 0 0
2208 5 12.5895 1.7985 3.597 0 0 0
2211 5 12.5895 0.0 8.9925 0 0 0
2215 5 12.5895 0.0 12.5895 0 0 0
2223 5 12.5895 0.0 19.7835 0 0 0
2231 5 12.5895 0.0 26.9775 0 0 0
2239 5 12.5895 0.0 34.1715 0 0 0
2252 5 12.5895 5.3955 7.194 0 0 0
2253 5 14.388 3.597 10.791 0 0 0
2257 5 14.388 3.597 14.388 0 0 0
2259 5 12.5895 3.597 16.1865 0 0 0
2261 5 14.388 3.597 17.985 0 0 0
2270 5 14.388 5.3955 26.9775 0 0 0
2275 5 12.5895 3.597 30.5745 0 0 0
2276 5 12.5895 5.3955 28.776 0 0 0
2278 5 14.388 5.3955 34.1715 0 0 0
2284 5 12.5895 8.9925 0.0 0 0 0
2285 5 14.388 7.194 3.597 0 0 0
2291 5 12.5895 7.194 8.9925 0 0 0
2292 5 12.5895 8.9925 7.194 0 0 0
2295 5 12.5895 7.194 12.5895 0 0 0
2318 5 14.388 8.9925 34.1715 0 0 0
2326 5 14.388 12.5895 5.3955 0 0 0
2329 5 14.388 10.791 7.194 0 0 0
2335 5 12.5895 10.791 12.5895 0 0 0
2336 5 12.5895 12.5895 10.791 0 0 0
2354 5 14.388 12.5895 30.5745 0 0 0
2355 5 12.5895 10.791 30.5745 0 0 0
2358 5 14.388 12.5895 34.1715 0 0 0
2359 5 12.5895 10.791 34.1715 0 0 0
2372 5 12.5895 16.1865 7.194 0 0 0
2382 5 14.388 16.1865 19.7835 0 0 0
2391 5 12.5895 14.388 26.9775 0 0 0
2399 5 12.5895 14.388 34.1715 0 0 0
2404 5 12.5895 19.7835 0.0 0 0 0
2406 5 14.388 19.7835 5.3955 0 0 0
2407 5 12.5895 17.985 5.3955 0 0 0
2411 5 12.5895 17.985 8.9925 0 0 0
2421 5 14.388 17.985 17.985 0 0 0
2428 5 12.5895 19.7835 21.582 0 0 0
2433 5 14.388 17.985 28.776 0 0 0
2446 5 14.388 23.3805 5.3955 0 0 0
2449 5 14.388 21.582 7.194 0 0 0
2458 5 14.388 23.3805 16.1865 0 0 0
2461 5 14.388 21.582 17.985 0 0 0
2466 5 14.388 23.3805 23.3805 0 0 0
2468 5 12.5895 23.3805 21.582 0 0 0
2470 5 14.388 23.3805 26.9775 0 0 0
2477 5 14.388 21.582 32.373 0 0 0
2483 5 12.5895 25.179 1.7985 0 0 0
2485 5 14.388 25.179 3.597 0 0 0
2491 5 12.5895 25.179 8.9925 0 0 0
2493 5 14.388 25.179 10.791 0 0 0
2499 5 12.5895 25.179 16.1865 0 0 0
2500 5 12.5895 26.9775 14.388 0 0 0
2509 5 14.388 25.179 25.179 0 0 0
2513 5 14.388 25.179 28.776 0 0 0
2514 5 14.388 26.9775 30.5745 0 0 0
2516 5 12.5895 26.9775 28.776 0 0 0
2519 5 12.5895 25.179 34.1715 0 0 0
2523 5 12.5895 28.776 1.7985 0 0 0
2525 5 14.388 28.776 3.597 0 0 0
2526 5 14.388 30.5745 5.3955 0 0 0
2540 5 12.5895 30.5745 14.388 0 0 0
2548 5 12.5895 30.5745 21.582 0 0 0
2558 5 14.388 30.5745 34.1715 0 0 0
2566 5 14.388 34.1715 5.3955 0 0 0
2567 5 12.5895 32.373 5.3955 0 0 0
2583 5 12.5895 32.373 19.7835 0 0 0
2584 5 12.5895 34.1715 17.985 0 0 0
2585 5 14.388 32.373 21.582 0 0 0
2598 5 14.388 34.1715 34.1715 0 0 0
2604 5 8.9925 1.7985 0.0 0 0 0
2609 5 10.791 0.0 7.194 0 0 0
2614 5 10.791 1.7985 12.5895 0 0 0
2616 5 8.9925 1.7985 10.791 0 0 0
2618 5 10.791 1.7985 16.1865 0 0 0
2620 5 8.9925 1.7985 14.388 0 0 0
2621 5 10.791 0.0 17.985 0 0 0
2627 5 8.9925 0.0 23.3805 0 0 0
2633 5 10.791 0.0 28.776 0 0 0
2649 5 10.791 3.597 7.194 0 0 0
2658 5 10.791 5.3955 16.1865 0 0 0
2659 5 8.9925 3.597 16.1865 0 0 0
2660 5 8.9925 5.3955 14.388 0 0 0
2668 5 8.9925 5.3955 21.582 0 0 0
2669 5 10.791 3.597 25.179 0 0 0
2675 5 8.9925 3.597 30.5745 0 0 0
2676 5 8.9925 5.3955 28.776 0 0 0
2694 5 10.791 8.9925 12.5895 0 0 0
2701 5 10.791 7.194 17.985 0 0 0
2706 5 10.791 8.9925 23.3805 0 0 0
2716 5 8.9925 8.9925 28.776 0 0 0
2719 5 8.9925 7.194 34.1715 0 0 0
2727 5 8.9925 10.791 5.3955 0 0 0
2728 5 8.9925 12.5895 3.597 0 0 0
2729 5 10.791 10.791 7.194 0 0 0
2736 5 8.9925 12.5895 10.791 0 0 0
2739 5 8.9925 10.791 16.1865 0 0 0
2741 5 10.791 10.791 17.985 0 0 0
2743 5 8.9925 10.791 19.7835 0 0 0
2749 5 10.791 10.791 25.179 0 0 0
2752 5 8.9925 12.5895 25.179 0 0 0
2754 5 10.791 12.5895 30.5745 0 0 0
2755 5 8.9925 10.791 30.5745 0 0 0
2756 5 8.9925 12.5895 28.776 0 0 0
2769 5 10.791 14.388 7.194 0 0 0
2775 5 8.9925 14.388 12.5895 0 0 0
2777 5 10.791 14.388 14.388 0 0 0
2780 5 8.9925 16.1865 14.388 0 0 0
2783 5 8.9925 14.388 19.7835 0 0 0
2784 5 8.9925 16.1865 17.985 0 0 0
2790 5 10.791 16.1865 26.9775 0 0 0
2809 5 10.791 17.985 7.194 0 0 0
2814 5 10.791 19.7835 12.5895 0 0 0
2817 5 10.791 17.985 14.388 0 0 0
2821 5 10.791 17.985 17.985 0 0 0
2822 5 10.791 19.7835 19.7835 0 0 0
2824 5 8.9925 19.7835 17.985 0 0 0
2839 5 8.9925 17.985 34.1715 0 0 0
2846 5 10.791 23.3805 5.3955 0 0 0
2847 5 8.9925 21.582 5.3955 0 0 0
2851 5 8.9925 21.582 8.9925 0 0 0
2853 5 10.791 21.582 10.791 0 0 0
2856 5 8.9925 23.3805 10.791 0 0 0
2861 5 10.791 21.582 17.985 0 0 0
2862 5 10.791 23.3805 19.7835 0 0 0
2867 5 8.9925 21.582 23.3805 0 0 0
2868 5 8.9925 23.3805 21.582 0 0 0
2885 5 10.791 25.179 3.597 0 0 0
2899 5 8.9925 25.179 16.1865 0 0 0
2915 5 8.9925 25.179 30.5745 0 0 0
2919 5 8.9925 25.179 34.1715 0 0 0
2923 5 8.9925 28.776 1.7985 0 0 0
2927 5 8.9925 28.776 5.3955 0 0 0
2930 5 10.791 30.5745 8.9925 0 0 0
2932 5 8.9925 30.5745 7.194 0 0 0
2933 5 10.791 28.776 10.791 0 0 0
2935 5 8.9925 28.776 12.5895 0 0 0
2937 5 10.791 28.776 14.388 0 0 0
2939 5 8.9925 28.776 16.1865 0 0 0
2948 5 8.9925 30.5745 21.582 0 0 0
2963 5 8.9925 32.373 1.7985 0 0 0
2988 5 8.9925 34.1715 21.582 0 0 0
2991 5 8.9925 32.373 26.9775 0 0 0
2994 5 10.791 34.1715 30.5745 0 0 0
2998 5 10.791 34.1715 34.1715 0 0 0
3001 5 7.194 0.0 0.0 0 0 0
3004 5 5.3955 1.7985 0.0 0 0 0
3006 5 7.194 1.7985 5.3955 0 0 0
3007 5 5.3955 0.0 5.3955 0 0 0
3008 5 5.3955 1.7985 3.597 0 0 0
3010 5 7.194 1.7985 8.9925 0 0 0
3026 5 7.194 1.7985 23.3805 0 0 0
3027 5 5.3955 0.0 23.3805 0 0 0
3032 5 5.3955 1.7985 25.179 0 0 0
3033 5 7.194 0.0 28.776 0 0 0
3034 5 7.194 1.7985 30.5745 0 0 0
3042 5 7.194 5.3955 1.7985 0 0 0
3053 5 7.194 3.597 10.791 0 0 0
3054 5 7.194 5.3955 12.5895 0 0 0
3067 5 5.3955 3.597 23.3805 0 0 0
3074 5 7.194 5.3955 30.5745 0 0 0
3081 5 7.194 7.194 0.0 0 0 0
3084 5 5.3955 8.9925 0.0 0 0 0
3085 5 7.194 7.194 3.597 0 0 0
3086 5 7.194 8.9925 5.3955 0 0 0
3091 5 5.3955 7.194 8.9925 0 0 0
3093 5 7.194 7.194 10.791 0 0 0
3096 5 5.3955 8.9925 10.791 0 0 0
3102 5 7.194 8.9925 19.7835 0 0 0
3105 5 7.194 7.194 21.582 0 0 0
3110 5 7.194 8.9925 26.9775 0 0 0
3113 5 7.194 7.194 28.776 0 0 0
3115 5 5.3955 7.194 30.5745 0 0 0
3117 5 7.194 7.194 32.373 0 0 0
3130 5 7.194 12.5895 8.9925 0 0 0
3132 5 5.3955 12.5895 7.194 0 0 0
3136 5 5.3955 12.5895 10.791 0 0 0
3154 5 7.194 12.5895 30.5745 0 0 0
3159 5 5.3955 10.791 34.1715 0 0 0
3166 5 7.194 16.1865 5.3955 0 0 0
3176 5 5.3955 16.1865 10.791 0 0 0
3177 5 7.194 14.388 14.388 0 0 0
3180 5 5.3955 16.1865 14.388 0 0 0
3188 5 5.3955 16.1865 21.582 0 0 0
3197 5 7.194 14.388 32.373 0 0 0
3209 5 7.194 17.985 7.194 0 0 0
3213 5 7.194 17.985 10.791 0 0 0
3214 5 7.194 19.7835 12.5895 0 0 0
3217 5 7.194 17.985 14.388 0 0 0
3222 5 7.194 19.7835 19.7835 0 0 0
3223 5 5.3955 17.985 19.7835 0 0 0
3226 5 7.194 19.7835 23.3805 0 0 0
3227 5 5.3955 17.985 23.3805 0 0 0
3228 5 5.3955 19.7835 21.582 0 0 0
3229 5 7.194 17.985 25.179 0 0 0
3232 5 5.3955 19.7835 25.179 0 0 0
3240 5 5.3955 19.7835 32.373 0 0 0
3245 5 7.194 21.582 3.597 0 0 0
3251 5 5.3955 21.582 8.9925 0 0 0
3252 5 5.3955 23.3805 7.194 0 0 0
3258 5 7.194 23.3805 16.1865 0 0 0
3260 5 5.3955 23.3805 14.388 0 0 0
3266 5 7.194 23.3805 23.3805 0 0 0
3268 5 5.3955 23.3805 21.582 0 0 0
3279 5 5.3955 21.582 34.1715 0 0 0
3302 5 7.194 26.9775 19.7835 0 0 0
3304 5 5.3955 26.9775 17.985 0 0 0
3307 5 5.3955 25.179 23.3805 0 0 0
3327 5 5.3955 28.776 5.3955 0 0 0
3328 5 5.3955 30.5745 3.597 0 0 0
3332 5 5.3955 30.5745 7.194 0 0 0
3333 5 7.194 28.776 10.791 0 0 0
3339 5 5.3955 28.776 16.1865 0 0 0
3348 5 5.3955 30.5745 21.582 0 0 0
3352 5 5.3955 30.5745 25.179 0 0 0
3354 5 7.194 30.5745 30.5745 0 0 0
3367 5 5.3955 32.373 5.3955 0 0 0
3369 5 7.194 32.373 7.194 0 0 0
3371 5 5.3955 32.373 8.9925 0 0 0
3373 5 7.194 32.373 10.791 0 0 0
3379 5 5.3955 32.373 16.1865 0 0 0
3383 5 5.3955 32.373 19.7835 0 0 0
3386 5 7.194 34.1715 23.3805 0 0 0
3391 5 5.3955 32.373 26.9775 0 0 0
3398 5 7.194 34.1715 34.1715 0 0 0
3408 5 1.7985 1.7985 3.597 0 0 0
3409 5 3.597 0.0 7.194 0 0 0
3414 5 3.597 1.7985 12.5895 0 0 0
3420 5 1.7985 1.7985 14.388 0 0 0
3421 5 3.597 0.0 17.985 0 0 0
3426 5 3.597 1.7985 23.3805 0 0 0
3439 5 1.7985 0.0 34.1715 0 0 0
3440 5 1.7985 1.7985 32.373 0 0 0
3442 5 3.597 5.3955 1.7985 0 0 0
3443 5 1.7985 3.597 1.7985 0 0 0
3448 5 1.7985 5.3955 3.597 0 0 0
3450 5 3.597 5.3955 8.9925 0 0 0
3452 5 1.7985 5.3955 7.194 0 0 0
3461 5 3.597 3.597 17.985 0 0 0
3464 5 1.7985 5.3955 17.985 0 0 0
3467 5 1.7985 3.597 23.3805 0 0 0
3469 5 3.597 3.597 25.179 0 0 0
3470 5 3.597 5.3955 26.9775 0 0 0
3476 5 1.7985 5.3955 28.776 0 0 0
3477 5 3.597 3.597 32.373 0 0 0
3486 5 3.597 8.9925 5.3955 0 0 0
3490 5 3.597 8.9925 8.9925 0 0 0
3496 5 1.7985 8.9925 10.791 0 0 0
3498 5 3.597 8.9925 16.1865 0 0 0
3511 5 1.7985 7.194 26.9775 0 0 0
3525 5 3.597 10.791 3.597 0 0 0
3531 5 1.7985 10.791 8.9925 0 0 0
3537 5 3.597 10.791 14.388 0 0 0
3545 5 3.597 10.791 21.582 0 0 0
3548 5 1.7985 12.5895 21.582 0 0 0
3550 5 3.597 12.5895 26.9775 0 0 0
3561 5 3.597 14.388 0.0 0 0 0
3563 5 1.7985 14.388 1.7985 0 0 0
3567 5 1.7985 14.388 5.3955 0 0 0
3571 5 1.7985 14.388 8.9925 0 0 0
3592 5 1.7985 16.1865 25.179 0 0 0
3594 5 3.597 16.1865 30.5745 0 0 0
3609 5 3.597 17.985 7.194 0 0 0
3611 5 1.7985 17.985 8.9925 0 0 0
3614 5 3.597 19.7835 12.5895 0 0 0
3626 5 3.597 19.7835 23.3805 0 0 0
3629 5 3.597 17.985 25.179 0 0 0
3640 5 1.7985 19.7835 32.373 0 0 0
3646 5 3.597 23.3805 5.3955 0 0 0
3647 5 1.7985 21.582 5.3955 0 0 0
3648 5 1.7985 23.3805 3.597 0 0 0
3650 5 3.597 23.3805 8.9925 0 0 0
3676 5 1.7985 23.3805 28.776 0 0 0
3685 5 3.597 25.179 3.597 0 0 0
3707 5 1.7985 25.179 23.3805 0 0 0
3725 5 3.597 28.776 3.597 0 0 0
3738 5 3.597 30.5745 16.1865 0 0 0
3739 5 1.7985 28.776 16.1865 0 0 0
3742 5 3.597 30.5745 19.7835 0 0 0
3755 5 1.7985 28.776 30.5745 0 0 0
3762 5 3.597 34.1715 1.7985 0 0 0
3763 5 1.7985 32.373 1.7985 0 0 0
3764 5 1.7985 34.1715 0.0 0 0 0
3771 5 1.7985 32.373 8.9925 0 0 0
3782 5 3.597 34.1715 19.7835 0 0 0
3783 5 1.7985 32.373 19.7835 0 0 0
3785 5 3.597 32.373 21.582 0 0 0
3789 5 3.597 32.373 25.179 0 0 0
3797 5 3.597 32.373 32.373 0 0 0
3799 5 1.7985 32.373 34.1715 0 0 0
3800 5 1.7985 34.1715 32.373 0 0 0
3801 5 0.0 0.0 0.0 0 0 0
3806 5 0.0 1.7985 8.9925 0 0 0
3807 5 0.0 0.0 10.791 0 0 0
3809 5 0.0 0.0 14.388 0 0 0
3811 5 0.0 0.0 17.985 0 0 0
3815 5 0.0 0.0 25.179 0 0 0
3819 5 0.0 0.0 32.373 0 0 0
3820 5 0.0 1.7985 34.1715 0 0 0
3828 5 0.0 5.3955 12.5895 0 0 0
3830 5 0.0 5.3955 16.1865 0 0 0
3843 5 0.0 7.194 3.597 0 0 0
3845 5 0.0 7.194 7.194 0 0 0
3849 5 0.0 7.194 14.388 0 0 0
3852 5 0.0 8.9925 19.7835 0 0 0
3856 5 0.0 8.9925 26.9775 0 0 0
3862 5 0.0 12.5895 1.7985 0 0 0
3865 5 0.0 10.791 7.194 0 0 0
3869 5 0.0 10.791 14.388 0 0 0
3870 5 0.0 12.5895 16.1865 0 0 0
3882 5 0.0 16.1865 1.7985 0 0 0
3883 5 0.0 14.388 3.597 0 0 0
3885 5 0.0 14.388 7.194 0 0 0
3890 5 0.0 16.1865 16.1865 0 0 0
3892 5 0.0 16.1865 19.7835 0 0 0
3893 5 0.0 14.388 21.582 0 0 0
3894 5 0.0 16.1865 23.3805 0 0 0
3910 5 0.0 19.7835 16.1865 0 0 0
3917 5 0.0 17.985 28.776 0 0 0
3919 5 0.0 17.985 32.373 0 0 0
3922 5 0.0 23.3805 1.7985 0 0 0
3931 5 0.0 21.582 17.985 0 0 0
3936 5 0.0 23.3805 26.9775 0 0 0
3937 5 0.0 21.582 28.776 0 0 0
3946 5 0.0 26.9775 8.9925 0 0 0
3957 5 0.0 25.179 28.776 0 0 0
3958 5 0.0 26.9775 30.5745 0 0 0
3960 5 0.0 26.9775 34.1715 0 0 0
3971 5 0.0 28.776 17.985 0 0 0
3972 5 0.0 30.5745 19.7835 0 0 0
3975 5 0.0 28.776 25.179 0 0 0
3976 5 0.0 30.5745 26.9775 0 0 0
3980 5 0.0 30.5745 34.1715 0 0 0
3981 5 0.0 32.373 0.0 0 0 0
3984 5 0.0 34.1715 5.3955 0 0 0
3992 5 0.0 34.1715 19.7835 0 0 0
3996 5 0.0 34.1715 26.9775 0 0 0
3997 5 0.0 32.373 28.776 0 0 0
3998 5 0.0 34.1715 30.5745 0 0 0
