# LAMMPS data file written by OVITO Basic 3.5.4
3600 atoms
5 atom types
0 44.0540730239555 xlo xhi
0 25.4346309192801 ylo yhi
-0.003738112052898703 35.308129722729326 zlo zhi
 
Masses
 
1 1.0
2 2.0
3 3.0
4 4.0
5 5.0
 
Atoms  # atomic
 
1675 1 42.58560392315695 20.34770473542409 2.07672891827508 0 0 0
3584 1 43.31983847355621 8.902120821748039 35.30439161067643 0 0 0
2426 1 18.35586375998144 24.162899373316108 20.767289182750844 0 0 0
3060 1 32.30632021756734 5.086926183856022 22.844018101025927 0 0 0
2160 1 4.405407302395545 17.804241643496077 31.150933774126266 0 0 0
1630 1 35.24325841916437 20.347704735424088 12.460373509650502 0 0 0
1580 1 36.711727519962885 7.630389275784033 10.38364459137542 0 0 0
9 1 0.0 5.086926183856022 0.0 0 0 0
2443 1 12.481987356787382 6.358657729820028 35.30439161067643 0 0 0
1531 1 32.30632021756734 2.5434630919280115 16.613831346200673 0 0 0
3580 1 42.58560392315695 2.543463091928011 33.227662692401346 0 0 0
2906 1 33.040554767966604 3.815194637892017 18.69056026447576 0 0 0
1095 1 28.63514746557105 11.44558391367605 6.230186754825253 0 0 0
493 1 8.810814604791094 12.717315459640057 12.460373509650504 0 0 0
3413 1 39.64866572155992 10.173852367712044 24.92074701930101 0 0 0
3190 1 33.774789318365855 5.086926183856022 26.99747593757609 0 0 0
2968 1 30.837851116768825 22.8911678273521 18.69056026447576 0 0 0
3341 1 35.24325841916438 2.5434630919280115 31.150933774126266 0 0 0
1470 1 33.0405547679666 21.619436281388097 12.460373509650504 0 0 0
963 1 26.43244381437328 10.173852367712044 1.7763568394002505e-15 0 0 0
3526 1 38.1801966207614 17.804241643496077 33.227662692401346 0 0 0
568 1 14.684691007985156 12.717315459640057 4.153457836550169 0 0 0
1457 1 38.1801966207614 7.630389275784035 2.076728918275084 0 0 0
1740 1 43.3198384735562 11.445583913676051 10.38364459137542 0 0 0
1767 1 43.3198384735562 21.619436281388094 10.38364459137542 0 0 0
96 1 3.6711727519962887 16.53251009753207 4.153457836550167 0 0 0
1217 1 27.900912915171794 10.173852367712044 10.383644591375422 0 0 0
2971 1 23.49550561277625 2.543463091928011 35.30439161067643 0 0 0
1621 1 42.58560392315695 5.086926183856024 2.076728918275084 0 0 0
2101 1 2.9369382015970302 10.173852367712044 33.227662692401346 0 0 0
3581 1 41.11713482235843 12.717315459640057 35.30439161067643 0 0 0
537 1 14.684691007985156 7.630389275784033 4.153457836550168 0 0 0
2442 1 11.747752806388124 7.630389275784035 33.227662692401346 0 0 0
3043 1 27.166678364772537 19.07597318946009 33.227662692401346 0 0 0
574 1 16.887394659182927 11.44558391367605 4.153457836550169 0 0 0
584 1 11.747752806388124 22.8911678273521 8.306915673100336 0 0 0
2759 1 24.96397471357476 12.717315459640057 20.76728918275084 0 0 0
631 1 10.27928370558961 0.0 16.613831346200673 0 0 0
3247 1 34.50902386876511 16.53251009753207 29.07420485585118 0 0 0
3183 1 31.57208566716808 8.902120821748039 33.227662692401346 0 0 0
820 1 16.15316010878367 2.543463091928011 14.53710242792559 0 0 0
528 1 10.27928370558961 12.717315459640057 10.383644591375422 0 0 0
3488 1 39.64866572155992 0.0 31.15093377412626 0 0 0
2314 1 16.887394659182924 1.271731545964005 22.844018101025924 0 0 0
3287 1 38.91443117116066 13.98904700560406 22.844018101025924 0 0 0
1951 1 3.671172751996288 8.90212082174804 29.07420485585118 0 0 0
3588 1 41.11713482235843 15.260778551568066 35.30439161067643 0 0 0
510 1 15.418925558384412 1.2717315459640055 6.230186754825252 0 0 0
2175 1 11.013518255988869 11.44558391367605 24.92074701930101 0 0 0
2022 1 2.2027036511977727 24.162899373316108 31.150933774126266 0 0 0
1410 1 32.30632021756734 12.717315459640057 10.38364459137542 0 0 0
843 1 21.29280196157848 3.815194637892017 10.383644591375422 0 0 0
2944 1 27.900912915171794 17.804241643496077 22.844018101025924 0 0 0
2130 1 5.8738764031940605 12.71731545964006 29.07420485585118 0 0 0
2933 1 33.040554767966604 6.358657729820028 18.69056026447576 0 0 0
983 1 24.96397471357476 22.8911678273521 2.076728918275087 0 0 0
419 1 9.545049155190348 24.162899373316105 8.306915673100335 0 0 0
2557 1 17.62162920958219 17.80424164349608 24.92074701930101 0 0 0
851 1 16.88739465918293 16.53251009753207 16.613831346200673 0 0 0
3348 1 32.30632021756735 10.173852367712044 35.30439161067643 0 0 0
3238 1 31.57208566716808 19.07597318946009 33.227662692401346 0 0 0
704 1 19.82433286077996 6.358657729820028 6.230186754825254 0 0 0
423 1 11.013518255988863 21.619436281388094 6.230186754825252 0 0 0
294 1 7.342345503992577 0.0 8.306915673100336 0 0 0
1437 1 30.83785111676882 20.347704735424088 12.460373509650502 0 0 0
3225 1 36.711727519962885 2.543463091928011 22.844018101025927 0 0 0
1984 1 8.076580054391835 3.815194637892017 22.844018101025924 0 0 0
1197 1 27.900912915171794 5.086926183856022 10.383644591375422 0 0 0
1082 1 24.229740163175503 16.53251009753207 12.460373509650504 0 0 0
1895 1 2.9369382015970302 17.80424164349608 20.767289182750844 0 0 0
3129 1 33.0405547679666 21.619436281388094 24.92074701930101 0 0 0
2040 1 8.810814604791094 12.717315459640057 18.69056026447576 0 0 0
1521 1 39.64866572155992 20.34770473542409 -3.552713678800501e-15 0 0 0
2410 1 15.418925558384412 24.162899373316105 24.92074701930101 0 0 0
1749 1 40.38290027195917 21.619436281388097 14.53710242792559 0 0 0
2874 1 21.29280196157848 21.619436281388094 35.30439161067643 0 0 0
2476 1 18.35586375998145 3.815194637892017 26.99747593757609 0 0 0
832 1 16.15316010878367 7.630389275784033 14.53710242792559 0 0 0
1463 1 40.38290027195917 6.358657729820028 2.076728918275084 0 0 0
624 1 17.62162920958219 22.891167827352103 -1.7763568394002505e-15 0 0 0
1004 1 21.292801961578476 8.902120821748039 16.613831346200673 0 0 0
960 1 26.43244381437328 12.717315459640057 0.0 0 0 0
596 1 16.15316010878367 15.260778551568066 2.0767289182750845 0 0 0
1550 1 34.50902386876512 8.902120821748039 16.613831346200673 0 0 0
1409 1 30.837851116768825 12.717315459640057 12.460373509650504 0 0 0
3583 1 42.58560392315695 10.173852367712044 33.227662692401346 0 0 0
3565 1 42.58560392315695 20.347704735424088 26.99747593757609 0 0 0
3316 1 36.711727519962885 22.8911678273521 22.844018101025927 0 0 0
2288 1 5.8738764031940605 15.260778551568066 35.304391610676426 0 0 0
2285 1 13.216221907186638 0.0 24.920747019301007 0 0 0
2647 1 14.684691007985151 17.804241643496077 35.30439161067643 0 0 0
2800 1 19.090098310380704 10.173852367712046 35.30439161067643 0 0 0
1133 1 33.0405547679666 6.358657729820028 1.7763568394002505e-15 0 0 0
1246 1 28.63514746557105 13.98904700560406 12.460373509650504 0 0 0
1488 1 38.1801966207614 10.173852367712046 2.076728918275084 0 0 0
3374 1 35.97749296956363 11.44558391367605 33.227662692401346 0 0 0
491 1 8.076580054391833 16.53251009753207 16.613831346200673 0 0 0
2524 1 14.684691007985156 15.260778551568068 29.07420485585118 0 0 0
161 1 7.342345503992577 0.0 2.076728918275084 0 0 0
3104 1 29.36938201597031 22.8911678273521 26.997475937576095 0 0 0
104 1 6.608110953593319 13.98904700560406 8.881784197001252e-16 0 0 0
1834 1 0.0 0.0 24.92074701930101 0 0 0
1081 1 23.495505612776245 17.804241643496077 10.383644591375418 0 0 0
3383 1 38.91443117116066 8.902120821748039 29.07420485585118 0 0 0
2604 1 22.02703651197773 17.804241643496077 18.69056026447576 0 0 0
1981 1 6.60811095359332 8.902120821748039 24.92074701930101 0 0 0
1154 1 33.0405547679666 13.989047005604064 0.0 0 0 0
2352 1 8.81081460479109 22.891167827352103 31.15093377412626 0 0 0
2771 1 23.495505612776245 20.347704735424088 22.844018101025924 0 0 0
2710 1 16.887394659182927 24.162899373316108 35.30439161067643 0 0 0
2819 1 21.29280196157848 11.445583913676051 35.30439161067643 0 0 0
3289 1 39.64866572155992 10.173852367712044 18.69056026447576 0 0 0
1908 1 3.671172751996288 21.619436281388094 22.844018101025924 0 0 0
823 1 18.35586375998145 3.815194637892017 14.53710242792559 0 0 0
327 1 5.139641852794805 13.98904700560406 14.53710242792559 0 0 0
2237 1 11.74775280638812 22.891167827352103 20.767289182750844 0 0 0
2051 1 5.873876403194062 20.347704735424088 22.844018101025924 0 0 0
2441 1 10.27928370558961 7.630389275784034 35.30439161067643 0 0 0
1990 1 8.810814604791092 0.0 18.69056026447576 0 0 0
2586 1 21.29280196157848 16.53251009753207 22.844018101025927 0 0 0
146 1 2.2027036511977736 8.902120821748039 12.460373509650504 0 0 0
688 1 13.950456457585895 16.53251009753207 14.53710242792559 0 0 0
3536 1 41.851369372757695 13.98904700560406 31.150933774126266 0 0 0
2747 1 20.55856741117921 20.347704735424088 26.99747593757609 0 0 0
2661 1 20.55856741117921 7.630389275784033 26.99747593757609 0 0 0
676 1 18.35586375998144 3.815194637892017 8.306915673100338 0 0 0
1603 1 35.977492969563635 19.07597318946009 14.53710242792559 0 0 0
3049 1 29.36938201597031 12.717315459640057 26.99747593757609 0 0 0
377 1 11.747752806388124 7.630389275784033 2.0767289182750845 0 0 0
2550 1 15.418925558384414 21.619436281388094 31.150933774126266 0 0 0
128 1 0.7342345503992576 6.358657729820028 14.53710242792559 0 0 0
47 1 3.6711727519962887 3.815194637892017 4.153457836550168 0 0 0
2849 1 22.02703651197773 12.717315459640057 31.15093377412626 0 0 0
3541 1 42.58560392315695 7.630389275784033 26.99747593757609 0 0 0
749 1 14.684691007985156 22.8911678273521 10.38364459137542 0 0 0
2433 1 10.27928370558961 2.543463091928011 35.30439161067643 0 0 0
1996 1 1.4684691007985151 20.34770473542409 29.07420485585118 0 0 0
951 1 22.02703651197773 17.804241643496077 6.230186754825254 0 0 0
1856 1 2.202703651197771 8.90212082174804 24.92074701930101 0 0 0
710 1 22.02703651197773 0.0 0.0 0 0 0
2273 1 8.81081460479109 7.630389275784035 31.15093377412626 0 0 0
2389 1 13.950456457585894 19.07597318946009 26.99747593757609 0 0 0
90 1 0.0 20.347704735424088 6.230186754825251 0 0 0
649 1 13.21622190718664 2.543463091928011 12.460373509650504 0 0 0
2641 1 20.55856741117921 2.5434630919280106 26.99747593757609 0 0 0
1615 1 40.38290027195918 11.445583913676051 8.306915673100336 0 0 0
2461 1 11.747752806388124 10.173852367712046 33.227662692401346 0 0 0
1383 1 31.57208566716808 8.902120821748039 14.53710242792559 0 0 0
1026 1 23.495505612776245 7.630389275784033 10.383644591375418 0 0 0
539 1 15.41892555838441 8.902120821748039 6.230186754825253 0 0 0
2339 1 15.41892555838441 8.902120821748039 24.92074701930101 0 0 0
3046 1 28.63514746557105 13.98904700560406 31.150933774126266 0 0 0
824 1 17.621629209582185 0.0 12.460373509650504 0 0 0
1395 1 35.97749296956363 1.2717315459640064 8.306915673100338 0 0 0
191 1 11.013518255988869 1.271731545964006 -8.881784197001252e-16 0 0 0
2784 1 26.43244381437328 22.8911678273521 18.69056026447576 0 0 0
1326 1 31.57208566716808 24.162899373316105 8.306915673100338 0 0 0
2116 1 9.545049155190352 3.815194637892017 26.99747593757609 0 0 0
2946 1 30.10361656636957 16.53251009753207 22.844018101025924 0 0 0
1509 1 39.64866572155992 15.260778551568066 0.0 0 0 0
3078 1 28.63514746557105 21.619436281388097 31.150933774126266 0 0 0
731 1 18.35586375998144 13.98904700560406 8.306915673100338 0 0 0
3317 1 38.1801966207614 22.8911678273521 20.76728918275084 0 0 0
726 1 16.887394659182927 13.98904700560406 10.383644591375422 0 0 0
479 1 11.013518255988863 6.358657729820028 12.460373509650504 0 0 0
3034 1 34.50902386876511 1.2717315459640055 22.844018101025924 0 0 0
3250 1 35.97749296956363 11.44558391367605 26.99747593757609 0 0 0
76 1 1.468469100798516 12.717315459640057 4.153457836550169 0 0 0
750 1 15.418925558384412 21.619436281388094 12.460373509650504 0 0 0
245 1 11.013518255988863 11.44558391367605 8.881784197001252e-16 0 0 0
572 1 16.15316010878367 10.173852367712044 2.0767289182750845 0 0 0
1203 1 30.103616566369567 3.815194637892017 10.383644591375422 0 0 0
816 1 14.684691007985156 5.086926183856022 16.613831346200673 0 0 0
1348 1 37.44596207036214 19.075973189460083 0.0 0 0 0
2791 1 19.090098310380704 0.0 35.304391610676426 0 0 0
2131 1 6.608110953593322 11.445583913676051 31.150933774126266 0 0 0
986 1 27.166678364772537 24.162899373316105 2.076728918275085 0 0 0
773 1 24.229740163175503 6.358657729820028 1.7763568394002505e-15 0 0 0
827 1 14.684691007985156 12.717315459640057 16.613831346200673 0 0 0
3489 1 40.38290027195918 1.2717315459640055 33.227662692401346 0 0 0
231 1 4.405407302395546 17.804241643496077 6.230186754825252 0 0 0
206 1 5.139641852794804 16.53251009753207 8.306915673100336 0 0 0
896 1 22.02703651197773 7.630389275784034 6.230186754825253 0 0 0
2219 1 9.545049155190352 24.162899373316105 26.99747593757609 0 0 0
398 1 9.54504915519035 16.53251009753207 8.306915673100335 0 0 0
3230 1 39.64866572155992 0.0 18.69056026447576 0 0 0
1134 1 33.0405547679666 8.90212082174804 -1.7763568394002505e-15 0 0 0
3125 1 37.44596207036214 11.44558391367605 18.69056026447576 0 0 0
3133 1 34.50902386876511 19.075973189460083 22.844018101025924 0 0 0
809 1 24.229740163175503 21.619436281388094 1.7763568394002505e-15 0 0 0
744 1 22.02703651197773 2.543463091928012 -1.7763568394002505e-15 0 0 0
2060 1 11.013518255988869 13.98904700560406 18.69056026447576 0 0 0
1783 1 42.58560392315695 10.173852367712044 14.537102427925593 0 0 0
3406 1 37.44596207036214 13.98904700560406 31.15093377412626 0 0 0
2871 1 31.57208566716809 1.2717315459640055 20.76728918275084 0 0 0
3404 1 35.24325841916438 15.260778551568066 31.150933774126266 0 0 0
3142 1 34.50902386876511 24.162899373316105 22.844018101025924 0 0 0
2963 1 31.57208566716809 21.619436281388094 20.767289182750844 0 0 0
2984 1 26.43244381437328 0.0 31.150933774126266 0 0 0
2107 1 6.608110953593322 6.358657729820028 31.150933774126266 0 0 0
2543 1 22.76127106237699 6.358657729820028 20.767289182750844 0 0 0
2422 1 16.887394659182924 24.162899373316108 22.844018101025924 0 0 0
2501 1 17.62162920958219 5.086926183856023 24.92074701930101 0 0 0
1703 1 41.11713482235843 0.0 10.383644591375422 0 0 0
2170 1 9.545049155190354 11.445583913676051 26.99747593757609 0 0 0
1374 1 33.774789318365855 0.0 8.306915673100336 0 0 0
1360 1 27.90091291517179 10.173852367712044 16.613831346200673 0 0 0
1545 1 36.711727519962885 0.0 10.38364459137542 0 0 0
1640 1 40.38290027195918 13.989047005604062 8.306915673100336 0 0 0
977 1 27.166678364772537 16.532510097532075 2.076728918275084 0 0 0
716 1 11.747752806388124 20.347704735424088 14.537102427925587 0 0 0
3162 1 29.36938201597031 7.630389275784033 33.227662692401346 0 0 0
3521 1 43.31983847355621 3.815194637892017 29.07420485585118 0 0 0
930 1 24.229740163175503 13.98904700560406 6.230186754825253 0 0 0
1279 1 27.900912915171794 17.804241643496077 10.383644591375422 0 0 0
2778 1 27.166678364772537 19.075973189460083 20.767289182750844 0 0 0
68 1 6.60811095359332 3.815194637892017 0.0 0 0 0
2372 1 16.15316010878367 10.173852367712044 20.76728918275084 0 0 0
10 1 2.2027036511977736 3.815194637892017 0.0 0 0 0
2114 1 8.810814604791092 2.543463091928011 24.92074701930101 0 0 0
2749 1 22.76127106237699 19.07597318946009 26.99747593757609 0 0 0
1389 1 32.30632021756734 5.086926183856023 10.38364459137542 0 0 0
2777 1 27.166678364772537 16.53251009753207 20.76728918275084 0 0 0
593 1 15.418925558384412 16.53251009753207 6.230186754825252 0 0 0
1713 1 40.38290027195917 8.902120821748039 14.53710242792559 0 0 0
555 1 8.810814604791094 20.347704735424088 12.460373509650504 0 0 0
1705 1 43.3198384735562 1.2717315459640046 10.383644591375422 0 0 0
1627 1 35.24325841916437 22.891167827352103 12.460373509650502 0 0 0
1880 1 2.936938201597032 10.173852367712044 20.76728918275084 0 0 0
426 1 12.481987356787382 16.53251009753207 4.153457836550167 0 0 0
2429 1 19.82433286077996 21.619436281388094 18.69056026447576 0 0 0
2192 1 5.8738764031940605 20.347704735424088 29.07420485585118 0 0 0
914 1 18.35586375998145 24.162899373316105 14.53710242792559 0 0 0
1591 1 41.851369372757695 3.815194637892016 6.230186754825253 0 0 0
1038 1 27.900912915171794 0.0 4.153457836550167 0 0 0
2564 1 19.090098310380704 12.717315459640057 22.844018101025924 0 0 0
3355 1 35.97749296956363 8.902120821748039 33.227662692401346 0 0 0
5 1 2.2027036511977736 1.2717315459640055 0.0 0 0 0
3031 1 33.0405547679666 3.815194637892017 24.92074701930101 0 0 0
308 1 6.608110953593319 8.902120821748039 12.460373509650504 0 0 0
3215 1 34.50902386876511 8.902120821748039 29.07420485585118 0 0 0
1469 1 32.30632021756734 22.891167827352103 10.383644591375418 0 0 0
242 1 9.54504915519035 13.98904700560406 2.0767289182750845 0 0 0
3550 1 39.64866572155992 17.804241643496077 31.15093377412626 0 0 0
2384 1 11.747752806388124 22.8911678273521 26.99747593757609 0 0 0
3327 1 40.38290027195917 24.162899373316108 20.76728918275084 0 0 0
2082 1 2.9369382015970302 7.630389275784037 33.227662692401346 0 0 0
3392 1 41.11713482235844 0.0 22.844018101025927 0 0 0
2765 1 28.63514746557105 11.44558391367605 18.69056026447576 0 0 0
1098 1 30.103616566369567 6.358657729820028 4.153457836550169 0 0 0
1011 1 24.229740163175503 1.2717315459640055 12.460373509650504 0 0 0
3539 1 43.31983847355621 8.902120821748039 29.07420485585118 0 0 0
2371 1 14.684691007985151 10.173852367712044 22.844018101025924 0 0 0
2016 1 8.810814604791094 7.630389275784033 18.69056026447576 0 0 0
2327 1 11.013518255988863 16.53251009753207 31.15093377412626 0 0 0
2986 1 28.63514746557105 1.271731545964005 31.150933774126266 0 0 0
3056 1 30.837851116768825 7.630389275784033 24.92074701930101 0 0 0
1006 1 22.02703651197773 5.086926183856022 12.460373509650502 0 0 0
3283 1 37.44596207036214 16.53251009753207 24.92074701930101 0 0 0
1321 1 35.97749296956363 11.445583913676051 2.076728918275084 0 0 0
529 1 11.747752806388124 12.717315459640057 8.306915673100336 0 0 0
661 1 11.747752806388124 10.173852367712044 14.53710242792559 0 0 0
1529 1 41.85136937275769 21.619436281388094 0.0 0 0 0
2084 1 3.6711727519962913 8.902120821748039 35.304391610676426 0 0 0
841 1 20.55856741117921 2.5434630919280115 8.306915673100338 0 0 0
1897 1 3.671172751996288 19.075973189460083 22.844018101025924 0 0 0
910 1 16.88739465918293 24.162899373316108 16.613831346200676 0 0 0
1086 1 25.698209263974015 13.98904700560406 10.383644591375422 0 0 0
480 1 10.27928370558961 2.543463091928011 10.38364459137542 0 0 0
381 1 13.21622190718664 5.086926183856022 8.881784197001252e-16 0 0 0
3579 1 43.31983847355621 6.358657729820028 35.30439161067643 0 0 0
618 1 18.35586375998144 19.07597318946009 2.0767289182750828 0 0 0
906 1 27.166678364772537 1.2717315459640064 2.076728918275085 0 0 0
54 1 4.440892098500626e-16 10.173852367712044 6.230186754825253 0 0 0
3376 1 35.24325841916438 10.173852367712044 31.150933774126266 0 0 0
2216 1 7.342345503992576 22.8911678273521 26.99747593757609 0 0 0
1035 1 27.166678364772537 1.271731545964005 8.306915673100336 0 0 0
2886 1 25.698209263974025 13.98904700560406 29.07420485585118 0 0 0
38 1 0.7342345503992576 6.358657729820028 8.306915673100336 0 0 0
1322 1 35.97749296956363 13.989047005604064 2.076728918275085 0 0 0
724 1 14.684691007985156 15.260778551568068 10.38364459137542 0 0 0
268 1 11.013518255988869 19.075973189460083 0.0 0 0 0
2552 1 14.684691007985156 20.347704735424088 29.07420485585118 0 0 0
1810 1 2.2027036511977727 3.815194637892017 18.69056026447576 0 0 0
503 1 12.48198735678738 8.902120821748039 10.38364459137542 0 0 0
2211 1 13.9504564575859 11.44558391367605 20.767289182750844 0 0 0
490 1 8.076580054391835 13.98904700560406 16.613831346200673 0 0 0
1683 1 36.711727519962885 2.543463091928011 16.613831346200676 0 0 0
2895 1 28.635147465571052 11.445583913676051 24.92074701930101 0 0 0
225 1 3.6711727519962887 21.619436281388097 10.383644591375422 0 0 0
1257 1 32.30632021756734 7.630389275784033 4.153457836550167 0 0 0
2354 1 9.54504915519035 24.162899373316105 33.227662692401346 0 0 0
3053 1 30.837851116768825 10.173852367712044 24.92074701930101 0 0 0
2549 1 14.684691007985156 22.8911678273521 29.07420485585118 0 0 0
2092 1 6.608110953593322 3.815194637892017 31.15093377412626 0 0 0
2021 1 11.013518255988869 6.358657729820028 18.69056026447576 0 0 0
2508 1 21.29280196157848 3.815194637892017 22.844018101025927 0 0 0
1549 1 33.774789318365855 10.173852367712044 14.53710242792559 0 0 0
369 1 8.810814604791092 12.717315459640057 6.230186754825253 0 0 0
1970 1 1.4684691007985151 12.717315459640057 29.07420485585118 0 0 0
1907 1 2.936938201597032 22.8911678273521 20.767289182750844 0 0 0
1774 1 43.3198384735562 1.2717315459640055 16.613831346200673 0 0 0
1717 1 41.85136937275769 6.358657729820028 12.460373509650504 0 0 0
1485 1 38.1801966207614 12.71731545964006 2.076728918275084 0 0 0
2303 1 12.48198735678738 8.902120821748039 29.07420485585118 0 0 0
3102 1 28.63514746557105 24.162899373316108 31.150933774126266 0 0 0
2839 1 28.635147465571052 1.2717315459640055 24.92074701930101 0 0 0
1083 1 24.229740163175503 19.075973189460083 12.460373509650504 0 0 0
152 1 2.936938201597031 5.086926183856022 8.306915673100336 0 0 0
585 1 12.481987356787382 21.619436281388094 10.38364459137542 0 0 0
3143 1 33.774789318365855 22.8911678273521 20.767289182750844 0 0 0
2146 1 11.747752806388124 2.5434630919280106 20.767289182750844 0 0 0
119 1 6.60811095359332 21.619436281388094 0.0 0 0 0
2789 1 28.63514746557105 21.619436281388094 18.69056026447576 0 0 0
333 1 5.873876403194062 10.173852367712044 10.383644591375422 0 0 0
3038 1 25.698209263974015 19.07597318946009 35.30439161067643 0 0 0
2226 1 12.481987356787384 16.532510097532075 22.844018101025927 0 0 0
588 1 13.21622190718664 20.347704735424088 6.230186754825252 0 0 0
1819 1 0.7342345503992558 16.532510097532075 20.76728918275084 0 0 0
2532 1 17.62162920958219 10.173852367712044 24.92074701930101 0 0 0
2238 1 12.481987356787382 21.619436281388097 22.844018101025924 0 0 0
1328 1 32.30632021756734 22.8911678273521 4.153457836550167 0 0 0
1969 1 2.2027036511977727 16.53251009753207 31.150933774126266 0 0 0
1700 1 41.11713482235843 2.543463091928011 10.383644591375424 0 0 0
3150 1 37.44596207036214 24.162899373316108 18.69056026447576 0 0 0
450 1 15.418925558384412 24.162899373316108 -8.881784197001252e-16 0 0 0
387 1 5.139641852794802 24.162899373316108 14.53710242792559 0 0 0
3251 1 35.97749296956363 13.98904700560406 26.99747593757609 0 0 0
1018 1 20.55856741117921 12.717315459640057 14.537102427925587 0 0 0
2518 1 13.9504564575859 19.075973189460083 33.227662692401346 0 0 0
2678 1 16.88739465918293 19.075973189460083 35.30439161067643 0 0 0
1346 1 35.97749296956363 24.162899373316108 2.076728918275084 0 0 0
1030 1 24.96397471357476 5.086926183856022 8.306915673100335 0 0 0
2353 1 9.545049155190348 21.619436281388097 33.227662692401346 0 0 0
2572 1 22.02703651197773 7.630389275784033 18.69056026447576 0 0 0
1504 1 36.711727519962885 17.804241643496077 4.153457836550169 0 0 0
872 1 23.49550561277625 0.0 4.153457836550169 0 0 0
680 1 10.27928370558961 20.347704735424088 16.613831346200673 0 0 0
1411 1 33.0405547679666 11.44558391367605 12.460373509650504 0 0 0
506 1 13.950456457585895 3.815194637892017 8.306915673100336 0 0 0
1544 1 35.24325841916437 0.0 12.460373509650504 0 0 0
2847 1 22.76127106237699 13.989047005604062 33.227662692401346 0 0 0
421 1 10.279283705589608 20.347704735424088 4.153457836550168 0 0 0
2080 1 1.4684691007985151 10.173852367712044 35.30439161067643 0 0 0
488 1 5.873876403194062 15.260778551568066 16.613831346200673 0 0 0
1890 1 0.0 20.347704735424088 24.92074701930101 0 0 0
2139 1 9.545049155190354 6.358657729820028 26.99747593757609 0 0 0
2357 1 11.013518255988863 19.075973189460083 31.150933774126266 0 0 0
776 1 16.15316010878367 22.8911678273521 8.306915673100336 0 0 0
1122 1 28.63514746557105 13.98904700560406 6.230186754825253 0 0 0
919 1 19.0900983103807 17.804241643496077 10.383644591375422 0 0 0
3464 1 41.11713482235844 15.260778551568066 22.844018101025927 0 0 0
2612 1 14.684691007985151 0.0 35.30439161067643 0 0 0
2038 1 8.076580054391835 16.532510097532075 22.844018101025927 0 0 0
3147 1 35.24325841916437 20.347704735424088 18.69056026447576 0 0 0
850 1 16.88739465918293 13.98904700560406 16.613831346200673 0 0 0
2182 1 13.9504564575859 3.815194637892017 20.767289182750844 0 0 0
1002 1 20.55856741117921 7.630389275784034 14.537102427925587 0 0 0
1570 1 34.50902386876512 13.98904700560406 16.613831346200673 0 0 0
1533 1 33.774789318365855 0.0 14.537102427925587 0 0 0
100 1 5.139641852794804 13.98904700560406 2.076728918275084 0 0 0
2754 2 24.229740163175503 19.075973189460083 24.92074701930101 0 0 0
2921 2 27.900912915171794 15.260778551568066 22.844018101025924 0 0 0
2575 2 16.88739465918293 24.162899373316105 29.07420485585118 0 0 0
787 2 21.292801961578476 19.07597318946009 4.153457836550168 0 0 0
1294 2 34.50902386876511 11.445583913676051 4.153457836550169 0 0 0
163 2 0.0 17.80424164349608 12.460373509650504 0 0 0
2044 2 11.013518255988869 8.902120821748039 18.69056026447576 0 0 0
1115 2 25.698209263974015 21.619436281388097 10.38364459137542 0 0 0
232 2 5.873876403194062 17.804241643496077 4.153457836550168 0 0 0
2811 2 24.229740163175503 1.2717315459640055 31.150933774126266 0 0 0
516 2 5.873876403194063 20.347704735424088 16.613831346200676 0 0 0
3465 2 42.58560392315695 15.260778551568066 20.767289182750844 0 0 0
2093 2 5.8738764031940605 0.0 29.07420485585118 0 0 0
1450 2 35.97749296956363 11.44558391367605 8.306915673100338 0 0 0
215 2 7.342345503992577 7.630389275784033 2.076728918275084 0 0 0
1310 2 31.57208566716809 21.619436281388097 8.306915673100338 0 0 0
2998 2 28.63514746557105 3.815194637892017 31.150933774126266 0 0 0
1419 2 35.97749296956363 6.358657729820028 8.306915673100338 0 0 0
1757 2 43.3198384735562 16.532510097532075 10.38364459137542 0 0 0
1672 2 41.851369372757695 21.619436281388094 6.230186754825253 0 0 0
3407 2 37.44596207036214 16.53251009753207 31.150933774126266 0 0 0
2930 2 31.57208566716809 8.902120821748039 20.767289182750844 0 0 0
2212 2 13.21622190718664 7.630389275784034 18.69056026447576 0 0 0
65 2 5.139641852794804 6.358657729820028 2.076728918275084 0 0 0
2697 2 23.495505612776245 7.630389275784033 22.844018101025924 0 0 0
3446 2 41.11713482235844 10.173852367712044 22.844018101025924 0 0 0
13 2 0.734234550399258 11.44558391367605 2.076728918275084 0 0 0
1438 2 31.57208566716808 19.075973189460083 14.53710242792559 0 0 0
2903 2 31.57208566716809 6.358657729820028 20.76728918275084 0 0 0
1029 2 23.495505612776245 5.086926183856022 10.383644591375418 0 0 0
2937 2 26.43244381437328 22.8911678273521 24.92074701930101 0 0 0
158 2 6.60811095359332 1.2717315459640055 6.230186754825252 0 0 0
2460 2 12.481987356787384 13.98904700560406 35.30439161067643 0 0 0
3468 2 42.58560392315695 12.717315459640057 20.767289182750844 0 0 0
1537 2 33.774789318365855 5.086926183856022 14.53710242792559 0 0 0
2458 2 11.747752806388124 12.71731545964006 33.227662692401346 0 0 0
2663 2 21.29280196157848 8.902120821748039 29.07420485585118 0 0 0
297 2 1.4684691007985151 12.717315459640057 16.613831346200673 0 0 0
1769 2 43.3198384735562 24.162899373316105 10.383644591375422 0 0 0
1809 2 0.0 5.086926183856022 18.69056026447576 0 0 0
2043 2 8.810814604791092 10.173852367712044 18.69056026447576 0 0 0
3045 2 27.900912915171794 15.260778551568066 29.07420485585118 0 0 0
235 2 5.873876403194062 15.260778551568068 4.153457836550168 0 0 0
1961 2 7.342345503992577 0.0 20.76728918275084 0 0 0
1583 2 38.914431171160665 8.902120821748039 10.383644591375422 0 0 0
1426 2 38.1801966207614 2.543463091928011 2.076728918275084 0 0 0
2870 2 30.837851116768825 0.0 18.69056026447576 0 0 0
111 2 4.405407302395546 20.347704735424088 -4.440892098500626e-16 0 0 0
3271 2 33.0405547679666 24.162899373316108 31.150933774126266 0 0 0
542 2 16.887394659182927 3.815194637892017 4.153457836550168 0 0 0
2487 2 13.950456457585895 13.989047005604064 33.227662692401346 0 0 0
3349 2 33.77478931836586 10.173852367712044 33.227662692401346 0 0 0
690 2 14.684691007985156 12.717315459640057 10.38364459137542 0 0 0
274 2 2.9369382015970302 2.5434630919280106 14.53710242792559 0 0 0
351 2 13.950456457585895 1.271731545964006 2.0767289182750828 0 0 0
1971 2 2.9369382015970302 12.71731545964006 26.99747593757609 0 0 0
3085 2 31.57208566716808 13.98904700560406 26.99747593757609 0 0 0
3202 2 29.36938201597031 17.80424164349608 33.22766269240135 0 0 0
466 2 11.013518255988863 1.2717315459640055 12.460373509650504 0 0 0
322 2 2.9369382015970302 17.80424164349608 14.537102427925593 0 0 0
1318 2 34.50902386876511 16.532510097532075 4.153457836550169 0 0 0
3431 2 36.71172751996289 20.347704735424088 29.07420485585118 0 0 0
1546 2 37.44596207036215 1.2717315459640055 12.460373509650504 0 0 0
2869 2 29.36938201597031 0.0 20.76728918275084 0 0 0
3484 2 38.1801966207614 2.5434630919280115 33.227662692401346 0 0 0
3430 2 35.24325841916438 20.347704735424088 31.150933774126266 0 0 0
101 2 5.139641852794804 16.53251009753207 2.076728918275085 0 0 0
2451 2 15.418925558384414 1.2717315459640046 31.150933774126266 0 0 0
2967 2 31.57208566716809 24.162899373316105 20.767289182750844 0 0 0
1074 2 21.292801961578476 21.619436281388094 16.613831346200673 0 0 0
2514 2 12.481987356787382 21.619436281388097 35.30439161067643 0 0 0
2008 2 5.873876403194062 12.717315459640057 22.844018101025924 0 0 0
3073 2 27.166678364772533 21.619436281388097 33.227662692401346 0 0 0
1131 2 31.57208566716808 11.445583913676051 2.076728918275084 0 0 0
1212 2 24.963974713574764 12.717315459640057 14.53710242792559 0 0 0
3108 2 30.837851116768825 20.347704735424088 24.92074701930101 0 0 0
2168 2 7.342345503992577 12.717315459640057 26.99747593757609 0 0 0
1744 2 38.91443117116066 21.619436281388097 16.613831346200673 0 0 0
1635 2 38.18019662076141 17.80424164349608 8.306915673100335 0 0 0
3124 2 37.44596207036214 8.902120821748039 18.69056026447576 0 0 0
629 2 19.82433286077996 21.619436281388097 0.0 0 0 0
2325 2 10.279283705589606 15.26077855156807 29.07420485585118 0 0 0
3363 2 38.91443117116066 3.815194637892017 29.07420485585118 0 0 0
2435 2 12.481987356787382 1.2717315459640055 35.30439161067643 0 0 0
1680 2 42.58560392315695 22.8911678273521 2.076728918275084 0 0 0
777 2 17.621629209582185 22.8911678273521 6.23018675482525 0 0 0
1787 2 41.11713482235843 17.80424164349608 16.613831346200673 0 0 0
2825 2 22.02703651197773 7.630389275784033 31.15093377412626 0 0 0
1104 2 30.837851116768825 2.54346309192801 -1.7763568394002505e-15 0 0 0
603 2 17.62162920958219 10.173852367712044 0.0 0 0 0
2061 2 11.013518255988863 16.53251009753207 18.69056026447576 0 0 0
2605 2 24.229740163175503 16.53251009753207 18.69056026447576 0 0 0
934 2 25.69820926397402 11.44558391367605 4.153457836550169 0 0 0
3047 2 28.63514746557105 16.53251009753207 31.150933774126266 0 0 0
1417 2 33.774789318365855 7.630389275784033 8.306915673100336 0 0 0
922 2 21.29280196157848 19.075973189460083 10.383644591375422 0 0 0
3156 2 30.103616566369567 3.815194637892017 35.30439161067643 0 0 0
2489 2 13.21622190718664 12.717315459640057 31.150933774126266 0 0 0
1567 2 32.30632021756734 17.804241643496077 16.613831346200673 0 0 0
406 2 12.48198735678738 11.445583913676051 4.153457836550167 0 0 0
644 2 12.481987356787382 8.902120821748039 16.613831346200676 0 0 0
3082 2 30.103616566369567 19.075973189460083 29.07420485585118 0 0 0
1432 2 27.90091291517179 22.8911678273521 16.613831346200673 0 0 0
949 2 22.76127106237699 19.075973189460083 8.306915673100338 0 0 0
216 2 8.810814604791094 7.630389275784033 0.0 0 0 0
3501 2 41.851369372757695 1.2717315459640055 31.150933774126266 0 0 0
3048 2 27.900912915171794 12.717315459640057 29.07420485585118 0 0 0
783 2 19.82433286077996 21.619436281388097 6.230186754825253 0 0 0
223 2 1.468469100798516 22.891167827352103 10.383644591375422 0 0 0
1300 2 37.44596207036214 3.815194637892017 3.552713678800501e-15 0 0 0
1649 2 43.31983847355621 11.445583913676051 4.153457836550167 0 0 0
295 2 8.076580054391833 1.2717315459640055 10.38364459137542 0 0 0
2574 2 24.229740163175503 8.902120821748039 18.69056026447576 0 0 0
592 2 14.684691007985156 17.804241643496077 4.153457836550168 0 0 0
3310 2 40.38290027195917 13.98904700560406 20.76728918275084 0 0 0
648 2 13.950456457585895 6.358657729820028 14.53710242792559 0 0 0
1706 2 36.711727519962885 15.260778551568066 16.613831346200676 0 0 0
748 2 13.21622190718664 22.8911678273521 12.460373509650504 0 0 0
1662 2 41.851369372757695 16.53251009753207 6.230186754825255 0 0 0
2565 2 20.55856741117922 12.717315459640057 20.76728918275084 0 0 0
1806 2 0.0 7.630389275784033 18.69056026447576 0 0 0
3103 2 27.900912915171794 22.891167827352103 29.07420485585118 0 0 0
1702 2 41.85136937275769 3.815194637892017 12.460373509650504 0 0 0
2196 2 7.342345503992577 17.804241643496077 26.99747593757609 0 0 0
2240 2 11.747752806388124 20.347704735424088 20.767289182750844 0 0 0
3362 2 38.91443117116066 1.2717315459640055 29.07420485585118 0 0 0
3019 2 28.63514746557105 11.44558391367605 31.150933774126266 0 0 0
3351 2 34.50902386876511 11.44558391367605 35.30439161067643 0 0 0
481 2 11.747752806388124 2.543463091928011 8.306915673100336 0 0 0
998 2 22.02703651197773 0.0 12.460373509650504 0 0 0
1433 2 29.369382015970302 22.8911678273521 14.537102427925586 0 0 0
2888 2 24.963974713574764 12.717315459640057 26.99747593757609 0 0 0
3036 2 23.49550561277625 20.347704735424088 35.30439161067643 0 0 0
507 2 13.950456457585895 6.358657729820028 8.306915673100336 0 0 0
829 2 16.15316010878367 10.173852367712044 14.53710242792559 0 0 0
1248 2 27.900912915171794 12.717315459640057 10.38364459137542 0 0 0
153 2 4.405407302395547 5.086926183856022 6.230186754825253 0 0 0
635 2 12.481987356787382 1.271731545964006 16.613831346200676 0 0 0
2221 2 10.279283705589606 20.34770473542409 22.844018101025927 0 0 0
397 2 8.810814604791092 17.804241643496077 6.230186754825253 0 0 0
2584 2 19.090098310380704 17.804241643496077 22.844018101025924 0 0 0
1694 2 38.91443117116066 8.902120821748039 16.613831346200673 0 0 0
534 2 13.950456457585895 8.902120821748039 8.306915673100336 0 0 0
2751 2 22.02703651197773 17.804241643496077 24.920747019301007 0 0 0
3390 2 41.85136937275769 1.2717315459640055 24.920747019301007 0 0 0
2643 2 21.29280196157848 3.815194637892017 29.07420485585118 0 0 0
720 2 13.21622190718664 17.804241643496077 12.460373509650504 0 0 0
2954 2 33.0405547679666 13.98904700560406 18.69056026447576 0 0 0
538 2 15.418925558384412 6.358657729820028 6.230186754825252 0 0 0
3050 2 30.103616566369567 11.44558391367605 29.07420485585118 0 0 0
374 2 11.013518255988863 8.902120821748039 6.230186754825252 0 0 0
2929 2 30.837851116768825 10.173852367712044 18.69056026447576 0 0 0
897 2 23.495505612776245 7.630389275784033 4.153457836550169 0 0 0
3352 2 33.77478931836586 7.630389275784034 33.227662692401346 0 0 0
3297 2 35.24325841916437 22.8911678273521 24.92074701930101 0 0 0
2772 2 24.96397471357476 20.347704735424088 20.76728918275084 0 0 0
462 2 9.545049155190348 1.271731545964006 14.53710242792559 0 0 0
2959 2 30.10361656636957 24.162899373316105 22.844018101025924 0 0 0
189 2 9.54504915519035 3.815194637892017 2.076728918275084 0 0 0
739 2 21.292801961578476 8.902120821748039 4.15345783655017 0 0 0
1825 2 0.7342345503992576 21.619436281388094 20.76728918275084 0 0 0
1336 2 35.24325841916437 17.804241643496077 0.0 0 0 0
221 2 11.013518255988869 6.358657729820028 0.0 0 0 0
1950 2 3.671172751996288 6.358657729820028 29.07420485585118 0 0 0
3171 2 33.0405547679666 1.271731545964006 31.150933774126266 0 0 0
1539 2 34.50902386876512 6.358657729820028 16.613831346200673 0 0 0
1983 2 7.342345503992577 5.086926183856022 20.76728918275084 0 0 0
2374 2 16.887394659182924 11.44558391367605 22.844018101025924 0 0 0
1238 2 25.69820926397402 19.075973189460083 16.613831346200673 0 0 0
933 2 25.69820926397402 8.902120821748039 4.153457836550169 0 0 0
1428 2 38.91443117116066 3.815194637892016 4.153457836550169 0 0 0
3436 2 38.91443117116066 16.53251009753207 29.07420485585117 0 0 0
20 2 0.7342345503992571 19.075973189460083 2.0767289182750845 0 0 0
2893 2 27.900912915171794 10.173852367712044 22.844018101025924 0 0 0
190 2 8.810814604791094 0.0 0.0 0 0 0
1247 2 28.63514746557105 16.53251009753207 12.460373509650504 0 0 0
239 2 7.342345503992577 12.717315459640057 2.076728918275084 0 0 0
1404 2 30.103616566369567 19.075973189460083 16.613831346200676 0 0 0
3092 2 33.774789318365855 10.173852367712044 20.767289182750844 0 0 0
3167 2 31.57208566716808 3.815194637892017 33.227662692401346 0 0 0
2497 2 16.153160108783673 7.630389275784033 26.99747593757609 0 0 0
2072 2 1.4684691007985151 5.086926183856026 35.30439161067643 0 0 0
361 2 5.873876403194062 17.804241643496077 10.383644591375422 0 0 0
3252 2 35.24325841916437 10.173852367712044 24.92074701930101 0 0 0
678 2 19.0900983103807 0.0 4.153457836550167 0 0 0
2315 2 5.8738764031940605 22.891167827352103 35.30439161067643 0 0 0
2335 2 13.950456457585895 11.44558391367605 26.99747593757609 0 0 0
1646 2 41.11713482235844 10.173852367712046 4.153457836550167 0 0 0
2835 2 27.16667836477254 1.271731545964006 26.99747593757609 0 0 0
99 2 4.405407302395546 15.260778551568066 4.440892098500626e-16 0 0 0
2355 2 8.81081460479109 20.347704735424088 31.15093377412626 0 0 0
3510 2 38.914431171160665 13.98904700560406 35.30439161067643 0 0 0
3221 2 35.24325841916437 5.086926183856022 24.92074701930101 0 0 0
861 2 20.55856741117921 7.630389275784033 8.306915673100338 0 0 0
671 2 16.887394659182927 3.815194637892017 10.383644591375422 0 0 0
2393 2 15.41892555838441 16.532510097532075 24.92074701930101 0 0 0
1 2 0.0 2.543463091928011 0.0 0 0 0
3293 2 41.85136937275769 6.358657729820028 18.69056026447576 0 0 0
3178 2 29.36938201597031 12.717315459640057 33.227662692401346 0 0 0
28 2 2.202703651197774 19.075973189460083 -6.661338147750939e-16 0 0 0
1911 2 4.405407302395545 20.34770473542409 18.69056026447576 0 0 0
3074 2 27.166678364772537 24.162899373316105 33.227662692401346 0 0 0
3504 2 42.58560392315695 0.0 26.99747593757609 0 0 0
2258 2 8.076580054391833 3.8151946378920174 35.30439161067643 0 0 0
407 2 12.48198735678738 13.98904700560406 4.153457836550168 0 0 0
2651 2 16.88739465918293 16.53251009753207 35.30439161067643 0 0 0
1561 2 38.1801966207614 2.543463091928011 8.306915673100336 0 0 0
149 2 2.936938201597031 7.630389275784033 8.306915673100336 0 0 0
641 2 10.27928370558961 7.630389275784034 16.613831346200673 0 0 0
944 2 20.55856741117921 22.8911678273521 8.306915673100335 0 0 0
1869 2 1.7763568394002505e-15 17.804241643496077 24.92074701930101 0 0 0
412 2 13.21622190718664 7.630389275784034 0.0 0 0 0
1325 2 37.44596207036214 11.445583913676051 0.0 0 0 0
3545 2 38.914431171160665 24.162899373316108 35.30439161067643 0 0 0
1605 2 36.711727519962885 15.260778551568068 10.383644591375418 0 0 0
3594 2 41.11713482235843 20.347704735424088 35.30439161067643 0 0 0
2213 2 15.418925558384416 6.358657729820028 18.69056026447576 0 0 0
3279 2 35.97749296956363 19.075973189460083 26.99747593757609 0 0 0
3514 2 40.38290027195918 11.445583913676051 33.227662692401346 0 0 0
1043 2 21.292801961578476 16.53251009753207 16.613831346200673 0 0 0
2752 2 23.495505612776245 17.804241643496077 22.844018101025924 0 0 0
3062 2 34.50902386876511 3.815194637892017 22.844018101025924 0 0 0
468 2 5.873876403194062 10.173852367712044 16.613831346200673 0 0 0
3544 2 38.914431171160665 21.619436281388097 35.30439161067643 0 0 0
900 2 23.49550561277625 5.086926183856023 4.153457836550169 0 0 0
1467 2 31.57208566716808 24.162899373316108 14.53710242792559 0 0 0
674 2 17.621629209582185 2.5434630919280115 6.230186754825252 0 0 0
1241 2 26.43244381437328 17.804241643496077 12.460373509650504 0 0 0
2417 2 18.35586375998144 16.53251009753207 20.76728918275084 0 0 0
92 2 2.2027036511977736 19.075973189460083 6.230186754825252 0 0 0
1710 2 38.91443117116066 13.98904700560406 16.613831346200673 0 0 0
2670 2 24.229740163175503 1.271731545964006 24.92074701930101 0 0 0
22 2 2.202703651197773 13.98904700560406 -6.661338147750939e-16 0 0 0
2560 2 17.62162920958219 15.260778551568066 24.92074701930101 0 0 0
2515 2 12.481987356787384 24.162899373316105 35.30439161067643 0 0 0
3254 2 37.44596207036214 8.902120821748039 24.92074701930101 0 0 0
2408 2 14.684691007985151 22.891167827352103 22.844018101025924 0 0 0
994 2 20.55856741117921 2.543463091928011 14.537102427925587 0 0 0
1989 2 9.54504915519035 3.815194637892017 20.767289182750844 0 0 0
1431 2 40.38290027195917 1.2717315459640055 2.076728918275084 0 0 0
3347 2 32.30632021756735 12.717315459640057 35.30439161067643 0 0 0
523 2 9.545049155190348 19.075973189460083 14.53710242792559 0 0 0
1737 2 41.11713482235843 10.173852367712044 10.383644591375424 0 0 0
2838 2 27.900912915171794 0.0 22.844018101025924 0 0 0
2994 2 27.166678364772537 6.358657729820028 33.227662692401346 0 0 0
1304 2 29.369382015970317 22.891167827352103 8.306915673100335 0 0 0
682 2 11.747752806388124 17.804241643496077 14.53710242792559 0 0 0
2628 2 14.684691007985151 10.173852367712046 35.30439161067643 0 0 0
1571 2 34.50902386876511 16.53251009753207 16.613831346200673 0 0 0
1306 2 30.10361656636957 24.162899373316108 10.383644591375422 0 0 0
1079 2 22.761271062376988 21.619436281388094 14.53710242792559 0 0 0
2142 2 10.279283705589608 5.086926183856022 22.844018101025924 0 0 0
1865 2 5.139641852794803 6.358657729820028 20.76728918275084 0 0 0
1289 2 33.0405547679666 11.44558391367605 6.230186754825255 0 0 0
2621 2 17.62162920958218 2.543463091928011 31.15093377412626 0 0 0
1239 2 25.69820926397402 21.619436281388094 16.613831346200676 0 0 0
1211 2 25.69820926397402 16.53251009753207 16.613831346200676 0 0 0
46 2 3.6711727519962887 1.2717315459640055 4.153457836550168 0 0 0
1620 2 41.11713482235844 5.086926183856021 4.153457836550167 0 0 0
2482 2 11.747752806388126 17.804241643496077 33.227662692401346 0 0 0
2682 2 18.35586375998144 16.532510097532075 33.227662692401346 0 0 0
3015 2 27.166678364772537 13.98904700560406 33.227662692401346 0 0 0
3101 2 37.44596207036214 6.358657729820028 18.69056026447576 0 0 0
2252 2 5.8738764031940605 0.0 35.304391610676426 0 0 0
2684 2 17.62162920958218 15.260778551568068 31.150933774126266 0 0 0
1461 2 39.64866572155992 5.086926183856024 0.0 0 0 0
2077 2 2.9369382015970302 0.0 33.227662692401346 0 0 0
3269 2 32.30632021756734 22.8911678273521 29.074204855851185 0 0 0
522 2 9.54504915519035 16.53251009753207 14.53710242792559 0 0 0
1882 2 5.139641852794803 8.902120821748039 20.76728918275084 0 0 0
290 2 5.873876403194061 2.5434630919280115 10.383644591375422 0 0 0
2596 2 19.090098310380704 22.891167827352103 22.844018101025924 0 0 0
151 2 3.6711727519962887 8.902120821748039 10.383644591375422 0 0 0
652 2 15.418925558384412 3.815194637892017 12.460373509650504 0 0 0
459 2 8.076580054391833 6.358657729820028 16.613831346200673 0 0 0
3261 2 39.64866572155992 5.086926183856022 18.69056026447576 0 0 0
1136 2 24.96397471357476 22.891167827352103 8.306915673100335 0 0 0
3572 2 41.11713482235843 0.0 35.30439161067643 0 0 0
1924 2 0.0 0.0 31.15093377412626 0 0 0
3035 2 23.49550561277625 22.8911678273521 35.30439161067643 0 0 0
869 2 23.49550561277625 2.5434630919280106 4.153457836550169 0 0 0
1623 2 43.31983847355621 6.358657729820028 4.153457836550167 0 0 0
227 2 2.936938201597031 20.347704735424088 8.306915673100335 0 0 0
1084 2 23.495505612776245 15.260778551568066 10.383644591375418 0 0 0
1745 2 38.91443117116066 24.162899373316108 16.613831346200673 0 0 0
2037 2 8.076580054391835 13.989047005604062 22.844018101025927 0 0 0
976 2 26.43244381437328 17.80424164349608 0.0 0 0 0
2108 2 6.608110953593322 8.90212082174804 31.150933774126266 0 0 0
1486 2 38.91443117116066 11.445583913676051 4.153457836550167 0 0 0
970 2 24.22974016317551 24.162899373316108 6.230186754825253 0 0 0
3309 2 39.64866572155992 15.260778551568066 18.69056026447576 0 0 0
98 2 2.936938201597031 15.260778551568068 2.076728918275084 0 0 0
2506 2 20.55856741117922 2.5434630919280115 20.76728918275084 0 0 0
2696 2 22.02703651197773 7.630389275784034 24.92074701930101 0 0 0
2185 2 15.418925558384416 1.271731545964006 18.69056026447576 0 0 0
818 2 16.88739465918293 3.815194637892017 16.613831346200673 0 0 0
1390 2 33.774789318365855 5.086926183856022 8.306915673100336 0 0 0
1221 2 29.36938201597031 7.630389275784033 8.306915673100336 0 0 0
1611 2 38.914431171160665 13.989047005604062 10.38364459137542 0 0 0
2999 2 28.63514746557105 6.358657729820028 31.150933774126266 0 0 0
654 2 16.15316010878367 0.0 8.306915673100336 0 0 0
1075 2 21.292801961578476 24.162899373316105 16.613831346200673 0 0 0
460 2 7.342345503992577 2.543463091928011 14.53710242792559 0 0 0
2179 2 12.481987356787384 8.902120821748039 22.844018101025924 0 0 0
2776 2 26.43244381437328 17.804241643496077 18.69056026447576 0 0 0
725 2 16.15316010878367 15.260778551568066 8.306915673100336 0 0 0
912 2 17.621629209582185 22.8911678273521 12.460373509650504 0 0 0
2385 2 12.48198735678738 21.619436281388094 29.07420485585118 0 0 0
2246 2 15.418925558384416 19.075973189460083 18.69056026447576 0 0 0
804 2 22.02703651197773 17.804241643496077 -1.7763568394002505e-15 0 0 0
705 2 19.090098310380704 2.543463091928011 4.153457836550167 0 0 0
3321 2 39.64866572155992 20.347704735424088 18.69056026447576 0 0 0
3307 2 38.91443117116066 19.075973189460083 22.844018101025924 0 0 0
3164 2 30.103616566369567 8.902120821748039 35.30439161067643 0 0 0
258 2 9.54504915519035 19.075973189460083 2.0767289182750845 0 0 0
304 2 5.139641852794803 11.44558391367605 14.53710242792559 0 0 0
1588 2 39.64866572155992 2.54346309192801 6.230186754825251 0 0 0
2477 2 17.62162920958219 0.0 24.92074701930101 0 0 0
623 2 16.15316010878367 22.891167827352103 2.076728918275084 0 0 0
2284 2 11.747752806388124 0.0 26.99747593757609 0 0 0
1847 2 3.671172751996286 3.815194637892017 22.844018101025924 0 0 0
558 2 11.013518255988863 21.619436281388094 12.460373509650504 0 0 0
1207 2 23.49550561277625 17.804241643496077 16.613831346200673 0 0 0
375 2 11.013518255988863 11.44558391367605 6.230186754825252 0 0 0
1406 2 30.83785111676882 15.260778551568066 12.460373509650504 0 0 0
1511 2 40.38290027195917 16.53251009753207 2.076728918275084 0 0 0
2492 2 15.418925558384414 13.989047005604062 31.150933774126266 0 0 0
708 2 21.29280196157848 3.815194637892017 4.153457836550169 0 0 0
3135 2 33.774789318365855 17.804241643496077 20.767289182750844 0 0 0
6 2 0.0 7.630389275784034 0.0 0 0 0
2344 2 16.153160108783666 2.543463091928011 20.76728918275084 0 0 0
2231 2 13.9504564575859 16.53251009753207 20.76728918275084 0 0 0
344 2 11.013518255988863 6.358657729820028 6.230186754825251 0 0 0
2024 2 2.9369382015970302 22.891167827352103 26.99747593757609 0 0 0
78 2 3.6711727519962887 11.44558391367605 4.153457836550168 0 0 0
1155 2 28.63514746557105 24.162899373316105 6.230186754825253 0 0 0
898 2 24.229740163175503 6.358657729820028 6.230186754825253 0 0 0
2907 2 22.761271062376995 24.162899373316105 33.227662692401346 0 0 0
317 2 8.810814604791092 0.0 6.230186754825253 0 0 0
2623 2 18.35586375998144 3.815194637892017 33.227662692401346 0 0 0
2818 2 20.55856741117922 12.717315459640057 33.227662692401346 0 0 0
2873 2 20.55856741117922 22.8911678273521 33.227662692401346 0 0 0
1837 2 0.0 7.630389275784035 24.92074701930101 0 0 0
2062 2 8.076580054391837 24.162899373316105 22.844018101025924 0 0 0
536 2 13.21622190718664 7.630389275784033 6.230186754825253 0 0 0
527 2 11.013518255988863 16.53251009753207 12.460373509650504 0 0 0
2121 2 1.4684691007985151 17.804241643496077 35.30439161067643 0 0 0
1634 2 36.711727519962885 17.804241643496077 10.383644591375418 0 0 0
3185 2 30.837851116768825 7.630389275784034 31.150933774126266 0 0 0
1382 2 30.83785111676882 10.173852367712044 12.460373509650504 0 0 0
3566 2 43.31983847355621 19.075973189460083 29.07420485585118 0 0 0
3330 2 41.85136937275769 24.162899373316108 18.69056026447576 0 0 0
1196 2 26.43244381437328 5.086926183856022 12.460373509650504 0 0 0
2806 2 22.02703651197773 5.086926183856022 31.15093377412626 0 0 0
1934 2 1.4684691007985151 2.543463091928011 29.07420485585118 0 0 0
204 2 4.405407302395547 15.260778551568066 6.230186754825252 0 0 0
1408 2 31.57208566716808 16.53251009753207 14.53710242792559 0 0 0
1953 2 4.405407302395547 5.086926183856022 24.92074701930101 0 0 0
1424 2 37.44596207036214 6.358657729820028 6.230186754825255 0 0 0
87 2 0.0 22.8911678273521 6.230186754825255 0 0 0
905 2 26.43244381437328 2.543463091928011 1.7763568394002505e-15 0 0 0
1422 2 36.711727519962885 5.086926183856022 4.153457836550167 0 0 0
799 2 21.29280196157848 24.162899373316108 4.153457836550169 0 0 0
315 2 9.54504915519035 1.2717315459640055 8.306915673100336 0 0 0
1864 2 5.139641852794803 3.815194637892017 20.76728918275084 0 0 0
2210 2 13.9504564575859 8.902120821748039 20.76728918275084 0 0 0
70 2 0.7342345503992584 16.53251009753207 8.306915673100336 0 0 0
1427 2 38.91443117116066 1.2717315459640055 4.153457836550171 0 0 0
958 2 25.69820926397402 16.532510097532075 4.153457836550167 0 0 0
782 2 19.82433286077996 19.075973189460083 6.230186754825254 0 0 0
150 2 3.6711727519962887 6.358657729820028 10.38364459137542 0 0 0
3234 2 30.103616566369563 21.619436281388097 35.30439161067643 0 0 0
1871 2 0.7342345503992558 19.075973189460083 26.99747593757609 0 0 0
348 2 12.48198735678738 3.815194637892017 4.153457836550167 0 0 0
2642 2 21.29280196157848 1.2717315459640055 29.07420485585118 0 0 0
1177 2 24.963974713574764 5.086926183856022 14.53710242792559 0 0 0
1350 2 37.44596207036214 24.162899373316105 3.552713678800501e-15 0 0 0
1185 2 27.900912915171794 0.0 10.38364459137542 0 0 0
3563 2 41.851369372757695 24.162899373316105 31.150933774126266 0 0 0
2164 2 5.873876403194062 15.260778551568066 29.07420485585118 0 0 0
1577 2 36.711727519962885 10.173852367712044 10.38364459137542 0 0 0
126 3 2.2027036511977727 1.271731545964005 12.460373509650504 0 0 0
3425 3 34.50902386876511 24.162899373316108 35.30439161067643 0 0 0
1692 3 38.1801966207614 7.630389275784033 14.537102427925593 0 0 0
2057 3 9.54504915519035 16.532510097532075 20.767289182750844 0 0 0
276 3 3.671172751996288 3.815194637892017 16.613831346200673 0 0 0
1836 3 2.202703651197771 1.2717315459640055 24.920747019301007 0 0 0
962 3 27.166678364772537 13.989047005604062 2.076728918275084 0 0 0
993 3 19.0900983103807 2.543463091928011 16.613831346200673 0 0 0
3342 3 35.97749296956363 1.271731545964006 33.227662692401346 0 0 0
741 3 22.02703651197773 5.086926183856022 0.0 0 0 0
2183 3 13.9504564575859 6.358657729820028 20.767289182750844 0 0 0
2456 3 10.279283705589611 15.260778551568066 35.30439161067643 0 0 0
895 3 22.76127106237699 11.44558391367605 8.306915673100338 0 0 0
1876 3 1.468469100798517 12.717315459640057 22.844018101025924 0 0 0
3106 3 30.103616566369567 24.162899373316108 29.07420485585118 0 0 0
1734 3 41.11713482235843 12.717315459640057 10.383644591375422 0 0 0
2235 3 11.01351825598887 24.162899373316105 24.92074701930101 0 0 0
1398 3 36.711727519962885 0.0 4.153457836550169 0 0 0
3294 3 41.85136937275769 8.902120821748039 18.69056026447576 0 0 0
1975 3 4.405407302395547 10.173852367712046 24.92074701930101 0 0 0
856 3 17.621629209582185 10.173852367712044 12.460373509650504 0 0 0
3165 3 29.36938201597031 5.086926183856023 33.227662692401346 0 0 0
1527 3 40.38290027195917 24.162899373316105 2.076728918275087 0 0 0
2369 3 15.418925558384412 11.44558391367605 24.92074701930101 0 0 0
2104 3 5.139641852794807 11.44558391367605 33.227662692401346 0 0 0
1686 3 38.91443117116066 3.815194637892017 16.613831346200673 0 0 0
755 3 16.887394659182927 21.619436281388094 10.383644591375422 0 0 0
1355 3 30.103616566369567 1.2717315459640055 16.613831346200673 0 0 0
438 3 12.481987356787382 21.619436281388094 4.153457836550167 0 0 0
1184 3 26.43244381437328 0.0 12.460373509650504 0 0 0
1439 3 31.57208566716808 21.619436281388097 14.53710242792559 0 0 0
1253 3 30.837851116768825 10.173852367712044 6.230186754825253 0 0 0
1479 3 35.97749296956363 19.07597318946009 8.306915673100336 0 0 0
3080 3 29.36938201597031 17.804241643496077 26.99747593757609 0 0 0
289 3 4.405407302395545 2.543463091928011 12.460373509650504 0 0 0
1476 3 33.774789318365855 17.804241643496077 8.306915673100335 0 0 0
310 3 7.342345503992577 5.086926183856022 8.306915673100338 0 0 0
2521 3 14.684691007985156 17.80424164349608 29.07420485585118 0 0 0
2292 3 7.342345503992576 12.717315459640057 33.227662692401346 0 0 0
1487 3 38.91443117116066 13.989047005604064 4.153457836550169 0 0 0
1698 3 40.38290027195917 6.358657729820028 14.53710242792559 0 0 0
570 3 15.41892555838441 13.98904700560406 6.230186754825253 0 0 0
2571 3 22.76127106237699 11.445583913676051 20.767289182750844 0 0 0
224 3 2.936938201597031 22.8911678273521 8.306915673100338 0 0 0
1875 3 2.2027036511977727 16.53251009753207 24.920747019301007 0 0 0
1612 3 38.1801966207614 10.173852367712044 8.306915673100336 0 0 0
436 3 10.279283705589608 22.8911678273521 4.153457836550169 0 0 0
3558 3 42.58560392315695 12.717315459640057 26.99747593757609 0 0 0
1187 3 23.49550561277625 12.717315459640057 16.613831346200673 0 0 0
1451 3 35.97749296956363 13.989047005604062 8.306915673100336 0 0 0
433 3 15.418925558384412 11.44558391367605 -8.881784197001252e-16 0 0 0
19 3 0.734234550399258 16.53251009753207 2.0767289182750828 0 0 0
2095 3 8.076580054391837 1.2717315459640055 29.07420485585118 0 0 0
2398 3 16.887394659182924 16.53251009753207 22.844018101025924 0 0 0
3210 3 32.30632021756734 12.717315459640057 29.07420485585118 0 0 0
3242 3 33.0405547679666 16.53251009753207 31.150933774126266 0 0 0
269 3 11.013518255988869 21.619436281388097 -8.881784197001252e-16 0 0 0
3490 3 36.711727519962885 10.173852367712044 35.304391610676426 0 0 0
2020 3 11.013518255988863 3.815194637892017 18.69056026447576 0 0 0
3140 3 37.44596207036214 13.98904700560406 18.69056026447576 0 0 0
2709 3 28.63514746557105 1.2717315459640055 18.69056026447576 0 0 0
2679 3 16.887394659182927 21.619436281388094 35.30439161067643 0 0 0
2542 3 22.76127106237699 3.815194637892017 20.767289182750844 0 0 0
1729 3 38.1801966207614 15.260778551568066 14.537102427925593 0 0 0
3228 3 38.91443117116066 3.815194637892017 22.844018101025924 0 0 0
3515 3 39.64866572155992 7.630389275784033 31.15093377412626 0 0 0
2620 3 16.153160108783666 2.54346309192801 33.227662692401346 0 0 0
1189 3 24.963974713574764 10.173852367712044 14.53710242792559 0 0 0
3086 3 31.57208566716808 16.53251009753207 26.99747593757609 0 0 0
2599 3 21.29280196157848 24.162899373316108 22.844018101025927 0 0 0
1182 3 27.166678364772537 1.2717315459640055 14.53710242792559 0 0 0
2155 3 3.6711727519962913 24.162899373316105 35.30439161067643 0 0 0
848 3 14.684691007985156 15.260778551568066 16.613831346200673 0 0 0
989 3 28.63514746557105 21.619436281388094 0.0 0 0 0
2206 3 12.481987356787386 11.44558391367605 22.844018101025924 0 0 0
797 3 20.55856741117922 22.891167827352103 2.076728918275082 0 0 0
1687 3 38.1801966207614 0.0 14.537102427925593 0 0 0
2001 3 3.6711727519962896 16.53251009753207 29.07420485585118 0 0 0
1324 3 37.44596207036214 8.90212082174804 0.0 0 0 0
587 3 11.747752806388124 20.347704735424088 8.306915673100336 0 0 0
1085 3 24.96397471357476 15.260778551568066 8.306915673100335 0 0 0
197 3 2.2027036511977736 19.07597318946009 12.460373509650504 0 0 0
1365 3 29.369382015970302 5.086926183856022 14.53710242792559 0 0 0
3224 3 37.44596207036214 6.358657729820028 24.920747019301007 0 0 0
338 3 8.810814604791092 7.630389275784034 6.230186754825253 0 0 0
442 3 13.950456457585895 19.075973189460083 2.076728918275084 0 0 0
3290 3 40.38290027195917 8.902120821748039 20.76728918275084 0 0 0
1262 3 34.50902386876511 3.815194637892017 4.153457836550171 0 0 0
345 3 10.279283705589608 2.543463091928011 4.153457836550169 0 0 0
2133 3 5.8738764031940605 10.173852367712046 29.07420485585118 0 0 0
1940 3 5.139641852794803 1.2717315459640055 26.99747593757609 0 0 0
531 3 12.48198735678738 13.98904700560406 10.383644591375422 0 0 0
403 3 11.013518255988863 16.53251009753207 6.230186754825253 0 0 0
445 3 15.418925558384412 16.53251009753207 0.0 0 0 0
1579 3 37.44596207036215 11.44558391367605 12.460373509650504 0 0 0
1753 3 41.85136937275769 19.07597318946009 12.460373509650504 0 0 0
495 3 9.545049155190348 13.98904700560406 14.53710242792559 0 0 0
2975 3 23.49550561277625 7.630389275784033 35.30439161067643 0 0 0
859 3 19.82433286077996 11.44558391367605 12.460373509650504 0 0 0
2570 3 22.76127106237699 8.902120821748039 20.767289182750844 0 0 0
3084 3 30.837851116768825 15.260778551568066 24.92074701930101 0 0 0
3585 3 43.31983847355621 11.445583913676051 35.30439161067643 0 0 0
2260 3 7.342345503992576 2.543463091928011 33.227662692401346 0 0 0
1915 3 6.608110953593318 16.532510097532075 18.69056026447576 0 0 0
3591 3 43.31983847355621 16.53251009753207 35.30439161067643 0 0 0
1335 3 33.774789318365855 17.804241643496077 2.076728918275085 0 0 0
1929 3 0.7342345503992576 8.902120821748039 33.227662692401346 0 0 0
2828 3 24.229740163175503 8.902120821748039 31.150933774126266 0 0 0
425 3 11.747752806388124 17.804241643496077 2.0767289182750845 0 0 0
2594 3 24.229740163175503 13.98904700560406 18.69056026447576 0 0 0
3199 3 37.44596207036214 1.2717315459640055 24.920747019301007 0 0 0
449 3 15.418925558384412 21.619436281388097 -1.7763568394002505e-15 0 0 0
1405 3 29.369382015970302 15.260778551568066 14.53710242792559 0 0 0
2760 3 26.43244381437328 12.717315459640057 18.69056026447576 0 0 0
1822 3 2.2027036511977727 13.989047005604062 18.69056026447576 0 0 0
1862 3 2.9369382015970302 5.086926183856022 20.767289182750844 0 0 0
2757 3 25.69820926397402 13.98904700560406 22.844018101025924 0 0 0
2639 3 19.82433286077996 6.358657729820028 31.150933774126266 0 0 0
3453 3 38.18019662076141 22.8911678273521 26.99747593757609 0 0 0
2686 3 19.82433286077996 13.989047005604062 31.150933774126266 0 0 0
89 3 0.7342345503992576 24.162899373316108 8.306915673100338 0 0 0
1267 3 35.97749296956363 3.815194637892016 2.076728918275085 0 0 0
973 3 25.69820926397402 19.07597318946009 4.153457836550169 0 0 0
2861 3 26.43244381437328 5.086926183856022 24.920747019301007 0 0 0
1041 3 19.0900983103807 17.804241643496077 16.61383134620067 0 0 0
1726 3 38.1801966207614 17.80424164349608 14.53710242792559 0 0 0
1592 3 41.11713482235844 0.0 4.153457836550167 0 0 0
1299 3 35.24325841916438 5.086926183856021 0.0 0 0 0
785 3 20.55856741117922 17.80424164349608 2.076728918275082 0 0 0
1543 3 35.977492969563635 3.815194637892017 14.53710242792559 0 0 0
3149 3 37.44596207036214 21.619436281388097 18.69056026447576 0 0 0
525 3 10.27928370558961 15.260778551568066 10.38364459137542 0 0 0
2276 3 8.81081460479109 5.086926183856021 31.15093377412626 0 0 0
2364 3 13.216221907186638 15.260778551568068 24.92074701930101 0 0 0
2120 3 1.4684691007985151 20.34770473542409 35.30439161067643 0 0 0
246 3 5.139641852794805 24.162899373316108 8.306915673100338 0 0 0
1685 3 38.91443117116066 1.271731545964005 16.613831346200673 0 0 0
2593 3 24.229740163175503 11.44558391367605 18.69056026447576 0 0 0
521 3 8.810814604791094 17.804241643496077 12.460373509650504 0 0 0
2378 3 18.35586375998144 8.902120821748039 20.767289182750844 0 0 0
1401 3 27.90091291517179 17.804241643496077 16.613831346200673 0 0 0
3528 3 38.914431171160665 19.075973189460083 35.30439161067643 0 0 0
2918 3 27.16667836477254 16.53251009753207 26.99747593757609 0 0 0
2724 3 22.02703651197773 15.260778551568066 24.920747019301007 0 0 0
1144 3 27.900912915171794 17.804241643496077 4.1534578365501655 0 0 0
2744 3 20.55856741117921 22.891167827352103 26.99747593757609 0 0 0
2858 3 26.43244381437328 7.630389275784033 24.920747019301007 0 0 0
980 3 28.63514746557105 13.989047005604062 0.0 0 0 0
1814 3 0.7342345503992576 13.989047005604062 20.76728918275084 0 0 0
29 3 2.202703651197772 21.619436281388094 2.220446049250313e-16 0 0 0
628 3 19.82433286077996 19.07597318946009 0.0 0 0 0
1394 3 35.24325841916437 2.543463091928011 6.230186754825253 0 0 0
1637 3 38.914431171160665 19.07597318946009 10.38364459137542 0 0 0
1690 3 36.711727519962885 10.173852367712044 16.613831346200676 0 0 0
3361 3 38.18019662076141 2.543463091928011 26.99747593757609 0 0 0
2381 3 19.82433286077996 6.358657729820028 18.69056026447576 0 0 0
73 3 1.468469100798516 15.260778551568066 4.153457836550167 0 0 0
691 3 15.418925558384412 11.44558391367605 12.460373509650504 0 0 0
2049 3 6.60811095359332 21.619436281388094 24.92074701930101 0 0 0
3025 3 30.837851116768825 5.086926183856022 24.92074701930101 0 0 0
1839 3 0.7342345503992558 8.90212082174804 26.99747593757609 0 0 0
1747 3 39.64866572155992 20.34770473542409 12.460373509650504 0 0 0
3298 3 35.97749296956363 21.619436281388094 26.99747593757609 0 0 0
402 3 11.013518255988863 13.98904700560406 6.230186754825251 0 0 0
849 3 16.15316010878367 15.260778551568066 14.53710242792559 0 0 0
2437 3 11.747752806388124 0.0 33.227662692401346 0 0 0
1380 3 30.103616566369567 13.98904700560406 16.613831346200676 0 0 0
2782 3 25.69820926397402 24.162899373316108 22.844018101025927 0 0 0
606 3 13.950456457585895 24.162899373316105 8.306915673100336 0 0 0
2466 3 14.684691007985156 7.630389275784033 29.07420485585118 0 0 0
1494 3 41.85136937275769 8.902120821748042 0.0 0 0 0
1651 3 37.44596207036215 24.162899373316105 12.460373509650504 0 0 0
69 3 8.881784197001252e-16 17.804241643496077 6.230186754825253 0 0 0
1019 3 21.292801961578476 11.44558391367605 16.613831346200673 0 0 0
2013 3 8.076580054391835 8.902120821748039 22.844018101025924 0 0 0
2496 3 16.88739465918293 11.44558391367605 29.07420485585118 0 0 0
196 3 1.468469100798516 20.347704735424088 10.383644591375422 0 0 0
300 3 3.671172751996288 13.98904700560406 16.613831346200673 0 0 0
1538 3 34.50902386876512 3.815194637892017 16.613831346200673 0 0 0
2982 3 27.166678364772537 1.2717315459640055 33.227662692401346 0 0 0
3554 3 41.11713482235843 15.260778551568068 29.07420485585117 0 0 0
3438 3 38.18019662076141 15.260778551568068 26.99747593757609 0 0 0
2406 3 13.950456457585895 24.162899373316105 26.99747593757609 0 0 0
2698 3 24.229740163175503 6.358657729820028 24.92074701930101 0 0 0
3482 3 36.711727519962885 5.086926183856022 35.304391610676426 0 0 0
2453 3 14.684691007985156 0.0 29.07420485585118 0 0 0
2450 3 14.684691007985156 2.543463091928011 29.07420485585118 0 0 0
2649 3 16.153160108783666 15.26077855156807 33.227662692401346 0 0 0
108 3 3.6711727519962896 21.619436281388094 4.153457836550168 0 0 0
1416 3 34.50902386876511 11.44558391367605 10.383644591375422 0 0 0
3451 3 37.44596207036214 24.162899373316108 31.150933774126266 0 0 0
3151 3 27.900912915171794 0.0 35.30439161067643 0 0 0
2583 3 19.82433286077996 21.619436281388097 24.92074701930101 0 0 0
1883 3 5.139641852794803 11.44558391367605 20.76728918275084 0 0 0
1887 3 0.0 22.891167827352103 24.92074701930101 0 0 0
2178 3 12.481987356787384 6.358657729820028 22.844018101025924 0 0 0
2143 3 11.013518255988869 3.815194637892017 24.92074701930101 0 0 0
386 3 15.418925558384412 3.815194637892017 -8.881784197001252e-16 0 0 0
121 3 0.0 2.5434630919280106 12.460373509650504 0 0 0
3324 3 39.64866572155992 17.804241643496077 18.69056026447576 0 0 0
1016 3 19.0900983103807 15.260778551568066 16.61383134620067 0 0 0
3175 3 34.50902386876511 1.2717315459640055 29.07420485585118 0 0 0
2820 3 21.29280196157848 13.989047005604062 35.30439161067643 0 0 0
1967 3 1.468469100798517 15.260778551568066 29.07420485585118 0 0 0
2850 3 23.49550561277625 12.717315459640057 29.07420485585118 0 0 0
742 3 22.76127106237699 3.815194637892017 2.076728918275085 0 0 0
2808 3 22.76127106237699 6.358657729820028 33.227662692401346 0 0 0
1976 3 5.139641852794803 8.90212082174804 26.997475937576095 0 0 0
184 3 8.076580054391835 3.815194637892017 4.153457836550168 0 0 0
1387 3 33.0405547679666 6.358657729820028 12.460373509650504 0 0 0
621 3 19.82433286077996 16.532510097532075 -1.7763568394002505e-15 0 0 0
2302 3 12.48198735678738 6.358657729820028 29.07420485585118 0 0 0
3555 3 42.58560392315695 15.260778551568066 26.99747593757609 0 0 0
540 3 14.684691007985156 5.086926183856022 4.153457836550168 0 0 0
427 3 12.48198735678738 19.075973189460083 4.153457836550168 0 0 0
356 3 2.936938201597031 20.347704735424088 14.537102427925593 0 0 0
1977 3 5.139641852794805 11.445583913676051 26.997475937576095 0 0 0
1613 3 39.64866572155992 10.173852367712046 6.230186754825251 0 0 0
3268 3 30.837851116768825 22.891167827352103 31.150933774126266 0 0 0
1243 3 27.166678364772537 19.075973189460083 14.537102427925593 0 0 0
1522 3 40.38290027195917 19.075973189460083 2.076728918275084 0 0 0
3345 3 36.71172751996289 0.0 29.07420485585118 0 0 0
2220 3 8.810814604791092 20.347704735424088 24.92074701930101 0 0 0
2547 3 13.950456457585895 24.162899373316108 33.22766269240135 0 0 0
604 3 19.82433286077996 8.902120821748039 0.0 0 0 0
170 3 1.4684691007985151 12.717315459640057 10.383644591375422 0 0 0
1366 3 30.83785111676882 5.086926183856022 12.460373509650504 0 0 0
1010 3 23.495505612776245 2.5434630919280115 10.383644591375418 0 0 0
1781 3 41.11713482235843 12.717315459640057 16.613831346200676 0 0 0
2573 3 24.229740163175503 6.358657729820028 18.69056026447576 0 0 0
1174 3 25.69820926397402 1.2717315459640055 16.613831346200673 0 0 0
2815 3 25.69820926397402 1.271731545964005 29.07420485585118 0 0 0
1764 3 41.11713482235843 20.347704735424088 10.383644591375424 0 0 0
3495 3 38.1801966207614 5.086926183856022 33.227662692401346 0 0 0
684 3 12.481987356787382 19.075973189460083 16.613831346200673 0 0 0
400 3 8.810814604791092 15.260778551568068 6.230186754825253 0 0 0
2202 3 11.013518255988869 13.989047005604062 24.92074701930101 0 0 0
987 3 26.43244381437328 20.347704735424088 1.7763568394002505e-15 0 0 0
778 3 18.35586375998144 21.619436281388094 8.306915673100338 0 0 0
2773 3 25.69820926397402 19.075973189460083 22.844018101025924 0 0 0
3155 3 30.103616566369567 1.2717315459640055 35.30439161067643 0 0 0
2656 3 17.62162920958218 10.173852367712044 31.15093377412626 0 0 0
2078 3 4.405407302395547 0.0 31.150933774126266 0 0 0
3030 3 33.0405547679666 1.2717315459640055 24.92074701930101 0 0 0
487 3 5.873876403194062 17.80424164349608 16.613831346200676 0 0 0
863 3 21.29280196157848 8.902120821748039 10.383644591375422 0 0 0
1849 3 4.405407302395547 0.0 18.69056026447576 0 0 0
2270 3 8.076580054391833 8.902120821748042 35.30439161067643 0 0 0
1356 3 30.103616566369567 3.815194637892017 16.613831346200673 0 0 0
2267 3 5.8738764031940605 12.717315459640057 35.304391610676426 0 0 0
735 3 19.82433286077996 11.44558391367605 6.230186754825255 0 0 0
2351 3 7.342345503992577 22.8911678273521 33.227662692401346 0 0 0
2585 3 20.55856741117922 17.804241643496077 20.76728918275084 0 0 0
1854 3 0.0 10.173852367712046 24.92074701930101 0 0 0
1827 3 0.0 20.347704735424088 18.69056026447576 0 0 0
2614 3 16.887394659182927 1.2717315459640055 35.30439161067643 0 0 0
2832 3 25.698209263974025 6.358657729820028 29.07420485585118 0 0 0
2966 3 33.0405547679666 19.075973189460083 18.69056026447576 0 0 0
248 3 5.873876403194062 22.8911678273521 4.153457836550168 0 0 0
177 3 5.139641852794805 11.445583913676051 8.306915673100336 0 0 0
1947 3 2.2027036511977727 11.44558391367605 31.15093377412626 0 0 0
357 3 4.405407302395546 20.347704735424088 12.460373509650504 0 0 0
3301 3 36.711727519962885 20.347704735424088 22.844018101025927 0 0 0
1826 3 0.7342345503992558 24.162899373316105 20.76728918275084 0 0 0
50 3 5.139641852794804 1.2717315459640055 2.0767289182750845 0 0 0
1643 3 41.11713482235844 12.71731545964006 4.153457836550167 0 0 0
2633 3 17.62162920958218 7.630389275784033 31.150933774126266 0 0 0
2988 3 23.49550561277625 10.173852367712044 35.30439161067643 0 0 0
3548 3 40.38290027195918 19.075973189460083 33.227662692401346 0 0 0
2899 3 30.10361656636957 8.902120821748039 22.844018101025924 0 0 0
839 3 19.82433286077996 6.358657729820028 12.460373509650504 0 0 0
2529 3 17.62162920958219 12.717315459640057 24.92074701930101 0 0 0
3360 3 36.71172751996289 2.543463091928011 29.07420485585118 0 0 0
318 3 10.279283705589608 0.0 4.153457836550169 0 0 0
1820 3 0.7342345503992576 19.075973189460083 20.76728918275084 0 0 0
2349 3 19.82433286077996 1.2717315459640055 18.69056026447576 0 0 0
1319 3 33.774789318365855 12.717315459640057 2.076728918275084 0 0 0
194 3 0.7342345503992584 24.162899373316105 14.53710242792559 0 0 0
1999 3 1.4684691007985151 17.804241643496077 29.07420485585118 0 0 0
1040 3 19.0900983103807 20.347704735424088 16.613831346200673 0 0 0
3304 3 36.711727519962885 17.804241643496077 22.844018101025927 0 0 0
2401 3 18.35586375998144 11.44558391367605 20.76728918275084 0 0 0
162 3 8.076580054391835 1.2717315459640055 4.153457836550168 0 0 0
2714 3 18.35586375998144 24.162899373316105 33.227662692401346 0 0 0
3069 3 37.44596207036214 1.271731545964006 18.69056026447576 0 0 0
722 3 15.418925558384412 16.53251009753207 12.460373509650504 0 0 0
2322 3 9.54504915519035 16.53251009753207 33.227662692401346 0 0 0
435 3 11.013518255988869 24.162899373316105 6.230186754825252 0 0 0
625 3 18.35586375998144 21.619436281388097 2.0767289182750828 0 0 0
2110 3 7.342345503992577 5.086926183856022 26.99747593757609 0 0 0
2338 3 15.41892555838441 6.358657729820028 24.92074701930101 0 0 0
131 3 1.468469100798516 5.086926183856022 10.38364459137542 0 0 0
3137 3 35.97749296956363 16.53251009753207 20.76728918275084 0 0 0
814 3 16.88739465918293 1.2717315459640055 16.613831346200673 0 0 0
2511 3 22.76127106237699 1.2717315459640055 20.767289182750844 0 0 0
1995 3 1.7763568394002505e-15 20.347704735424088 31.15093377412626 0 0 0
3472 3 41.85136937275769 21.619436281388094 24.920747019301007 0 0 0
505 3 13.21622190718664 5.086926183856022 6.230186754825252 0 0 0
3144 3 35.24325841916437 22.8911678273521 18.69056026447576 0 0 0
3571 3 41.11713482235843 2.5434630919280115 35.30439161067643 0 0 0
2332 3 11.747752806388124 10.173852367712044 26.99747593757609 0 0 0
2174 3 11.013518255988869 8.902120821748039 24.92074701930101 0 0 0
1728 3 38.91443117116066 19.07597318946009 16.613831346200673 0 0 0
2423 3 16.15316010878367 22.891167827352103 20.76728918275084 0 0 0
1094 3 28.63514746557105 8.902120821748039 6.230186754825253 0 0 0
2184 3 13.216221907186638 2.543463091928011 18.69056026447576 0 0 0
3299 3 35.97749296956363 24.162899373316105 26.99747593757609 0 0 0
2397 3 16.887394659182927 13.98904700560406 22.844018101025924 0 0 0
1120 3 26.43244381437328 15.260778551568066 6.230186754825251 0 0 0
45 3 2.936938201597031 2.543463091928011 2.076728918275084 0 0 0
3386 3 40.38290027195917 3.815194637892017 26.99747593757609 0 0 0
2708 3 26.43244381437328 0.0 18.69056026447576 0 0 0
3275 3 34.50902386876511 21.619436281388094 29.07420485585118 0 0 0
1369 3 30.837851116768825 2.543463091928011 12.460373509650504 0 0 0
2223 3 11.013518255988869 21.619436281388094 24.92074701930101 0 0 0
1368 3 31.57208566716808 6.358657729820028 14.53710242792559 0 0 0
1315 3 32.30632021756734 15.260778551568068 4.153457836550167 0 0 0
496 3 8.810814604791094 10.173852367712044 12.460373509650504 0 0 0
2691 3 21.29280196157848 13.98904700560406 29.07420485585118 0 0 0
2446 3 13.21622190718664 5.086926183856022 31.150933774126266 0 0 0
2485 3 11.747752806388126 15.260778551568066 33.227662692401346 0 0 0
942 3 19.82433286077996 24.162899373316105 12.460373509650504 0 0 0
1939 3 4.405407302395547 0.0 24.920747019301007 0 0 0
3420 3 41.11713482235844 5.086926183856022 22.844018101025927 0 0 0
1725 3 36.711727519962885 17.804241643496077 16.613831346200676 0 0 0
1077 3 22.02703651197773 20.347704735424088 12.460373509650502 0 0 0
2137 3 7.342345503992576 7.630389275784033 26.99747593757609 0 0 0
1307 3 29.36938201597031 20.347704735424088 8.306915673100335 0 0 0
2875 3 21.29280196157848 24.162899373316105 35.30439161067643 0 0 0
798 3 21.292801961578476 21.619436281388097 4.153457836550168 0 0 0
1898 3 2.936938201597032 15.260778551568068 20.767289182750844 0 0 0
164 3 0.7342345503992576 16.532510097532075 14.53710242792559 0 0 0
692 3 15.418925558384412 13.98904700560406 12.460373509650504 0 0 0
1656 3 38.1801966207614 20.347704735424088 8.306915673100336 0 0 0
1718 3 41.85136937275769 8.902120821748039 12.460373509650504 0 0 0
2424 3 17.621629209582185 22.8911678273521 18.69056026447576 0 0 0
2289 3 7.342345503992577 15.260778551568066 33.227662692401346 0 0 0
1192 3 24.963974713574764 7.630389275784033 14.53710242792559 0 0 0
2134 3 7.342345503992577 10.173852367712046 26.99747593757609 0 0 0
3461 3 41.11713482235844 17.804241643496077 22.844018101025927 0 0 0
697 3 16.15316010878367 7.630389275784033 8.306915673100336 0 0 0
1902 3 4.405407302395547 12.717315459640057 18.69056026447576 0 0 0
174 3 2.936938201597032 10.173852367712044 8.306915673100338 0 0 0
399 3 9.545049155190348 19.075973189460083 8.306915673100336 0 0 0
1065 3 27.900912915171794 2.543463091928012 4.1534578365501655 0 0 0
2046 3 5.139641852794803 24.162899373316108 26.997475937576095 0 0 0
908 3 26.43244381437328 0.0 0.0 0 0 0
18 3 0.0 17.804241643496077 0.0 0 0 0
2530 3 18.35586375998145 11.44558391367605 26.99747593757609 0 0 0
63 3 4.405407302395546 5.086926183856022 -4.440892098500626e-16 0 0 0
2058 3 9.54504915519035 19.07597318946009 20.767289182750844 0 0 0
3211 3 33.0405547679666 11.44558391367605 31.15093377412626 0 0 0
1708 3 38.1801966207614 12.717315459640057 14.537102427925593 0 0 0
1765 3 42.58560392315695 20.347704735424088 8.306915673100338 0 0 0
3090 3 33.0405547679666 13.98904700560406 24.92074701930101 0 0 0
1946 3 2.2027036511977727 8.902120821748042 31.150933774126266 0 0 0
3557 3 43.31983847355621 16.53251009753207 29.074204855851185 0 0 0
408 3 11.747752806388124 10.173852367712044 2.076728918275084 0 0 0
3021 3 29.36938201597031 7.630389275784033 26.99747593757609 0 0 0
2700 3 23.495505612776245 5.086926183856022 22.844018101025924 0 0 0
2713 3 18.35586375998145 21.619436281388094 33.227662692401346 0 0 0
2149 3 11.747752806388124 0.0 20.767289182750844 0 0 0
1973 3 3.6711727519962896 13.98904700560406 29.07420485585118 0 0 0
2234 3 15.418925558384414 13.98904700560406 18.69056026447576 0 0 0
453 3 7.342345503992578 0.0 14.53710242792559 0 0 0
1100 3 29.36938201597031 5.086926183856022 2.076728918275082 0 0 0
882 3 18.35586375998145 16.53251009753207 14.53710242792559 0 0 0
1790 3 43.3198384735562 13.98904700560406 16.613831346200673 0 0 0
1991 3 11.013518255988863 1.271731545964005 18.69056026447576 0 0 0
3204 3 30.103616566369567 19.07597318946009 35.30439161067643 0 0 0
3022 3 30.103616566369567 6.358657729820028 29.07420485585118 0 0 0
699 3 18.35586375998144 6.358657729820028 8.306915673100338 0 0 0
2257 3 7.342345503992576 5.086926183856024 33.227662692401346 0 0 0
1652 3 36.711727519962885 22.8911678273521 10.383644591375422 0 0 0
668 3 15.418925558384412 8.902120821748039 12.460373509650504 0 0 0
2551 3 15.418925558384412 24.162899373316105 31.150933774126266 0 0 0
2932 3 30.837851116768825 7.630389275784033 18.69056026447576 0 0 0
1157 3 29.36938201597031 22.8911678273521 2.076728918275082 0 0 0
789 3 22.02703651197773 15.260778551568068 -1.7763568394002505e-15 0 0 0
3497 3 40.38290027195918 3.815194637892017 33.227662692401346 0 0 0
2102 3 4.405407302395545 10.173852367712048 31.150933774126266 0 0 0
2012 3 7.342345503992578 10.173852367712044 20.76728918275084 0 0 0
2125 3 2.9369382015970302 15.260778551568066 33.227662692401346 0 0 0
2578 3 18.35586375998144 21.619436281388097 26.99747593757609 0 0 0
3318 3 38.91443117116066 21.619436281388094 22.844018101025924 0 0 0
79 3 3.6711727519962887 13.98904700560406 4.153457836550169 0 0 0
513 3 16.15316010878367 0.0 2.076728918275084 0 0 0
328 3 5.139641852794803 16.53251009753207 14.537102427925587 0 0 0
3311 3 40.38290027195917 16.53251009753207 20.76728918275084 0 0 0
3551 3 41.11713482235843 17.804241643496077 29.07420485585117 0 0 0
1645 3 41.851369372757695 13.989047005604064 6.230186754825253 0 0 0
3057 3 32.30632021756734 7.630389275784034 22.844018101025927 0 0 0
920 3 20.55856741117921 17.804241643496077 8.306915673100338 0 0 0
3018 3 28.63514746557105 8.902120821748039 31.150933774126266 0 0 0
812 3 14.684691007985156 0.0 16.613831346200673 0 0 0
1748 3 40.38290027195917 19.07597318946009 14.53710242792559 0 0 0
1264 3 33.77478931836586 2.54346309192801 2.076728918275084 0 0 0
567 3 13.21622190718664 12.717315459640057 6.230186754825252 0 0 0
1955 3 5.139641852794803 6.358657729820028 26.99747593757609 0 0 0
1838 3 0.7342345503992558 6.358657729820028 26.99747593757609 0 0 0
1644 3 41.851369372757695 11.445583913676051 6.230186754825251 0 0 0
2753 3 24.229740163175503 16.53251009753207 24.92074701930101 0 0 0
501 3 11.747752806388124 7.630389275784034 8.306915673100336 0 0 0
2486 3 13.21622190718664 15.26077855156807 31.150933774126266 0 0 0
2253 3 7.342345503992577 0.0 33.227662692401346 0 0 0
2111 3 8.076580054391838 3.815194637892016 29.07420485585118 0 0 0
1281 3 30.103616566369567 16.53251009753207 10.383644591375422 0 0 0
774 3 24.229740163175503 8.902120821748039 1.7763568394002505e-15 0 0 0
1375 3 34.50902386876511 1.2717315459640055 10.383644591375422 0 0 0
383 3 13.950456457585895 6.358657729820028 2.076728918275084 0 0 0
2512 3 10.279283705589611 22.8911678273521 35.30439161067643 0 0 0
1216 3 26.43244381437328 10.173852367712044 12.460373509650504 0 0 0
93 3 2.2027036511977727 21.619436281388094 6.230186754825253 0 0 0
696 3 16.887394659182927 11.44558391367605 10.383644591375422 0 0 0
237 3 8.076580054391835 13.98904700560406 4.153457836550167 0 0 0
3409 3 38.18019662076141 12.717315459640057 26.99747593757609 0 0 0
3166 3 30.837851116768825 5.086926183856022 31.150933774126266 0 0 0
733 3 19.0900983103807 10.173852367712044 4.153457836550168 0 0 0
3248 3 33.774789318365855 12.717315459640057 26.99747593757609 0 0 0
3426 3 33.77478931836586 22.891167827352103 33.227662692401346 0 0 0
2711 3 16.153160108783666 22.8911678273521 33.227662692401346 0 0 0
53 3 0.7342345503992571 13.98904700560406 8.306915673100336 0 0 0
2449 3 13.21622190718664 2.54346309192801 31.150933774126266 0 0 0
61 3 3.671172751996288 8.902120821748039 4.153457836550168 0 0 0
700 3 18.35586375998144 8.902120821748039 8.306915673100338 0 0 0
929 3 24.229740163175503 11.44558391367605 6.230186754825253 0 0 0
3415 3 40.38290027195917 11.44558391367605 26.99747593757609 0 0 0
548 3 17.62162920958219 0.0 0.0 0 0 0
1226 3 31.57208566716808 3.815194637892017 8.306915673100338 0 0 0
1802 3 0.7342345503992576 1.2717315459640046 20.76728918275084 0 0 0
1132 3 30.837851116768825 7.630389275784033 -1.7763568394002505e-15 0 0 0
855 3 18.35586375998145 13.98904700560406 14.53710242792559 0 0 0
2495 3 16.88739465918293 8.902120821748039 29.07420485585118 0 0 0
3417 3 41.11713482235844 7.630389275784033 22.844018101025927 0 0 0
2699 3 24.229740163175503 8.902120821748039 24.92074701930101 0 0 0
2296 3 8.81081460479109 10.173852367712046 31.15093377412626 0 0 0
833 3 17.621629209582185 7.630389275784034 12.460373509650504 0 0 0
3503 3 41.11713482235843 0.0 29.07420485585117 0 0 0
2004 3 4.405407302395545 15.26077855156807 24.92074701930101 0 0 0
234 3 6.608110953593319 19.075973189460083 6.230186754825253 0 0 0
2804 3 21.29280196157848 8.902120821748039 35.30439161067643 0 0 0
595 3 14.684691007985156 15.260778551568066 4.153457836550168 0 0 0
135 3 2.936938201597031 2.5434630919280115 8.306915673100336 0 0 0
3044 3 26.43244381437328 15.260778551568066 31.150933774126266 0 0 0
2264 3 8.81081460479109 0.0 31.15093377412626 0 0 0
1719 3 41.11713482235844 5.086926183856022 10.383644591375422 0 0 0
2922 3 28.635147465571052 13.98904700560406 24.92074701930101 0 0 0
1334 3 34.50902386876511 21.619436281388094 4.153457836550169 0 0 0
2065 3 9.545049155190348 21.619436281388097 20.767289182750844 0 0 0
3206 3 30.837851116768825 15.260778551568066 31.150933774126266 0 0 0
2356 3 10.279283705589608 20.347704735424088 29.07420485585118 0 0 0
1784 3 43.3198384735562 8.902120821748039 16.613831346200673 0 0 0
1496 3 33.774789318365855 22.8911678273521 8.306915673100338 0 0 0
712 3 10.27928370558961 22.891167827352103 16.613831346200673 0 0 0
1789 3 42.58560392315695 15.260778551568068 14.53710242792559 0 0 0
3195 3 35.97749296956363 1.2717315459640055 26.99747593757609 0 0 0
607 3 13.21622190718664 22.8911678273521 6.230186754825253 0 0 0
1904 3 6.608110953593318 13.98904700560406 18.69056026447576 0 0 0
1695 3 38.1801966207614 5.086926183856023 14.537102427925593 0 0 0
3122 3 35.97749296956363 13.98904700560406 20.767289182750844 0 0 0
249 3 6.608110953593321 21.619436281388094 6.230186754825252 0 0 0
409 3 13.21622190718664 10.173852367712044 8.881784197001252e-16 0 0 0
3010 3 25.69820926397402 13.989047005604062 35.30439161067643 0 0 0
1138 3 27.166678364772533 21.619436281388097 8.306915673100335 0 0 0
884 3 17.621629209582185 15.260778551568068 12.460373509650504 0 0 0
55 3 1.4684691007985156 10.173852367712044 4.153457836550167 0 0 0
2411 3 14.684691007985156 20.347704735424088 22.844018101025924 0 0 0
3517 3 41.851369372757695 6.358657729820028 31.150933774126266 0 0 0
3180 3 30.103616566369567 13.98904700560406 35.30439161067643 0 0 0
3256 3 36.711727519962885 7.630389275784033 22.844018101025927 0 0 0
1701 3 41.85136937275769 1.2717315459640064 12.460373509650504 0 0 0
3382 3 38.91443117116066 6.358657729820028 29.07420485585118 0 0 0
876 3 14.684691007985156 20.347704735424088 16.613831346200673 0 0 0
2668 3 22.027036511977727 2.543463091928011 24.92074701930101 0 0 0
2066 3 9.545049155190352 24.162899373316105 20.767289182750844 0 0 0
278 3 4.405407302395546 0.0 12.460373509650504 0 0 0
2953 3 33.040554767966604 11.445583913676051 18.69056026447576 0 0 0
2278 3 11.013518255988863 3.815194637892016 31.150933774126266 0 0 0
2150 3 13.21622190718664 0.0 18.69056026447576 0 0 0
1345 3 35.97749296956363 21.619436281388094 2.076728918275085 0 0 0
27 3 0.0 20.347704735424088 0.0 0 0 0
452 3 5.873876403194062 0.0 16.613831346200673 0 0 0
358 3 5.139641852794804 19.07597318946009 14.53710242792559 0 0 0
3322 3 40.38290027195917 19.075973189460083 20.76728918275084 0 0 0
2363 3 11.747752806388124 15.260778551568068 26.99747593757609 0 0 0
1234 3 34.50902386876511 1.2717315459640046 4.153457836550171 0 0 0
244 3 11.013518255988869 8.902120821748039 -8.881784197001252e-16 0 0 0
1842 3 2.2027036511977727 3.815194637892016 24.92074701930101 0 0 0
1850 3 5.139641852794803 1.2717315459640064 20.76728918275084 0 0 0
3456 3 38.18019662076141 20.347704735424088 26.99747593757609 0 0 0
890 3 21.29280196157848 11.445583913676051 10.383644591375422 0 0 0
2592 3 22.02703651197773 12.717315459640057 18.69056026447576 0 0 0
666 3 14.684691007985156 7.630389275784034 10.38364459137542 0 0 0
346 3 11.747752806388124 2.5434630919280115 2.0767289182750845 0 0 0
765 3 20.55856741117921 12.717315459640057 2.076728918275084 0 0 0
417 3 8.810814604791092 22.8911678273521 6.230186754825253 0 0 0
825 3 19.0900983103807 0.0 10.383644591375422 0 0 0
3241 3 32.30632021756734 17.804241643496077 29.07420485585118 0 0 0
1597 3 33.774789318365855 20.347704735424088 14.537102427925586 0 0 0
3381 3 38.18019662076141 7.630389275784034 26.99747593757609 0 0 0
2915 3 25.698209263974025 21.619436281388097 29.07420485585118 0 0 0
639 3 13.950456457585895 1.2717315459640055 14.53710242792559 0 0 0
794 3 24.229740163175503 13.989047005604062 0.0 0 0 0
2719 3 19.090098310380696 17.804241643496077 29.07420485585118 0 0 0
2539 3 21.29280196157848 8.902120821748039 22.844018101025927 0 0 0
132 3 2.2027036511977727 3.815194637892017 12.460373509650504 0 0 0
2089 3 4.405407302395545 2.543463091928011 31.150933774126266 0 0 0
23 3 2.202703651197773 16.53251009753207 1.1102230246251563e-15 0 0 0
2779 3 26.43244381437328 15.260778551568068 18.69056026447576 0 0 0
1314 3 33.0405547679666 19.07597318946009 6.230186754825253 0 0 0
2269 3 7.342345503992576 10.173852367712048 33.227662692401346 0 0 0
3213 3 32.30632021756734 10.173852367712044 29.07420485585118 0 0 0
1681 3 36.711727519962885 0.0 16.613831346200676 0 0 0
1557 3 36.711727519962885 5.086926183856022 10.38364459137542 0 0 0
2540 3 20.55856741117922 5.086926183856022 20.76728918275084 0 0 0
1162 3 31.57208566716808 19.075973189460083 2.076728918275085 0 0 0
557 3 11.013518255988863 19.075973189460083 12.460373509650504 0 0 0
834 3 18.35586375998145 6.358657729820028 14.53710242792559 0 0 0
1881 3 4.405407302395548 10.173852367712044 18.69056026447576 0 0 0
913 3 18.35586375998145 21.619436281388094 14.53710242792559 0 0 0
259 3 8.810814604791094 15.260778551568066 0.0 0 0 0
3130 3 33.0405547679666 24.162899373316105 24.92074701930101 0 0 0
3112 3 32.30632021756734 17.804241643496077 22.844018101025927 0 0 0
3236 3 29.36938201597031 20.347704735424088 33.22766269240135 0 0 0
2310 3 15.41892555838441 1.2717315459640055 24.92074701930101 0 0 0
2455 3 16.88739465918293 1.2717315459640064 29.07420485585118 0 0 0
802 3 22.76127106237699 19.07597318946009 2.076728918275085 0 0 0
565 3 13.950456457585895 13.98904700560406 8.306915673100335 0 0 0
909 3 28.63514746557105 1.2717315459640046 1.7763568394002505e-15 0 0 0
3116 3 33.774789318365855 15.260778551568066 20.767289182750844 0 0 0
2727 3 22.027036511977727 12.717315459640057 24.92074701930101 0 0 0
1087 3 25.698209263974015 16.53251009753207 10.383644591375422 0 0 0
893 3 22.02703651197773 10.173852367712044 6.230186754825254 0 0 0
355 3 3.6711727519962887 24.162899373316105 16.613831346200673 0 0 0
3214 3 33.774789318365855 10.173852367712044 26.99747593757609 0 0 0
610 3 15.41892555838441 24.162899373316108 6.230186754825251 0 0 0
852 3 16.15316010878367 12.717315459640057 14.53710242792559 0 0 0
911 3 16.15316010878367 22.8911678273521 14.53710242792559 0 0 0
1033 3 24.963974713574764 2.543463091928011 8.306915673100335 0 0 0
483 3 12.48198735678738 3.815194637892017 10.38364459137542 0 0 0
2645 3 22.02703651197773 0.0 24.92074701930101 0 0 0
3388 3 39.64866572155992 2.543463091928011 24.92074701930101 0 0 0
1022 3 22.02703651197773 10.173852367712044 12.460373509650504 0 0 0
1056 3 25.698209263974015 11.44558391367605 10.383644591375422 0 0 0
1803 3 0.7342345503992558 3.815194637892017 20.76728918275084 0 0 0
1159 3 30.103616566369563 24.162899373316105 4.153457836550169 0 0 0
936 3 26.43244381437328 7.630389275784033 0.0 0 0 0
3064 3 33.774789318365855 2.543463091928011 20.767289182750844 0 0 0
1190 3 25.69820926397402 8.902120821748039 16.613831346200676 0 0 0
1732 3 40.38290027195917 16.532510097532075 14.537102427925587 0 0 0
904 3 24.963974713574764 2.543463091928012 2.076728918275084 0 0 0
2775 3 24.96397471357476 17.804241643496077 20.76728918275084 0 0 0
1676 3 43.31983847355621 19.075973189460083 4.153457836550167 0 0 0
1403 3 30.103616566369567 16.53251009753207 16.613831346200673 0 0 0
3481 3 36.711727519962885 0.0 35.304391610676426 0 0 0
1530 3 41.85136937275769 24.162899373316108 0.0 0 0 0
1815 3 0.0 10.173852367712044 18.69056026447576 0 0 0
1116 3 24.96397471357476 17.804241643496077 8.306915673100335 0 0 0
1575 3 35.97749296956363 13.98904700560406 14.53710242792559 0 0 0
3469 3 40.38290027195917 24.162899373316105 26.99747593757609 0 0 0
2087 3 5.139641852794807 3.8151946378920174 33.227662692401346 0 0 0
1460 3 38.1801966207614 5.086926183856021 2.076728918275084 0 0 0
3235 3 30.103616566369567 24.162899373316105 35.30439161067643 0 0 0
2960 3 29.36938201597031 20.347704735424088 20.76728918275084 0 0 0
11 3 2.202703651197773 6.358657729820028 -2.220446049250313e-16 0 0 0
753 3 16.15316010878367 20.347704735424088 8.306915673100335 0 0 0
1064 3 28.63514746557105 6.358657729820028 6.230186754825253 0 0 0
1036 3 27.166678364772537 3.815194637892017 8.306915673100336 0 0 0
2977 3 24.963974713574764 5.086926183856022 33.227662692401346 0 0 0
2867 3 30.10361656636957 1.2717315459640055 22.844018101025927 0 0 0
354 3 3.671172751996287 21.619436281388097 16.613831346200673 0 0 0
264 3 8.810814604791094 22.8911678273521 -1.7763568394002505e-15 0 0 0
579 3 17.62162920958219 5.086926183856023 0.0 0 0 0
2230 3 13.9504564575859 13.98904700560406 20.767289182750844 0 0 0
3026 3 31.57208566716808 3.815194637892017 26.99747593757609 0 0 0
1994 3 0.7342345503992576 24.162899373316105 33.227662692401346 0 0 0
2207 3 12.481987356787384 13.98904700560406 22.844018101025924 0 0 0
2728 3 23.495505612776245 12.717315459640057 22.844018101025924 0 0 0
2597 3 20.55856741117922 22.8911678273521 20.767289182750844 0 0 0
1553 3 35.24325841916437 7.630389275784033 12.460373509650504 0 0 0
756 3 16.15316010878367 17.804241643496077 8.306915673100336 0 0 0
1495 3 34.50902386876511 24.162899373316105 10.383644591375422 0 0 0
1288 3 32.30632021756734 12.717315459640057 4.153457836550167 0 0 0
1323 3 35.24325841916438 10.173852367712046 0.0 0 0 0
303 3 5.139641852794804 8.902120821748039 14.537102427925587 0 0 0
2275 3 9.545049155190348 8.90212082174804 33.227662692401346 0 0 0
486 3 13.950456457585895 1.2717315459640055 8.306915673100336 0 0 0
1293 3 34.50902386876511 8.902120821748039 4.153457836550171 0 0 0
1518 3 38.91443117116066 21.619436281388094 4.153457836550169 0 0 0
2619 3 16.887394659182927 6.358657729820028 35.30439161067643 0 0 0
1148 3 29.36938201597031 15.260778551568068 2.076728918275082 0 0 0
48 3 2.936938201597031 0.0 2.076728918275084 0 0 0
3459 3 40.38290027195917 21.619436281388094 26.99747593757609 0 0 0
1021 3 20.55856741117921 10.173852367712044 14.537102427925587 0 0 0
2331 3 12.48198735678738 13.989047005604062 29.07420485585118 0 0 0
384 3 13.21622190718664 2.543463091928011 0.0 0 0 0
3002 3 30.103616566369567 1.271731545964006 29.07420485585118 0 0 0
2688 3 19.090098310380696 12.717315459640057 29.07420485585118 0 0 0
2330 3 12.48198735678738 11.445583913676051 29.07420485585118 0 0 0
3440 3 40.38290027195917 13.98904700560406 26.99747593757609 0 0 0
3448 3 43.3198384735562 8.902120821748039 22.844018101025924 0 0 0
2517 3 13.21622190718664 20.347704735424088 31.150933774126266 0 0 0
571 3 14.684691007985156 10.173852367712044 4.153457836550167 0 0 0
1979 3 5.873876403194062 7.630389275784033 22.844018101025924 0 0 0
1867 3 6.608110953593318 1.2717315459640055 18.69056026447576 0 0 0
52 3 0.734234550399258 11.44558391367605 8.306915673100335 0 0 0
391 3 6.608110953593319 24.162899373316108 12.460373509650504 0 0 0
1012 3 24.229740163175503 3.815194637892017 12.460373509650504 0 0 0
3123 3 35.24325841916437 10.173852367712044 18.69056026447576 0 0 0
1331 3 32.30632021756734 20.347704735424088 4.153457836550169 0 0 0
1347 3 35.24325841916438 20.347704735424088 0.0 0 0 0
342 3 10.279283705589608 5.086926183856022 4.153457836550168 0 0 0
3518 3 41.851369372757695 8.902120821748039 31.150933774126266 0 0 0
3332 3 32.30632021756735 0.0 35.30439161067643 0 0 0
1534 3 34.50902386876512 1.271731545964006 16.613831346200673 0 0 0
3559 3 40.38290027195918 24.162899373316108 33.22766269240135 0 0 0
2516 3 11.747752806388124 20.347704735424088 33.227662692401346 0 0 0
1478 3 35.97749296956363 16.532510097532075 8.306915673100336 0 0 0
3208 3 31.57208566716808 16.53251009753207 33.227662692401346 0 0 0
3094 3 34.50902386876511 11.44558391367605 22.844018101025924 0 0 0
2047 3 4.405407302395545 22.8911678273521 24.92074701930101 0 0 0
2902 3 31.57208566716809 3.815194637892017 20.76728918275084 0 0 0
1301 3 37.44596207036214 6.358657729820028 0.0 0 0 0
2590 3 22.76127106237699 13.98904700560406 20.767289182750844 0 0 0
86 3 6.60811095359332 8.902120821748039 4.440892098500626e-16 0 0 0
761 3 19.0900983103807 15.260778551568066 4.153457836550168 0 0 0
2537 3 20.55856741117922 7.630389275784033 20.76728918275084 0 0 0
2090 3 5.873876403194062 2.543463091928011 29.07420485585118 0 0 0
795 3 19.82433286077996 24.162899373316108 6.230186754825252 0 0 0
471 3 8.076580054391833 11.44558391367605 16.613831346200673 0 0 0
975 3 24.963974713574764 17.804241643496077 2.076728918275084 0 0 0
2582 3 19.82433286077996 19.07597318946009 24.92074701930101 0 0 0
3325 3 41.85136937275769 16.53251009753207 18.69056026447576 0 0 0
673 3 16.15316010878367 2.543463091928011 8.306915673100336 0 0 0
2654 3 18.35586375998145 11.445583913676051 33.227662692401346 0 0 0
477 3 10.27928370558961 5.086926183856022 10.383644591375422 0 0 0
292 3 6.608110953593319 3.815194637892017 12.460373509650504 0 0 0
1423 3 37.44596207036214 3.815194637892017 6.230186754825255 0 0 0
3556 3 43.31983847355621 13.98904700560406 29.07420485585118 0 0 0
2979 3 25.69820926397402 6.358657729820028 35.30439161067643 0 0 0
2525 3 16.153160108783673 15.260778551568068 26.99747593757609 0 0 0
2945 3 29.36938201597031 17.804241643496077 20.76728918275084 0 0 0
1724 3 36.711727519962885 20.347704735424088 16.613831346200673 0 0 0
2112 3 8.076580054391837 6.358657729820028 29.07420485585118 0 0 0
885 3 19.0900983103807 15.260778551568066 10.383644591375422 0 0 0
796 3 19.0900983103807 22.891167827352103 4.153457836550167 0 0 0
3219 3 35.97749296956363 6.358657729820028 26.99747593757609 0 0 0
3359 3 37.44596207036214 6.358657729820028 31.150933774126266 0 0 0
1425 3 36.711727519962885 2.54346309192801 4.153457836550167 0 0 0
1796 3 43.3198384735562 19.07597318946009 16.613831346200673 0 0 0
2650 3 16.887394659182927 13.989047005604064 35.30439161067643 0 0 0
1551 3 34.50902386876512 11.44558391367605 16.613831346200676 0 0 0
2556 3 16.153160108783673 17.804241643496077 26.99747593757609 0 0 0
91 3 1.468469100798516 20.347704735424088 4.153457836550169 0 0 0
3454 3 38.91443117116066 21.619436281388094 29.07420485585118 0 0 0
2707 3 27.166678364772537 3.815194637892017 20.767289182750844 0 0 0
2169 3 8.810814604791092 12.717315459640057 24.92074701930101 0 0 0
2071 3 1.4684691007985151 0.0 35.30439161067643 0 0 0
1352 3 27.90091291517179 5.086926183856022 16.613831346200673 0 0 0
3344 3 35.24325841916438 0.0 31.150933774126266 0 0 0
3419 3 41.85136937275769 8.902120821748039 24.920747019301007 0 0 0
1449 3 35.24325841916437 12.717315459640057 6.230186754825251 0 0 0
1302 3 28.63514746557105 24.162899373316108 12.460373509650504 0 0 0
786 3 21.29280196157848 16.53251009753207 4.15345783655017 0 0 0
619 3 17.62162920958219 15.260778551568066 0.0 0 0 0
1752 3 41.85136937275769 16.532510097532075 12.460373509650504 0 0 0
1165 3 33.0405547679666 16.53251009753207 1.7763568394002505e-15 0 0 0
3110 3 31.57208566716808 21.619436281388094 26.99747593757609 0 0 0
7 3 0.734234550399258 6.358657729820028 2.0767289182750845 0 0 0
2925 3 29.36938201597031 12.717315459640057 20.76728918275084 0 0 0
1329 3 33.0405547679666 21.619436281388094 6.230186754825255 0 0 0
214 3 8.076580054391835 11.44558391367605 4.153457836550168 0 0 0
1093 3 27.90091291517179 10.173852367712044 4.153457836550167 0 0 0
1779 3 43.3198384735562 6.358657729820028 16.613831346200673 0 0 0
1909 3 3.671172751996286 24.162899373316105 22.844018101025924 0 0 0
2259 3 8.076580054391833 6.358657729820029 35.30439161067643 0 0 0
1657 3 39.64866572155992 20.347704735424088 6.230186754825251 0 0 0
3338 3 34.50902386876511 3.815194637892017 35.30439161067643 0 0 0
1001 3 19.0900983103807 7.630389275784033 16.613831346200673 0 0 0
1385 3 30.83785111676882 7.630389275784034 12.460373509650504 0 0 0
2513 3 11.747752806388124 22.891167827352103 33.227662692401346 0 0 0
1106 3 33.0405547679666 3.815194637892016 0.0 0 0 0
1733 3 39.64866572155992 12.717315459640057 12.460373509650507 0 0 0
255 3 7.342345503992578 17.804241643496077 2.0767289182750845 0 0 0
2247 3 13.950456457585895 24.162899373316108 20.767289182750844 0 0 0
915 3 17.621629209582185 20.347704735424088 12.460373509650504 0 0 0
3 3 0.7342345503992578 3.815194637892017 2.076728918275084 0 0 0
353 3 2.9369382015970293 22.891167827352103 14.537102427925593 0 0 0
291 3 6.608110953593319 1.271731545964006 12.460373509650504 0 0 0
1614 3 40.38290027195918 8.902120821748039 8.306915673100338 0 0 0
110 3 2.936938201597031 20.347704735424088 2.076728918275084 0 0 0
2884 3 23.49550561277625 15.260778551568066 29.07420485585118 0 0 0
2905 3 33.040554767966604 1.2717315459640055 18.69056026447576 0 0 0
3182 3 30.837851116768825 10.173852367712044 31.150933774126266 0 0 0
1103 3 31.57208566716808 6.358657729820028 2.076728918275085 0 0 0
1648 3 43.31983847355621 8.90212082174804 4.153457836550167 0 0 0
706 3 20.55856741117922 2.5434630919280106 2.076728918275084 0 0 0
183 3 7.342345503992577 5.086926183856022 2.076728918275084 0 0 0
988 3 28.63514746557105 19.075973189460083 1.7763568394002505e-15 0 0 0
2741 3 28.63514746557105 6.358657729820028 18.69056026447576 0 0 0
1985 3 8.076580054391835 6.358657729820028 22.844018101025924 0 0 0
1817 3 2.2027036511977727 11.44558391367605 18.69056026447576 0 0 0
1916 3 6.608110953593318 19.07597318946009 18.69056026447576 0 0 0
3029 3 32.30632021756734 2.543463091928011 22.844018101025927 0 0 0
2848 3 22.76127106237699 16.532510097532075 33.227662692401346 0 0 0
42 3 2.202703651197773 3.815194637892017 6.230186754825253 0 0 0
3487 3 38.1801966207614 0.0 33.227662692401346 0 0 0
1956 3 4.405407302395545 2.54346309192801 24.92074701930101 0 0 0
2844 3 21.29280196157848 19.075973189460083 35.30439161067643 0 0 0
2245 3 15.418925558384416 16.53251009753207 18.69056026447576 0 0 0
600 3 17.621629209582185 12.717315459640057 0.0 0 0 0
3516 3 41.11713482235843 7.630389275784034 29.07420485585117 0 0 0
3105 3 30.103616566369567 21.619436281388097 29.07420485585118 0 0 0
24 3 0.0 22.8911678273521 0.0 0 0 0
3319 3 38.91443117116066 24.162899373316108 22.844018101025924 0 0 0
72 3 0.0 15.260778551568066 6.230186754825253 0 0 0
37 3 0.0 7.630389275784033 6.230186754825253 0 0 0
256 3 8.810814604791092 17.804241643496077 0.0 0 0 0
3499 3 39.64866572155992 2.543463091928011 31.15093377412626 0 0 0
138 3 2.936938201597031 0.0 8.306915673100336 0 0 0
1569 3 33.774789318365855 15.260778551568066 14.53710242792559 0 0 0
608 3 14.684691007985156 22.8911678273521 4.153457836550166 0 0 0
2732 3 24.96397471357476 10.173852367712044 20.76728918275084 0 0 0
2472 3 16.88739465918293 6.358657729820028 29.07420485585118 0 0 0
1050 3 23.495505612776245 12.717315459640057 10.38364459137542 0 0 0
2030 3 5.139641852794803 21.619436281388094 26.99747593757609 0 0 0
1399 3 37.44596207036214 1.2717315459640046 6.230186754825255 0 0 0
3006 3 31.57208566716808 1.2717315459640055 26.99747593757609 0 0 0
2035 3 5.873876403194062 15.260778551568068 22.844018101025924 0 0 0
31 3 0.0 2.5434630919280115 6.230186754825253 0 0 0
465 3 10.27928370558961 0.0 10.38364459137542 0 0 0
3011 3 25.69820926397402 16.532510097532075 35.30439161067643 0 0 0
583 3 10.27928370558961 22.8911678273521 10.38364459137542 0 0 0
3308 3 38.1801966207614 15.260778551568066 20.767289182750844 0 0 0
2659 3 19.82433286077996 11.44558391367605 31.150933774126266 0 0 0
1848 3 2.936938201597032 0.0 20.767289182750844 0 0 0
3477 3 43.3198384735562 21.619436281388097 22.844018101025924 0 0 0
3198 3 36.711727519962885 0.0 22.844018101025927 0 0 0
1727 3 38.91443117116066 16.53251009753207 16.613831346200673 0 0 0
2491 3 15.418925558384414 11.445583913676051 31.150933774126266 0 0 0
2993 3 26.43244381437328 7.630389275784033 31.150933774126266 0 0 0
3079 3 27.900912915171794 17.804241643496077 29.07420485585118 0 0 0
2067 3 8.810814604791094 20.347704735424088 18.69056026447576 0 0 0
476 3 8.810814604791094 5.086926183856022 12.460373509650504 0 0 0
1755 3 42.58560392315695 15.26077855156807 8.306915673100338 0 0 0
2657 3 19.0900983103807 10.173852367712044 29.07420485585118 0 0 0
1005 3 20.55856741117921 5.086926183856022 14.537102427925587 0 0 0
272 3 1.4684691007985151 5.086926183856022 16.613831346200673 0 0 0
455 3 5.873876403194063 7.630389275784033 16.613831346200673 0 0 0
293 3 5.873876403194061 0.0 10.383644591375422 0 0 0
3418 3 41.85136937275769 6.358657729820028 24.920747019301007 0 0 0
1455 3 37.44596207036214 11.445583913676051 6.230186754825253 0 0 0
3223 3 37.44596207036214 3.815194637892017 24.920747019301007 0 0 0
2883 3 24.229740163175503 19.07597318946009 31.150933774126266 0 0 0
444 3 13.21622190718664 17.804241643496077 8.881784197001252e-16 0 0 0
643 3 12.481987356787382 6.358657729820028 16.613831346200673 0 0 0
2412 3 16.15316010878367 20.347704735424088 20.76728918275084 0 0 0
3212 3 33.0405547679666 13.98904700560406 31.150933774126266 0 0 0
168 3 2.2027036511977744 13.98904700560406 12.460373509650504 0 0 0
2027 3 2.9369382015970302 20.347704735424088 26.99747593757609 0 0 0
952 3 23.49550561277625 17.80424164349608 4.153457836550167 0 0 0
2214 3 15.418925558384416 8.902120821748039 18.69056026447576 0 0 0
718 3 13.950456457585895 19.075973189460083 14.53710242792559 0 0 0
2548 3 13.21622190718664 22.8911678273521 31.150933774126266 0 0 0
946 3 21.29280196157848 24.162899373316108 10.38364459137542 0 0 0
3458 3 40.38290027195917 19.075973189460083 26.99747593757609 0 0 0
180 3 6.60811095359332 6.358657729820028 6.230186754825253 0 0 0
1746 3 38.1801966207614 20.347704735424088 14.53710242792559 0 0 0
1101 3 30.837851116768825 5.086926183856022 -1.7763568394002505e-15 0 0 0
454 3 8.076580054391833 1.271731545964005 16.613831346200673 0 0 0
393 3 7.342345503992577 20.347704735424088 8.306915673100338 0 0 0
2400 3 17.621629209582185 12.717315459640057 18.69056026447576 0 0 0
2467 3 15.418925558384414 6.358657729820028 31.150933774126266 0 0 0
1812 3 0.0 12.717315459640057 18.69056026447576 0 0 0
2625 3 19.090098310380696 0.0 29.07420485585118 0 0 0
56 3 2.202703651197773 8.902120821748039 6.230186754825253 0 0 0
2308 3 13.216221907186638 2.543463091928012 24.92074701930101 0 0 0
2722 3 21.29280196157848 19.07597318946009 29.07420485585118 0 0 0
1905 3 2.202703651197771 24.162899373316108 24.92074701930101 0 0 0
1844 3 1.4684691007985151 2.54346309192801 22.844018101025924 0 0 0
2916 3 24.963974713574764 17.804241643496077 26.99747593757609 0 0 0
127 3 8.881784197001252e-16 7.630389275784033 12.460373509650504 0 0 0
1590 3 41.851369372757695 1.2717315459640055 6.230186754825255 0 0 0
2119 3 11.013518255988869 1.2717315459640064 24.92074701930101 0 0 0
2683 3 18.35586375998145 19.075973189460083 33.227662692401346 0 0 0
3470 3 39.64866572155992 22.8911678273521 24.92074701930101 0 0 0
2519 3 13.950456457585895 21.619436281388094 33.227662692401346 0 0 0
1760 3 39.64866572155992 22.8911678273521 12.460373509650507 0 0 0
2562 3 19.82433286077996 13.98904700560406 24.92074701930101 0 0 0
2225 3 11.747752806388124 17.80424164349608 20.767289182750844 0 0 0
2715 3 17.62162920958218 20.347704735424088 31.15093377412626 0 0 0
2577 3 17.621629209582185 22.891167827352103 24.92074701930101 0 0 0
30 3 2.202703651197774 24.162899373316105 2.220446049250313e-16 0 0 0
62 3 2.936938201597031 5.086926183856022 2.076728918275084 0 0 0
370 3 9.54504915519035 11.44558391367605 8.306915673100335 0 0 0
2055 3 7.342345503992577 17.804241643496077 20.767289182750844 0 0 0
860 3 19.0900983103807 7.630389275784033 10.383644591375422 0 0 0
590 3 13.950456457585894 21.619436281388094 8.306915673100336 0 0 0
1436 3 29.369382015970302 20.347704735424088 14.53710242792559 0 0 0
323 3 3.671172751996288 16.532510097532075 16.613831346200673 0 0 0
1664 3 41.11713482235843 15.260778551568066 4.153457836550167 0 0 0
826 3 19.82433286077996 1.2717315459640055 12.460373509650504 0 0 0
3467 3 43.3198384735562 16.53251009753207 22.844018101025924 0 0 0
1296 3 35.24325841916438 7.630389275784035 0.0 0 0 0
2217 3 8.810814604791092 22.8911678273521 24.92074701930101 0 0 0
1584 3 38.18019662076141 5.086926183856022 8.306915673100335 0 0 0
966 3 22.76127106237699 24.162899373316108 8.306915673100335 0 0 0
943 3 19.0900983103807 22.8911678273521 10.383644591375422 0 0 0
3460 3 39.64866572155992 17.804241643496077 24.92074701930101 0 0 0
1952 3 2.9369382015970302 5.086926183856021 26.99747593757609 0 0 0
1547 3 32.30632021756734 12.717315459640057 16.613831346200673 0 0 0
2015 3 7.342345503992577 7.630389275784033 20.76728918275084 0 0 0
991 3 19.0900983103807 0.0 16.613831346200673 0 0 0
1481 3 36.711727519962885 15.26077855156807 4.153457836550167 0 0 0
3334 3 34.50902386876511 1.271731545964005 35.30439161067643 0 0 0
830 3 16.88739465918293 8.902120821748039 16.613831346200673 0 0 0
102 3 4.405407302395546 12.717315459640057 -4.440892098500626e-16 0 0 0
788 3 20.55856741117922 15.260778551568066 2.076728918275084 0 0 0
1647 3 42.58560392315695 10.173852367712048 2.076728918275084 0 0 0
44 3 1.4684691007985156 2.543463091928011 4.153457836550168 0 0 0
2610 3 24.229740163175503 24.162899373316105 18.69056026447576 0 0 0
3394 3 43.3198384735562 1.271731545964006 22.844018101025924 0 0 0
3093 3 34.50902386876511 8.902120821748039 22.844018101025924 0 0 0
3393 3 42.58560392315695 0.0 20.767289182750844 0 0 0
2244 3 13.21622190718664 17.804241643496077 18.69056026447576 0 0 0
2876 3 20.55856741117922 20.347704735424088 33.227662692401346 0 0 0
1007 3 22.761271062376988 3.815194637892017 14.53710242792559 0 0 0
3455 3 38.91443117116066 24.162899373316105 29.07420485585118 0 0 0
2099 3 3.6711727519962913 11.44558391367605 35.30439161067643 0 0 0
2304 3 11.74775280638812 5.086926183856022 26.99747593757609 0 0 0
2113 3 7.342345503992576 2.54346309192801 26.99747593757609 0 0 0
2653 3 17.62162920958218 12.717315459640057 31.150933774126266 0 0 0
2190 3 6.608110953593322 21.619436281388097 31.150933774126266 0 0 0
1564 3 38.1801966207614 0.0 8.306915673100335 0 0 0
2200 3 8.810814604791092 15.260778551568068 24.92074701930101 0 0 0
2063 3 7.342345503992578 22.8911678273521 20.76728918275084 0 0 0
2598 3 21.29280196157848 21.619436281388097 22.844018101025927 0 0 0
1129 3 30.837851116768825 10.173852367712046 -1.7763568394002505e-15 0 0 0
1928 3 0.7342345503992558 6.358657729820031 33.227662692401346 0 0 0
3529 3 38.1801966207614 15.260778551568066 33.227662692401346 0 0 0
3295 3 34.50902386876511 24.162899373316108 29.07420485585118 0 0 0
123 3 0.7342345503992576 3.815194637892017 14.53710242792559 0 0 0
3181 3 29.36938201597031 10.173852367712044 33.227662692401346 0 0 0
347 3 12.481987356787382 1.2717315459640055 4.153457836550167 0 0 0
2432 3 10.27928370558961 5.086926183856024 35.30439161067643 0 0 0
1305 3 30.103616566369567 21.619436281388097 10.383644591375422 0 0 0
1076 3 20.55856741117921 20.347704735424088 14.537102427925587 0 0 0
3278 3 35.97749296956363 16.53251009753207 26.99747593757609 0 0 0
3179 3 30.103616566369567 11.44558391367605 35.30439161067643 0 0 0
2602 3 22.76127106237699 19.075973189460083 20.767289182750844 0 0 0
821 3 17.621629209582185 2.543463091928011 12.460373509650504 0 0 0
2032 3 5.8738764031940605 17.80424164349608 22.844018101025924 0 0 0
2969 3 33.040554767966604 21.619436281388094 18.69056026447576 0 0 0
2723 3 20.55856741117921 15.260778551568066 26.99747593757609 0 0 0
115 3 6.60811095359332 16.53251009753207 0.0 0 0 0
2536 3 19.090098310380704 7.630389275784034 22.844018101025924 0 0 0
2350 3 8.076580054391833 24.162899373316108 35.30439161067643 0 0 0
1113 3 24.96397471357476 20.347704735424088 8.306915673100335 0 0 0
2261 3 8.810814604791092 2.543463091928011 31.15093377412626 0 0 0
2011 3 5.873876403194062 10.173852367712044 22.844018101025924 0 0 0
241 3 9.54504915519035 11.445583913676051 2.076728918275084 0 0 0
3480 3 42.58560392315695 22.891167827352103 20.767289182750844 0 0 0
907 3 27.166678364772537 3.815194637892017 2.076728918275085 0 0 0
1066 3 29.36938201597031 2.543463091928011 2.076728918275084 0 0 0
3081 3 30.103616566369567 16.53251009753207 29.07420485585118 0 0 0
2863 3 28.635147465571052 3.815194637892017 24.92074701930101 0 0 0
2742 3 19.82433286077996 24.162899373316105 31.150933774126266 0 0 0
3040 3 24.963974713574764 17.804241643496077 33.22766269240135 0 0 0
2609 3 24.229740163175503 21.619436281388094 18.69056026447576 0 0 0
3205 3 29.36938201597031 15.260778551568066 33.227662692401346 0 0 0
325 3 2.9369382015970302 15.260778551568066 14.53710242792559 0 0 0
2868 3 30.10361656636957 3.815194637892017 22.844018101025927 0 0 0
2452 3 15.418925558384412 3.815194637892017 31.150933774126266 0 0 0
2224 3 10.279283705589608 17.804241643496077 22.844018101025927 0 0 0
1415 3 34.50902386876511 8.902120821748039 10.383644591375422 0 0 0
2786 3 27.166678364772537 24.162899373316105 20.767289182750844 0 0 0
3027 3 31.57208566716808 6.358657729820028 26.99747593757609 0 0 0
2005 3 5.139641852794803 13.989047005604064 26.99747593757609 0 0 0
3188 3 33.0405547679666 8.902120821748039 31.150933774126266 0 0 0
1407 3 31.57208566716808 13.98904700560406 14.53710242792559 0 0 0
1671 3 41.11713482235844 22.891167827352103 4.153457836550167 0 0 0
1037 3 26.43244381437328 0.0 6.230186754825251 0 0 0
1913 3 5.139641852794803 21.619436281388094 20.76728918275084 0 0 0
1921 3 0.0 2.543463091928013 31.150933774126266 0 0 0
57 3 2.202703651197773 11.445583913676051 6.230186754825253 0 0 0
1528 3 39.64866572155992 22.8911678273521 0.0 0 0 0
1696 3 39.64866572155992 5.086926183856022 12.460373509650507 0 0 0
448 3 13.21622190718664 22.891167827352103 0.0 0 0 0
1205 3 30.837851116768825 0.0 6.230186754825253 0 0 0
1964 3 0.7342345503992576 16.532510097532075 33.227662692401346 0 0 0
877 3 16.15316010878367 20.347704735424088 14.53710242792559 0 0 0
1618 3 41.851369372757695 6.358657729820028 6.230186754825255 0 0 0
926 3 22.76127106237699 16.53251009753207 8.306915673100338 0 0 0
2965 3 33.040554767966604 16.53251009753207 18.69056026447576 0 0 0
1510 3 40.38290027195917 13.98904700560406 2.076728918275087 0 0 0
175 3 4.405407302395547 10.173852367712044 6.230186754825252 0 0 0
752 3 14.684691007985156 20.347704735424088 10.38364459137542 0 0 0
2147 3 12.481987356787384 1.2717315459640055 22.844018101025924 0 0 0
2138 3 8.810814604791092 7.630389275784033 24.92074701930101 0 0 0
514 3 16.887394659182927 1.271731545964006 4.153457836550167 0 0 0
504 3 11.747752806388124 5.086926183856022 8.306915673100336 0 0 0
2431 3 10.279283705589611 0.0 35.30439161067643 0 0 0
1109 3 23.495505612776245 22.8911678273521 10.383644591375418 0 0 0
167 3 1.468469100798517 15.260778551568066 10.38364459137542 0 0 0
737 3 20.55856741117921 7.630389275784033 2.076728918275084 0 0 0
853 3 17.621629209582185 12.717315459640057 12.460373509650504 0 0 0
3534 3 41.11713482235843 12.717315459640057 29.07420485585117 0 0 0
591 3 13.21622190718664 17.804241643496077 6.230186754825253 0 0 0
250 3 6.608110953593319 24.162899373316105 6.230186754825252 0 0 0
2254 3 8.076580054391833 1.2717315459640055 35.304391610676426 0 0 0
2692 3 20.55856741117921 10.173852367712044 26.99747593757609 0 0 0
871 3 24.229740163175503 3.815194637892017 6.230186754825253 0 0 0
2248 3 13.21622190718664 22.891167827352103 18.69056026447576 0 0 0
2983 3 27.166678364772537 3.815194637892017 33.227662692401346 0 0 0
1799 3 43.3198384735562 24.162899373316105 16.613831346200673 0 0 0
2626 3 19.82433286077996 1.2717315459640064 31.150933774126266 0 0 0
3375 3 35.97749296956363 13.98904700560406 33.227662692401346 0 0 0
1023 3 22.761271062376988 8.902120821748039 14.53710242792559 0 0 0
1754 3 41.11713482235843 15.260778551568068 10.383644591375422 0 0 0
3340 3 33.77478931836586 2.543463091928011 33.227662692401346 0 0 0
2880 3 22.02703651197773 17.804241643496077 31.150933774126266 0 0 0
2228 3 11.747752806388124 15.260778551568066 20.767289182750844 0 0 0
2272 3 7.342345503992576 7.630389275784034 33.227662692401346 0 0 0
1218 3 28.63514746557105 8.902120821748039 12.460373509650504 0 0 0
2821 3 20.55856741117922 10.173852367712044 33.227662692401346 0 0 0
2166 3 8.076580054391837 13.989047005604064 29.07420485585118 0 0 0
84 3 4.405407302395547 7.630389275784033 0.0 0 0 0
550 3 8.076580054391833 24.162899373316108 16.613831346200673 0 0 0
1493 3 41.85136937275769 6.358657729820029 0.0 0 0 0
3141 3 37.44596207036214 16.53251009753207 18.69056026447576 0 0 0
312 3 8.076580054391833 6.358657729820028 10.38364459137542 0 0 0
3154 3 29.36938201597031 2.5434630919280106 33.227662692401346 0 0 0
2154 3 3.6711727519962913 21.619436281388097 35.30439161067643 0 0 0
324 3 3.671172751996288 19.07597318946009 16.613831346200673 0 0 0
2328 3 10.279283705589608 12.717315459640057 29.07420485585118 0 0 0
1245 3 27.900912915171794 15.260778551568066 10.383644591375422 0 0 0
1025 3 22.02703651197773 7.630389275784033 12.460373509650504 0 0 0
3244 3 32.30632021756734 15.260778551568066 29.07420485585118 0 0 0
3377 3 36.71172751996289 10.173852367712044 29.07420485585118 0 0 0
2277 3 10.279283705589608 5.086926183856022 29.07420485585118 0 0 0
1287 3 30.837851116768825 12.717315459640057 6.230186754825253 0 0 0
2498 3 17.62162920958219 7.630389275784033 24.92074701930101 0 0 0
965 3 28.63514746557105 11.445583913676051 0.0 0 0 0
2144 3 11.013518255988869 6.358657729820028 24.92074701930101 0 0 0
2199 3 9.545049155190354 19.075973189460083 26.99747593757609 0 0 0
3267 3 31.57208566716808 24.162899373316108 33.227662692401346 0 0 0
2947 3 30.10361656636957 19.075973189460083 22.844018101025927 0 0 0
757 3 17.621629209582185 17.804241643496077 6.230186754825252 0 0 0
1172 3 23.49550561277625 0.0 16.613831346200673 0 0 0
1943 3 0.7342345503992576 13.98904700560406 33.227662692401346 0 0 0
883 3 18.35586375998145 19.075973189460083 14.53710242792559 0 0 0
1072 3 19.0900983103807 22.8911678273521 16.61383134620067 0 0 0
2781 3 28.63514746557105 16.53251009753207 18.69056026447576 0 0 0
1139 3 27.166678364772537 24.162899373316108 8.306915673100336 0 0 0
925 3 22.76127106237699 13.98904700560406 8.306915673100338 0 0 0
3452 3 36.71172751996289 22.8911678273521 29.07420485585118 0 0 0
254 3 8.076580054391833 21.619436281388094 4.153457836550168 0 0 0
1840 3 0.0 5.086926183856021 24.92074701930101 0 0 0
1168 3 30.837851116768825 22.8911678273521 -1.7763568394002505e-15 0 0 0
3153 3 27.900912915171794 2.543463091928012 35.30439161067643 0 0 0
2703 3 25.69820926397402 6.358657729820028 22.844018101025927 0 0 0
2382 3 11.013518255988863 24.162899373316108 31.150933774126266 0 0 0
2854 3 24.963974713574764 10.173852367712044 26.99747593757609 0 0 0
270 3 11.013518255988869 24.162899373316108 -1.7763568394002505e-15 0 0 0
319 3 11.013518255988863 1.2717315459640055 6.230186754825252 0 0 0
2798 3 22.02703651197773 0.0 31.15093377412626 0 0 0
2992 3 24.963974713574764 7.630389275784033 33.227662692401346 0 0 0
2380 3 19.82433286077996 3.815194637892017 18.69056026447576 0 0 0
2281 3 11.747752806388124 2.543463091928011 26.99747593757609 0 0 0
1722 3 43.3198384735562 6.358657729820028 10.383644591375422 0 0 0
2566 3 21.29280196157848 11.44558391367605 22.844018101025924 0 0 0
636 3 12.481987356787382 3.815194637892017 16.613831346200673 0 0 0
1500 3 35.24325841916437 20.347704735424088 6.230186754825253 0 0 0
2705 3 26.43244381437328 2.543463091928011 18.69056026447576 0 0 0
2404 3 19.82433286077996 8.902120821748039 18.69056026447576 0 0 0
2227 3 12.481987356787384 19.07597318946009 22.844018101025924 0 0 0
1277 3 28.63514746557105 19.075973189460083 12.460373509650504 0 0 0
2677 3 16.153160108783666 20.347704735424088 33.227662692401346 0 0 0
1049 3 22.02703651197773 12.717315459640057 12.460373509650502 0 0 0
780 3 17.621629209582185 20.347704735424088 6.230186754825253 0 0 0
1574 3 35.977492969563635 11.44558391367605 14.53710242792559 0 0 0
43 3 2.2027036511977727 6.358657729820028 6.230186754825253 0 0 0
1339 3 35.24325841916437 15.260778551568066 0.0 0 0 0
2416 3 17.621629209582185 17.804241643496077 18.69056026447576 0 0 0
2448 3 13.950456457585895 6.358657729820028 33.227662692401346 0 0 0
1682 3 36.711727519962885 5.086926183856022 16.613831346200676 0 0 0
2955 3 28.635147465571052 24.162899373316108 24.92074701930101 0 0 0
1048 3 22.761271062376988 16.53251009753207 14.53710242792559 0 0 0
1936 3 3.671172751996288 1.2717315459640055 29.07420485585118 0 0 0
3492 3 38.1801966207614 7.630389275784033 33.227662692401346 0 0 0
3573 3 42.58560392315695 0.0 33.227662692401346 0 0 0
1720 3 42.58560392315695 5.086926183856022 8.306915673100338 0 0 0
1920 3 6.608110953593319 24.162899373316105 18.69056026447576 0 0 0
2091 3 6.608110953593322 1.2717315459640055 31.150933774126266 0 0 0
2801 3 19.0900983103807 7.630389275784033 35.30439161067643 0 0 0
1566 3 40.38290027195918 1.2717315459640046 8.306915673100338 0 0 0
1397 3 35.24325841916437 0.0 6.230186754825251 0 0 0
3145 3 35.97749296956363 21.619436281388094 20.76728918275084 0 0 0
642 3 11.747752806388124 7.630389275784033 14.53710242792559 0 0 0
836 3 17.621629209582185 5.086926183856022 12.460373509650504 0 0 0
1412 3 33.0405547679666 13.98904700560406 12.460373509650504 0 0 0
193 3 0.7342345503992567 21.619436281388097 14.53710242792559 0 0 0
1482 3 37.44596207036214 13.989047005604062 6.230186754825253 0 0 0
2851 3 24.22974016317551 11.44558391367605 31.150933774126266 0 0 0
2534 3 19.82433286077996 8.902120821748039 24.92074701930101 0 0 0
2746 3 21.29280196157848 24.162899373316105 29.07420485585118 0 0 0
2070 3 11.013518255988863 24.162899373316108 18.69056026447576 0 0 0
3075 3 26.43244381437328 20.347704735424088 31.150933774126266 0 0 0
1228 3 30.837851116768825 2.543463091928012 6.230186754825251 0 0 0
891 3 21.29280196157848 13.98904700560406 10.383644591375422 0 0 0
1142 3 28.63514746557105 19.07597318946009 6.230186754825253 0 0 0
422 3 11.013518255988869 19.075973189460083 6.230186754825251 0 0 0
178 3 4.405407302395547 7.630389275784033 6.230186754825253 0 0 0
2740 3 28.63514746557105 3.815194637892017 18.69056026447576 0 0 0
2204 3 10.279283705589608 12.717315459640057 22.844018101025924 0 0 0
2872 3 19.0900983103807 22.8911678273521 35.30439161067643 0 0 0
49 3 4.405407302395547 0.0 0.0 0 0 0
2681 3 17.62162920958218 17.80424164349608 31.150933774126266 0 0 0
112 3 5.139641852794805 19.075973189460083 2.076728918275084 0 0 0
2652 3 16.153160108783666 12.717315459640057 33.227662692401346 0 0 0
2135 3 8.076580054391837 8.90212082174804 29.07420485585118 0 0 0
2958 3 30.10361656636957 21.619436281388094 22.844018101025924 0 0 0
1273 3 27.166678364772537 21.619436281388094 14.53710242792559 0 0 0
3569 3 43.31983847355621 24.162899373316105 29.07420485585118 0 0 0
3600 3 42.58560392315695 22.8911678273521 33.227662692401346 0 0 0
502 3 12.48198735678738 6.358657729820028 10.38364459137542 0 0 0
2738 3 27.166678364772537 8.902120821748039 20.767289182750844 0 0 0
1555 3 35.977492969563635 8.902120821748039 14.53710242792559 0 0 0
1736 3 41.85136937275769 13.989047005604062 12.460373509650504 0 0 0
3288 3 38.1801966207614 10.173852367712044 20.767289182750844 0 0 0
2725 3 22.76127106237699 13.98904700560406 26.99747593757609 0 0 0
730 3 18.35586375998144 11.445583913676051 8.306915673100338 0 0 0
578 3 18.35586375998144 8.902120821748039 2.0767289182750845 0 0 0
2911 3 24.22974016317551 24.162899373316105 31.150933774126266 0 0 0
209 3 6.60811095359332 11.44558391367605 6.230186754825252 0 0 0
3498 3 40.38290027195918 6.358657729820028 33.227662692401346 0 0 0
3161 3 27.900912915171794 7.630389275784033 35.30439161067643 0 0 0
2896 3 27.900912915171794 7.630389275784033 22.844018101025924 0 0 0
3083 3 29.36938201597031 15.260778551568066 26.99747593757609 0 0 0
3013 3 26.43244381437328 12.717315459640057 31.150933774126266 0 0 0
1609 3 38.1801966207614 12.717315459640057 8.306915673100335 0 0 0
2123 3 3.6711727519962913 16.532510097532075 35.30439161067643 0 0 0
2991 3 25.69820926397402 11.44558391367605 35.30439161067643 0 0 0
1830 3 2.2027036511977744 24.162899373316105 18.69056026447576 0 0 0
1458 3 38.91443117116066 6.358657729820028 4.153457836550171 0 0 0
3398 3 34.50902386876511 19.07597318946009 35.30439161067643 0 0 0
1224 3 29.36938201597031 5.086926183856023 8.306915673100336 0 0 0
1020 3 21.292801961578476 13.98904700560406 16.613831346200673 0 0 0
1052 3 24.229740163175503 13.98904700560406 12.460373509650504 0 0 0
844 3 20.55856741117921 0.0 8.306915673100338 0 0 0
485 3 13.21622190718664 0.0 6.230186754825253 0 0 0
1231 3 33.0405547679666 3.815194637892017 6.230186754825255 0 0 0
2173 3 10.27928370558961 10.173852367712044 22.844018101025924 0 0 0
875 3 14.684691007985156 22.8911678273521 16.613831346200676 0 0 0
3087 3 30.837851116768825 12.717315459640057 24.92074701930101 0 0 0
626 3 18.35586375998144 24.162899373316108 2.076728918275084 0 0 0
17 3 2.202703651197773 11.44558391367605 2.220446049250313e-16 0 0 0
451 3 5.873876403194062 2.5434630919280106 16.613831346200673 0 0 0
3249 3 35.24325841916437 12.717315459640057 24.92074701930101 0 0 0
1653 3 38.1801966207614 22.8911678273521 8.306915673100335 0 0 0
1608 3 36.711727519962885 12.717315459640057 10.38364459137542 0 0 0
2952 3 30.837851116768825 12.717315459640057 18.69056026447576 0 0 0
2007 3 4.405407302395547 12.717315459640057 24.92074701930101 0 0 0
3096 3 35.24325841916437 7.630389275784033 18.69056026447576 0 0 0
1998 3 2.2027036511977744 21.619436281388094 31.150933774126266 0 0 0
3012 3 24.963974713574764 12.717315459640057 33.227662692401346 0 0 0
831 3 16.88739465918293 11.445583913676051 16.613831346200673 0 0 0
337 3 7.342345503992577 7.630389275784033 8.306915673100336 0 0 0
609 3 15.418925558384412 21.619436281388094 6.230186754825252 0 0 0
1370 3 32.30632021756734 2.5434630919280106 10.38364459137542 0 0 0
3523 3 42.58560392315695 2.543463091928011 26.99747593757609 0 0 0
252 3 7.342345503992577 20.347704735424088 2.076728918275084 0 0 0
3302 3 37.44596207036214 19.075973189460083 24.920747019301007 0 0 0
360 3 4.405407302395546 17.804241643496077 12.460373509650504 0 0 0
107 3 2.936938201597031 22.8911678273521 2.076728918275084 0 0 0
424 3 10.27928370558961 17.804241643496077 4.153457836550169 0 0 0
2823 3 22.76127106237699 8.902120821748039 33.227662692401346 0 0 0
2427 3 17.621629209582185 20.347704735424088 18.69056026447576 0 0 0
2734 3 25.69820926397402 11.445583913676051 22.844018101025927 0 0 0
790 3 22.76127106237699 13.98904700560406 2.076728918275085 0 0 0
262 3 8.076580054391837 24.162899373316105 4.153457836550168 0 0 0
1668 3 42.58560392315695 12.717315459640057 2.076728918275084 0 0 0
2341 3 16.15316010878367 5.086926183856022 20.76728918275084 0 0 0
2568 3 20.55856741117922 10.173852367712044 20.767289182750844 0 0 0
1443 3 33.0405547679666 19.07597318946009 12.460373509650504 0 0 0
847 3 14.684691007985156 17.804241643496077 16.613831346200673 0 0 0
3246 3 34.50902386876511 13.98904700560406 29.07420485585118 0 0 0
2009 3 6.60811095359332 11.445583913676051 24.92074701930101 0 0 0
3365 3 39.64866572155992 0.0 24.92074701930101 0 0 0
463 3 9.545049155190348 3.815194637892017 14.53710242792559 0 0 0
3408 3 36.71172751996289 12.717315459640057 29.07420485585118 0 0 0
2098 3 2.9369382015970302 12.717315459640057 33.227662692401346 0 0 0
83 3 5.139641852794804 11.44558391367605 2.0767289182750845 0 0 0
1792 3 42.58560392315695 12.717315459640057 14.537102427925593 0 0 0
1353 3 27.90091291517179 2.543463091928011 16.613831346200673 0 0 0
2843 3 21.29280196157848 16.532510097532075 35.30439161067643 0 0 0
1721 3 43.3198384735562 3.815194637892017 10.383644591375422 0 0 0
1786 3 42.58560392315695 7.630389275784033 14.537102427925593 0 0 0
12 3 0.0 12.717315459640057 0.0 0 0 0
2748 3 22.02703651197773 20.347704735424088 24.92074701930101 0 0 0
3159 3 31.57208566716808 1.271731545964005 33.227662692401346 0 0 0
562 3 12.481987356787378 19.075973189460083 10.383644591375422 0 0 0
1442 3 33.0405547679666 16.53251009753207 12.460373509650504 0 0 0
165 3 0.7342345503992576 19.07597318946009 14.53710242792559 0 0 0
2523 3 15.418925558384414 19.075973189460083 31.150933774126266 0 0 0
1894 3 1.468469100798517 17.804241643496077 22.844018101025924 0 0 0
2503 3 19.82433286077996 3.815194637892017 24.92074701930101 0 0 0
1282 3 30.103616566369567 19.07597318946009 10.383644591375422 0 0 0
3059 3 33.0405547679666 8.902120821748039 24.92074701930101 0 0 0
3547 3 39.64866572155992 20.347704735424088 31.15093377412626 0 0 0
2561 3 19.090098310380704 15.260778551568066 22.844018101025924 0 0 0
1237 3 24.963974713574764 20.347704735424088 14.53710242792559 0 0 0
263 3 7.342345503992577 22.8911678273521 2.0767289182750845 0 0 0
2608 3 22.02703651197773 22.8911678273521 18.69056026447576 0 0 0
1031 3 25.698209263974015 3.815194637892017 10.383644591375422 0 0 0
3253 3 36.711727519962885 10.173852367712044 22.844018101025927 0 0 0
1259 3 33.0405547679666 8.902120821748039 6.230186754825255 0 0 0
3042 3 27.166678364772537 16.532510097532075 33.227662692401346 0 0 0
879 3 16.88739465918293 21.619436281388094 16.613831346200673 0 0 0
2658 3 19.82433286077996 8.902120821748039 31.150933774126266 0 0 0
2041 3 9.545049155190352 11.44558391367605 20.767289182750844 0 0 0
995 3 21.292801961578476 1.2717315459640055 16.613831346200673 0 0 0
279 3 5.139641852794803 1.271731545964005 14.53710242792559 0 0 0
2662 3 21.29280196157848 6.358657729820028 29.07420485585118 0 0 0
3402 3 35.97749296956363 16.53251009753207 33.227662692401346 0 0 0
2311 3 15.41892555838441 3.815194637892017 24.92074701930101 0 0 0
662 3 13.21622190718664 10.173852367712044 12.460373509650504 0 0 0
928 3 23.495505612776245 12.717315459640057 4.153457836550169 0 0 0
982 3 25.69820926397402 24.162899373316105 4.153457836550169 0 0 0
1024 3 22.761271062376988 11.44558391367605 14.53710242792559 0 0 0
2324 3 8.810814604791092 15.260778551568066 31.15093377412626 0 0 0
2229 3 13.21622190718664 15.260778551568066 18.69056026447576 0 0 0
3126 3 31.57208566716808 24.162899373316108 26.99747593757609 0 0 0
3527 3 38.914431171160665 16.53251009753207 35.30439161067643 0 0 0
3068 3 35.24325841916437 0.0 18.69056026447576 0 0 0
657 3 10.279283705589608 12.717315459640057 16.613831346200673 0 0 0
2627 3 14.684691007985151 12.71731545964006 35.30439161067643 0 0 0
2419 3 17.621629209582185 15.260778551568066 18.69056026447576 0 0 0
2052 3 7.342345503992576 20.34770473542409 20.767289182750844 0 0 0
2591 3 22.76127106237699 16.53251009753207 20.767289182750844 0 0 0
1173 3 24.963974713574764 0.0 14.53710242792559 0 0 0
1892 3 2.2027036511977727 19.075973189460083 24.92074701930101 0 0 0
2970 3 33.0405547679666 24.162899373316108 18.69056026447576 0 0 0
627 3 17.621629209582185 20.347704735424088 -1.7763568394002505e-15 0 0 0
1923 3 0.7342345503992576 3.8151946378920174 33.227662692401346 0 0 0
1199 3 28.63514746557105 6.358657729820028 12.460373509650504 0 0 0
880 3 16.15316010878367 17.804241643496077 14.53710242792559 0 0 0
373 3 10.279283705589608 10.173852367712044 4.153457836550169 0 0 0
632 3 10.27928370558961 5.086926183856022 16.613831346200673 0 0 0
881 3 17.621629209582185 17.804241643496077 12.460373509650504 0 0 0
1128 3 29.36938201597031 10.173852367712044 2.076728918275084 0 0 0
2165 3 7.342345503992576 15.26077855156807 26.99747593757609 0 0 0
2159 3 5.139641852794808 21.619436281388094 33.227662692401346 0 0 0
721 3 14.684691007985156 17.804241643496077 10.38364459137542 0 0 0
2189 3 5.8738764031940605 22.891167827352103 29.07420485585118 0 0 0
1572 3 33.774789318365855 12.717315459640057 14.537102427925587 0 0 0
2706 3 27.166678364772537 1.2717315459640055 20.767289182750844 0 0 0
169 3 2.2027036511977727 16.53251009753207 12.460373509650504 0 0 0
1039 3 28.63514746557105 1.2717315459640055 6.230186754825253 0 0 0
1922 3 0.7342345503992576 1.2717315459640073 33.227662692401346 0 0 0
3494 3 38.914431171160665 8.902120821748039 35.30439161067643 0 0 0
1235 3 23.49550561277625 22.8911678273521 16.613831346200673 0 0 0
771 3 22.761271062376988 11.44558391367605 2.076728918275085 0 0 0
1464 3 39.64866572155992 2.543463091928011 0.0 0 0 0
478 3 11.013518255988863 3.815194637892017 12.460373509650504 0 0 0
2399 3 16.153160108783666 12.717315459640057 20.76728918275084 0 0 0
2544 3 22.02703651197773 2.543463091928011 18.69056026447576 0 0 0
602 3 18.35586375998144 13.98904700560406 2.076728918275084 0 0 0
1057 3 24.96397471357476 7.630389275784034 8.306915673100335 0 0 0
734 3 19.82433286077996 8.902120821748039 6.230186754825253 0 0 0
3445 3 41.85136937275769 13.98904700560406 24.92074701930101 0 0 0
3240 4 30.837851116768825 17.804241643496077 31.150933774126266 0 0 0
3356 4 35.24325841916438 5.086926183856022 31.150933774126266 0 0 0
2541 4 22.02703651197773 5.086926183856022 18.69056026447576 0 0 0
363 4 6.608110953593319 19.075973189460083 12.460373509650504 0 0 0
2702 4 25.69820926397402 3.815194637892017 22.844018101025927 0 0 0
1629 4 35.977492969563635 24.162899373316108 14.53710242792559 0 0 0
271 4 1.4684691007985151 0.0 16.613831346200673 0 0 0
205 4 5.139641852794805 13.98904700560406 8.306915673100335 0 0 0
640 4 10.27928370558961 10.173852367712044 16.613831346200673 0 0 0
1260 4 32.30632021756735 5.086926183856022 4.153457836550167 0 0 0
971 4 23.495505612776245 20.347704735424088 4.153457836550167 0 0 0
1756 4 43.3198384735562 13.989047005604062 10.38364459137542 0 0 0
1034 4 26.43244381437328 2.5434630919280106 6.230186754825251 0 0 0
141 4 8.881784197001252e-16 12.717315459640057 12.460373509650504 0 0 0
2914 4 25.698209263974025 19.07597318946009 29.07420485585118 0 0 0
2655 4 18.35586375998145 13.989047005604062 33.227662692401346 0 0 0
3007 4 23.495505612776245 17.80424164349608 35.30439161067643 0 0 0
1738 4 42.58560392315695 10.173852367712046 8.306915673100338 0 0 0
3028 4 30.837851116768825 2.543463091928011 24.92074701930101 0 0 0
366 4 8.076580054391835 13.98904700560406 10.383644591375418 0 0 0
2646 4 22.76127106237699 1.271731545964005 26.99747593757609 0 0 0
489 4 7.342345503992579 15.260778551568066 14.53710242792559 0 0 0
332 4 6.608110953593318 13.98904700560406 12.460373509650504 0 0 0
482 4 12.48198735678738 1.2717315459640055 10.38364459137542 0 0 0
3387 4 40.38290027195917 6.358657729820028 26.99747593757609 0 0 0
1930 4 0.0 5.086926183856024 31.150933774126266 0 0 0
2618 4 16.88739465918293 3.815194637892016 35.30439161067643 0 0 0
148 4 1.468469100798516 7.630389275784034 10.383644591375422 0 0 0
3061 4 33.774789318365855 5.086926183856022 20.767289182750844 0 0 0
2394 4 15.41892555838441 19.07597318946009 24.92074701930101 0 0 0
1691 4 36.711727519962885 7.630389275784034 16.613831346200676 0 0 0
85 4 6.60811095359332 6.358657729820028 0.0 0 0 0
176 4 5.139641852794805 8.902120821748039 8.306915673100336 0 0 0
3033 4 33.774789318365855 0.0 20.767289182750844 0 0 0
2813 4 23.49550561277625 0.0 29.07420485585118 0 0 0
1893 4 2.202703651197771 21.619436281388094 24.92074701930101 0 0 0
3333 4 33.77478931836586 0.0 33.227662692401346 0 0 0
2428 4 19.82433286077996 19.075973189460083 18.69056026447576 0 0 0
3001 4 29.36938201597031 2.5434630919280115 26.99747593757609 0 0 0
1938 4 2.9369382015970302 0.0 26.99747593757609 0 0 0
1343 4 33.77478931836586 22.8911678273521 2.076728918275084 0 0 0
3400 4 33.77478931836586 17.804241643496077 33.227662692401346 0 0 0
1473 4 33.774789318365855 20.34770473542409 8.306915673100335 0 0 0
440 4 11.747752806388124 20.347704735424088 2.076728918275085 0 0 0
3444 4 41.85136937275769 11.445583913676051 24.920747019301007 0 0 0
116 4 6.608110953593319 19.075973189460083 8.881784197001252e-16 0 0 0
601 4 18.35586375998144 11.44558391367605 2.076728918275084 0 0 0
3146 4 35.97749296956363 24.162899373316108 20.76728918275084 0 0 0
543 4 16.887394659182927 6.358657729820028 4.153457836550168 0 0 0
3076 4 27.900912915171794 20.347704735424088 29.074204855851185 0 0 0
1377 4 27.90091291517179 12.717315459640057 16.613831346200673 0 0 0
1778 4 43.3198384735562 3.815194637892017 16.613831346200673 0 0 0
2402 4 18.35586375998144 13.98904700560406 20.76728918275084 0 0 0
3537 4 41.11713482235843 10.173852367712044 29.07420485585117 0 0 0
1333 4 34.50902386876511 19.075973189460083 4.153457836550171 0 0 0
3203 4 30.103616566369567 16.532510097532075 35.30439161067643 0 0 0
2972 4 23.49550561277625 0.0 35.30439161067643 0 0 0
1118 4 27.166678364772537 16.53251009753207 8.306915673100338 0 0 0
1381 4 29.369382015970302 10.173852367712044 14.537102427925587 0 0 0
3429 4 35.97749296956363 24.162899373316108 33.227662692401346 0 0 0
1316 4 33.77478931836586 15.26077855156807 2.076728918275084 0 0 0
2115 4 9.545049155190354 1.2717315459640046 26.99747593757609 0 0 0
1982 4 5.8738764031940605 5.086926183856022 22.844018101025924 0 0 0
2088 4 5.139641852794807 6.358657729820029 33.227662692401346 0 0 0
2300 4 10.279283705589606 7.630389275784033 29.07420485585118 0 0 0
935 4 24.963974713574764 7.630389275784033 2.076728918275085 0 0 0
2465 4 13.21622190718664 7.630389275784033 31.150933774126266 0 0 0
1558 4 37.44596207036215 3.815194637892017 12.460373509650504 0 0 0
105 4 2.2027036511977736 24.162899373316108 6.230186754825254 0 0 0
1857 4 2.2027036511977727 11.445583913676051 24.92074701930101 0 0 0
2758 4 25.69820926397402 16.53251009753207 22.844018101025927 0 0 0
3024 4 29.36938201597031 5.086926183856022 26.99747593757609 0 0 0
1312 4 32.30632021756735 17.80424164349608 4.153457836550167 0 0 0
1420 4 35.97749296956363 8.902120821748039 8.306915673100338 0 0 0
985 4 27.166678364772537 21.619436281388094 2.076728918275085 0 0 0
2445 4 11.747752806388124 5.086926183856021 33.227662692401346 0 0 0
1430 4 39.64866572155992 0.0 0.0 0 0 0
1200 4 27.900912915171794 2.543463091928011 10.38364459137542 0 0 0
822 4 18.35586375998145 1.2717315459640055 14.53710242792559 0 0 0
3070 4 25.69820926397402 24.162899373316105 35.30439161067643 0 0 0
664 4 13.950456457585895 11.445583913676051 14.53710242792559 0 0 0
1642 4 39.64866572155992 12.717315459640057 6.230186754825251 0 0 0
1232 4 32.30632021756734 0.0 4.153457836550167 0 0 0
2298 4 11.013518255988863 8.90212082174804 31.150933774126266 0 0 0
3260 4 38.1801966207614 5.086926183856022 20.767289182750844 0 0 0
3421 4 42.58560392315695 5.086926183856022 20.767289182750844 0 0 0
2898 4 30.10361656636957 6.358657729820028 22.844018101025927 0 0 0
1263 4 34.50902386876511 6.358657729820028 4.153457836550171 0 0 0
71 4 0.7342345503992576 19.075973189460083 8.306915673100336 0 0 0
918 4 19.82433286077996 21.619436281388094 12.460373509650504 0 0 0
1863 4 4.405407302395547 5.086926183856022 18.69056026447576 0 0 0
1151 4 31.57208566716808 16.532510097532075 2.076728918275084 0 0 0
1152 4 30.837851116768825 12.717315459640057 -1.7763568394002505e-15 0 0 0
2413 4 16.887394659182927 19.07597318946009 22.844018101025927 0 0 0
1759 4 40.38290027195917 24.162899373316105 14.53710242792559 0 0 0
1249 4 29.36938201597031 12.717315459640057 8.306915673100336 0 0 0
3449 4 43.3198384735562 11.44558391367605 22.844018101025924 0 0 0
2917 4 26.43244381437328 17.804241643496077 24.920747019301007 0 0 0
179 4 5.873876403194062 7.630389275784034 4.153457836550168 0 0 0
3233 4 29.369382015970302 22.891167827352103 33.22766269240135 0 0 0
1655 4 38.91443117116066 24.162899373316105 10.383644591375422 0 0 0
3598 4 42.58560392315695 17.804241643496077 33.227662692401346 0 0 0
2075 4 3.6711727519962913 1.2717315459640073 35.30439161067643 0 0 0
2010 4 6.60811095359332 13.989047005604062 24.92074701930101 0 0 0
2490 4 14.684691007985156 12.717315459640057 29.07420485585118 0 0 0
887 4 19.82433286077996 16.53251009753207 12.460373509650504 0 0 0
569 4 15.41892555838441 11.445583913676051 6.230186754825252 0 0 0
1661 4 41.11713482235843 17.804241643496077 4.153457836550167 0 0 0
3442 4 39.64866572155992 12.717315459640057 24.92074701930101 0 0 0
3016 4 26.43244381437328 10.173852367712044 31.150933774126266 0 0 0
2509 4 20.55856741117922 0.0 20.76728918275084 0 0 0
1330 4 33.0405547679666 24.162899373316105 6.230186754825255 0 0 0
2140 4 9.545049155190354 8.902120821748039 26.99747593757609 0 0 0
954 4 24.229740163175503 19.07597318946009 6.230186754825252 0 0 0
1816 4 2.2027036511977727 8.902120821748039 18.69056026447576 0 0 0
3131 4 32.30632021756734 20.347704735424088 22.844018101025927 0 0 0
228 4 4.405407302395547 20.347704735424088 6.230186754825253 0 0 0
1843 4 2.202703651197771 6.358657729820028 24.920747019301007 0 0 0
2096 4 1.4684691007985151 15.26077855156807 35.30439161067643 0 0 0
2676 4 14.684691007985151 20.347704735424088 35.30439161067643 0 0 0
1499 4 35.97749296956363 24.162899373316105 8.306915673100338 0 0 0
1758 4 42.58560392315695 12.717315459640057 8.306915673100338 0 0 0
3232 4 27.900912915171794 22.8911678273521 35.30439161067643 0 0 0
916 4 19.0900983103807 20.347704735424088 10.383644591375422 0 0 0
3039 4 25.69820926397402 21.619436281388094 35.30439161067643 0 0 0
886 4 19.82433286077996 13.98904700560406 12.460373509650504 0 0 0
313 4 7.342345503992577 2.543463091928011 8.306915673100336 0 0 0
129 4 0.7342345503992576 8.902120821748039 14.53710242792559 0 0 0
3091 4 32.30632021756734 10.173852367712044 22.844018101025927 0 0 0
1739 4 43.3198384735562 8.902120821748039 10.383644591375422 0 0 0
561 4 12.48198735678738 16.53251009753207 10.383644591375418 0 0 0
307 4 6.608110953593319 6.358657729820028 12.460373509650504 0 0 0
2215 4 8.076580054391837 24.162899373316108 29.07420485585118 0 0 0
1604 4 35.24325841916437 15.260778551568066 12.460373509650504 0 0 0
1963 4 0.0 17.80424164349608 31.150933774126266 0 0 0
1163 4 31.57208566716808 21.619436281388094 2.076728918275084 0 0 0
3055 4 31.57208566716808 11.445583913676051 26.99747593757609 0 0 0
2704 4 24.96397471357476 2.543463091928011 20.76728918275084 0 0 0
2118 4 10.279283705589608 0.0 22.844018101025924 0 0 0
1513 4 41.85136937275769 11.44558391367605 3.552713678800501e-15 0 0 0
1824 4 0.0 22.8911678273521 18.69056026447576 0 0 0
1919 4 6.608110953593317 21.619436281388097 18.69056026447576 0 0 0
1402 4 29.369382015970302 17.804241643496077 14.53710242792559 0 0 0
3592 4 42.58560392315695 12.717315459640057 33.227662692401346 0 0 0
473 4 8.810814604791094 7.630389275784033 12.460373509650504 0 0 0
2014 4 8.076580054391835 11.44558391367605 22.844018101025924 0 0 0
2842 4 20.55856741117921 17.80424164349608 33.227662692401346 0 0 0
2471 4 16.88739465918293 3.815194637892017 29.07420485585118 0 0 0
923 4 20.55856741117921 15.260778551568066 8.306915673100338 0 0 0
371 4 9.54504915519035 13.98904700560406 8.306915673100336 0 0 0
32 4 0.7342345503992576 1.271731545964006 8.306915673100338 0 0 0
498 4 11.013518255988863 8.902120821748039 12.460373509650504 0 0 0
1742 4 36.711727519962885 22.891167827352103 16.613831346200676 0 0 0
2132 4 6.608110953593323 13.98904700560406 31.15093377412626 0 0 0
144 4 0.0 10.173852367712044 12.460373509650504 0 0 0
3385 4 39.64866572155992 5.086926183856022 24.92074701930101 0 0 0
519 4 8.076580054391833 21.619436281388097 16.613831346200673 0 0 0
3121 4 35.97749296956363 11.445583913676051 20.76728918275084 0 0 0
2687 4 19.82433286077996 16.532510097532075 31.150933774126266 0 0 0
3471 4 41.11713482235844 22.8911678273521 22.844018101025924 0 0 0
287 4 5.139641852794803 3.815194637892017 14.53710242792559 0 0 0
974 4 25.698209263974025 21.619436281388097 4.153457836550169 0 0 0
945 4 21.29280196157848 21.619436281388094 10.383644591375422 0 0 0
2559 4 18.35586375998145 19.07597318946009 26.99747593757609 0 0 0
902 4 25.69820926397402 3.815194637892017 4.153457836550169 0 0 0
418 4 9.545049155190352 21.619436281388094 8.306915673100335 0 0 0
1204 4 29.36938201597031 0.0 8.306915673100336 0 0 0
1502 4 37.44596207036214 19.075973189460083 6.230186754825255 0 0 0
1776 4 41.11713482235843 5.086926183856023 16.613831346200676 0 0 0
1506 4 38.91443117116066 16.53251009753207 4.153457836550171 0 0 0
410 4 13.950456457585895 8.902120821748039 2.0767289182750828 0 0 0
817 4 16.15316010878367 5.086926183856022 14.53710242792559 0 0 0
2961 4 30.837851116768825 20.347704735424088 18.69056026447576 0 0 0
378 4 12.481987356787382 6.358657729820028 4.153457836550167 0 0 0
2191 4 6.608110953593323 24.162899373316105 31.15093377412626 0 0 0
2520 4 13.21622190718664 17.804241643496077 31.15093377412626 0 0 0
614 4 16.887394659182927 21.619436281388097 4.153457836550167 0 0 0
1480 4 35.24325841916437 15.260778551568068 6.230186754825251 0 0 0
2474 4 17.62162920958219 2.5434630919280106 24.92074701930101 0 0 0
181 4 6.60811095359332 8.902120821748039 6.230186754825252 0 0 0
3483 4 36.711727519962885 2.543463091928011 35.304391610676426 0 0 0
959 4 24.963974713574764 12.717315459640057 2.076728918275085 0 0 0
2600 4 20.55856741117922 20.347704735424088 20.76728918275084 0 0 0
415 4 8.076580054391835 24.162899373316108 10.383644591375422 0 0 0
837 4 19.0900983103807 5.086926183856022 10.383644591375422 0 0 0
2766 4 22.761271062376988 24.162899373316108 26.99747593757609 0 0 0
1598 4 34.50902386876512 19.075973189460083 16.613831346200673 0 0 0
1610 4 38.914431171160665 11.44558391367605 10.383644591375422 0 0 0
2414 4 16.887394659182927 21.619436281388097 22.844018101025927 0 0 0
458 4 8.076580054391833 3.815194637892017 16.613831346200673 0 0 0
1886 4 6.608110953593318 8.902120821748039 18.69056026447576 0 0 0
616 4 17.62162920958219 17.80424164349608 -1.7763568394002505e-15 0 0 0
1607 4 37.44596207036215 16.532510097532075 12.460373509650504 0 0 0
3197 4 35.24325841916437 0.0 24.92074701930101 0 0 0
2910 4 24.229740163175503 21.619436281388097 31.150933774126266 0 0 0
64 4 5.139641852794804 3.815194637892017 2.0767289182750845 0 0 0
3366 4 40.38290027195917 1.2717315459640055 26.99747593757609 0 0 0
576 4 17.621629209582185 7.630389275784033 0.0 0 0 0
1421 4 35.24325841916437 5.086926183856022 6.230186754825251 0 0 0
846 4 22.76127106237699 1.271731545964006 8.306915673100336 0 0 0
3552 4 41.851369372757695 16.53251009753207 31.150933774126266 0 0 0
2392 4 14.684691007985151 17.80424164349608 22.844018101025924 0 0 0
675 4 18.35586375998144 1.2717315459640055 8.306915673100338 0 0 0
2629 4 16.153160108783666 10.173852367712046 33.227662692401346 0 0 0
1276 4 27.900912915171794 20.347704735424088 10.383644591375418 0 0 0
2117 4 8.810814604791092 0.0 24.92074701930101 0 0 0
3513 4 40.38290027195918 8.902120821748039 33.227662692401346 0 0 0
1771 4 41.11713482235843 2.5434630919280106 16.613831346200676 0 0 0
226 4 3.6711727519962887 24.162899373316108 10.383644591375422 0 0 0
3058 4 33.0405547679666 6.358657729820028 24.92074701930101 0 0 0
339 4 9.54504915519035 6.358657729820028 8.306915673100336 0 0 0
34 4 0.0 0.0 6.230186754825253 0 0 0
1061 4 26.43244381437328 5.086926183856023 6.230186754825251 0 0 0
1631 4 36.71172751996289 20.34770473542409 10.383644591375418 0 0 0
2756 4 24.96397471357476 15.260778551568066 20.76728918275084 0 0 0
1456 4 36.711727519962885 7.630389275784033 4.153457836550167 0 0 0
380 4 11.747752806388124 5.086926183856022 2.0767289182750845 0 0 0
3227 4 38.91443117116066 1.2717315459640055 22.844018101025924 0 0 0
563 4 11.747752806388124 15.260778551568068 8.306915673100336 0 0 0
1650 4 42.58560392315695 7.630389275784034 2.076728918275084 0 0 0
1689 4 40.38290027195917 1.2717315459640055 14.53710242792559 0 0 0
622 4 16.887394659182927 24.162899373316108 4.153457836550166 0 0 0
2638 4 19.82433286077996 3.815194637892017 31.150933774126266 0 0 0
2361 4 12.481987356787378 16.532510097532075 29.07420485585118 0 0 0
840 4 19.0900983103807 2.543463091928011 10.383644591375422 0 0 0
1092 4 26.43244381437328 10.173852367712044 6.230186754825251 0 0 0
3193 4 33.774789318365855 2.543463091928011 26.99747593757609 0 0 0
3524 4 36.711727519962885 20.347704735424088 35.304391610676426 0 0 0
784 4 19.0900983103807 17.804241643496077 4.153457836550168 0 0 0
2386 4 12.481987356787378 24.162899373316105 29.07420485585118 0 0 0
1673 4 41.851369372757695 24.162899373316108 6.230186754825251 0 0 0
1658 4 40.38290027195918 19.075973189460083 8.306915673100338 0 0 0
3423 4 43.3198384735562 6.358657729820028 22.844018101025924 0 0 0
2439 4 13.950456457585895 1.2717315459640055 33.227662692401346 0 0 0
3405 4 36.71172751996289 15.260778551568066 29.07420485585118 0 0 0
1573 4 35.24325841916437 12.717315459640057 12.460373509650504 0 0 0
2733 4 25.69820926397402 8.902120821748039 22.844018101025927 0 0 0
1186 4 28.63514746557105 1.271731545964006 12.460373509650504 0 0 0
3530 4 39.64866572155992 15.260778551568066 31.15093377412626 0 0 0
349 4 11.747752806388124 0.0 2.0767289182750845 0 0 0
658 4 11.747752806388124 12.717315459640057 14.537102427925587 0 0 0
2611 4 14.684691007985151 2.543463091928011 35.30439161067643 0 0 0
3326 4 41.85136937275769 19.07597318946009 18.69056026447576 0 0 0
857 4 19.0900983103807 10.173852367712044 10.383644591375422 0 0 0
1213 4 26.43244381437328 12.717315459640057 12.460373509650504 0 0 0
762 4 19.82433286077996 13.98904700560406 6.230186754825254 0 0 0
3220 4 35.97749296956363 8.902120821748039 26.99747593757609 0 0 0
411 4 13.950456457585895 11.44558391367605 2.0767289182750845 0 0 0
1215 4 27.166678364772537 13.98904700560406 14.537102427925593 0 0 0
3525 4 36.711727519962885 17.804241643496077 35.304391610676426 0 0 0
207 4 4.405407302395547 12.717315459640057 6.230186754825253 0 0 0
1198 4 28.63514746557105 3.815194637892017 12.460373509650504 0 0 0
2297 4 10.279283705589608 10.173852367712046 29.07420485585118 0 0 0
2787 4 26.43244381437328 20.347704735424088 18.69056026447576 0 0 0
2031 4 4.405407302395547 17.804241643496077 24.920747019301007 0 0 0
1517 4 38.1801966207614 22.891167827352103 2.076728918275084 0 0 0
1906 4 1.4684691007985151 22.8911678273521 22.844018101025924 0 0 0
1285 4 31.57208566716808 13.98904700560406 8.306915673100338 0 0 0
2589 4 22.02703651197773 15.260778551568066 18.69056026447576 0 0 0
2263 4 9.545049155190348 3.815194637892017 33.227662692401346 0 0 0
201 4 3.6711727519962896 16.53251009753207 10.38364459137542 0 0 0
1505 4 38.1801966207614 17.804241643496077 2.076728918275084 0 0 0
518 4 8.076580054391833 19.07597318946009 16.613831346200673 0 0 0
2233 4 15.418925558384416 11.44558391367605 18.69056026447576 0 0 0
1143 4 28.63514746557105 21.619436281388097 6.230186754825253 0 0 0
1491 4 40.38290027195917 11.445583913676051 2.076728918275084 0 0 0
1111 4 24.229740163175503 24.162899373316108 12.460373509650504 0 0 0
1958 4 6.60811095359332 1.2717315459640046 24.92074701930101 0 0 0
754 4 16.887394659182927 19.075973189460083 10.383644591375422 0 0 0
1274 4 27.166678364772537 24.162899373316108 14.53710242792559 0 0 0
2334 4 13.950456457585895 8.902120821748039 26.99747593757609 0 0 0
233 4 6.60811095359332 16.53251009753207 6.230186754825251 0 0 0
3134 4 34.50902386876511 21.619436281388094 22.844018101025924 0 0 0
2640 4 19.090098310380696 2.543463091928012 29.07420485585118 0 0 0
3066 4 35.97749296956363 1.2717315459640055 20.76728918275084 0 0 0
285 4 2.9369382015970302 5.086926183856023 14.53710242792559 0 0 0
1735 4 41.85136937275769 11.44558391367605 12.460373509650504 0 0 0
2761 4 27.166678364772537 11.44558391367605 20.767289182750844 0 0 0
1954 4 5.139641852794805 3.815194637892016 26.99747593757609 0 0 0
2172 4 8.810814604791092 10.173852367712044 24.92074701930101 0 0 0
94 4 1.4684691007985151 17.804241643496077 4.153457836550167 0 0 0
2892 4 26.43244381437328 10.173852367712044 24.92074701930101 0 0 0
3357 4 36.71172751996289 5.086926183856022 29.07420485585118 0 0 0
16 4 2.2027036511977736 8.902120821748039 2.220446049250313e-16 0 0 0
2390 4 13.950456457585895 21.619436281388094 26.99747593757609 0 0 0
1670 4 39.64866572155992 22.8911678273521 6.230186754825251 0 0 0
3364 4 38.18019662076141 0.0 26.99747593757609 0 0 0
695 4 16.887394659182927 8.902120821748039 10.383644591375422 0 0 0
1222 4 30.103616566369567 6.358657729820028 10.383644591375422 0 0 0
273 4 1.4684691007985151 2.543463091928012 16.613831346200676 0 0 0
2468 4 15.418925558384414 8.902120821748039 31.150933774126266 0 0 0
97 4 3.671172751996288 19.075973189460083 4.153457836550169 0 0 0
810 4 24.229740163175503 24.162899373316105 1.7763568394002505e-15 0 0 0
3088 4 32.30632021756734 12.717315459640057 22.844018101025927 0 0 0
1150 4 31.57208566716808 13.989047005604062 2.076728918275084 0 0 0
2109 4 5.8738764031940605 5.086926183856021 29.07420485585118 0 0 0
1835 4 1.468469100798517 0.0 22.844018101025924 0 0 0
1917 4 5.139641852794805 24.162899373316105 20.76728918275084 0 0 0
1988 4 9.54504915519035 1.2717315459640055 20.767289182750844 0 0 0
1225 4 30.837851116768825 5.086926183856022 6.230186754825253 0 0 0
1674 4 41.11713482235844 20.347704735424088 4.153457836550167 0 0 0
3004 4 29.36938201597031 0.0 26.99747593757609 0 0 0
1114 4 25.698209263974015 19.075973189460083 10.383644591375422 0 0 0
389 4 5.873876403194061 22.8911678273521 10.383644591375422 0 0 0
2897 4 29.36938201597031 7.630389275784034 20.76728918275084 0 0 0
864 4 20.55856741117921 5.086926183856022 8.306915673100338 0 0 0
3172 4 33.0405547679666 3.815194637892017 31.150933774126266 0 0 0
2418 4 18.35586375998144 19.075973189460083 20.76728918275084 0 0 0
1535 4 32.30632021756734 7.630389275784033 16.613831346200673 0 0 0
1117 4 26.43244381437328 17.80424164349608 6.230186754825249 0 0 0
1140 4 26.43244381437328 20.347704735424088 6.230186754825249 0 0 0
2720 4 20.55856741117921 17.80424164349608 26.99747593757609 0 0 0
1058 4 26.43244381437328 7.630389275784033 6.230186754825251 0 0 0
2459 4 12.481987356787382 11.445583913676051 35.30439161067643 0 0 0
2637 4 19.090098310380696 5.086926183856022 29.07420485585118 0 0 0
931 4 23.49550561277625 10.173852367712044 4.153457836550169 0 0 0
1992 4 0.0 22.891167827352103 31.150933774126266 0 0 0
3152 4 27.900912915171794 5.086926183856022 35.30439161067643 0 0 0
1471 4 33.0405547679666 24.162899373316108 12.460373509650504 0 0 0
3285 4 38.1801966207614 12.717315459640057 20.767289182750844 0 0 0
172 4 3.671172751996289 11.44558391367605 10.383644591375418 0 0 0
2750 4 22.76127106237699 21.619436281388097 26.99747593757609 0 0 0
1693 4 38.91443117116066 6.358657729820028 16.613831346200673 0 0 0
3389 4 41.11713482235844 2.5434630919280115 22.844018101025927 0 0 0
686 4 13.21622190718664 15.260778551568066 12.460373509650504 0 0 0
2845 4 20.55856741117922 15.260778551568068 33.227662692401346 0 0 0
3575 4 41.11713482235843 7.630389275784033 35.30439161067643 0 0 0
630 4 19.82433286077996 24.162899373316105 0.0 0 0 0
1780 4 42.58560392315695 2.543463091928012 14.53710242792559 0 0 0
1581 4 38.1801966207614 7.630389275784033 8.306915673100335 0 0 0
1832 4 0.7342345503992558 1.2717315459640055 26.99747593757609 0 0 0
2737 4 27.166678364772537 6.358657729820028 20.767289182750844 0 0 0
499 4 11.013518255988863 11.445583913676051 12.460373509650504 0 0 0
1972 4 3.671172751996288 11.445583913676051 29.07420485585118 0 0 0
1028 4 24.229740163175503 8.902120821748039 12.460373509650504 0 0 0
2928 4 29.36938201597031 10.173852367712044 20.76728918275084 0 0 0
3320 4 38.1801966207614 20.347704735424088 20.767289182750844 0 0 0
3005 4 30.837851116768825 0.0 24.92074701930101 0 0 0
2809 4 22.02703651197773 2.543463091928012 31.150933774126266 0 0 0
2796 4 21.29280196157848 3.815194637892017 35.30439161067643 0 0 0
577 4 18.35586375998144 6.358657729820028 2.076728918275084 0 0 0
195 4 8.881784197001252e-16 20.347704735424088 12.460373509650504 0 0 0
1851 4 0.0 12.71731545964006 24.92074701930101 0 0 0
2974 4 25.69820926397402 1.2717315459640064 35.30439161067643 0 0 0
2900 4 29.36938201597031 5.086926183856022 20.76728918275084 0 0 0
1586 4 40.38290027195918 3.815194637892017 8.306915673100338 0 0 0
2000 4 2.936938201597032 17.804241643496077 26.99747593757609 0 0 0
1926 4 2.2027036511977727 1.2717315459640055 31.15093377412626 0 0 0
472 4 7.342345503992578 7.630389275784034 14.53710242792559 0 0 0
1227 4 31.57208566716808 6.358657729820028 8.306915673100338 0 0 0
240 4 8.810814604791092 12.717315459640057 8.881784197001252e-16 0 0 0
1665 4 42.58560392315695 15.260778551568066 2.076728918275084 0 0 0
530 4 12.48198735678738 11.44558391367605 10.38364459137542 0 0 0
1265 4 35.24325841916437 2.543463091928011 0.0 0 0 0
3196 4 35.97749296956363 3.815194637892017 26.99747593757609 0 0 0
541 4 16.15316010878367 5.086926183856022 2.0767289182750845 0 0 0
464 4 8.810814604791094 0.0 12.460373509650504 0 0 0
3596 4 43.31983847355621 19.075973189460083 35.30439161067643 0 0 0
2630 4 16.887394659182927 8.90212082174804 35.30439161067643 0 0 0
1062 4 27.900912915171794 5.086926183856022 4.153457836550167 0 0 0
1379 4 30.103616566369567 11.445583913676051 16.613831346200673 0 0 0
1562 4 38.914431171160665 1.2717315459640064 10.383644591375422 0 0 0
2837 4 26.43244381437328 0.0 24.920747019301007 0 0 0
2405 4 19.82433286077996 11.445583913676051 18.69056026447576 0 0 0
1278 4 28.63514746557105 21.619436281388097 12.460373509650504 0 0 0
210 4 6.60811095359332 13.98904700560406 6.230186754825253 0 0 0
3542 4 36.711727519962885 22.891167827352103 35.304391610676426 0 0 0
3177 4 27.900912915171794 12.717315459640057 35.30439161067643 0 0 0
1015 4 25.698209263974015 1.271731545964006 10.38364459137542 0 0 0
3264 4 39.64866572155992 2.543463091928011 18.69056026447576 0 0 0
3538 4 42.58560392315695 10.173852367712044 26.99747593757609 0 0 0
1472 4 32.30632021756734 20.347704735424088 10.383644591375418 0 0 0
2470 4 16.153160108783673 5.086926183856022 26.99747593757609 0 0 0
1775 4 41.11713482235843 7.630389275784033 16.613831346200676 0 0 0
617 4 18.35586375998144 16.53251009753207 2.0767289182750845 0 0 0
3201 4 27.900912915171794 17.804241643496077 35.30439161067643 0 0 0
58 4 1.4684691007985156 7.630389275784033 4.153457836550168 0 0 0
1632 4 37.44596207036215 19.07597318946009 12.460373509650504 0 0 0
2909 4 23.495505612776245 22.891167827352103 29.07420485585118 0 0 0
1791 4 43.3198384735562 16.532510097532075 16.61383134620067 0 0 0
3136 4 35.24325841916437 17.804241643496077 18.69056026447576 0 0 0
1925 4 1.468469100798517 0.0 29.07420485585118 0 0 0
2817 4 19.090098310380704 12.717315459640057 35.30439161067643 0 0 0
1147 4 30.103616566369567 19.07597318946009 4.153457836550167 0 0 0
1392 4 34.50902386876511 6.358657729820028 10.383644591375422 0 0 0
188 4 9.545049155190352 1.2717315459640055 2.076728918275084 0 0 0
1489 4 39.64866572155992 10.173852367712048 0.0 0 0 0
3435 4 38.18019662076141 17.804241643496077 26.99747593757609 0 0 0
2632 4 16.153160108783666 7.630389275784033 33.227662692401346 0 0 0
2745 4 21.292801961578476 21.619436281388097 29.07420485585118 0 0 0
282 4 2.936938201597031 7.630389275784033 14.53710242792559 0 0 0
811 4 14.684691007985156 2.5434630919280115 16.613831346200673 0 0 0
260 4 11.013518255988869 13.98904700560406 0.0 0 0 0
200 4 2.936938201597032 17.804241643496077 8.306915673100336 0 0 0
1349 4 37.44596207036214 21.619436281388097 0.0 0 0 0
1102 4 31.57208566716808 3.815194637892017 2.076728918275085 0 0 0
1295 4 33.77478931836586 7.630389275784033 2.076728918275084 0 0 0
517 4 7.342345503992578 20.347704735424088 14.53710242792559 0 0 0
2136 4 8.076580054391838 11.445583913676051 29.07420485585118 0 0 0
2388 4 13.216221907186636 20.34770473542409 24.92074701930101 0 0 0
689 4 13.21622190718664 12.717315459640057 12.460373509650504 0 0 0
103 4 6.60811095359332 11.445583913676051 0.0 0 0 0
2601 4 22.02703651197773 20.347704735424088 18.69056026447576 0 0 0
553 4 9.545049155190348 21.619436281388097 14.53710242792559 0 0 0
2463 4 13.950456457585895 8.90212082174804 33.22766269240135 0 0 0
2717 4 19.82433286077996 19.07597318946009 31.150933774126266 0 0 0
1497 4 35.24325841916437 22.8911678273521 6.230186754825251 0 0 0
3315 4 37.44596207036214 24.162899373316105 24.92074701930101 0 0 0
2878 4 22.76127106237699 19.07597318946009 33.227662692401346 0 0 0
961 4 27.166678364772537 11.44558391367605 2.076728918275085 0 0 0
1556 4 35.24325841916437 5.086926183856023 12.460373509650504 0 0 0
1931 4 1.4684691007985151 5.086926183856024 29.07420485585118 0 0 0
1548 4 32.30632021756734 10.173852367712044 16.61383134620067 0 0 0
218 4 9.54504915519035 8.902120821748039 2.076728918275084 0 0 0
284 4 3.671172751996288 8.902120821748039 16.613831346200673 0 0 0
3414 4 40.38290027195917 8.902120821748039 26.99747593757609 0 0 0
2665 4 22.02703651197773 5.086926183856022 24.920747019301007 0 0 0
1628 4 35.977492969563635 21.619436281388097 14.53710242792559 0 0 0
575 4 16.15316010878367 7.630389275784034 2.076728918275084 0 0 0
1699 4 39.64866572155992 2.543463091928012 12.460373509650504 0 0 0
2694 4 22.76127106237699 8.902120821748039 26.99747593757609 0 0 0
1957 4 5.873876403194062 2.543463091928011 22.844018101025924 0 0 0
1434 4 30.103616566369567 21.619436281388094 16.613831346200673 0 0 0
2822 4 22.02703651197773 10.173852367712044 31.15093377412626 0 0 0
2059 4 8.810814604791092 15.260778551568066 18.69056026447576 0 0 0
447 4 13.950456457585895 24.162899373316108 2.076728918275082 0 0 0
1891 4 1.468469100798517 20.347704735424088 22.844018101025924 0 0 0
3272 4 32.30632021756734 20.347704735424088 29.07420485585118 0 0 0
1941 4 0.0 12.717315459640057 31.15093377412626 0 0 0
2473 4 16.153160108783673 2.543463091928012 26.99747593757609 0 0 0
301 4 2.9369382015970302 10.173852367712044 14.53710242792559 0 0 0
265 4 9.545049155190352 21.619436281388094 2.076728918275084 0 0 0
1660 4 39.64866572155992 17.804241643496077 6.230186754825253 0 0 0
2377 4 18.35586375998144 6.358657729820028 20.76728918275084 0 0 0
3217 4 33.774789318365855 7.630389275784033 26.99747593757609 0 0 0
2996 4 26.43244381437328 5.086926183856023 31.150933774126266 0 0 0
3373 4 35.24325841916438 12.717315459640057 31.150933774126266 0 0 0
1716 4 41.11713482235843 7.630389275784033 10.383644591375422 0 0 0
3000 4 27.900912915171794 2.543463091928011 29.07420485585118 0 0 0
703 4 19.82433286077996 3.815194637892017 6.230186754825254 0 0 0
3120 4 35.24325841916437 12.717315459640057 18.69056026447576 0 0 0
1206 4 31.57208566716808 1.2717315459640055 8.306915673100338 0 0 0
1256 4 30.837851116768825 7.630389275784033 6.230186754825253 0 0 0
3037 4 24.96397471357476 20.34770473542409 33.22766269240135 0 0 0
3263 4 40.38290027195917 6.358657729820028 20.76728918275084 0 0 0
185 4 8.076580054391835 6.358657729820028 4.153457836550167 0 0 0
3020 4 27.900912915171794 7.630389275784034 29.07420485585118 0 0 0
2995 4 27.166678364772537 8.902120821748039 33.227662692401346 0 0 0
2718 4 19.82433286077996 21.619436281388094 31.150933774126266 0 0 0
792 4 22.02703651197773 12.717315459640057 0.0 0 0 0
3163 4 30.103616566369567 6.358657729820028 35.30439161067643 0 0 0
15 4 0.0 10.173852367712044 0.0 0 0 0
1236 4 23.49550561277625 20.347704735424088 16.613831346200673 0 0 0
1181 4 26.43244381437328 2.5434630919280115 12.460373509650504 0 0 0
1090 4 27.166678364772537 11.44558391367605 8.306915673100336 0 0 0
1831 4 1.7763568394002505e-15 2.543463091928011 24.92074701930101 0 0 0
3339 4 34.50902386876511 6.358657729820028 35.30439161067643 0 0 0
2197 4 8.81081460479109 17.80424164349608 24.92074701930101 0 0 0
1179 4 25.69820926397402 6.358657729820028 16.613831346200673 0 0 0
1782 4 41.11713482235843 10.173852367712044 16.613831346200676 0 0 0
1317 4 34.50902386876511 13.989047005604062 4.153457836550169 0 0 0
2073 4 1.4684691007985151 2.543463091928013 35.30439161067643 0 0 0
2950 4 31.57208566716809 13.98904700560406 20.76728918275084 0 0 0
2034 4 6.60811095359332 19.075973189460083 24.92074701930101 0 0 0
456 4 5.873876403194062 5.086926183856023 16.613831346200673 0 0 0
2313 4 16.15316010878367 0.0 20.76728918275084 0 0 0
3391 4 41.85136937275769 3.815194637892017 24.920747019301007 0 0 0
2282 4 12.48198735678738 1.2717315459640046 29.07420485585118 0 0 0
813 4 16.15316010878367 0.0 14.53710242792559 0 0 0
1600 4 33.774789318365855 17.804241643496077 14.53710242792559 0 0 0
1516 4 36.711727519962885 22.8911678273521 4.153457836550167 0 0 0
2527 4 16.88739465918293 16.532510097532075 29.07420485585118 0 0 0
807 4 22.761271062376988 24.162899373316105 2.076728918275085 0 0 0
2935 4 25.69820926397402 24.162899373316108 29.07420485585118 0 0 0
1009 4 22.02703651197773 2.543463091928011 12.460373509650504 0 0 0
727 4 16.887394659182927 16.53251009753207 10.383644591375422 0 0 0
1974 4 2.9369382015970302 10.173852367712046 26.99747593757609 0 0 0
1636 4 38.914431171160665 16.532510097532075 10.38364459137542 0 0 0
2444 4 12.481987356787382 8.90212082174804 35.30439161067643 0 0 0
1054 4 24.96397471357476 10.173852367712044 8.306915673100335 0 0 0
2241 4 13.21622190718664 20.347704735424088 18.69056026447576 0 0 0
1797 4 43.3198384735562 21.619436281388097 16.613831346200673 0 0 0
1292 4 33.774789318365855 10.173852367712046 2.076728918275084 0 0 0
3535 4 41.851369372757695 11.44558391367605 31.150933774126266 0 0 0
3520 4 42.58560392315695 5.086926183856022 26.99747593757609 0 0 0
1484 4 36.711727519962885 12.717315459640057 4.153457836550167 0 0 0
2340 4 14.684691007985151 5.086926183856023 22.844018101025924 0 0 0
2507 4 21.29280196157848 1.271731545964006 22.844018101025927 0 0 0
1619 4 41.851369372757695 8.90212082174804 6.230186754825251 0 0 0
3427 4 35.24325841916438 22.8911678273521 31.150933774126266 0 0 0
430 4 13.950456457585895 13.98904700560406 2.076728918275084 0 0 0
2457 4 10.27928370558961 12.717315459640057 35.30439161067643 0 0 0
2607 4 22.76127106237699 24.162899373316108 20.767289182750844 0 0 0
1429 4 38.1801966207614 0.0 2.076728918275084 0 0 0
156 4 4.405407302395547 2.543463091928011 6.230186754825253 0 0 0
2094 4 7.342345503992577 0.0 26.99747593757609 0 0 0
3200 4 27.90091291517179 20.34770473542409 35.30439161067643 0 0 0
3433 4 37.44596207036214 21.619436281388094 31.150933774126266 0 0 0
1743 4 38.1801966207614 22.891167827352103 14.53710242792559 0 0 0
3462 4 41.85136937275769 16.53251009753207 24.920747019301007 0 0 0
566 4 13.950456457585895 16.53251009753207 8.306915673100338 0 0 0
3353 4 35.24325841916438 7.630389275784033 31.150933774126266 0 0 0
3531 4 40.38290027195918 13.98904700560406 33.227662692401346 0 0 0
2368 4 14.684691007985156 12.717315459640057 22.844018101025924 0 0 0
1156 4 27.90091291517179 22.8911678273521 4.153457836550169 0 0 0
3273 4 33.774789318365855 20.347704735424088 26.99747593757609 0 0 0
815 4 14.684691007985156 7.630389275784033 16.613831346200673 0 0 0
546 4 18.35586375998144 1.271731545964005 2.076728918275084 0 0 0
1053 4 23.495505612776245 10.173852367712044 10.383644591375418 0 0 0
3532 4 40.38290027195918 16.53251009753207 33.227662692401346 0 0 0
1878 4 3.671172751996288 11.445583913676051 22.844018101025924 0 0 0
2762 4 27.166678364772537 13.98904700560406 20.767289182750844 0 0 0
2877 4 22.02703651197773 20.34770473542409 31.150933774126266 0 0 0
1794 4 41.11713482235843 20.347704735424088 16.613831346200673 0 0 0
3328 4 39.64866572155992 22.891167827352103 18.69056026447576 0 0 0
238 4 8.076580054391835 16.53251009753207 4.153457836550169 0 0 0
2023 4 1.468469100798517 22.8911678273521 29.07420485585118 0 0 0
1914 4 4.405407302395547 17.804241643496077 18.69056026447576 0 0 0
2948 4 29.36938201597031 15.260778551568068 20.76728918275084 0 0 0
672 4 16.887394659182927 6.358657729820028 10.383644591375422 0 0 0
51 4 4.440892098500626e-16 12.717315459640057 6.230186754825251 0 0 0
1560 4 36.711727519962885 2.543463091928012 10.383644591375418 0 0 0
1514 4 41.85136937275769 13.98904700560406 0.0 0 0 0
3132 4 33.774789318365855 20.347704735424088 20.767289182750844 0 0 0
2613 4 16.153160108783666 0.0 33.227662692401346 0 0 0
1454 4 37.44596207036214 8.902120821748039 6.230186754825255 0 0 0
3486 4 38.914431171160665 3.815194637892017 35.30439161067643 0 0 0
3323 4 40.38290027195917 21.619436281388097 20.76728918275084 0 0 0
3262 4 40.38290027195917 3.815194637892017 20.76728918275084 0 0 0
732 4 17.621629209582185 10.173852367712044 6.230186754825251 0 0 0
457 4 7.342345503992578 5.086926183856022 14.53710242792559 0 0 0
3335 4 32.30632021756735 7.630389275784033 35.30439161067643 0 0 0
854 4 18.35586375998145 11.44558391367605 14.53710242792559 0 0 0
80 4 2.936938201597031 10.173852367712044 2.076728918275084 0 0 0
1536 4 32.30632021756734 5.086926183856022 16.613831346200673 0 0 0
198 4 2.2027036511977736 21.619436281388097 12.460373509650504 0 0 0
2076 4 3.6711727519962913 3.8151946378920174 35.30439161067643 0 0 0
283 4 3.671172751996288 6.358657729820028 16.613831346200673 0 0 0
1475 4 34.50902386876511 21.619436281388097 10.383644591375422 0 0 0
2395 4 14.684691007985151 15.260778551568066 22.844018101025924 0 0 0
535 4 13.950456457585895 11.44558391367605 8.306915673100336 0 0 0
3063 4 34.50902386876511 6.358657729820028 22.844018101025924 0 0 0
139 4 4.405407302395547 0.0 6.230186754825253 0 0 0
663 4 13.950456457585895 8.902120821748039 14.53710242792559 0 0 0
1193 4 26.43244381437328 7.630389275784033 12.460373509650504 0 0 0
2421 4 19.82433286077996 16.53251009753207 18.69056026447576 0 0 0
2841 4 19.090098310380704 17.804241643496077 35.304391610676426 0 0 0
365 4 7.342345503992577 15.260778551568066 8.306915673100336 0 0 0
2145 4 10.279283705589608 2.543463091928012 22.844018101025927 0 0 0
1519 4 38.91443117116066 24.162899373316108 4.153457836550167 0 0 0
2973 4 24.963974713574764 0.0 33.227662692401346 0 0 0
2660 4 19.090098310380696 7.630389275784033 29.07420485585118 0 0 0
1512 4 39.64866572155992 12.717315459640057 0.0 0 0 0
2836 4 27.16667836477254 3.815194637892017 26.99747593757609 0 0 0
117 4 5.139641852794805 24.162899373316105 2.0767289182750845 0 0 0
2987 4 23.49550561277625 12.717315459640057 35.30439161067643 0 0 0
613 4 16.887394659182927 19.075973189460083 4.153457836550168 0 0 0
1044 4 21.292801961578476 19.075973189460083 16.613831346200673 0 0 0
1233 4 33.774789318365855 0.0 2.076728918275085 0 0 0
779 4 18.35586375998144 24.162899373316108 8.306915673100336 0 0 0
306 4 5.873876403194061 7.630389275784033 10.383644591375422 0 0 0
3346 4 37.44596207036214 1.2717315459640055 31.150933774126266 0 0 0
1617 4 41.11713482235844 7.630389275784035 4.153457836550167 0 0 0
2680 4 16.153160108783666 17.804241643496077 33.227662692401346 0 0 0
171 4 2.936938201597032 12.717315459640057 8.306915673100335 0 0 0
1697 4 40.38290027195917 3.815194637892017 14.53710242792559 0 0 0
3457 4 39.64866572155992 20.347704735424088 24.92074701930101 0 0 0
67 4 6.60811095359332 1.2717315459640055 0.0 0 0 0
892 4 20.55856741117921 10.173852367712044 8.306915673100336 0 0 0
3540 4 43.31983847355621 11.44558391367605 29.07420485585118 0 0 0
2265 4 10.279283705589608 0.0 29.07420485585117 0 0 0
2701 4 24.96397471357476 5.086926183856022 20.76728918275084 0 0 0
3560 4 39.64866572155992 22.8911678273521 31.15093377412626 0 0 0
3077 4 28.63514746557105 19.07597318946009 31.150933774126266 0 0 0
758 4 18.35586375998144 16.53251009753207 8.306915673100338 0 0 0
1997 4 2.2027036511977727 19.07597318946009 31.150933774126266 0 0 0
1805 4 2.2027036511977727 1.2717315459640064 18.69056026447576 0 0 0
2481 4 10.27928370558961 17.804241643496077 35.30439161067643 0 0 0
2735 4 24.96397471357476 7.630389275784033 20.76728918275084 0 0 0
1793 4 41.11713482235843 22.891167827352103 16.613831346200673 0 0 0
1337 4 35.97749296956363 16.53251009753207 2.076728918275087 0 0 0
1723 4 42.58560392315695 2.54346309192801 8.306915673100338 0 0 0
1568 4 32.30632021756734 15.260778551568066 16.613831346200673 0 0 0
939 4 26.43244381437328 5.086926183856022 0.0 0 0 0
2631 4 16.88739465918293 11.445583913676051 35.30439161067643 0 0 0
484 4 11.747752806388124 0.0 8.306915673100336 0 0 0
74 4 2.2027036511977736 13.98904700560406 6.230186754825252 0 0 0
441 4 13.21622190718664 20.347704735424088 -8.881784197001252e-16 0 0 0
372 4 8.810814604791092 10.173852367712044 6.230186754825253 0 0 0
2479 4 19.82433286077996 1.271731545964005 24.92074701930101 0 0 0
3369 4 33.77478931836586 15.260778551568066 33.227662692401346 0 0 0
236 4 7.342345503992577 15.260778551568066 2.0767289182750845 0 0 0
1183 4 27.166678364772537 3.815194637892017 14.53710242792559 0 0 0
3371 4 34.50902386876511 16.53251009753207 35.304391610676426 0 0 0
3255 4 37.44596207036214 11.44558391367605 24.92074701930101 0 0 0
1071 4 31.57208566716808 1.2717315459640046 2.076728918275085 0 0 0
382 4 13.950456457585895 3.815194637892017 2.076728918275084 0 0 0
1060 4 27.166678364772533 8.902120821748039 8.306915673100338 0 0 0
1859 4 2.936938201597032 7.630389275784033 20.767289182750844 0 0 0
532 4 11.747752806388124 10.173852367712044 8.306915673100336 0 0 0
1459 4 38.91443117116066 8.90212082174804 4.153457836550167 0 0 0
903 4 25.69820926397402 6.358657729820028 4.153457836550169 0 0 0
2083 4 3.6711727519962896 6.358657729820031 35.30439161067643 0 0 0
2320 4 7.342345503992576 17.804241643496077 33.227662692401346 0 0 0
3416 4 39.64866572155992 7.630389275784033 24.92074701930101 0 0 0
2291 4 8.076580054391833 16.53251009753207 35.30439161067643 0 0 0
1565 4 39.64866572155992 0.0 6.230186754825253 0 0 0
298 4 2.936938201597031 12.717315459640057 14.53710242792559 0 0 0
2731 4 23.495505612776245 10.173852367712044 22.844018101025924 0 0 0
1123 4 28.63514746557105 16.532510097532075 6.230186754825251 0 0 0
2029 4 5.139641852794805 19.075973189460083 26.99747593757609 0 0 0
305 4 4.405407302395546 7.630389275784034 12.460373509650504 0 0 0
2156 4 2.936938201597032 20.347704735424088 33.227662692401346 0 0 0
2299 4 11.013518255988863 11.445583913676051 31.150933774126266 0 0 0
1798 4 42.58560392315695 17.804241643496077 14.53710242792559 0 0 0
2317 4 7.342345503992576 20.34770473542409 33.227662692401346 0 0 0
3277 4 35.24325841916437 17.804241643496077 24.92074701930101 0 0 0
2563 4 19.82433286077996 16.53251009753207 24.92074701930101 0 0 0
3114 4 33.0405547679666 19.075973189460083 24.92074701930101 0 0 0
1230 4 33.0405547679666 1.2717315459640064 6.230186754825255 0 0 0
1714 4 40.38290027195917 11.44558391367605 14.53710242792559 0 0 0
1593 4 42.58560392315695 0.0 2.076728918275084 0 0 0
3578 4 43.31983847355621 3.815194637892017 35.30439161067643 0 0 0
2924 4 27.900912915171794 12.717315459640057 22.844018101025924 0 0 0
1444 4 32.30632021756734 15.260778551568066 10.38364459137542 0 0 0
1371 4 33.0405547679666 1.271731545964005 12.460373509650504 0 0 0
3463 4 41.85136937275769 19.075973189460083 24.92074701930101 0 0 0
186 4 7.342345503992577 2.543463091928011 2.076728918275084 0 0 0
1800 4 42.58560392315695 22.8911678273521 14.537102427925593 0 0 0
3478 4 42.58560392315695 17.804241643496077 20.767289182750844 0 0 0
3590 4 43.31983847355621 13.98904700560406 35.30439161067643 0 0 0
637 4 11.747752806388124 0.0 14.53710242792559 0 0 0
1587 4 40.38290027195918 6.358657729820028 8.306915673100338 0 0 0
835 4 18.35586375998145 8.902120821748039 14.53710242792559 0 0 0
874 4 25.69820926397402 1.2717315459640055 4.153457836550169 0 0 0
2780 4 28.63514746557105 13.98904700560406 18.69056026447576 0 0 0
1078 4 22.761271062376988 19.075973189460083 14.53710242792559 0 0 0
2769 4 24.229740163175503 21.619436281388097 24.92074701930101 0 0 0
878 4 16.88739465918293 19.075973189460083 16.613831346200673 0 0 0
35 4 1.4684691007985156 0.0 4.153457836550168 0 0 0
2326 4 11.013518255988863 13.989047005604064 31.150933774126266 0 0 0
979 4 26.43244381437328 15.260778551568068 0.0 0 0 0
182 4 5.873876403194062 5.086926183856022 4.153457836550168 0 0 0
702 4 19.0900983103807 5.086926183856022 4.153457836550168 0 0 0
470 4 8.076580054391833 8.902120821748039 16.613831346200673 0 0 0
2100 4 3.6711727519962913 13.98904700560406 35.30439161067643 0 0 0
147 4 2.2027036511977727 11.44558391367605 12.460373509650504 0 0 0
3257 4 38.1801966207614 7.630389275784033 20.767289182750844 0 0 0
2 5 0.7342345503992578 1.2717315459640055 2.076728918275084 0 0 0
4 5 0.0 0.0 0.0 0 0 0
66 5 4.405407302395547 2.543463091928011 0.0 0 0 0
187 5 8.810814604791094 2.5434630919280115 0.0 0 0 0
220 5 11.013518255988869 3.815194637892017 0.0 0 0 0
350 5 13.21622190718664 0.0 0.0 0 0 0
385 5 15.418925558384412 1.271731545964005 -8.881784197001252e-16 0 0 0
544 5 16.153160108783673 2.543463091928011 2.076728918275084 0 0 0
545 5 17.62162920958219 2.5434630919280106 0.0 0 0 0
547 5 18.35586375998144 3.815194637892017 2.076728918275084 0 0 0
549 5 19.82433286077996 1.2717315459640055 0.0 0 0 0
580 5 19.82433286077996 3.815194637892017 0.0 0 0 0
709 5 20.55856741117922 0.0 2.076728918275084 0 0 0
711 5 22.76127106237699 1.2717315459640055 2.076728918275085 0 0 0
745 5 24.229740163175503 1.2717315459640064 1.7763568394002505e-15 0 0 0
746 5 24.229740163175503 3.815194637892017 1.7763568394002505e-15 0 0 0
873 5 24.963974713574764 0.0 2.076728918275085 0 0 0
940 5 28.635147465571052 3.815194637892017 1.7763568394002505e-15 0 0 0
1069 5 29.36938201597031 0.0 2.076728918275082 0 0 0
1070 5 30.837851116768825 0.0 0.0 0 0 0
1105 5 33.0405547679666 1.2717315459640055 1.7763568394002505e-15 0 0 0
1266 5 35.97749296956363 1.2717315459640055 2.076728918275087 0 0 0
1268 5 35.24325841916438 0.0 0.0 0 0 0
1269 5 37.44596207036214 1.2717315459640055 0.0 0 0 0
1462 5 40.38290027195917 3.815194637892017 2.076728918275087 0 0 0
1465 5 41.85136937275769 1.2717315459640055 3.552713678800501e-15 0 0 0
1466 5 41.85136937275769 3.8151946378920174 0.0 0 0 0
1624 5 42.58560392315695 2.543463091928011 2.076728918275084 0 0 0
59 5 2.936938201597031 7.630389275784034 2.076728918275084 0 0 0
217 5 9.545049155190352 6.358657729820028 2.076728918275084 0 0 0
219 5 8.810814604791094 5.086926183856022 0.0 0 0 0
413 5 15.418925558384412 6.358657729820028 -8.881784197001252e-16 0 0 0
581 5 19.82433286077996 6.358657729820028 0.0 0 0 0
740 5 20.55856741117922 5.086926183856023 2.076728918275084 0 0 0
743 5 22.76127106237699 6.358657729820028 2.076728918275085 0 0 0
772 5 22.02703651197773 7.630389275784033 0.0 0 0 0
901 5 24.963974713574764 5.086926183856022 2.076728918275085 0 0 0
937 5 27.166678364772537 6.358657729820028 2.076728918275085 0 0 0
941 5 28.63514746557105 6.358657729820028 1.7763568394002505e-15 0 0 0
1097 5 29.36938201597031 7.630389275784033 2.076728918275082 0 0 0
1261 5 33.774789318365855 5.086926183856022 2.076728918275084 0 0 0
1297 5 35.97749296956363 6.358657729820028 2.076728918275087 0 0 0
1492 5 39.64866572155992 7.630389275784034 0.0 0 0 0
8 5 0.7342345503992576 8.902120821748039 2.076728918275084 0 0 0
81 5 4.405407302395547 10.173852367712044 4.440892098500626e-16 0 0 0
82 5 5.139641852794805 8.902120821748039 2.0767289182750845 0 0 0
212 5 7.342345503992577 10.173852367712044 2.0767289182750845 0 0 0
243 5 8.810814604791092 10.173852367712044 -8.881784197001252e-16 0 0 0
414 5 15.418925558384412 8.902120821748039 0.0 0 0 0
605 5 19.82433286077996 11.44558391367605 0.0 0 0 0
768 5 20.55856741117922 10.173852367712044 2.076728918275084 0 0 0
769 5 22.02703651197773 10.173852367712044 0.0 0 0 0
770 5 22.76127106237699 8.902120821748039 2.076728918275085 0 0 0
793 5 24.229740163175503 11.44558391367605 1.7763568394002505e-15 0 0 0
932 5 24.96397471357476 10.173852367712044 2.076728918275085 0 0 0
938 5 27.166678364772537 8.902120821748039 2.076728918275085 0 0 0
964 5 28.63514746557105 8.902120821748039 1.7763568394002505e-15 0 0 0
1130 5 31.57208566716808 8.902120821748039 2.076728918275085 0 0 0
1153 5 33.0405547679666 11.445583913676051 -1.7763568394002505e-15 0 0 0
1298 5 35.97749296956363 8.90212082174804 2.076728918275084 0 0 0
1490 5 40.38290027195917 8.90212082174804 2.076728918275084 0 0 0
14 5 0.734234550399258 13.98904700560406 2.0767289182750845 0 0 0
21 5 0.0 15.260778551568068 0.0 0 0 0
77 5 2.936938201597031 12.717315459640057 2.076728918275084 0 0 0
257 5 9.545049155190352 16.53251009753207 2.076728918275084 0 0 0
261 5 11.013518255988863 16.53251009753207 0.0 0 0 0
405 5 11.747752806388124 12.717315459640057 2.076728918275085 0 0 0
428 5 11.747752806388124 15.260778551568066 2.0767289182750845 0 0 0
429 5 13.216221907186638 15.260778551568066 8.881784197001252e-16 0 0 0
431 5 13.950456457585895 16.53251009753207 2.076728918275084 0 0 0
432 5 13.21622190718664 12.717315459640057 0.0 0 0 0
434 5 15.41892555838441 13.98904700560406 -8.881784197001252e-16 0 0 0
599 5 16.153160108783673 12.717315459640057 2.076728918275084 0 0 0
620 5 19.82433286077996 13.98904700560406 0.0 0 0 0
791 5 22.76127106237699 16.532510097532075 2.076728918275084 0 0 0
805 5 24.229740163175503 16.532510097532075 0.0 0 0 0
956 5 24.963974713574764 15.260778551568068 2.076728918275084 0 0 0
981 5 28.635147465571052 16.532510097532075 0.0 0 0 0
1125 5 29.36938201597031 12.717315459640057 2.076728918275082 0 0 0
1149 5 30.837851116768825 15.26077855156807 -1.7763568394002505e-15 0 0 0
1320 5 35.24325841916438 12.71731545964006 0.0 0 0 0
1340 5 37.44596207036214 13.98904700560406 3.552713678800501e-15 0 0 0
1341 5 37.44596207036214 16.53251009753207 0.0 0 0 0
1508 5 38.1801966207614 15.260778551568066 2.076728918275084 0 0 0
1525 5 41.85136937275769 16.53251009753207 0.0 0 0 0
95 5 2.936938201597031 17.804241643496077 2.076728918275084 0 0 0
114 5 4.405407302395547 17.804241643496077 4.440892098500626e-16 0 0 0
267 5 8.810814604791094 20.347704735424088 8.881784197001252e-16 0 0 0
446 5 15.418925558384412 19.07597318946009 -1.7763568394002505e-15 0 0 0
612 5 16.15316010878367 20.347704735424088 2.0767289182750828 0 0 0
615 5 16.15316010878367 17.804241643496077 2.0767289182750845 0 0 0
800 5 20.55856741117921 20.347704735424088 2.076728918275082 0 0 0
801 5 22.02703651197773 20.34770473542409 -1.7763568394002505e-15 0 0 0
806 5 24.229740163175503 19.07597318946009 0.0 0 0 0
972 5 24.963974713574764 20.34770473542409 2.076728918275084 0 0 0
978 5 27.16667836477254 19.07597318946009 2.076728918275084 0 0 0
1145 5 29.36938201597031 17.80424164349608 2.076728918275082 0 0 0
1160 5 29.36938201597031 20.347704735424088 2.076728918275084 0 0 0
1161 5 30.837851116768825 20.347704735424088 -1.7763568394002505e-15 0 0 0
1164 5 30.837851116768825 17.804241643496077 0.0 0 0 0
1166 5 33.0405547679666 19.075973189460083 0.0 0 0 0
1332 5 33.774789318365855 20.347704735424088 2.076728918275084 0 0 0
1338 5 35.97749296956363 19.075973189460083 2.076728918275085 0 0 0
1520 5 38.1801966207614 20.347704735424088 2.076728918275084 0 0 0
1524 5 39.64866572155992 17.804241643496077 0.0 0 0 0
1526 5 41.85136937275769 19.07597318946009 0.0 0 0 0
1678 5 42.58560392315695 17.804241643496077 2.076728918275084 0 0 0
25 5 0.7342345503992589 21.619436281388094 2.076728918275084 0 0 0
26 5 0.7342345503992571 24.162899373316105 2.076728918275084 0 0 0
113 5 5.139641852794803 21.619436281388094 2.0767289182750845 0 0 0
118 5 4.405407302395546 22.8911678273521 4.440892098500626e-16 0 0 0
120 5 6.608110953593319 24.162899373316108 -8.881784197001252e-16 0 0 0
266 5 9.54504915519035 24.162899373316108 2.0767289182750828 0 0 0
437 5 11.747752806388124 22.8911678273521 2.0767289182750828 0 0 0
443 5 13.950456457585895 21.619436281388097 2.0767289182750828 0 0 0
803 5 22.76127106237699 21.619436281388097 2.076728918275085 0 0 0
808 5 22.02703651197773 22.8911678273521 1.7763568394002505e-15 0 0 0
984 5 26.43244381437328 22.8911678273521 0.0 0 0 0
990 5 28.635147465571052 24.162899373316105 1.7763568394002505e-15 0 0 0
1167 5 31.57208566716808 24.162899373316105 2.076728918275085 0 0 0
1169 5 33.0405547679666 21.619436281388094 0.0 0 0 0
1170 5 33.0405547679666 24.162899373316108 -1.7763568394002505e-15 0 0 0
1344 5 35.24325841916438 22.891167827352103 0.0 0 0 0
1523 5 40.38290027195917 21.619436281388097 2.076728918275084 0 0 0
36 5 2.2027036511977727 1.2717315459640055 6.230186754825253 0 0 0
157 5 5.873876403194062 2.543463091928011 4.153457836550168 0 0 0
159 5 6.60811095359332 3.815194637892017 6.230186754825252 0 0 0
160 5 5.873876403194062 0.0 4.153457836550168 0 0 0
314 5 8.810814604791092 2.543463091928011 6.230186754825253 0 0 0
343 5 11.013518255988863 3.815194637892017 6.230186754825252 0 0 0
508 5 13.21622190718664 2.543463091928011 6.230186754825253 0 0 0
509 5 14.684691007985156 2.5434630919280115 4.153457836550168 0 0 0
511 5 15.41892555838441 3.815194637892017 6.230186754825252 0 0 0
512 5 14.684691007985156 0.0 4.153457836550168 0 0 0
677 5 17.621629209582185 0.0 6.230186754825252 0 0 0
679 5 19.82433286077996 1.271731545964006 6.230186754825253 0 0 0
707 5 21.29280196157848 1.271731545964005 4.153457836550169 0 0 0
845 5 22.02703651197773 0.0 6.230186754825253 0 0 0
868 5 22.02703651197773 2.543463091928011 6.230186754825253 0 0 0
870 5 24.229740163175503 1.271731545964005 6.230186754825253 0 0 0
1063 5 28.63514746557105 3.815194637892017 6.230186754825253 0 0 0
1067 5 30.103616566369567 1.2717315459640064 4.153457836550169 0 0 0
1068 5 30.103616566369567 3.815194637892017 4.153457836550169 0 0 0
1229 5 32.30632021756734 2.543463091928011 4.153457836550169 0 0 0
1589 5 41.11713482235843 2.543463091928011 4.153457836550167 0 0 0
1594 5 43.31983847355621 1.2717315459640055 4.153457836550167 0 0 0
1622 5 43.31983847355621 3.815194637892017 4.153457836550171 0 0 0
40 5 0.0 5.086926183856022 6.230186754825253 0 0 0
41 5 1.4684691007985158 5.086926183856022 4.153457836550169 0 0 0
60 5 3.6711727519962887 6.358657729820028 4.153457836550169 0 0 0
341 5 8.810814604791092 5.086926183856022 6.230186754825253 0 0 0
376 5 10.279283705589608 7.630389275784033 4.153457836550169 0 0 0
698 5 17.621629209582185 7.630389275784033 6.230186754825252 0 0 0
701 5 17.621629209582185 5.086926183856022 6.230186754825252 0 0 0
736 5 19.0900983103807 7.630389275784034 4.153457836550167 0 0 0
738 5 21.292801961578476 6.358657729820028 4.153457836550169 0 0 0
865 5 22.02703651197773 5.086926183856022 6.230186754825254 0 0 0
1096 5 27.900912915171794 7.630389275784033 4.153457836550167 0 0 0
1258 5 33.0405547679666 6.358657729820028 6.230186754825255 0 0 0
1418 5 35.24325841916437 7.630389275784033 6.230186754825251 0 0 0
1585 5 39.64866572155992 5.086926183856022 6.230186754825251 0 0 0
1616 5 39.64866572155992 7.630389275784033 6.230186754825251 0 0 0
211 5 5.873876403194062 10.173852367712044 4.153457836550168 0 0 0
213 5 8.076580054391835 8.902120821748039 4.153457836550168 0 0 0
379 5 12.48198735678738 8.902120821748039 4.153457836550167 0 0 0
533 5 13.21622190718664 10.173852367712044 6.230186754825253 0 0 0
573 5 16.887394659182927 8.902120821748039 4.153457836550167 0 0 0
766 5 21.29280196157848 11.44558391367605 4.153457836550169 0 0 0
899 5 24.229740163175503 8.902120821748039 6.230186754825254 0 0 0
1099 5 30.103616566369567 8.902120821748039 4.153457836550169 0 0 0
1126 5 30.103616566369567 11.44558391367605 4.153457836550169 0 0 0
1291 5 32.30632021756734 10.173852367712044 4.153457836550169 0 0 0
1452 5 35.24325841916437 10.173852367712044 6.230186754825253 0 0 0
1453 5 36.711727519962885 10.173852367712046 4.153457836550167 0 0 0
75 5 2.2027036511977727 16.53251009753207 6.230186754825253 0 0 0
208 5 5.873876403194062 12.717315459640057 4.153457836550168 0 0 0
401 5 10.279283705589608 15.260778551568066 4.153457836550169 0 0 0
404 5 10.279283705589608 12.717315459640057 4.153457836550168 0 0 0
564 5 13.21622190718664 15.260778551568066 6.230186754825253 0 0 0
597 5 16.887394659182927 13.98904700560406 4.153457836550168 0 0 0
598 5 16.887394659182924 16.53251009753207 4.153457836550168 0 0 0
729 5 17.621629209582185 12.717315459640057 6.230186754825253 0 0 0
760 5 17.621629209582185 15.260778551568066 6.230186754825252 0 0 0
763 5 19.82433286077996 16.53251009753207 6.230186754825254 0 0 0
764 5 19.090098310380704 12.717315459640057 4.153457836550167 0 0 0
767 5 21.292801961578476 13.98904700560406 4.153457836550169 0 0 0
924 5 22.02703651197773 15.260778551568066 6.230186754825254 0 0 0
927 5 22.02703651197773 12.717315459640057 6.230186754825253 0 0 0
955 5 23.49550561277625 15.260778551568066 4.153457836550169 0 0 0
953 5 24.229740163175503 16.53251009753207 6.230186754825254 0 0 0
957 5 25.69820926397402 13.98904700560406 4.153457836550169 0 0 0
1089 5 26.43244381437328 12.717315459640057 6.230186754825251 0 0 0
1121 5 27.900912915171794 15.260778551568068 4.1534578365501655 0 0 0
1124 5 27.900912915171794 12.717315459640057 4.153457836550167 0 0 0
1127 5 30.103616566369567 13.989047005604062 4.153457836550167 0 0 0
1146 5 30.103616566369567 16.532510097532075 4.153457836550167 0 0 0
1284 5 30.837851116768825 15.260778551568068 6.230186754825251 0 0 0
1290 5 33.0405547679666 13.989047005604062 6.230186754825253 0 0 0
1313 5 33.0405547679666 16.532510097532075 6.230186754825253 0 0 0
1483 5 37.44596207036214 16.532510097532075 6.230186754825253 0 0 0
1639 5 39.64866572155992 15.26077855156807 6.230186754825251 0 0 0
1666 5 43.31983847355621 13.98904700560406 4.153457836550171 0 0 0
1667 5 43.31983847355621 16.53251009753207 4.153457836550167 0 0 0
251 5 5.873876403194062 20.347704735424088 4.153457836550168 0 0 0
253 5 8.076580054391837 19.075973189460083 4.153457836550167 0 0 0
420 5 8.810814604791092 20.347704735424088 6.230186754825253 0 0 0
594 5 15.41892555838441 19.075973189460083 6.230186754825253 0 0 0
611 5 14.684691007985156 20.347704735424088 4.153457836550169 0 0 0
781 5 19.0900983103807 20.347704735424088 4.153457836550166 0 0 0
948 5 22.02703651197773 20.347704735424088 6.230186754825252 0 0 0
1141 5 27.900912915171794 20.34770473542409 4.1534578365501655 0 0 0
1308 5 30.837851116768828 20.34770473542409 6.230186754825251 0 0 0
1311 5 30.837851116768825 17.804241643496077 6.230186754825251 0 0 0
1477 5 35.24325841916437 17.80424164349608 6.230186754825251 0 0 0
1501 5 36.711727519962885 20.347704735424088 4.153457836550167 0 0 0
1507 5 38.91443117116066 19.075973189460083 4.153457836550169 0 0 0
1663 5 41.851369372757695 19.075973189460083 6.230186754825253 0 0 0
106 5 1.468469100798516 22.8911678273521 4.153457836550167 0 0 0
109 5 3.671172751996288 24.162899373316105 4.153457836550168 0 0 0
247 5 4.405407302395547 22.8911678273521 6.230186754825252 0 0 0
439 5 12.48198735678738 24.162899373316108 4.153457836550166 0 0 0
967 5 22.02703651197773 22.891167827352103 6.230186754825253 0 0 0
968 5 23.49550561277625 22.891167827352103 4.153457836550167 0 0 0
969 5 24.229740163175503 21.619436281388097 6.230186754825252 0 0 0
1137 5 26.43244381437328 22.891167827352103 6.230186754825249 0 0 0
1158 5 30.103616566369567 21.619436281388094 4.153457836550169 0 0 0
1327 5 30.837851116768825 22.8911678273521 6.230186754825255 0 0 0
1342 5 34.50902386876511 24.162899373316105 4.153457836550171 0 0 0
1503 5 37.44596207036214 21.619436281388094 6.230186754825253 0 0 0
1515 5 37.44596207036214 24.162899373316105 6.230186754825255 0 0 0
1677 5 43.31983847355621 21.619436281388097 4.153457836550167 0 0 0
1679 5 43.31983847355621 24.162899373316105 4.153457836550171 0 0 0
33 5 0.7342345503992576 3.815194637892017 8.306915673100336 0 0 0
125 5 1.468469100798516 0.0 10.383644591375422 0 0 0
134 5 1.4684691007985151 2.543463091928011 10.383644591375422 0 0 0
136 5 3.6711727519962887 1.271731545964006 10.383644591375422 0 0 0
137 5 3.6711727519962887 3.815194637892017 10.38364459137542 0 0 0
140 5 5.139641852794804 1.2717315459640055 8.306915673100336 0 0 0
154 5 5.139641852794805 3.815194637892017 8.306915673100336 0 0 0
311 5 8.076580054391835 3.815194637892017 10.38364459137542 0 0 0
316 5 9.54504915519035 3.815194637892017 8.306915673100336 0 0 0
650 5 14.684691007985156 2.543463091928011 10.38364459137542 0 0 0
653 5 14.684691007985156 0.0 10.38364459137542 0 0 0
655 5 16.887394659182927 1.2717315459640055 10.383644591375422 0 0 0
842 5 21.29280196157848 1.2717315459640055 10.383644591375422 0 0 0
866 5 22.76127106237699 3.815194637892017 8.306915673100338 0 0 0
1013 5 23.495505612776245 0.0 10.383644591375418 0 0 0
1014 5 24.96397471357476 0.0 8.306915673100335 0 0 0
1201 5 29.36938201597031 2.5434630919280106 8.306915673100336 0 0 0
1202 5 30.103616566369567 1.271731545964005 10.383644591375422 0 0 0
1373 5 32.30632021756734 0.0 10.38364459137542 0 0 0
1391 5 34.50902386876511 3.815194637892017 10.383644591375422 0 0 0
1393 5 33.774789318365855 2.543463091928012 8.306915673100335 0 0 0
1396 5 35.97749296956363 3.815194637892017 8.306915673100338 0 0 0
1563 5 38.914431171160665 3.815194637892017 10.383644591375422 0 0 0
1704 5 42.58560392315695 0.0 8.30691567310034 0 0 0
155 5 5.139641852794804 6.358657729820028 8.306915673100336 0 0 0
309 5 5.873876403194061 5.086926183856022 10.383644591375422 0 0 0
500 5 10.27928370558961 7.630389275784033 10.38364459137542 0 0 0
669 5 14.684691007985156 5.086926183856022 10.38364459137542 0 0 0
670 5 16.15316010878367 5.086926183856022 8.306915673100335 0 0 0
862 5 21.29280196157848 6.358657729820028 10.383644591375422 0 0 0
867 5 22.76127106237699 6.358657729820028 8.306915673100338 0 0 0
1032 5 25.698209263974015 6.358657729820028 10.383644591375422 0 0 0
1059 5 27.166678364772533 6.358657729820028 8.306915673100336 0 0 0
1220 5 27.900912915171794 7.630389275784034 10.38364459137542 0 0 0
1386 5 32.30632021756734 7.630389275784033 10.38364459137542 0 0 0
1582 5 38.914431171160665 6.358657729820028 10.383644591375422 0 0 0
1741 5 42.58560392315695 7.630389275784033 8.306915673100338 0 0 0
39 5 0.7342345503992576 8.902120821748039 8.306915673100338 0 0 0
145 5 1.468469100798516 10.173852367712044 10.38364459137542 0 0 0
334 5 7.342345503992577 10.173852367712044 8.306915673100336 0 0 0
335 5 8.076580054391835 8.902120821748039 10.38364459137542 0 0 0
336 5 8.076580054391835 11.445583913676051 10.38364459137542 0 0 0
340 5 9.54504915519035 8.902120821748039 8.306915673100335 0 0 0
497 5 10.27928370558961 10.173852367712044 10.38364459137542 0 0 0
693 5 14.684691007985156 10.173852367712044 10.38364459137542 0 0 0
694 5 16.15316010878367 10.173852367712044 8.306915673100336 0 0 0
894 5 22.76127106237699 8.902120821748039 8.306915673100336 0 0 0
1055 5 25.698209263974015 8.902120821748039 10.38364459137542 0 0 0
1223 5 30.103616566369567 8.902120821748039 10.383644591375422 0 0 0
1250 5 30.103616566369567 11.44558391367605 10.383644591375422 0 0 0
1252 5 29.36938201597031 10.173852367712044 8.306915673100336 0 0 0
1254 5 31.57208566716808 8.902120821748039 8.306915673100338 0 0 0
1255 5 31.57208566716808 11.44558391367605 8.306915673100338 0 0 0
1413 5 32.30632021756734 10.173852367712044 10.38364459137542 0 0 0
1414 5 33.774789318365855 10.173852367712044 8.306915673100336 0 0 0
173 5 3.671172751996288 13.98904700560406 10.38364459137542 0 0 0
203 5 2.936938201597031 15.260778551568066 8.306915673100336 0 0 0
330 5 5.873876403194062 12.717315459640057 10.38364459137542 0 0 0
364 5 5.873876403194061 15.260778551568066 10.383644591375422 0 0 0
368 5 7.342345503992577 12.717315459640057 8.306915673100338 0 0 0
367 5 8.076580054391833 16.53251009753207 10.38364459137542 0 0 0
728 5 16.15316010878367 12.717315459640057 8.306915673100335 0 0 0
888 5 19.0900983103807 12.717315459640057 10.383644591375422 0 0 0
889 5 20.55856741117921 12.717315459640057 8.306915673100338 0 0 0
921 5 21.29280196157848 16.53251009753207 10.383644591375422 0 0 0
1088 5 24.963974713574764 12.717315459640057 8.306915673100335 0 0 0
1091 5 27.166678364772533 13.98904700560406 8.306915673100336 0 0 0
1251 5 30.103616566369567 13.98904700560406 10.383644591375422 0 0 0
1283 5 29.36938201597031 15.260778551568066 8.306915673100336 0 0 0
1286 5 31.57208566716808 16.532510097532075 8.306915673100336 0 0 0
1445 5 33.774789318365855 15.260778551568068 8.306915673100335 0 0 0
1446 5 34.50902386876511 13.98904700560406 10.383644591375422 0 0 0
1447 5 34.50902386876511 16.532510097532075 10.38364459137542 0 0 0
1448 5 33.774789318365855 12.717315459640057 8.306915673100336 0 0 0
1638 5 38.1801966207614 15.260778551568068 8.306915673100335 0 0 0
1641 5 40.38290027195918 16.532510097532075 8.306915673100336 0 0 0
199 5 1.468469100798516 17.804241643496077 10.38364459137542 0 0 0
202 5 3.6711727519962887 19.075973189460083 10.38364459137542 0 0 0
229 5 5.139641852794805 19.075973189460083 8.306915673100335 0 0 0
392 5 5.873876403194061 20.347704735424088 10.38364459137542 0 0 0
396 5 7.342345503992576 17.804241643496077 8.306915673100336 0 0 0
394 5 8.076580054391835 19.075973189460083 10.383644591375418 0 0 0
556 5 10.27928370558961 20.347704735424088 10.383644591375422 0 0 0
559 5 10.27928370558961 17.804241643496077 10.38364459137542 0 0 0
560 5 11.747752806388124 17.804241643496077 8.306915673100336 0 0 0
589 5 13.950456457585895 19.075973189460083 8.306915673100335 0 0 0
759 5 18.35586375998144 19.075973189460083 8.306915673100338 0 0 0
947 5 20.55856741117921 20.347704735424088 8.306915673100338 0 0 0
1112 5 23.495505612776245 20.347704735424088 10.38364459137542 0 0 0
1119 5 27.166678364772533 19.07597318946009 8.306915673100335 0 0 0
1280 5 29.36938201597031 17.80424164349608 8.306915673100335 0 0 0
1309 5 31.57208566716808 19.07597318946009 8.306915673100338 0 0 0
1441 5 32.30632021756734 17.80424164349608 10.383644591375418 0 0 0
1474 5 34.50902386876511 19.07597318946009 10.383644591375422 0 0 0
1751 5 41.11713482235844 17.80424164349608 10.383644591375422 0 0 0
1766 5 43.3198384735562 19.075973189460083 10.383644591375422 0 0 0
1768 5 42.58560392315695 17.804241643496077 8.30691567310034 0 0 0
88 5 0.7342345503992576 21.619436281388097 8.306915673100338 0 0 0
230 5 5.139641852794804 21.619436281388094 8.306915673100336 0 0 0
416 5 7.342345503992577 22.8911678273521 8.306915673100336 0 0 0
395 5 8.076580054391833 21.619436281388094 10.38364459137542 0 0 0
586 5 12.481987356787378 24.162899373316105 10.38364459137542 0 0 0
775 5 16.887394659182927 24.162899373316105 10.383644591375422 0 0 0
950 5 22.76127106237699 21.619436281388097 8.306915673100336 0 0 0
1135 5 25.698209263974015 24.162899373316108 10.383644591375418 0 0 0
1303 5 27.900912915171794 22.891167827352103 10.38364459137542 0 0 0
1498 5 35.97749296956363 21.619436281388094 8.306915673100338 0 0 0
1654 5 38.914431171160665 21.619436281388094 10.383644591375422 0 0 0
1659 5 40.38290027195918 21.619436281388094 8.306915673100336 0 0 0
1669 5 40.38290027195918 24.162899373316105 8.306915673100338 0 0 0
1761 5 41.11713482235843 22.8911678273521 10.383644591375422 0 0 0
1770 5 42.58560392315695 22.8911678273521 8.306915673100338 0 0 0
122 5 0.7342345503992576 1.2717315459640055 14.53710242792559 0 0 0
124 5 0.0 0.0 12.460373509650504 0 0 0
277 5 2.9369382015970302 0.0 14.53710242792559 0 0 0
461 5 8.810814604791094 2.5434630919280115 12.460373509650504 0 0 0
634 5 11.747752806388124 2.5434630919280115 14.53710242792559 0 0 0
638 5 13.21622190718664 0.0 12.460373509650504 0 0 0
647 5 13.950456457585895 3.815194637892017 14.53710242792559 0 0 0
651 5 15.418925558384412 1.2717315459640055 12.460373509650504 0 0 0
838 5 19.82433286077996 3.815194637892017 12.460373509650504 0 0 0
997 5 20.55856741117921 0.0 14.537102427925587 0 0 0
999 5 22.761271062376988 1.2717315459640055 14.53710242792559 0 0 0
1180 5 24.963974713574764 2.543463091928011 14.53710242792559 0 0 0
1354 5 29.369382015970302 2.5434630919280115 14.53710242792559 0 0 0
1357 5 29.369382015970302 0.0 14.53710242792559 0 0 0
1358 5 30.83785111676882 0.0 12.460373509650504 0 0 0
1359 5 31.57208566716808 1.271731545964006 14.53710242792559 0 0 0
1367 5 31.57208566716808 3.815194637892017 14.53710242792559 0 0 0
1372 5 33.0405547679666 3.815194637892017 12.460373509650504 0 0 0
1540 5 33.774789318365855 2.543463091928011 14.537102427925587 0 0 0
1541 5 35.24325841916437 2.5434630919280106 12.460373509650504 0 0 0
1542 5 35.977492969563635 1.271731545964005 14.53710242792559 0 0 0
1684 5 38.1801966207614 2.5434630919280106 14.537102427925593 0 0 0
1688 5 39.64866572155992 0.0 12.460373509650507 0 0 0
1773 5 42.58560392315695 0.0 14.537102427925593 0 0 0
130 5 0.0 5.086926183856023 12.460373509650504 0 0 0
133 5 2.2027036511977736 6.358657729820028 12.460373509650504 0 0 0
286 5 4.405407302395546 5.086926183856022 12.460373509650504 0 0 0
288 5 5.139641852794804 6.358657729820028 14.53710242792559 0 0 0
474 5 9.545049155190348 6.358657729820028 14.53710242792559 0 0 0
645 5 11.747752806388124 5.086926183856022 14.53710242792559 0 0 0
646 5 13.21622190718664 5.086926183856022 12.460373509650504 0 0 0
665 5 13.21622190718664 7.630389275784033 12.460373509650504 0 0 0
667 5 15.418925558384412 6.358657729820028 12.460373509650504 0 0 0
1008 5 22.761271062376988 6.358657729820028 14.53710242792559 0 0 0
1027 5 24.229740163175503 6.358657729820028 12.460373509650504 0 0 0
1194 5 27.166678364772537 6.358657729820028 14.53710242792559 0 0 0
1362 5 29.369382015970302 7.630389275784033 14.53710242792559 0 0 0
1552 5 33.774789318365855 7.630389275784034 14.537102427925587 0 0 0
1554 5 35.977492969563635 6.358657729820028 14.53710242792559 0 0 0
1559 5 37.44596207036215 6.358657729820028 12.460373509650504 0 0 0
1715 5 39.64866572155992 7.630389275784033 12.460373509650507 0 0 0
1777 5 42.58560392315695 5.086926183856022 14.537102427925593 0 0 0
142 5 0.7342345503992584 11.44558391367605 14.53710242792559 0 0 0
302 5 4.405407302395546 10.173852367712044 12.460373509650504 0 0 0
331 5 6.60811095359332 11.44558391367605 12.460373509650502 0 0 0
469 5 7.342345503992578 10.173852367712044 14.53710242792559 0 0 0
475 5 9.545049155190348 8.902120821748039 14.53710242792559 0 0 0
494 5 9.54504915519035 11.44558391367605 14.537102427925587 0 0 0
858 5 19.82433286077996 8.902120821748039 12.460373509650504 0 0 0
1051 5 24.229740163175503 11.445583913676051 12.460373509650504 0 0 0
1195 5 27.166678364772537 8.902120821748039 14.537102427925593 0 0 0
1214 5 27.166678364772537 11.445583913676051 14.53710242792559 0 0 0
1219 5 28.63514746557105 11.44558391367605 12.460373509650507 0 0 0
1384 5 31.57208566716808 11.44558391367605 14.537102427925593 0 0 0
1388 5 33.0405547679666 8.902120821748039 12.460373509650504 0 0 0
1576 5 35.24325841916437 10.173852367712044 12.460373509650504 0 0 0
1578 5 37.44596207036215 8.902120821748039 12.460373509650504 0 0 0
1711 5 38.1801966207614 10.173852367712044 14.537102427925593 0 0 0
1712 5 39.64866572155992 10.173852367712044 12.460373509650507 0 0 0
143 5 0.7342345503992576 13.98904700560406 14.53710242792559 0 0 0
166 5 0.0 15.260778551568066 12.460373509650504 0 0 0
326 5 4.405407302395547 15.260778551568066 12.460373509650504 0 0 0
329 5 4.405407302395545 12.717315459640057 12.460373509650504 0 0 0
362 5 6.60811095359332 16.53251009753207 12.460373509650504 0 0 0
492 5 7.342345503992577 12.717315459640057 14.53710242792559 0 0 0
524 5 8.810814604791094 15.260778551568066 12.460373509650504 0 0 0
526 5 11.013518255988863 13.98904700560406 12.460373509650504 0 0 0
685 5 11.747752806388124 15.260778551568066 14.53710242792559 0 0 0
687 5 13.950456457585895 13.98904700560406 14.53710242792559 0 0 0
1045 5 20.55856741117921 15.260778551568068 14.537102427925587 0 0 0
1046 5 22.02703651197773 15.260778551568066 12.460373509650504 0 0 0
1047 5 22.761271062376988 13.98904700560406 14.53710242792559 0 0 0
1209 5 24.963974713574764 15.260778551568066 14.53710242792559 0 0 0
1242 5 27.166678364772537 16.53251009753207 14.53710242792559 0 0 0
1244 5 26.43244381437328 15.260778551568066 12.460373509650504 0 0 0
1378 5 29.369382015970302 12.717315459640057 14.53710242792559 0 0 0
1602 5 35.977492969563635 16.53251009753207 14.53710242792559 0 0 0
1606 5 37.44596207036215 13.98904700560406 12.460373509650504 0 0 0
1730 5 39.64866572155992 15.260778551568068 12.460373509650504 0 0 0
1731 5 40.38290027195917 13.98904700560406 14.53710242792559 0 0 0
520 5 7.342345503992578 17.804241643496077 14.53710242792559 0 0 0
717 5 13.21622190718664 20.347704735424088 12.460373509650504 0 0 0
723 5 15.418925558384412 19.075973189460083 12.460373509650504 0 0 0
917 5 19.82433286077996 19.075973189460083 12.460373509650504 0 0 0
1042 5 20.55856741117921 17.804241643496077 14.537102427925587 0 0 0
1080 5 22.02703651197773 17.804241643496077 12.460373509650504 0 0 0
1240 5 24.963974713574764 17.804241643496077 14.53710242792559 0 0 0
1275 5 26.43244381437328 20.347704735424088 12.460373509650504 0 0 0
1440 5 30.83785111676882 17.804241643496077 12.460373509650504 0 0 0
1601 5 35.24325841916437 17.80424164349608 12.460373509650502 0 0 0
1750 5 39.64866572155992 17.804241643496077 12.460373509650504 0 0 0
1795 5 42.58560392315695 20.34770473542409 14.53710242792559 0 0 0
192 5 0.0 22.891167827352103 12.460373509650504 0 0 0
222 5 2.202703651197772 24.162899373316108 12.460373509650504 0 0 0
359 5 5.139641852794804 21.619436281388097 14.53710242792559 0 0 0
388 5 4.405407302395546 22.891167827352103 12.460373509650504 0 0 0
390 5 6.608110953593319 21.619436281388097 12.460373509650504 0 0 0
551 5 7.342345503992578 22.891167827352103 14.53710242792559 0 0 0
552 5 8.810814604791094 22.8911678273521 12.460373509650504 0 0 0
554 5 9.545049155190348 24.162899373316108 14.53710242792559 0 0 0
582 5 11.013518255988863 24.162899373316108 12.460373509650504 0 0 0
713 5 11.747752806388124 22.8911678273521 14.53710242792559 0 0 0
719 5 13.950456457585895 21.619436281388094 14.53710242792559 0 0 0
747 5 13.950456457585895 24.162899373316108 14.537102427925593 0 0 0
751 5 15.418925558384412 24.162899373316105 12.460373509650504 0 0 0
1073 5 20.55856741117921 22.8911678273521 14.537102427925587 0 0 0
1107 5 22.761271062376988 24.162899373316105 14.53710242792559 0 0 0
1108 5 22.02703651197773 22.8911678273521 12.460373509650504 0 0 0
1110 5 24.229740163175503 21.619436281388094 12.460373509650504 0 0 0
1271 5 24.963974713574764 22.8911678273521 14.53710242792559 0 0 0
1272 5 26.43244381437328 22.8911678273521 12.460373509650502 0 0 0
1468 5 30.83785111676882 22.891167827352103 12.460373509650504 0 0 0
1626 5 33.774789318365855 22.891167827352103 14.537102427925587 0 0 0
1633 5 37.44596207036215 21.619436281388097 12.460373509650504 0 0 0
1762 5 41.85136937275769 21.619436281388094 12.460373509650504 0 0 0
1763 5 41.85136937275769 24.162899373316105 12.460373509650504 0 0 0
275 5 3.671172751996288 1.2717315459640055 16.613831346200673 0 0 0
1801 5 0.0 2.543463091928011 18.69056026447576 0 0 0
1804 5 0.0 0.0 18.69056026447576 0 0 0
1866 5 4.405407302395547 2.543463091928012 18.69056026447576 0 0 0
1868 5 6.608110953593318 3.815194637892017 18.69056026447576 0 0 0
633 5 10.279283705589608 2.543463091928011 16.613831346200673 0 0 0
1987 5 8.810814604791092 2.5434630919280106 18.69056026447576 0 0 0
2186 5 15.418925558384416 3.815194637892017 18.69056026447576 0 0 0
2345 5 17.621629209582185 2.5434630919280115 18.69056026447576 0 0 0
2348 5 17.621629209582185 0.0 18.69056026447576 0 0 0
996 5 21.292801961578476 3.815194637892017 16.613831346200673 0 0 0
1171 5 23.49550561277625 2.543463091928011 16.613831346200673 0 0 0
2510 5 22.02703651197773 0.0 18.69056026447576 0 0 0
1178 5 25.69820926397402 3.815194637892017 16.613831346200673 0 0 0
1351 5 27.90091291517179 0.0 16.613831346200673 0 0 0
2545 5 24.229740163175503 1.2717315459640055 18.69056026447576 0 0 0
2546 5 24.229740163175503 3.815194637892017 18.69056026447576 0 0 0
2904 5 30.837851116768825 2.543463091928011 18.69056026447576 0 0 0
1532 5 32.30632021756734 0.0 16.613831346200673 0 0 0
3065 5 35.24325841916437 2.5434630919280115 18.69056026447576 0 0 0
3100 5 37.44596207036214 3.815194637892017 18.69056026447576 0 0 0
1772 5 41.11713482235843 0.0 16.613831346200676 0 0 0
3265 5 41.85136937275769 1.271731545964005 18.69056026447576 0 0 0
3266 5 41.85136937275769 3.815194637892017 18.69056026447576 0 0 0
281 5 1.4684691007985151 7.630389275784033 16.613831346200673 0 0 0
1811 5 2.2027036511977727 6.358657729820028 18.69056026447576 0 0 0
1884 5 4.405407302395547 7.630389275784033 18.69056026447576 0 0 0
1885 5 6.608110953593318 6.358657729820028 18.69056026447576 0 0 0
2019 5 8.810814604791092 5.086926183856023 18.69056026447576 0 0 0
2181 5 13.21622190718664 5.086926183856022 18.69056026447576 0 0 0
819 5 16.88739465918293 6.358657729820028 16.613831346200673 0 0 0
992 5 19.0900983103807 5.086926183856022 16.613831346200673 0 0 0
2376 5 17.621629209582185 7.630389275784033 18.69056026447576 0 0 0
2379 5 17.621629209582185 5.086926183856022 18.69056026447576 0 0 0
1003 5 21.292801961578476 6.358657729820028 16.613831346200673 0 0 0
1175 5 23.49550561277625 7.630389275784034 16.613831346200673 0 0 0
1176 5 23.49550561277625 5.086926183856022 16.613831346200673 0 0 0
1361 5 27.90091291517179 7.630389275784033 16.613831346200673 0 0 0
2736 5 26.43244381437328 7.630389275784034 18.69056026447576 0 0 0
2739 5 26.43244381437328 5.086926183856022 18.69056026447576 0 0 0
1363 5 30.103616566369567 6.358657729820028 16.613831346200673 0 0 0
2901 5 30.837851116768825 5.086926183856022 18.69056026447576 0 0 0
3099 5 35.24325841916437 5.086926183856022 18.69056026447576 0 0 0
3292 5 39.64866572155992 7.630389275784034 18.69056026447576 0 0 0
280 5 1.468469100798516 10.173852367712044 16.613831346200673 0 0 0
299 5 3.6711727519962887 11.44558391367605 16.613831346200673 0 0 0
1903 5 6.608110953593319 11.44558391367605 18.69056026447576 0 0 0
2045 5 11.013518255988863 11.44558391367605 18.69056026447576 0 0 0
659 5 12.481987356787382 11.44558391367605 16.613831346200673 0 0 0
828 5 14.684691007985156 10.173852367712044 16.613831346200676 0 0 0
2209 5 13.21622190718664 10.173852367712044 18.69056026447576 0 0 0
1000 5 19.0900983103807 10.173852367712044 16.61383134620067 0 0 0
2403 5 17.621629209582185 10.173852367712044 18.69056026447576 0 0 0
1188 5 23.49550561277625 10.173852367712044 16.613831346200673 0 0 0
2569 5 22.02703651197773 10.173852367712044 18.69056026447576 0 0 0
1191 5 25.69820926397402 11.44558391367605 16.613831346200676 0 0 0
2763 5 26.43244381437328 10.173852367712044 18.69056026447576 0 0 0
1364 5 30.103616566369567 8.902120821748039 16.613831346200673 0 0 0
2764 5 28.63514746557105 8.902120821748039 18.69056026447576 0 0 0
2934 5 33.040554767966604 8.902120821748039 18.69056026447576 0 0 0
1709 5 38.91443117116066 11.44558391367605 16.613831346200673 0 0 0
1785 5 43.3198384735562 11.44558391367605 16.613831346200673 0 0 0
3313 5 41.85136937275769 11.44558391367605 18.69056026447576 0 0 0
296 5 1.4684691007985151 15.260778551568068 16.613831346200676 0 0 0
1821 5 0.0 15.260778551568068 18.69056026447576 0 0 0
1823 5 2.2027036511977727 16.532510097532075 18.69056026447576 0 0 0
467 5 5.873876403194063 12.717315459640057 16.613831346200673 0 0 0
1899 5 4.405407302395547 15.260778551568068 18.69056026447576 0 0 0
656 5 10.27928370558961 15.260778551568066 16.613831346200673 0 0 0
660 5 12.48198735678738 13.98904700560406 16.613831346200673 0 0 0
683 5 12.481987356787382 16.53251009753207 16.613831346200673 0 0 0
2232 5 13.216221907186638 12.717315459640057 18.69056026447576 0 0 0
1017 5 19.0900983103807 12.717315459640057 16.613831346200673 0 0 0
2420 5 19.82433286077996 13.98904700560406 18.69056026447576 0 0 0
1208 5 23.49550561277625 15.260778551568068 16.613831346200673 0 0 0
1210 5 25.69820926397402 13.98904700560406 16.613831346200673 0 0 0
1376 5 27.90091291517179 15.260778551568066 16.613831346200673 0 0 0
2949 5 30.837851116768825 15.260778551568066 18.69056026447576 0 0 0
3139 5 35.24325841916437 15.260778551568066 18.69056026447576 0 0 0
1707 5 36.711727519962885 12.717315459640057 16.613831346200676 0 0 0
3312 5 39.64866572155992 12.717315459640057 18.69056026447576 0 0 0
1788 5 41.11713482235843 15.260778551568066 16.613831346200676 0 0 0
3314 5 41.85136937275769 13.98904700560406 18.69056026447576 0 0 0
320 5 1.4684691007985131 20.34770473542409 16.613831346200676 0 0 0
321 5 1.4684691007985151 17.804241643496077 16.613831346200676 0 0 0
1818 5 0.0 17.80424164349608 18.69056026447576 0 0 0
1828 5 2.202703651197771 19.07597318946009 18.69056026447576 0 0 0
681 5 10.27928370558961 17.804241643496077 16.613831346200673 0 0 0
2056 5 8.810814604791092 17.80424164349608 18.69056026447576 0 0 0
2068 5 11.013518255988869 19.07597318946009 18.69056026447576 0 0 0
1400 5 27.90091291517179 20.347704735424088 16.613831346200673 0 0 0
2606 5 24.229740163175503 19.075973189460083 18.69056026447576 0 0 0
2788 5 28.63514746557105 19.075973189460083 18.69056026447576 0 0 0
2964 5 30.837851116768825 17.804241643496077 18.69056026447576 0 0 0
1596 5 32.30632021756734 20.347704735424088 16.613831346200673 0 0 0
3148 5 37.44596207036214 19.075973189460083 18.69056026447576 0 0 0
352 5 1.468469100798516 22.8911678273521 16.61383134620067 0 0 0
1829 5 2.2027036511977727 21.619436281388094 18.69056026447576 0 0 0
515 5 5.873876403194061 22.891167827352103 16.613831346200676 0 0 0
1918 5 4.405407302395548 22.8911678273521 18.69056026447576 0 0 0
2064 5 8.81081460479109 22.891167827352103 18.69056026447576 0 0 0
2069 5 11.013518255988869 21.619436281388097 18.69056026447576 0 0 0
714 5 12.481987356787382 21.619436281388097 16.613831346200676 0 0 0
715 5 12.481987356787382 24.162899373316108 16.613831346200676 0 0 0
2249 5 15.418925558384416 21.619436281388097 18.69056026447576 0 0 0
2250 5 15.418925558384416 24.162899373316108 18.69056026447576 0 0 0
2430 5 19.82433286077996 24.162899373316108 18.69056026447576 0 0 0
1270 5 25.69820926397402 24.162899373316105 16.613831346200676 0 0 0
1435 5 30.103616566369567 24.162899373316108 16.613831346200673 0 0 0
2790 5 28.63514746557105 24.162899373316105 18.69056026447576 0 0 0
1595 5 32.30632021756734 22.8911678273521 16.61383134620067 0 0 0
1599 5 34.50902386876512 21.619436281388097 16.613831346200673 0 0 0
1625 5 34.50902386876512 24.162899373316108 16.613831346200673 0 0 0
3329 5 41.85136937275769 21.619436281388097 18.69056026447576 0 0 0
1845 5 2.936938201597032 2.543463091928011 20.76728918275084 0 0 0
1846 5 3.671172751996288 1.2717315459640046 22.844018101025924 0 0 0
1960 5 5.873876403194062 0.0 22.844018101025924 0 0 0
1986 5 7.342345503992577 2.543463091928012 20.767289182750844 0 0 0
1962 5 8.076580054391835 1.2717315459640064 22.844018101025924 0 0 0
2148 5 12.481987356787384 3.815194637892017 22.844018101025924 0 0 0
2151 5 13.9504564575859 1.271731545964005 20.767289182750844 0 0 0
2309 5 14.684691007985151 2.5434630919280106 22.844018101025924 0 0 0
2312 5 14.684691007985151 0.0 22.844018101025924 0 0 0
2342 5 16.887394659182924 3.815194637892017 22.844018101025924 0 0 0
2346 5 18.35586375998144 1.271731545964006 20.767289182750844 0 0 0
2347 5 18.35586375998144 3.815194637892017 20.76728918275084 0 0 0
2478 5 19.090098310380704 0.0 22.844018101025924 0 0 0
2505 5 19.090098310380704 2.543463091928011 22.844018101025924 0 0 0
2669 5 23.495505612776245 2.5434630919280115 22.844018101025924 0 0 0
2672 5 23.495505612776245 0.0 22.844018101025924 0 0 0
2673 5 24.96397471357476 0.0 20.76728918275084 0 0 0
2674 5 25.69820926397402 1.2717315459640055 22.844018101025927 0 0 0
2865 5 27.900912915171794 2.543463091928011 22.844018101025924 0 0 0
2866 5 29.36938201597031 2.543463091928011 20.76728918275084 0 0 0
3032 5 32.30632021756734 0.0 22.844018101025927 0 0 0
3067 5 35.97749296956363 3.815194637892017 20.76728918275084 0 0 0
3226 5 38.1801966207614 2.5434630919280115 20.767289182750844 0 0 0
3229 5 38.1801966207614 0.0 20.767289182750844 0 0 0
3231 5 40.38290027195917 1.271731545964006 20.76728918275084 0 0 0
3422 5 43.3198384735562 3.815194637892017 22.844018101025924 0 0 0
3424 5 42.58560392315695 2.543463091928011 20.767289182750844 0 0 0
1807 5 0.7342345503992576 6.358657729820028 20.76728918275084 0 0 0
1841 5 1.468469100798517 5.086926183856022 22.844018101025924 0 0 0
1858 5 1.4684691007985151 7.630389275784033 22.844018101025924 0 0 0
1860 5 3.671172751996288 6.358657729820028 22.844018101025924 0 0 0
2017 5 9.54504915519035 6.358657729820028 20.767289182750844 0 0 0
2176 5 10.279283705589608 7.630389275784033 22.844018101025924 0 0 0
2177 5 11.747752806388124 7.630389275784033 20.767289182750844 0 0 0
2180 5 11.747752806388124 5.086926183856023 20.767289182750844 0 0 0
2337 5 14.684691007985156 7.630389275784033 22.844018101025924 0 0 0
2343 5 16.887394659182927 6.358657729820028 22.844018101025924 0 0 0
2375 5 16.15316010878367 7.630389275784034 20.76728918275084 0 0 0
2502 5 19.090098310380704 5.086926183856022 22.844018101025924 0 0 0
2538 5 21.29280196157848 6.358657729820028 22.844018101025927 0 0 0
2862 5 27.900912915171794 5.086926183856022 22.844018101025924 0 0 0
3095 5 33.774789318365855 7.630389275784033 20.767289182750844 0 0 0
3097 5 35.97749296956363 6.358657729820028 20.76728918275084 0 0 0
3222 5 36.711727519962885 5.086926183856022 22.844018101025927 0 0 0
3258 5 38.91443117116066 6.358657729820028 22.844018101025924 0 0 0
3450 5 42.58560392315695 7.630389275784034 20.767289182750844 0 0 0
1808 5 0.7342345503992576 8.902120821748039 20.76728918275084 0 0 0
1813 5 0.7342345503992576 11.445583913676051 20.76728918275084 0 0 0
1855 5 1.468469100798517 10.173852367712046 22.844018101025924 0 0 0
1861 5 3.671172751996288 8.902120821748039 22.844018101025924 0 0 0
2018 5 9.54504915519035 8.902120821748039 20.767289182750844 0 0 0
2208 5 11.747752806388124 10.173852367712044 20.767289182750844 0 0 0
2373 5 16.887394659182927 8.902120821748039 22.844018101025924 0 0 0
2533 5 19.090098310380704 10.173852367712044 22.844018101025924 0 0 0
2926 5 30.10361656636957 11.44558391367605 22.844018101025924 0 0 0
2931 5 31.57208566716809 11.44558391367605 20.767289182750844 0 0 0
3098 5 35.97749296956363 8.902120821748039 20.76728918275084 0 0 0
3259 5 38.91443117116066 8.902120821748039 22.844018101025924 0 0 0
3286 5 38.91443117116066 11.445583913676051 22.844018101025924 0 0 0
3291 5 40.38290027195917 11.44558391367605 20.767289182750844 0 0 0
3447 5 42.58560392315695 10.173852367712044 20.767289182750844 0 0 0
1873 5 1.4684691007985151 15.26077855156807 22.844018101025924 0 0 0
1877 5 2.936938201597032 12.717315459640057 20.767289182750844 0 0 0
1879 5 3.671172751996288 13.989047005604062 22.844018101025924 0 0 0
1896 5 3.671172751996286 16.532510097532075 22.844018101025924 0 0 0
1900 5 5.139641852794803 13.989047005604062 20.767289182750844 0 0 0
1901 5 5.139641852794803 16.532510097532075 20.767289182750844 0 0 0
2036 5 7.342345503992577 15.260778551568068 20.767289182750844 0 0 0
2039 5 7.342345503992577 12.717315459640057 20.76728918275084 0 0 0
2042 5 9.54504915519035 13.98904700560406 20.767289182750844 0 0 0
2201 5 10.279283705589608 15.260778551568068 22.844018101025927 0 0 0
2205 5 11.747752806388124 12.717315459640057 20.767289182750844 0 0 0
2396 5 16.15316010878367 15.260778551568066 20.76728918275084 0 0 0
2567 5 21.29280196157848 13.98904700560406 22.844018101025927 0 0 0
2588 5 20.55856741117922 15.260778551568066 20.76728918275084 0 0 0
2755 5 23.495505612776245 15.260778551568066 22.844018101025924 0 0 0
2927 5 30.10361656636957 13.98904700560406 22.844018101025927 0 0 0
2951 5 31.57208566716809 16.53251009753207 20.767289182750844 0 0 0
3115 5 32.30632021756734 15.260778551568068 22.844018101025927 0 0 0
3117 5 34.50902386876511 13.98904700560406 22.844018101025924 0 0 0
3118 5 34.50902386876511 16.53251009753207 22.844018101025927 0 0 0
3119 5 33.774789318365855 12.717315459640057 20.767289182750844 0 0 0
3281 5 36.711727519962885 15.260778551568066 22.844018101025927 0 0 0
3284 5 36.711727519962885 12.717315459640057 22.844018101025927 0 0 0
3306 5 38.91443117116066 16.53251009753207 22.844018101025924 0 0 0
3443 5 41.11713482235844 12.717315459640057 22.844018101025927 0 0 0
3466 5 43.3198384735562 13.98904700560406 22.844018101025924 0 0 0
1910 5 2.936938201597032 20.347704735424088 20.76728918275084 0 0 0
1912 5 5.139641852794801 19.07597318946009 20.767289182750844 0 0 0
2053 5 8.076580054391833 19.07597318946009 22.844018101025927 0 0 0
2242 5 13.9504564575859 19.07597318946009 20.767289182750844 0 0 0
2415 5 16.15316010878367 17.804241643496077 20.76728918275084 0 0 0
2581 5 19.090098310380704 20.347704735424088 22.844018101025927 0 0 0
2587 5 21.29280196157848 19.075973189460083 22.844018101025927 0 0 0
2941 5 27.900912915171794 20.347704735424088 22.844018101025924 0 0 0
2962 5 31.57208566716809 19.075973189460083 20.76728918275084 0 0 0
3138 5 35.97749296956363 19.075973189460083 20.767289182750844 0 0 0
3305 5 38.1801966207614 17.804241643496077 20.767289182750844 0 0 0
3474 5 41.11713482235844 20.347704735424088 22.844018101025927 0 0 0
3475 5 42.58560392315695 20.347704735424088 20.76728918275084 0 0 0
3476 5 43.3198384735562 19.075973189460083 22.844018101025924 0 0 0
2048 5 5.873876403194062 22.8911678273521 22.844018101025924 0 0 0
2054 5 8.076580054391835 21.619436281388094 22.844018101025924 0 0 0
2236 5 10.27928370558961 22.8911678273521 22.844018101025924 0 0 0
2239 5 12.481987356787386 24.162899373316105 22.844018101025924 0 0 0
2243 5 13.9504564575859 21.619436281388097 20.767289182750844 0 0 0
2425 5 18.35586375998144 21.619436281388097 20.767289182750844 0 0 0
2603 5 22.76127106237699 21.619436281388094 20.767289182750844 0 0 0
2768 5 23.495505612776245 22.8911678273521 22.844018101025927 0 0 0
2774 5 25.69820926397402 21.619436281388094 22.844018101025927 0 0 0
2783 5 24.96397471357476 22.8911678273521 20.76728918275084 0 0 0
2785 5 27.166678364772537 21.619436281388094 20.767289182750844 0 0 0
2956 5 27.900912915171794 22.8911678273521 22.844018101025924 0 0 0
2957 5 29.36938201597031 22.8911678273521 20.76728918275084 0 0 0
3128 5 32.30632021756734 22.8911678273521 22.844018101025927 0 0 0
3479 5 43.3198384735562 24.162899373316108 22.844018101025924 0 0 0
1833 5 0.7342345503992558 3.815194637892017 26.99747593757609 0 0 0
1935 5 2.936938201597032 2.543463091928011 26.99747593757609 0 0 0
1959 5 6.608110953593318 3.815194637892017 24.92074701930101 0 0 0
2286 5 13.950456457585895 1.2717315459640064 26.99747593757609 0 0 0
2306 5 13.950456457585895 3.815194637892017 26.99747593757609 0 0 0
2454 5 16.153160108783673 0.0 26.99747593757609 0 0 0
2475 5 18.35586375998145 1.2717315459640055 26.99747593757609 0 0 0
2644 5 20.55856741117921 0.0 26.99747593757609 0 0 0
2666 5 22.76127106237699 3.815194637892017 26.99747593757609 0 0 0
2671 5 24.229740163175503 3.815194637892017 24.92074701930101 0 0 0
2814 5 24.963974713574764 0.0 26.99747593757609 0 0 0
2833 5 24.963974713574764 2.543463091928011 26.99747593757609 0 0 0
2834 5 26.43244381437328 2.5434630919280115 24.920747019301007 0 0 0
3174 5 33.774789318365855 0.0 26.99747593757609 0 0 0
3194 5 35.24325841916437 2.543463091928011 24.92074701930101 0 0 0
1949 5 2.9369382015970302 7.630389275784035 26.99747593757609 0 0 0
1978 5 4.405407302395545 7.630389275784033 24.92074701930101 0 0 0
1980 5 6.60811095359332 6.358657729820028 24.92074701930101 0 0 0
2141 5 8.81081460479109 5.086926183856022 24.92074701930101 0 0 0
2301 5 11.747752806388124 7.630389275784033 26.99747593757609 0 0 0
2305 5 13.216221907186638 5.086926183856022 24.920747019301007 0 0 0
2307 5 13.950456457585895 6.358657729820028 26.99747593757609 0 0 0
2336 5 13.216221907186638 7.630389275784033 24.920747019301007 0 0 0
2499 5 18.35586375998145 6.358657729820028 26.99747593757609 0 0 0
2504 5 19.82433286077996 6.358657729820028 24.92074701930101 0 0 0
2664 5 20.55856741117921 5.086926183856023 26.99747593757609 0 0 0
2667 5 22.76127106237699 6.358657729820028 26.99747593757609 0 0 0
2830 5 24.963974713574764 5.086926183856022 26.99747593757609 0 0 0
2857 5 24.963974713574764 7.630389275784034 26.99747593757609 0 0 0
2859 5 27.16667836477254 6.358657729820028 26.99747593757609 0 0 0
2864 5 28.635147465571052 6.358657729820028 24.92074701930101 0 0 0
3218 5 35.24325841916437 7.630389275784034 24.92074701930101 0 0 0
3384 5 38.18019662076141 5.086926183856022 26.99747593757609 0 0 0
1852 5 0.7342345503992558 11.445583913676051 26.99747593757609 0 0 0
2333 5 13.21622190718664 10.173852367712044 24.920747019301007 0 0 0
2494 5 16.153160108783673 10.173852367712044 26.99747593757609 0 0 0
2500 5 18.35586375998145 8.902120821748039 26.99747593757609 0 0 0
2535 5 19.82433286077996 11.44558391367605 24.92074701930101 0 0 0
2693 5 22.02703651197773 10.173852367712044 24.920747019301007 0 0 0
2695 5 22.76127106237699 11.44558391367605 26.99747593757609 0 0 0
2729 5 24.229740163175503 11.44558391367605 24.92074701930101 0 0 0
2860 5 27.16667836477254 8.902120821748039 26.99747593757609 0 0 0
2890 5 27.16667836477254 11.44558391367605 26.99747593757609 0 0 0
2894 5 28.635147465571052 8.902120821748039 24.92074701930101 0 0 0
3052 5 29.36938201597031 10.173852367712044 26.997475937576095 0 0 0
3054 5 31.57208566716808 8.902120821748039 26.99747593757609 0 0 0
3089 5 33.0405547679666 11.44558391367605 24.92074701930101 0 0 0
3412 5 38.18019662076141 10.173852367712044 26.99747593757609 0 0 0
1853 5 0.7342345503992576 13.98904700560406 26.99747593757609 0 0 0
1870 5 0.7342345503992576 16.53251009753207 26.99747593757609 0 0 0
1872 5 1.7763568394002505e-15 15.260778551568066 24.92074701930101 0 0 0
1874 5 2.202703651197771 13.989047005604064 24.92074701930101 0 0 0
2003 5 2.936938201597032 15.260778551568066 26.99747593757609 0 0 0
2006 5 5.139641852794805 16.53251009753207 26.99747593757609 0 0 0
2033 5 6.608110953593318 16.532510097532075 24.92074701930101 0 0 0
2171 5 9.545049155190354 13.989047005604062 26.99747593757609 0 0 0
2198 5 9.545049155190352 16.532510097532075 26.99747593757609 0 0 0
2203 5 11.013518255988869 16.532510097532075 24.92074701930101 0 0 0
2329 5 11.747752806388124 12.717315459640057 26.99747593757609 0 0 0
2365 5 13.950456457585895 13.989047005604062 26.99747593757609 0 0 0
2366 5 13.950456457585895 16.532510097532075 26.99747593757609 0 0 0
2367 5 13.216221907186638 12.717315459640057 24.920747019301007 0 0 0
2370 5 15.41892555838441 13.98904700560406 24.92074701930101 0 0 0
2528 5 16.153160108783673 12.717315459640057 26.99747593757609 0 0 0
2531 5 18.35586375998145 13.98904700560406 26.99747593757609 0 0 0
2558 5 18.35586375998145 16.532510097532075 26.997475937576095 0 0 0
2689 5 20.55856741117921 12.717315459640057 26.99747593757609 0 0 0
2726 5 22.76127106237699 16.53251009753207 26.99747593757609 0 0 0
2730 5 24.229740163175503 13.98904700560406 24.92074701930101 0 0 0
2885 5 24.963974713574764 15.260778551568066 26.99747593757609 0 0 0
2889 5 26.43244381437328 12.717315459640057 24.920747019301007 0 0 0
2891 5 27.16667836477254 13.98904700560406 26.99747593757609 0 0 0
2920 5 26.43244381437328 15.260778551568066 24.920747019301007 0 0 0
2923 5 28.635147465571052 16.53251009753207 24.92074701930101 0 0 0
3113 5 33.0405547679666 16.53251009753207 24.920747019301007 0 0 0
3245 5 33.774789318365855 15.260778551568066 26.99747593757609 0 0 0
3280 5 35.24325841916437 15.260778551568068 24.92074701930101 0 0 0
3282 5 37.44596207036214 13.98904700560406 24.920747019301007 0 0 0
3439 5 39.64866572155992 15.260778551568066 24.92074701930101 0 0 0
3441 5 40.38290027195917 16.53251009753207 26.99747593757609 0 0 0
2028 5 4.405407302395547 20.347704735424088 24.92074701930101 0 0 0
2193 5 7.342345503992577 20.347704735424088 26.99747593757609 0 0 0
2222 5 11.013518255988869 19.07597318946009 24.92074701930101 0 0 0
2360 5 11.74775280638812 17.80424164349608 26.99747593757609 0 0 0
2387 5 11.747752806388124 20.347704735424088 26.99747593757609 0 0 0
2391 5 13.216221907186638 17.804241643496077 24.92074701930101 0 0 0
2553 5 16.15316010878367 20.34770473542409 26.99747593757609 0 0 0
2580 5 17.62162920958219 20.347704735424088 24.92074701930101 0 0 0
2913 5 24.963974713574764 20.347704735424088 26.99747593757609 0 0 0
2919 5 27.16667836477254 19.075973189460083 26.99747593757609 0 0 0
2940 5 26.43244381437328 20.347704735424088 24.920747019301007 0 0 0
2942 5 28.635147465571052 19.075973189460083 24.92074701930101 0 0 0
3107 5 29.36938201597031 20.347704735424088 26.99747593757609 0 0 0
3109 5 31.57208566716808 19.075973189460083 26.99747593757609 0 0 0
3111 5 30.837851116768825 17.804241643496077 24.92074701930101 0 0 0
3276 5 33.774789318365855 17.804241643496077 26.99747593757609 0 0 0
3300 5 35.24325841916437 20.347704735424088 24.92074701930101 0 0 0
3568 5 42.58560392315695 17.804241643496077 26.99747593757609 0 0 0
1888 5 0.7342345503992558 21.619436281388097 26.99747593757609 0 0 0
1889 5 0.7342345503992576 24.162899373316105 26.99747593757609 0 0 0
2050 5 6.608110953593318 24.162899373316105 24.92074701930101 0 0 0
2218 5 9.545049155190354 21.619436281388094 26.99747593757609 0 0 0
2407 5 13.21622190718664 22.8911678273521 24.920747019301004 0 0 0
2409 5 15.418925558384409 21.619436281388097 24.92074701930101 0 0 0
2576 5 16.153160108783673 22.8911678273521 26.99747593757609 0 0 0
2579 5 18.35586375998145 24.162899373316105 26.99747593757609 0 0 0
2595 5 19.82433286077996 24.162899373316108 24.92074701930101 0 0 0
2767 5 22.02703651197773 22.891167827352103 24.92074701930101 0 0 0
2770 5 24.229740163175503 24.162899373316108 24.92074701930101 0 0 0
2936 5 24.963974713574764 22.891167827352103 26.99747593757609 0 0 0
2938 5 27.16667836477254 21.619436281388097 26.99747593757609 0 0 0
2939 5 27.16667836477254 24.162899373316108 26.99747593757609 0 0 0
2943 5 28.635147465571052 21.619436281388094 24.92074701930101 0 0 0
3127 5 30.837851116768825 22.8911678273521 24.92074701930101 0 0 0
3296 5 33.774789318365855 22.8911678273521 26.99747593757609 0 0 0
3303 5 37.44596207036214 21.619436281388094 24.92074701930101 0 0 0
3473 5 41.85136937275769 24.162899373316108 24.920747019301007 0 0 0
3570 5 42.58560392315695 22.8911678273521 26.99747593757609 0 0 0
1932 5 2.2027036511977727 3.8151946378920174 31.150933774126266 0 0 0
1937 5 3.671172751996288 3.815194637892017 29.07420485585118 0 0 0
2266 5 11.013518255988863 1.2717315459640055 31.15093377412626 0 0 0
2280 5 10.279283705589606 2.54346309192801 29.07420485585118 0 0 0
2283 5 12.481987356787378 3.815194637892017 29.07420485585118 0 0 0
2438 5 13.21622190718664 0.0 31.15093377412626 0 0 0
2624 5 17.62162920958218 0.0 31.150933774126266 0 0 0
2810 5 23.49550561277625 2.5434630919280106 29.07420485585118 0 0 0
2812 5 24.229740163175503 3.815194637892017 31.150933774126266 0 0 0
2831 5 25.69820926397402 3.815194637892017 29.07420485585118 0 0 0
2981 5 26.43244381437328 2.5434630919280106 31.150933774126266 0 0 0
2985 5 27.900912915171794 0.0 29.07420485585118 0 0 0
3003 5 30.103616566369567 3.815194637892017 29.07420485585118 0 0 0
3158 5 30.837851116768825 0.0 31.150933774126266 0 0 0
3169 5 30.837851116768825 2.543463091928011 31.150933774126266 0 0 0
3170 5 32.30632021756734 2.5434630919280115 29.07420485585118 0 0 0
3173 5 32.30632021756734 0.0 29.07420485585118 0 0 0
3191 5 34.50902386876511 3.815194637892017 29.07420485585118 0 0 0
3358 5 37.44596207036214 3.815194637892017 31.150933774126266 0 0 0
3500 5 41.11713482235843 2.543463091928011 29.07420485585117 0 0 0
3502 5 41.851369372757695 3.815194637892017 31.150933774126266 0 0 0
3505 5 43.31983847355621 1.2717315459640055 29.07420485585118 0 0 0
1927 5 0.0 7.630389275784037 31.15093377412626 0 0 0
1933 5 2.2027036511977727 6.358657729820029 31.150933774126266 0 0 0
1948 5 1.4684691007985151 7.630389275784034 29.07420485585118 0 0 0
2086 5 4.405407302395545 5.086926183856024 31.150933774126266 0 0 0
2105 5 4.405407302395545 7.630389275784034 31.150933774126266 0 0 0
2106 5 5.8738764031940605 7.630389275784035 29.07420485585118 0 0 0
2279 5 11.013518255988863 6.358657729820028 31.15093377412626 0 0 0
2469 5 14.684691007985156 5.086926183856022 29.07420485585118 0 0 0
2636 5 17.62162920958218 5.086926183856022 31.150933774126266 0 0 0
2826 5 23.49550561277625 7.630389275784033 29.07420485585118 0 0 0
2829 5 23.49550561277625 5.086926183856023 29.07420485585118 0 0 0
2827 5 24.229740163175503 6.358657729820028 31.150933774126266 0 0 0
2997 5 27.900912915171794 5.086926183856022 29.07420485585118 0 0 0
3186 5 32.30632021756734 7.630389275784033 29.07420485585118 0 0 0
3187 5 33.0405547679666 6.358657729820028 31.150933774126266 0 0 0
3189 5 32.30632021756734 5.086926183856022 29.07420485585118 0 0 0
3192 5 34.50902386876511 6.358657729820028 29.07420485585118 0 0 0
3380 5 36.71172751996289 7.630389275784033 29.07420485585118 0 0 0
3496 5 39.64866572155992 5.086926183856022 31.15093377412626 0 0 0
3519 5 41.11713482235843 5.086926183856022 29.07420485585117 0 0 0
3522 5 43.31983847355621 6.358657729820028 29.07420485585118 0 0 0
1944 5 0.0 10.173852367712044 31.15093377412626 0 0 0
1945 5 1.4684691007985151 10.173852367712048 29.07420485585118 0 0 0
2462 5 13.21622190718664 10.173852367712046 31.150933774126266 0 0 0
2493 5 14.684691007985156 10.173852367712044 29.07420485585118 0 0 0
2690 5 21.29280196157848 11.44558391367605 29.07420485585118 0 0 0
2853 5 23.49550561277625 10.173852367712044 29.07420485585118 0 0 0
2855 5 25.698209263974025 8.902120821748039 29.07420485585118 0 0 0
2856 5 25.69820926397402 11.44558391367605 29.07420485585118 0 0 0
3017 5 27.900912915171794 10.173852367712044 29.07420485585118 0 0 0
3023 5 30.103616566369567 8.902120821748039 29.07420485585118 0 0 0
3216 5 34.50902386876511 11.445583913676051 29.07420485585118 0 0 0
3378 5 37.44596207036214 8.902120821748039 31.150933774126266 0 0 0
3379 5 37.44596207036214 11.445583913676051 31.150933774126266 0 0 0
3410 5 38.91443117116066 11.44558391367605 29.07420485585118 0 0 0
3512 5 39.64866572155992 10.173852367712044 31.15093377412626 0 0 0
1966 5 0.0 15.260778551568066 31.15093377412626 0 0 0
1968 5 2.2027036511977727 13.98904700560406 31.150933774126266 0 0 0
2126 5 4.405407302395547 15.260778551568066 31.150933774126266 0 0 0
2129 5 4.405407302395545 12.717315459640057 31.150933774126266 0 0 0
2162 5 6.608110953593323 16.53251009753207 31.150933774126266 0 0 0
2167 5 8.076580054391838 16.53251009753207 29.07420485585118 0 0 0
2293 5 8.81081460479109 12.71731545964006 31.15093377412626 0 0 0
2522 5 15.418925558384412 16.532510097532075 31.150933774126266 0 0 0
2526 5 16.88739465918293 13.989047005604062 29.07420485585118 0 0 0
2685 5 19.090098310380696 15.260778551568068 29.07420485585118 0 0 0
2721 5 21.29280196157848 16.532510097532075 29.07420485585118 0 0 0
2846 5 22.02703651197773 15.260778551568068 31.150933774126266 0 0 0
2852 5 24.229740163175503 13.98904700560406 31.150933774126266 0 0 0
2882 5 24.229740163175503 16.532510097532075 31.150933774126266 0 0 0
2887 5 25.69820926397402 16.53251009753207 29.07420485585118 0 0 0
3051 5 30.103616566369567 13.98904700560406 29.07420485585118 0 0 0
3209 5 30.837851116768825 12.717315459640057 31.150933774126266 0 0 0
3411 5 38.91443117116066 13.98904700560406 29.07420485585118 0 0 0
3533 5 39.64866572155992 12.717315459640057 31.15093377412626 0 0 0
2002 5 3.671172751996288 19.075973189460083 29.07420485585118 0 0 0
2157 5 4.405407302395545 20.34770473542409 31.150933774126266 0 0 0
2161 5 5.873876403194062 17.804241643496077 29.07420485585118 0 0 0
2163 5 6.608110953593322 19.075973189460083 31.150933774126266 0 0 0
2194 5 8.076580054391838 19.075973189460083 29.07420485585118 0 0 0
2321 5 8.810814604791092 17.804241643496077 31.15093377412626 0 0 0
2359 5 10.279283705589608 17.804241643496077 29.07420485585117 0 0 0
2362 5 12.48198735678738 19.075973189460083 29.07420485585118 0 0 0
2554 5 16.887394659182927 19.07597318946009 29.07420485585118 0 0 0
2716 5 19.090098310380696 20.34770473542409 29.07420485585118 0 0 0
2881 5 23.49550561277625 17.80424164349608 29.07420485585118 0 0 0
2912 5 23.49550561277625 20.347704735424088 29.07420485585118 0 0 0
3041 5 26.43244381437328 17.80424164349608 31.150933774126266 0 0 0
3237 5 30.837851116768825 20.347704735424088 31.150933774126266 0 0 0
3243 5 33.0405547679666 19.075973189460083 31.150933774126266 0 0 0
3274 5 34.50902386876511 19.075973189460083 29.07420485585118 0 0 0
3401 5 35.24325841916438 17.804241643496077 31.150933774126266 0 0 0
3432 5 37.44596207036214 19.075973189460083 31.15093377412626 0 0 0
3434 5 36.71172751996289 17.804241643496077 29.07420485585118 0 0 0
3437 5 38.91443117116066 19.075973189460083 29.07420485585118 0 0 0
3553 5 41.851369372757695 19.075973189460083 31.150933774126266 0 0 0
3564 5 41.11713482235843 20.347704735424088 29.07420485585117 0 0 0
2025 5 3.671172751996288 21.619436281388097 29.07420485585118 0 0 0
2026 5 3.6711727519962896 24.162899373316105 29.07420485585118 0 0 0
2188 5 4.405407302395547 22.8911678273521 31.150933774126266 0 0 0
2195 5 8.076580054391837 21.619436281388094 29.07420485585118 0 0 0
2358 5 11.013518255988863 21.619436281388094 31.150933774126266 0 0 0
2383 5 10.279283705589606 22.8911678273521 29.07420485585118 0 0 0
2555 5 16.88739465918293 21.619436281388094 29.07420485585118 0 0 0
2712 5 17.62162920958218 22.8911678273521 31.150933774126266 0 0 0
2743 5 19.0900983103807 22.8911678273521 29.07420485585117 0 0 0
2908 5 22.02703651197773 22.8911678273521 31.15093377412626 0 0 0
3072 5 26.43244381437328 22.891167827352103 31.150933774126266 0 0 0
3270 5 33.0405547679666 21.619436281388097 31.150933774126266 0 0 0
3561 5 41.11713482235843 22.8911678273521 29.07420485585117 0 0 0
3562 5 41.851369372757695 21.619436281388094 31.150933774126266 0 0 0
3567 5 43.31983847355621 21.619436281388094 29.07420485585118 0 0 0
2074 5 2.9369382015970302 2.543463091928013 33.22766269240135 0 0 0
2079 5 5.139641852794807 1.2717315459640055 33.227662692401346 0 0 0
2251 5 5.8738764031940605 2.543463091928013 35.30439161067643 0 0 0
2262 5 9.545049155190348 1.2717315459640055 33.227662692401346 0 0 0
2434 5 11.747752806388126 2.543463091928011 33.227662692401346 0 0 0
2436 5 12.481987356787382 3.815194637892017 35.30439161067643 0 0 0
2447 5 13.9504564575859 3.815194637892016 33.227662692401346 0 0 0
2622 5 18.35586375998145 1.2717315459640046 33.227662692401346 0 0 0
2793 5 19.0900983103807 2.54346309192801 35.30439161067643 0 0 0
2794 5 20.55856741117922 2.543463091928011 33.227662692401346 0 0 0
2795 5 21.29280196157848 1.2717315459640046 35.30439161067643 0 0 0
2797 5 20.55856741117922 0.0 33.227662692401346 0 0 0
2799 5 22.76127106237699 1.2717315459640064 33.227662692401346 0 0 0
2807 5 22.76127106237699 3.815194637892017 33.227662692401346 0 0 0
2978 5 25.69820926397402 3.815194637892017 35.30439161067643 0 0 0
2980 5 24.963974713574764 2.543463091928012 33.22766269240135 0 0 0
3157 5 29.36938201597031 0.0 33.227662692401346 0 0 0
3331 5 32.30632021756735 2.5434630919280106 35.30439161067643 0 0 0
3343 5 35.97749296956363 3.815194637892017 33.227662692401346 0 0 0
3485 5 38.914431171160665 1.271731545964006 35.30439161067643 0 0 0
3574 5 43.31983847355621 1.2717315459640055 35.30439161067643 0 0 0
2081 5 1.4684691007985151 7.630389275784033 35.30439161067643 0 0 0
2085 5 2.9369382015970302 5.086926183856024 33.22766269240135 0 0 0
2255 5 5.8738764031940605 7.630389275784037 35.304391610676426 0 0 0
2256 5 5.8738764031940605 5.086926183856024 35.30439161067643 0 0 0
2274 5 9.545049155190348 6.358657729820028 33.227662692401346 0 0 0
2615 5 14.684691007985151 7.630389275784035 35.30439161067643 0 0 0
2616 5 14.684691007985151 5.086926183856021 35.30439161067643 0 0 0
2617 5 16.153160108783666 5.086926183856022 33.227662692401346 0 0 0
2634 5 18.35586375998145 6.358657729820028 33.227662692401346 0 0 0
2792 5 19.090098310380704 5.086926183856022 35.30439161067643 0 0 0
2802 5 20.55856741117922 7.630389275784033 33.227662692401346 0 0 0
2803 5 21.29280196157848 6.358657729820028 35.30439161067643 0 0 0
2805 5 20.55856741117921 5.086926183856022 33.227662692401346 0 0 0
2976 5 23.495505612776245 5.086926183856022 35.30439161067643 0 0 0
3168 5 31.57208566716808 6.358657729820028 33.227662692401346 0 0 0
3336 5 32.30632021756735 5.086926183856023 35.30439161067643 0 0 0
3337 5 33.77478931836586 5.086926183856022 33.227662692401346 0 0 0
3354 5 35.97749296956363 6.358657729820028 33.227662692401346 0 0 0
3491 5 36.711727519962885 7.630389275784034 35.304391610676426 0 0 0
3493 5 38.914431171160665 6.358657729820028 35.30439161067643 0 0 0
3576 5 41.11713482235843 5.086926183856022 35.30439161067643 0 0 0
3577 5 42.58560392315695 5.086926183856022 33.227662692401346 0 0 0
3586 5 42.58560392315695 7.630389275784033 33.227662692401346 0 0 0
1942 5 0.7342345503992576 11.44558391367605 33.227662692401346 0 0 0
2103 5 5.139641852794807 8.902120821748042 33.227662692401346 0 0 0
2268 5 5.8738764031940605 10.173852367712044 35.304391610676426 0 0 0
2271 5 8.076580054391833 11.44558391367605 35.304391610676426 0 0 0
2294 5 9.545049155190348 11.445583913676051 33.227662692401346 0 0 0
2440 5 10.27928370558961 10.173852367712048 35.30439161067643 0 0 0
2464 5 13.9504564575859 11.445583913676051 33.22766269240135 0 0 0
2635 5 18.35586375998145 8.902120821748039 33.227662692401346 0 0 0
2824 5 22.76127106237699 11.44558391367605 33.227662692401346 0 0 0
2989 5 24.963974713574764 10.173852367712044 33.227662692401346 0 0 0
2990 5 25.69820926397402 8.902120821748039 35.30439161067643 0 0 0
3014 5 27.166678364772537 11.44558391367605 33.227662692401346 0 0 0
3160 5 27.900912915171794 10.173852367712044 35.30439161067643 0 0 0
3184 5 31.57208566716808 11.44558391367605 33.227662692401346 0 0 0
3350 5 34.50902386876511 8.902120821748039 35.304391610676426 0 0 0
3509 5 38.914431171160665 11.44558391367605 35.30439161067643 0 0 0
3511 5 38.1801966207614 10.173852367712044 33.227662692401346 0 0 0
3582 5 41.11713482235843 10.173852367712044 35.30439161067643 0 0 0
2097 5 1.4684691007985151 12.717315459640057 35.30439161067643 0 0 0
2127 5 5.139641852794807 13.98904700560406 33.227662692401346 0 0 0
2128 5 5.139641852794807 16.53251009753207 33.227662692401346 0 0 0
2290 5 8.076580054391833 13.98904700560406 35.30439161067643 0 0 0
2295 5 9.54504915519035 13.98904700560406 33.227662692401346 0 0 0
2483 5 12.481987356787384 16.53251009753207 35.30439161067643 0 0 0
2488 5 13.9504564575859 16.53251009753207 33.227662692401346 0 0 0
2648 5 14.684691007985151 15.260778551568066 35.30439161067643 0 0 0
2816 5 19.0900983103807 15.26077855156807 35.30439161067643 0 0 0
3008 5 23.49550561277625 15.260778551568068 35.30439161067643 0 0 0
3009 5 24.963974713574764 15.260778551568068 33.22766269240135 0 0 0
3176 5 27.900912915171794 15.260778551568068 35.30439161067643 0 0 0
3207 5 31.57208566716808 13.98904700560406 33.227662692401346 0 0 0
3368 5 32.30632021756735 15.260778551568066 35.30439161067643 0 0 0
3370 5 34.50902386876511 13.98904700560406 35.30439161067643 0 0 0
3372 5 33.77478931836586 12.717315459640057 33.227662692401346 0 0 0
3506 5 36.711727519962885 15.260778551568066 35.304391610676426 0 0 0
3507 5 36.711727519962885 12.717315459640057 35.304391610676426 0 0 0
3508 5 38.1801966207614 12.717315459640057 33.22766269240134 0 0 0
3589 5 42.58560392315695 15.260778551568066 33.227662692401346 0 0 0
1965 5 0.7342345503992593 19.075973189460083 33.227662692401346 0 0 0
2122 5 2.9369382015970302 17.80424164349608 33.22766269240135 0 0 0
2124 5 3.671172751996293 19.075973189460083 35.30439161067643 0 0 0
2158 5 5.139641852794807 19.07597318946009 33.227662692401346 0 0 0
2287 5 5.8738764031940605 17.80424164349608 35.30439161067643 0 0 0
2316 5 5.873876403194062 20.347704735424088 35.304391610676426 0 0 0
2318 5 8.076580054391833 19.07597318946009 35.30439161067643 0 0 0
2323 5 9.545049155190348 19.075973189460083 33.227662692401346 0 0 0
2480 5 10.27928370558961 20.34770473542409 35.30439161067643 0 0 0
2484 5 12.481987356787382 19.075973189460083 35.30439161067643 0 0 0
2840 5 19.090098310380704 20.347704735424088 35.30439161067643 0 0 0
3367 5 32.30632021756735 17.80424164349608 35.30439161067643 0 0 0
3396 5 32.30632021756735 20.347704735424088 35.30439161067643 0 0 0
3397 5 33.77478931836586 20.347704735424088 33.227662692401346 0 0 0
3403 5 35.97749296956363 19.075973189460083 33.227662692401346 0 0 0
3546 5 38.1801966207614 20.347704735424088 33.22766269240134 0 0 0
3587 5 41.11713482235843 17.804241643496077 35.30439161067643 0 0 0
3595 5 42.58560392315695 20.347704735424088 33.227662692401346 0 0 0
1993 5 0.7342345503992576 21.619436281388097 33.227662692401346 0 0 0
2152 5 1.4684691007985151 22.8911678273521 35.30439161067643 0 0 0
2153 5 2.9369382015970302 22.891167827352103 33.22766269240135 0 0 0
2187 5 5.139641852794807 24.162899373316108 33.227662692401346 0 0 0
2319 5 8.076580054391835 21.619436281388094 35.30439161067643 0 0 0
2675 5 14.684691007985151 22.891167827352103 35.30439161067643 0 0 0
2879 5 22.76127106237699 21.619436281388094 33.227662692401346 0 0 0
3071 5 24.963974713574764 22.8911678273521 33.227662692401346 0 0 0
3239 5 31.57208566716808 21.619436281388097 33.227662692401346 0 0 0
3395 5 32.30632021756735 22.891167827352103 35.30439161067643 0 0 0
3399 5 34.50902386876511 21.619436281388097 35.30439161067643 0 0 0
3428 5 35.97749296956363 21.619436281388097 33.227662692401346 0 0 0
3543 5 38.1801966207614 22.8911678273521 33.227662692401346 0 0 0
3549 5 40.38290027195918 21.619436281388094 33.227662692401346 0 0 0
3593 5 41.11713482235843 22.8911678273521 35.30439161067643 0 0 0
3597 5 43.31983847355621 21.619436281388094 35.30439161067643 0 0 0
3599 5 43.31983847355621 24.162899373316108 35.30439161067643 0 0 0
