# LAMMPS data file written by OVITO Basic 3.5.4
3600 atoms
5 atom types
0 44.0540730239555 xlo xhi
0 25.4346309192801 ylo yhi
-0.003738112052898703 35.308129722729326 zlo zhi
 
Masses
 
1 1.0
2 2.0
3 3.0
4 4.0
5 5.0
 
Atoms  # atomic
 
520 1 7.342345503992578 17.804241643496077 14.53710242792559 0 0 0
2940 1 26.43244381437328 20.347704735424088 24.920747019301007 0 0 0
3382 1 38.91443117116066 6.358657729820028 29.07420485585118 0 0 0
3285 1 38.1801966207614 12.717315459640057 20.767289182750844 0 0 0
157 1 5.873876403194062 2.543463091928011 4.153457836550168 0 0 0
891 1 21.29280196157848 13.98904700560406 10.383644591375422 0 0 0
1343 1 33.77478931836586 22.8911678273521 2.076728918275084 0 0 0
1339 1 35.24325841916437 15.260778551568066 0.0 0 0 0
1134 1 33.0405547679666 8.90212082174804 -1.7763568394002505e-15 0 0 0
703 1 19.82433286077996 3.815194637892017 6.230186754825254 0 0 0
3598 1 42.58560392315695 17.804241643496077 33.227662692401346 0 0 0
1155 1 28.63514746557105 24.162899373316105 6.230186754825253 0 0 0
908 1 26.43244381437328 0.0 0.0 0 0 0
3453 1 38.18019662076141 22.8911678273521 26.99747593757609 0 0 0
118 1 4.405407302395546 22.8911678273521 4.440892098500626e-16 0 0 0
1699 1 39.64866572155992 2.543463091928012 12.460373509650504 0 0 0
24 1 0.0 22.8911678273521 0.0 0 0 0
1102 1 31.57208566716808 3.815194637892017 2.076728918275085 0 0 0
3072 1 26.43244381437328 22.891167827352103 31.150933774126266 0 0 0
2934 1 33.040554767966604 8.902120821748039 18.69056026447576 0 0 0
1682 1 36.711727519962885 5.086926183856022 16.613831346200676 0 0 0
407 1 12.48198735678738 13.98904700560406 4.153457836550168 0 0 0
2942 1 28.635147465571052 19.075973189460083 24.92074701930101 0 0 0
1070 1 30.837851116768825 0.0 0.0 0 0 0
258 1 9.54504915519035 19.075973189460083 2.0767289182750845 0 0 0
2029 1 5.139641852794805 19.075973189460083 26.99747593757609 0 0 0
2368 1 14.684691007985156 12.717315459640057 22.844018101025924 0 0 0
653 1 14.684691007985156 0.0 10.38364459137542 0 0 0
1137 1 26.43244381437328 22.891167827352103 6.230186754825249 0 0 0
45 1 2.936938201597031 2.543463091928011 2.076728918275084 0 0 0
378 1 12.481987356787382 6.358657729820028 4.153457836550167 0 0 0
2318 1 8.076580054391833 19.07597318946009 35.30439161067643 0 0 0
3069 1 37.44596207036214 1.271731545964006 18.69056026447576 0 0 0
2200 1 8.810814604791092 15.260778551568068 24.92074701930101 0 0 0
115 1 6.60811095359332 16.53251009753207 0.0 0 0 0
105 1 2.2027036511977736 24.162899373316108 6.230186754825254 0 0 0
1888 1 0.7342345503992558 21.619436281388097 26.99747593757609 0 0 0
1347 1 35.24325841916438 20.347704735424088 0.0 0 0 0
2797 1 20.55856741117922 0.0 33.227662692401346 0 0 0
3078 1 28.63514746557105 21.619436281388097 31.150933774126266 0 0 0
3581 1 41.11713482235843 12.717315459640057 35.30439161067643 0 0 0
1600 1 33.774789318365855 17.804241643496077 14.53710242792559 0 0 0
2434 1 11.747752806388126 2.543463091928011 33.227662692401346 0 0 0
838 1 19.82433286077996 3.815194637892017 12.460373509650504 0 0 0
1984 1 8.076580054391835 3.815194637892017 22.844018101025924 0 0 0
3490 1 36.711727519962885 10.173852367712044 35.304391610676426 0 0 0
2767 1 22.02703651197773 22.891167827352103 24.92074701930101 0 0 0
290 1 5.873876403194061 2.5434630919280115 10.383644591375422 0 0 0
1784 1 43.3198384735562 8.902120821748039 16.613831346200673 0 0 0
1815 1 0.0 10.173852367712044 18.69056026447576 0 0 0
3344 1 35.24325841916438 0.0 31.150933774126266 0 0 0
1101 1 30.837851116768825 5.086926183856022 -1.7763568394002505e-15 0 0 0
3444 1 41.85136937275769 11.445583913676051 24.920747019301007 0 0 0
1859 1 2.936938201597032 7.630389275784033 20.767289182750844 0 0 0
1360 1 27.90091291517179 10.173852367712044 16.613831346200673 0 0 0
710 1 22.02703651197773 0.0 0.0 0 0 0
606 1 13.950456457585895 24.162899373316105 8.306915673100336 0 0 0
2399 1 16.153160108783666 12.717315459640057 20.76728918275084 0 0 0
3316 1 36.711727519962885 22.8911678273521 22.844018101025927 0 0 0
1067 1 30.103616566369567 1.2717315459640064 4.153457836550169 0 0 0
1746 1 38.1801966207614 20.347704735424088 14.53710242792559 0 0 0
2327 1 11.013518255988863 16.53251009753207 31.15093377412626 0 0 0
3334 1 34.50902386876511 1.271731545964005 35.30439161067643 0 0 0
2273 1 8.81081460479109 7.630389275784035 31.15093377412626 0 0 0
1356 1 30.103616566369567 3.815194637892017 16.613831346200673 0 0 0
2245 1 15.418925558384416 16.53251009753207 18.69056026447576 0 0 0
20 1 0.7342345503992571 19.075973189460083 2.0767289182750845 0 0 0
1835 1 1.468469100798517 0.0 22.844018101025924 0 0 0
3187 1 33.0405547679666 6.358657729820028 31.150933774126266 0 0 0
3374 1 35.97749296956363 11.44558391367605 33.227662692401346 0 0 0
3556 1 43.31983847355621 13.98904700560406 29.07420485585118 0 0 0
2722 1 21.29280196157848 19.07597318946009 29.07420485585118 0 0 0
3060 1 32.30632021756734 5.086926183856022 22.844018101025927 0 0 0
3108 1 30.837851116768825 20.347704735424088 24.92074701930101 0 0 0
1848 1 2.936938201597032 0.0 20.767289182750844 0 0 0
1042 1 20.55856741117921 17.804241643496077 14.537102427925587 0 0 0
1819 1 0.7342345503992558 16.532510097532075 20.76728918275084 0 0 0
511 1 15.41892555838441 3.815194637892017 6.230186754825252 0 0 0
3511 1 38.1801966207614 10.173852367712044 33.227662692401346 0 0 0
3208 1 31.57208566716808 16.53251009753207 33.227662692401346 0 0 0
206 1 5.139641852794804 16.53251009753207 8.306915673100336 0 0 0
1195 1 27.166678364772537 8.902120821748039 14.537102427925593 0 0 0
955 1 23.49550561277625 15.260778551568066 4.153457836550169 0 0 0
205 1 5.139641852794805 13.98904700560406 8.306915673100335 0 0 0
437 1 11.747752806388124 22.8911678273521 2.0767289182750828 0 0 0
775 1 16.887394659182927 24.162899373316105 10.383644591375422 0 0 0
73 1 1.468469100798516 15.260778551568066 4.153457836550167 0 0 0
3416 1 39.64866572155992 7.630389275784033 24.92074701930101 0 0 0
761 1 19.0900983103807 15.260778551568066 4.153457836550168 0 0 0
851 1 16.88739465918293 16.53251009753207 16.613831346200673 0 0 0
1861 1 3.671172751996288 8.902120821748039 22.844018101025924 0 0 0
2429 1 19.82433286077996 21.619436281388094 18.69056026447576 0 0 0
2636 1 17.62162920958218 5.086926183856022 31.150933774126266 0 0 0
2275 1 9.545049155190348 8.90212082174804 33.227662692401346 0 0 0
2121 1 1.4684691007985151 17.804241643496077 35.30439161067643 0 0 0
2754 1 24.229740163175503 19.075973189460083 24.92074701930101 0 0 0
769 1 22.02703651197773 10.173852367712044 0.0 0 0 0
1680 1 42.58560392315695 22.8911678273521 2.076728918275084 0 0 0
1673 1 41.851369372757695 24.162899373316108 6.230186754825251 0 0 0
1620 1 41.11713482235844 5.086926183856021 4.153457836550167 0 0 0
3582 1 41.11713482235843 10.173852367712044 35.30439161067643 0 0 0
3482 1 36.711727519962885 5.086926183856022 35.304391610676426 0 0 0
2476 1 18.35586375998145 3.815194637892017 26.99747593757609 0 0 0
1558 1 37.44596207036215 3.815194637892017 12.460373509650504 0 0 0
1551 1 34.50902386876512 11.44558391367605 16.613831346200676 0 0 0
300 1 3.671172751996288 13.98904700560406 16.613831346200673 0 0 0
1311 1 30.837851116768825 17.804241643496077 6.230186754825251 0 0 0
659 1 12.481987356787382 11.44558391367605 16.613831346200673 0 0 0
3555 1 42.58560392315695 15.260778551568066 26.99747593757609 0 0 0
2803 1 21.29280196157848 6.358657729820028 35.30439161067643 0 0 0
3529 1 38.1801966207614 15.260778551568066 33.227662692401346 0 0 0
2045 1 11.013518255988863 11.44558391367605 18.69056026447576 0 0 0
488 1 5.873876403194062 15.260778551568066 16.613831346200673 0 0 0
1235 1 23.49550561277625 22.8911678273521 16.613831346200673 0 0 0
2386 1 12.481987356787378 24.162899373316105 29.07420485585118 0 0 0
2742 1 19.82433286077996 24.162899373316105 31.150933774126266 0 0 0
262 1 8.076580054391837 24.162899373316105 4.153457836550168 0 0 0
149 1 2.936938201597031 7.630389275784033 8.306915673100336 0 0 0
77 1 2.936938201597031 12.717315459640057 2.076728918275084 0 0 0
3158 1 30.837851116768825 0.0 31.150933774126266 0 0 0
2787 1 26.43244381437328 20.347704735424088 18.69056026447576 0 0 0
2457 1 10.27928370558961 12.717315459640057 35.30439161067643 0 0 0
3418 1 41.85136937275769 6.358657729820028 24.920747019301007 0 0 0
1275 1 26.43244381437328 20.347704735424088 12.460373509650504 0 0 0
2479 1 19.82433286077996 1.271731545964005 24.92074701930101 0 0 0
760 1 17.621629209582185 15.260778551568066 6.230186754825252 0 0 0
3044 1 26.43244381437328 15.260778551568066 31.150933774126266 0 0 0
766 1 21.29280196157848 11.44558391367605 4.153457836550169 0 0 0
3228 1 38.91443117116066 3.815194637892017 22.844018101025924 0 0 0
551 1 7.342345503992578 22.891167827352103 14.53710242792559 0 0 0
2453 1 14.684691007985156 0.0 29.07420485585118 0 0 0
2323 1 9.545049155190348 19.075973189460083 33.227662692401346 0 0 0
366 1 8.076580054391835 13.98904700560406 10.383644591375418 0 0 0
1223 1 30.103616566369567 8.902120821748039 10.383644591375422 0 0 0
1403 1 30.103616566369567 16.53251009753207 16.613831346200673 0 0 0
343 1 11.013518255988863 3.815194637892017 6.230186754825252 0 0 0
2480 1 10.27928370558961 20.34770473542409 35.30439161067643 0 0 0
948 1 22.02703651197773 20.347704735424088 6.230186754825252 0 0 0
2623 1 18.35586375998144 3.815194637892017 33.227662692401346 0 0 0
1891 1 1.468469100798517 20.347704735424088 22.844018101025924 0 0 0
3277 1 35.24325841916437 17.804241643496077 24.92074701930101 0 0 0
960 1 26.43244381437328 12.717315459640057 0.0 0 0 0
782 1 19.82433286077996 19.075973189460083 6.230186754825254 0 0 0
2037 1 8.076580054391835 13.989047005604062 22.844018101025927 0 0 0
2333 1 13.21622190718664 10.173852367712044 24.920747019301007 0 0 0
2914 1 25.698209263974025 19.07597318946009 29.07420485585118 0 0 0
448 1 13.21622190718664 22.891167827352103 0.0 0 0 0
1748 1 40.38290027195917 19.07597318946009 14.53710242792559 0 0 0
440 1 11.747752806388124 20.347704735424088 2.076728918275085 0 0 0
3314 1 41.85136937275769 13.98904700560406 18.69056026447576 0 0 0
3109 1 31.57208566716808 19.075973189460083 26.99747593757609 0 0 0
95 1 2.936938201597031 17.804241643496077 2.076728918275084 0 0 0
2750 1 22.76127106237699 21.619436281388097 26.99747593757609 0 0 0
1297 1 35.97749296956363 6.358657729820028 2.076728918275087 0 0 0
971 1 23.495505612776245 20.347704735424088 4.153457836550167 0 0 0
2087 1 5.139641852794807 3.8151946378920174 33.227662692401346 0 0 0
1575 1 35.97749296956363 13.98904700560406 14.53710242792559 0 0 0
508 1 13.21622190718664 2.543463091928011 6.230186754825253 0 0 0
3015 1 27.166678364772537 13.98904700560406 33.227662692401346 0 0 0
594 1 15.41892555838441 19.075973189460083 6.230186754825253 0 0 0
3322 1 40.38290027195917 19.075973189460083 20.76728918275084 0 0 0
1392 1 34.50902386876511 6.358657729820028 10.383644591375422 0 0 0
623 1 16.15316010878367 22.891167827352103 2.076728918275084 0 0 0
3040 1 24.963974713574764 17.804241643496077 33.22766269240135 0 0 0
1804 1 0.0 0.0 18.69056026447576 0 0 0
1158 1 30.103616566369567 21.619436281388094 4.153457836550169 0 0 0
468 1 5.873876403194062 10.173852367712044 16.613831346200673 0 0 0
3341 1 35.24325841916438 2.5434630919280115 31.150933774126266 0 0 0
1849 1 4.405407302395547 0.0 18.69056026447576 0 0 0
2580 1 17.62162920958219 20.347704735424088 24.92074701930101 0 0 0
539 1 15.41892555838441 8.902120821748039 6.230186754825253 0 0 0
3195 1 35.97749296956363 1.2717315459640055 26.99747593757609 0 0 0
317 1 8.810814604791092 0.0 6.230186754825253 0 0 0
3595 1 42.58560392315695 20.347704735424088 33.227662692401346 0 0 0
816 1 14.684691007985156 5.086926183856022 16.613831346200673 0 0 0
161 1 7.342345503992577 0.0 2.076728918275084 0 0 0
3185 1 30.837851116768825 7.630389275784034 31.150933774126266 0 0 0
601 1 18.35586375998144 11.44558391367605 2.076728918275084 0 0 0
2176 1 10.279283705589608 7.630389275784033 22.844018101025924 0 0 0
2959 1 30.10361656636957 24.162899373316105 22.844018101025924 0 0 0
1415 1 34.50902386876511 8.902120821748039 10.383644591375422 0 0 0
1636 1 38.914431171160665 16.532510097532075 10.38364459137542 0 0 0
1395 1 35.97749296956363 1.2717315459640064 8.306915673100338 0 0 0
3214 1 33.774789318365855 10.173852367712044 26.99747593757609 0 0 0
3041 1 26.43244381437328 17.80424164349608 31.150933774126266 0 0 0
1758 1 42.58560392315695 12.717315459640057 8.306915673100338 0 0 0
3230 1 39.64866572155992 0.0 18.69056026447576 0 0 0
260 1 11.013518255988869 13.98904700560406 0.0 0 0 0
365 1 7.342345503992577 15.260778551568066 8.306915673100336 0 0 0
1660 1 39.64866572155992 17.804241643496077 6.230186754825253 0 0 0
470 1 8.076580054391833 8.902120821748039 16.613831346200673 0 0 0
1390 1 33.774789318365855 5.086926183856022 8.306915673100336 0 0 0
3105 1 30.103616566369567 21.619436281388097 29.07420485585118 0 0 0
2435 1 12.481987356787382 1.2717315459640055 35.30439161067643 0 0 0
744 1 22.02703651197773 2.543463091928012 -1.7763568394002505e-15 0 0 0
3522 1 43.31983847355621 6.358657729820028 29.07420485585118 0 0 0
1222 1 30.103616566369567 6.358657729820028 10.383644591375422 0 0 0
3538 1 42.58560392315695 10.173852367712044 26.99747593757609 0 0 0
3028 1 30.837851116768825 2.543463091928011 24.92074701930101 0 0 0
2247 1 13.950456457585895 24.162899373316108 20.767289182750844 0 0 0
2467 1 15.418925558384414 6.358657729820028 31.150933774126266 0 0 0
3107 1 29.36938201597031 20.347704735424088 26.99747593757609 0 0 0
431 1 13.950456457585895 16.53251009753207 2.076728918275084 0 0 0
2890 1 27.16667836477254 11.44558391367605 26.99747593757609 0 0 0
1358 1 30.83785111676882 0.0 12.460373509650504 0 0 0
1764 1 41.11713482235843 20.347704735424088 10.383644591375424 0 0 0
227 1 2.936938201597031 20.347704735424088 8.306915673100335 0 0 0
690 1 14.684691007985156 12.717315459640057 10.38364459137542 0 0 0
562 1 12.481987356787378 19.075973189460083 10.383644591375422 0 0 0
2755 1 23.495505612776245 15.260778551568066 22.844018101025924 0 0 0
1490 1 40.38290027195917 8.90212082174804 2.076728918275084 0 0 0
666 1 14.684691007985156 7.630389275784034 10.38364459137542 0 0 0
2521 1 14.684691007985156 17.80424164349608 29.07420485585118 0 0 0
1755 1 42.58560392315695 15.26077855156807 8.306915673100338 0 0 0
2625 1 19.090098310380696 0.0 29.07420485585118 0 0 0
3011 1 25.69820926397402 16.532510097532075 35.30439161067643 0 0 0
252 1 7.342345503992577 20.347704735424088 2.076728918275084 0 0 0
722 1 15.418925558384412 16.53251009753207 12.460373509650504 0 0 0
1382 1 30.83785111676882 10.173852367712044 12.460373509650504 0 0 0
1615 1 40.38290027195918 11.445583913676051 8.306915673100336 0 0 0
828 1 14.684691007985156 10.173852367712044 16.613831346200676 0 0 0
1332 1 33.774789318365855 20.347704735424088 2.076728918275084 0 0 0
751 1 15.418925558384412 24.162899373316105 12.460373509650504 0 0 0
461 1 8.810814604791094 2.5434630919280115 12.460373509650504 0 0 0
1244 1 26.43244381437328 15.260778551568066 12.460373509650504 0 0 0
1844 1 1.4684691007985151 2.54346309192801 22.844018101025924 0 0 0
3524 1 36.711727519962885 20.347704735424088 35.304391610676426 0 0 0
3037 1 24.96397471357476 20.34770473542409 33.22766269240135 0 0 0
400 1 8.810814604791092 15.260778551568068 6.230186754825253 0 0 0
280 1 1.468469100798516 10.173852367712044 16.613831346200673 0 0 0
2147 1 12.481987356787384 1.2717315459640055 22.844018101025924 0 0 0
937 1 27.166678364772537 6.358657729820028 2.076728918275085 0 0 0
1822 1 2.2027036511977727 13.989047005604062 18.69056026447576 0 0 0
1810 1 2.2027036511977727 3.815194637892017 18.69056026447576 0 0 0
1187 1 23.49550561277625 12.717315459640057 16.613831346200673 0 0 0
1457 1 38.1801966207614 7.630389275784035 2.076728918275084 0 0 0
3335 1 32.30632021756735 7.630389275784033 35.30439161067643 0 0 0
1593 1 42.58560392315695 0.0 2.076728918275084 0 0 0
889 1 20.55856741117921 12.717315459640057 8.306915673100338 0 0 0
2912 1 23.49550561277625 20.347704735424088 29.07420485585118 0 0 0
916 1 19.0900983103807 20.347704735424088 10.383644591375422 0 0 0
2004 1 4.405407302395545 15.26077855156807 24.92074701930101 0 0 0
433 1 15.418925558384412 11.44558391367605 -8.881784197001252e-16 0 0 0
1298 1 35.97749296956363 8.90212082174804 2.076728918275084 0 0 0
1174 1 25.69820926397402 1.2717315459640055 16.613831346200673 0 0 0
2938 1 27.16667836477254 21.619436281388097 26.99747593757609 0 0 0
2764 1 28.63514746557105 8.902120821748039 18.69056026447576 0 0 0
885 1 19.0900983103807 15.260778551568066 10.383644591375422 0 0 0
1539 1 34.50902386876512 6.358657729820028 16.613831346200673 0 0 0
3244 1 32.30632021756734 15.260778551568066 29.07420485585118 0 0 0
609 1 15.418925558384412 21.619436281388094 6.230186754825252 0 0 0
1081 1 23.495505612776245 17.804241643496077 10.383644591375418 0 0 0
1326 1 31.57208566716808 24.162899373316105 8.306915673100338 0 0 0
270 1 11.013518255988869 24.162899373316108 -1.7763568394002505e-15 0 0 0
1697 1 40.38290027195917 3.815194637892017 14.53710242792559 0 0 0
1921 1 0.0 2.543463091928013 31.150933774126266 0 0 0
507 1 13.950456457585895 6.358657729820028 8.306915673100336 0 0 0
1762 1 41.85136937275769 21.619436281388094 12.460373509650504 0 0 0
2605 1 24.229740163175503 16.53251009753207 18.69056026447576 0 0 0
1964 1 0.7342345503992576 16.532510097532075 33.227662692401346 0 0 0
181 1 6.60811095359332 8.902120821748039 6.230186754825252 0 0 0
3333 1 33.77478931836586 0.0 33.227662692401346 0 0 0
3465 1 42.58560392315695 15.260778551568066 20.767289182750844 0 0 0
33 1 0.7342345503992576 3.815194637892017 8.306915673100336 0 0 0
579 1 17.62162920958219 5.086926183856023 0.0 0 0 0
3573 1 42.58560392315695 0.0 33.227662692401346 0 0 0
2680 1 16.153160108783666 17.804241643496077 33.227662692401346 0 0 0
247 1 4.405407302395547 22.8911678273521 6.230186754825252 0 0 0
3163 1 30.103616566369567 6.358657729820028 35.30439161067643 0 0 0
2309 1 14.684691007985151 2.5434630919280106 22.844018101025924 0 0 0
2535 1 19.82433286077996 11.44558391367605 24.92074701930101 0 0 0
176 1 5.139641852794805 8.902120821748039 8.306915673100336 0 0 0
3140 1 37.44596207036214 13.98904700560406 18.69056026447576 0 0 0
588 1 13.21622190718664 20.347704735424088 6.230186754825252 0 0 0
1708 1 38.1801966207614 12.717315459640057 14.537102427925593 0 0 0
1617 1 41.11713482235844 7.630389275784035 4.153457836550167 0 0 0
1811 1 2.2027036511977727 6.358657729820028 18.69056026447576 0 0 0
1292 1 33.774789318365855 10.173852367712046 2.076728918275084 0 0 0
2672 1 23.495505612776245 0.0 22.844018101025924 0 0 0
340 1 9.54504915519035 8.902120821748039 8.306915673100335 0 0 0
2570 1 22.76127106237699 8.902120821748039 20.767289182750844 0 0 0
1048 1 22.761271062376988 16.53251009753207 14.53710242792559 0 0 0
1118 1 27.166678364772537 16.53251009753207 8.306915673100338 0 0 0
164 1 0.7342345503992576 16.532510097532075 14.53710242792559 0 0 0
633 1 10.279283705589608 2.543463091928011 16.613831346200673 0 0 0
3100 1 37.44596207036214 3.815194637892017 18.69056026447576 0 0 0
144 1 0.0 10.173852367712044 12.460373509650504 0 0 0
2105 1 4.405407302395545 7.630389275784034 31.150933774126266 0 0 0
1488 1 38.1801966207614 10.173852367712046 2.076728918275084 0 0 0
3483 1 36.711727519962885 2.543463091928011 35.304391610676426 0 0 0
2355 1 8.81081460479109 20.347704735424088 31.15093377412626 0 0 0
1611 1 38.914431171160665 13.989047005604062 10.38364459137542 0 0 0
1545 1 36.711727519962885 0.0 10.38364459137542 0 0 0
895 1 22.76127106237699 11.44558391367605 8.306915673100338 0 0 0
3405 1 36.71172751996289 15.260778551568066 29.07420485585118 0 0 0
2307 1 13.950456457585895 6.358657729820028 26.99747593757609 0 0 0
1780 1 42.58560392315695 2.543463091928012 14.53710242792559 0 0 0
59 1 2.936938201597031 7.630389275784034 2.076728918275084 0 0 0
709 1 20.55856741117922 0.0 2.076728918275084 0 0 0
2841 1 19.090098310380704 17.804241643496077 35.304391610676426 0 0 0
1400 1 27.90091291517179 20.347704735424088 16.613831346200673 0 0 0
3588 1 41.11713482235843 15.260778551568066 35.30439161067643 0 0 0
1823 1 2.2027036511977727 16.532510097532075 18.69056026447576 0 0 0
168 1 2.2027036511977744 13.98904700560406 12.460373509650504 0 0 0
1219 1 28.63514746557105 11.44558391367605 12.460373509650507 0 0 0
2444 1 12.481987356787382 8.90212082174804 35.30439161067643 0 0 0
3417 1 41.11713482235844 7.630389275784033 22.844018101025927 0 0 0
423 1 11.013518255988863 21.619436281388094 6.230186754825252 0 0 0
3251 1 35.97749296956363 13.98904700560406 26.99747593757609 0 0 0
2619 1 16.887394659182927 6.358657729820028 35.30439161067643 0 0 0
1851 1 0.0 12.71731545964006 24.92074701930101 0 0 0
1409 1 30.837851116768825 12.717315459640057 12.460373509650504 0 0 0
1308 1 30.837851116768828 20.34770473542409 6.230186754825251 0 0 0
91 1 1.468469100798516 20.347704735424088 4.153457836550169 0 0 0
2024 1 2.9369382015970302 22.891167827352103 26.99747593757609 0 0 0
2962 1 31.57208566716809 19.075973189460083 20.76728918275084 0 0 0
2798 1 22.02703651197773 0.0 31.15093377412626 0 0 0
580 1 19.82433286077996 3.815194637892017 0.0 0 0 0
3255 1 37.44596207036214 11.44558391367605 24.92074701930101 0 0 0
66 1 4.405407302395547 2.543463091928011 0.0 0 0 0
3294 1 41.85136937275769 8.902120821748039 18.69056026447576 0 0 0
2618 1 16.88739465918293 3.815194637892016 35.30439161067643 0 0 0
3131 1 32.30632021756734 20.347704735424088 22.844018101025927 0 0 0
2530 1 18.35586375998145 11.44558391367605 26.99747593757609 0 0 0
2569 1 22.02703651197773 10.173852367712044 18.69056026447576 0 0 0
2344 1 16.153160108783666 2.543463091928011 20.76728918275084 0 0 0
1215 1 27.166678364772537 13.98904700560406 14.537102427925593 0 0 0
1365 1 29.369382015970302 5.086926183856022 14.53710242792559 0 0 0
1772 1 41.11713482235843 0.0 16.613831346200676 0 0 0
1284 1 30.837851116768825 15.260778551568068 6.230186754825251 0 0 0
3306 1 38.91443117116066 16.53251009753207 22.844018101025924 0 0 0
773 1 24.229740163175503 6.358657729820028 1.7763568394002505e-15 0 0 0
2505 1 19.090098310380704 2.543463091928011 22.844018101025924 0 0 0
1877 1 2.936938201597032 12.717315459640057 20.767289182750844 0 0 0
1338 1 35.97749296956363 19.075973189460083 2.076728918275085 0 0 0
1588 1 39.64866572155992 2.54346309192801 6.230186754825251 0 0 0
2262 1 9.545049155190348 1.2717315459640055 33.227662692401346 0 0 0
1544 1 35.24325841916437 0.0 12.460373509650504 0 0 0
677 1 17.621629209582185 0.0 6.230186754825252 0 0 0
2586 1 21.29280196157848 16.53251009753207 22.844018101025927 0 0 0
664 1 13.950456457585895 11.445583913676051 14.53710242792559 0 0 0
900 1 23.49550561277625 5.086926183856023 4.153457836550169 0 0 0
2485 1 11.747752806388126 15.260778551568066 33.227662692401346 0 0 0
1432 1 27.90091291517179 22.8911678273521 16.613831346200673 0 0 0
3489 1 40.38290027195918 1.2717315459640055 33.227662692401346 0 0 0
3543 1 38.1801966207614 22.8911678273521 33.227662692401346 0 0 0
1707 1 36.711727519962885 12.717315459640057 16.613831346200676 0 0 0
411 1 13.950456457585895 11.44558391367605 2.0767289182750845 0 0 0
667 1 15.418925558384412 6.358657729820028 12.460373509650504 0 0 0
2901 1 30.837851116768825 5.086926183856022 18.69056026447576 0 0 0
685 1 11.747752806388124 15.260778551568066 14.53710242792559 0 0 0
62 1 2.936938201597031 5.086926183856022 2.076728918275084 0 0 0
1719 1 41.11713482235844 5.086926183856022 10.383644591375422 0 0 0
3203 1 30.103616566369567 16.532510097532075 35.30439161067643 0 0 0
3154 1 29.36938201597031 2.5434630919280106 33.227662692401346 0 0 0
29 1 2.202703651197772 21.619436281388094 2.220446049250313e-16 0 0 0
2418 1 18.35586375998144 19.075973189460083 20.76728918275084 0 0 0
125 1 1.468469100798516 0.0 10.383644591375422 0 0 0
1450 1 35.97749296956363 11.44558391367605 8.306915673100338 0 0 0
48 1 2.936938201597031 0.0 2.076728918275084 0 0 0
949 1 22.76127106237699 19.075973189460083 8.306915673100338 0 0 0
1150 1 31.57208566716808 13.989047005604062 2.076728918275084 0 0 0
3389 1 41.11713482235844 2.5434630919280115 22.844018101025927 0 0 0
3462 1 41.85136937275769 16.53251009753207 24.920747019301007 0 0 0
1795 1 42.58560392315695 20.34770473542409 14.53710242792559 0 0 0
2885 1 24.963974713574764 15.260778551568066 26.99747593757609 0 0 0
219 1 8.810814604791094 5.086926183856022 0.0 0 0 0
3456 1 38.18019662076141 20.347704735424088 26.99747593757609 0 0 0
2168 1 7.342345503992577 12.717315459640057 26.99747593757609 0 0 0
1525 1 41.85136937275769 16.53251009753207 0.0 0 0 0
1353 1 27.90091291517179 2.543463091928011 16.613831346200673 0 0 0
882 1 18.35586375998145 16.53251009753207 14.53710242792559 0 0 0
2020 1 11.013518255988863 3.815194637892017 18.69056026447576 0 0 0
2628 1 14.684691007985151 10.173852367712046 35.30439161067643 0 0 0
3220 1 35.97749296956363 8.902120821748039 26.99747593757609 0 0 0
2279 1 11.013518255988863 6.358657729820028 31.15093377412626 0 0 0
2308 1 13.216221907186638 2.543463091928012 24.92074701930101 0 0 0
450 1 15.418925558384412 24.162899373316108 -8.881784197001252e-16 0 0 0
1005 1 20.55856741117921 5.086926183856022 14.537102427925587 0 0 0
3137 1 35.97749296956363 16.53251009753207 20.76728918275084 0 0 0
1066 1 29.36938201597031 2.543463091928011 2.076728918275084 0 0 0
109 1 3.671172751996288 24.162899373316105 4.153457836550168 0 0 0
2096 1 1.4684691007985151 15.26077855156807 35.30439161067643 0 0 0
2144 1 11.013518255988869 6.358657729820028 24.92074701930101 0 0 0
337 1 7.342345503992577 7.630389275784033 8.306915673100336 0 0 0
2158 1 5.139641852794807 19.07597318946009 33.227662692401346 0 0 0
647 1 13.950456457585895 3.815194637892017 14.53710242792559 0 0 0
1402 1 29.369382015970302 17.804241643496077 14.53710242792559 0 0 0
832 1 16.15316010878367 7.630389275784033 14.53710242792559 0 0 0
2862 1 27.900912915171794 5.086926183856022 22.844018101025924 0 0 0
466 1 11.013518255988863 1.2717315459640055 12.460373509650504 0 0 0
861 1 20.55856741117921 7.630389275784033 8.306915673100338 0 0 0
3256 1 36.711727519962885 7.630389275784033 22.844018101025927 0 0 0
368 1 7.342345503992577 12.717315459640057 8.306915673100338 0 0 0
1125 1 29.36938201597031 12.717315459640057 2.076728918275082 0 0 0
2843 1 21.29280196157848 16.532510097532075 35.30439161067643 0 0 0
1323 1 35.24325841916438 10.173852367712046 0.0 0 0 0
3118 1 34.50902386876511 16.53251009753207 22.844018101025927 0 0 0
1781 1 41.11713482235843 12.717315459640057 16.613831346200676 0 0 0
589 1 13.950456457585895 19.075973189460083 8.306915673100335 0 0 0
1954 1 5.139641852794805 3.815194637892016 26.99747593757609 0 0 0
932 1 24.96397471357476 10.173852367712044 2.076728918275085 0 0 0
2792 1 19.090098310380704 5.086926183856022 35.30439161067643 0 0 0
852 1 16.15316010878367 12.717315459640057 14.53710242792559 0 0 0
55 1 1.4684691007985156 10.173852367712044 4.153457836550167 0 0 0
65 1 5.139641852794804 6.358657729820028 2.076728918275084 0 0 0
2414 1 16.887394659182927 21.619436281388097 22.844018101025927 0 0 0
1732 1 40.38290027195917 16.532510097532075 14.537102427925587 0 0 0
1704 1 42.58560392315695 0.0 8.30691567310034 0 0 0
2996 1 26.43244381437328 5.086926183856023 31.150933774126266 0 0 0
2575 1 16.88739465918293 24.162899373316105 29.07420485585118 0 0 0
2067 1 8.810814604791094 20.347704735424088 18.69056026447576 0 0 0
489 1 7.342345503992579 15.260778551568066 14.53710242792559 0 0 0
3486 1 38.914431171160665 3.815194637892017 35.30439161067643 0 0 0
1151 1 31.57208566716808 16.532510097532075 2.076728918275084 0 0 0
43 1 2.2027036511977727 6.358657729820028 6.230186754825253 0 0 0
196 1 1.468469100798516 20.347704735424088 10.383644591375422 0 0 0
1920 1 6.608110953593319 24.162899373316105 18.69056026447576 0 0 0
858 1 19.82433286077996 8.902120821748039 12.460373509650504 0 0 0
305 1 4.405407302395546 7.630389275784034 12.460373509650504 0 0 0
3265 1 41.85136937275769 1.271731545964005 18.69056026447576 0 0 0
3469 1 40.38290027195917 24.162899373316105 26.99747593757609 0 0 0
2655 1 18.35586375998145 13.989047005604062 33.227662692401346 0 0 0
1445 1 33.774789318365855 15.260778551568068 8.306915673100335 0 0 0
988 1 28.63514746557105 19.075973189460083 1.7763568394002505e-15 0 0 0
241 1 9.54504915519035 11.445583913676051 2.076728918275084 0 0 0
3440 1 40.38290027195917 13.98904700560406 26.99747593757609 0 0 0
645 1 11.747752806388124 5.086926183856022 14.53710242792559 0 0 0
3488 1 39.64866572155992 0.0 31.15093377412626 0 0 0
289 1 4.405407302395545 2.543463091928011 12.460373509650504 0 0 0
1495 1 34.50902386876511 24.162899373316105 10.383644591375422 0 0 0
2210 1 13.9504564575859 8.902120821748039 20.76728918275084 0 0 0
2660 1 19.090098310380696 7.630389275784033 29.07420485585118 0 0 0
1098 1 30.103616566369567 6.358657729820028 4.153457836550169 0 0 0
3283 1 37.44596207036214 16.53251009753207 24.92074701930101 0 0 0
391 1 6.608110953593319 24.162899373316108 12.460373509650504 0 0 0
865 1 22.02703651197773 5.086926183856022 6.230186754825254 0 0 0
878 1 16.88739465918293 19.075973189460083 16.613831346200673 0 0 0
2145 1 10.279283705589608 2.543463091928012 22.844018101025927 0 0 0
870 1 24.229740163175503 1.271731545964005 6.230186754825253 0 0 0
327 1 5.139641852794805 13.98904700560406 14.53710242792559 0 0 0
3527 1 38.914431171160665 16.53251009753207 35.30439161067643 0 0 0
3087 1 30.837851116768825 12.717315459640057 24.92074701930101 0 0 0
2822 1 22.02703651197773 10.173852367712044 31.15093377412626 0 0 0
2937 1 26.43244381437328 22.8911678273521 24.92074701930101 0 0 0
3336 1 32.30632021756735 5.086926183856023 35.30439161067643 0 0 0
3392 1 41.11713482235844 0.0 22.844018101025927 0 0 0
2400 1 17.621629209582185 12.717315459640057 18.69056026447576 0 0 0
1420 1 35.97749296956363 8.902120821748039 8.306915673100338 0 0 0
2844 1 21.29280196157848 19.075973189460083 35.30439161067643 0 0 0
257 1 9.545049155190352 16.53251009753207 2.076728918275084 0 0 0
2944 1 27.900912915171794 17.804241643496077 22.844018101025924 0 0 0
3349 1 33.77478931836586 10.173852367712044 33.227662692401346 0 0 0
2354 1 9.54504915519035 24.162899373316105 33.227662692401346 0 0 0
375 1 11.013518255988863 11.44558391367605 6.230186754825252 0 0 0
1718 1 41.85136937275769 8.902120821748039 12.460373509650504 0 0 0
319 1 11.013518255988863 1.2717315459640055 6.230186754825252 0 0 0
2095 1 8.076580054391837 1.2717315459640055 29.07420485585118 0 0 0
1389 1 32.30632021756734 5.086926183856023 10.38364459137542 0 0 0
487 1 5.873876403194062 17.80424164349608 16.613831346200676 0 0 0
3439 1 39.64866572155992 15.260778551568066 24.92074701930101 0 0 0
3320 1 38.1801966207614 20.347704735424088 20.767289182750844 0 0 0
2383 1 10.279283705589606 22.8911678273521 29.07420485585118 0 0 0
3437 1 38.91443117116066 19.075973189460083 29.07420485585118 0 0 0
2555 1 16.88739465918293 21.619436281388094 29.07420485585118 0 0 0
2746 1 21.29280196157848 24.162899373316105 29.07420485585118 0 0 0
2850 1 23.49550561277625 12.717315459640057 29.07420485585118 0 0 0
2983 1 27.166678364772537 3.815194637892017 33.227662692401346 0 0 0
1367 1 31.57208566716808 3.815194637892017 14.53710242792559 0 0 0
1714 1 40.38290027195917 11.44558391367605 14.53710242792559 0 0 0
1679 1 43.31983847355621 24.162899373316105 4.153457836550171 0 0 0
1943 1 0.7342345503992576 13.98904700560406 33.227662692401346 0 0 0
52 1 0.734234550399258 11.44558391367605 8.306915673100335 0 0 0
2977 1 24.963974713574764 5.086926183856022 33.227662692401346 0 0 0
2373 1 16.887394659182927 8.902120821748039 22.844018101025924 0 0 0
3558 1 42.58560392315695 12.717315459640057 26.99747593757609 0 0 0
172 1 3.671172751996289 11.44558391367605 10.383644591375418 0 0 0
1824 1 0.0 22.8911678273521 18.69056026447576 0 0 0
1258 1 33.0405547679666 6.358657729820028 6.230186754825255 0 0 0
1649 1 43.31983847355621 11.445583913676051 4.153457836550167 0 0 0
2450 1 14.684691007985156 2.543463091928011 29.07420485585118 0 0 0
3330 1 41.85136937275769 24.162899373316108 18.69056026447576 0 0 0
576 1 17.621629209582185 7.630389275784033 0.0 0 0 0
1521 1 39.64866572155992 20.34770473542409 -3.552713678800501e-15 0 0 0
1124 1 27.900912915171794 12.717315459640057 4.153457836550167 0 0 0
842 1 21.29280196157848 1.2717315459640055 10.383644591375422 0 0 0
85 1 6.60811095359332 6.358657729820028 0.0 0 0 0
631 1 10.27928370558961 0.0 16.613831346200673 0 0 0
2541 1 22.02703651197773 5.086926183856022 18.69056026447576 0 0 0
2062 1 8.076580054391837 24.162899373316105 22.844018101025924 0 0 0
2736 1 26.43244381437328 7.630389275784034 18.69056026447576 0 0 0
98 1 2.936938201597031 15.260778551568068 2.076728918275084 0 0 0
2171 1 9.545049155190354 13.989047005604062 26.99747593757609 0 0 0
1084 1 23.495505612776245 15.260778551568066 10.383644591375418 0 0 0
1240 1 24.963974713574764 17.804241643496077 14.53710242792559 0 0 0
2814 1 24.963974713574764 0.0 26.99747593757609 0 0 0
1618 1 41.851369372757695 6.358657729820028 6.230186754825255 0 0 0
285 1 2.9369382015970302 5.086926183856023 14.53710242792559 0 0 0
2879 1 22.76127106237699 21.619436281388094 33.227662692401346 0 0 0
3422 1 43.3198384735562 3.815194637892017 22.844018101025924 0 0 0
819 1 16.88739465918293 6.358657729820028 16.613831346200673 0 0 0
10 1 2.2027036511977736 3.815194637892017 0.0 0 0 0
2075 1 3.6711727519962913 1.2717315459640073 35.30439161067643 0 0 0
274 1 2.9369382015970302 2.5434630919280106 14.53710242792559 0 0 0
3569 1 43.31983847355621 24.162899373316105 29.07420485585118 0 0 0
2128 1 5.139641852794807 16.53251009753207 33.227662692401346 0 0 0
1910 1 2.936938201597032 20.347704735424088 20.76728918275084 0 0 0
3056 1 30.837851116768825 7.630389275784033 24.92074701930101 0 0 0
2099 1 3.6711727519962913 11.44558391367605 35.30439161067643 0 0 0
3211 1 33.0405547679666 11.44558391367605 31.15093377412626 0 0 0
975 1 24.963974713574764 17.804241643496077 2.076728918275084 0 0 0
334 1 7.342345503992577 10.173852367712044 8.306915673100336 0 0 0
2290 1 8.076580054391833 13.98904700560406 35.30439161067643 0 0 0
2311 1 15.41892555838441 3.815194637892017 24.92074701930101 0 0 0
1434 1 30.103616566369567 21.619436281388094 16.613831346200673 0 0 0
1212 1 24.963974713574764 12.717315459640057 14.53710242792559 0 0 0
1033 1 24.963974713574764 2.543463091928011 8.306915673100335 0 0 0
1570 1 34.50902386876512 13.98904700560406 16.613831346200673 0 0 0
1233 1 33.774789318365855 0.0 2.076728918275085 0 0 0
856 1 17.621629209582185 10.173852367712044 12.460373509650504 0 0 0
3303 1 37.44596207036214 21.619436281388094 24.92074701930101 0 0 0
1560 1 36.711727519962885 2.543463091928012 10.383644591375418 0 0 0
67 1 6.60811095359332 1.2717315459640055 0.0 0 0 0
2974 1 25.69820926397402 1.2717315459640064 35.30439161067643 0 0 0
3402 1 35.97749296956363 16.53251009753207 33.227662692401346 0 0 0
3278 1 35.97749296956363 16.53251009753207 26.99747593757609 0 0 0
2231 1 13.9504564575859 16.53251009753207 20.76728918275084 0 0 0
3412 1 38.18019662076141 10.173852367712044 26.99747593757609 0 0 0
2030 1 5.139641852794803 21.619436281388094 26.99747593757609 0 0 0
191 1 11.013518255988869 1.271731545964006 -8.881784197001252e-16 0 0 0
420 1 8.810814604791092 20.347704735424088 6.230186754825253 0 0 0
1006 1 22.02703651197773 5.086926183856022 12.460373509650502 0 0 0
477 1 10.27928370558961 5.086926183856022 10.383644591375422 0 0 0
3600 1 42.58560392315695 22.8911678273521 33.227662692401346 0 0 0
2088 1 5.139641852794807 6.358657729820029 33.227662692401346 0 0 0
2664 1 20.55856741117921 5.086926183856023 26.99747593757609 0 0 0
2362 1 12.48198735678738 19.075973189460083 29.07420485585118 0 0 0
2871 1 31.57208566716809 1.2717315459640055 20.76728918275084 0 0 0
374 1 11.013518255988863 8.902120821748039 6.230186754825252 0 0 0
394 1 8.076580054391835 19.075973189460083 10.383644591375418 0 0 0
3234 1 30.103616566369563 21.619436281388097 35.30439161067643 0 0 0
3476 1 43.3198384735562 19.075973189460083 22.844018101025924 0 0 0
2321 1 8.810814604791092 17.804241643496077 31.15093377412626 0 0 0
1991 1 11.013518255988863 1.271731545964005 18.69056026447576 0 0 0
3151 1 27.900912915171794 0.0 35.30439161067643 0 0 0
612 1 16.15316010878367 20.347704735424088 2.0767289182750828 0 0 0
1509 1 39.64866572155992 15.260778551568066 0.0 0 0 0
603 1 17.62162920958219 10.173852367712044 0.0 0 0 0
1487 1 38.91443117116066 13.989047005604064 4.153457836550169 0 0 0
1471 1 33.0405547679666 24.162899373316108 12.460373509650504 0 0 0
583 1 10.27928370558961 22.8911678273521 10.38364459137542 0 0 0
3261 1 39.64866572155992 5.086926183856022 18.69056026447576 0 0 0
1528 1 39.64866572155992 22.8911678273521 0.0 0 0 0
2558 1 18.35586375998145 16.532510097532075 26.997475937576095 0 0 0
2989 1 24.963974713574764 10.173852367712044 33.227662692401346 0 0 0
1585 1 39.64866572155992 5.086926183856022 6.230186754825251 0 0 0
910 1 16.88739465918293 24.162899373316108 16.613831346200676 0 0 0
3532 1 40.38290027195918 16.53251009753207 33.227662692401346 0 0 0
122 1 0.7342345503992576 1.2717315459640055 14.53710242792559 0 0 0
1199 1 28.63514746557105 6.358657729820028 12.460373509650504 0 0 0
3290 1 40.38290027195917 8.902120821748039 20.76728918275084 0 0 0
2244 1 13.21622190718664 17.804241643496077 18.69056026447576 0 0 0
2525 1 16.153160108783673 15.260778551568068 26.99747593757609 0 0 0
2917 1 26.43244381437328 17.804241643496077 24.920747019301007 0 0 0
2120 1 1.4684691007985151 20.34770473542409 35.30439161067643 0 0 0
1989 1 9.54504915519035 3.815194637892017 20.767289182750844 0 0 0
809 1 24.229740163175503 21.619436281388094 1.7763568394002505e-15 0 0 0
2830 1 24.963974713574764 5.086926183856022 26.99747593757609 0 0 0
733 1 19.0900983103807 10.173852367712044 4.153457836550168 0 0 0
2604 1 22.02703651197773 17.804241643496077 18.69056026447576 0 0 0
390 1 6.608110953593319 21.619436281388097 12.460373509650504 0 0 0
3150 1 37.44596207036214 24.162899373316108 18.69056026447576 0 0 0
1032 1 25.698209263974015 6.358657729820028 10.383644591375422 0 0 0
3421 1 42.58560392315695 5.086926183856022 20.767289182750844 0 0 0
2410 1 15.418925558384412 24.162899373316105 24.92074701930101 0 0 0
2795 1 21.29280196157848 1.2717315459640046 35.30439161067643 0 0 0
1725 1 36.711727519962885 17.804241643496077 16.613831346200676 0 0 0
3029 1 32.30632021756734 2.543463091928011 22.844018101025927 0 0 0
3222 1 36.711727519962885 5.086926183856022 22.844018101025927 0 0 0
1135 1 25.698209263974015 24.162899373316108 10.383644591375418 0 0 0
2159 1 5.139641852794808 21.619436281388094 33.227662692401346 0 0 0
1915 1 6.608110953593318 16.532510097532075 18.69056026447576 0 0 0
2363 1 11.747752806388124 15.260778551568068 26.99747593757609 0 0 0
997 1 20.55856741117921 0.0 14.537102427925587 0 0 0
3080 1 29.36938201597031 17.804241643496077 26.99747593757609 0 0 0
1508 1 38.1801966207614 15.260778551568066 2.076728918275084 0 0 0
731 1 18.35586375998144 13.98904700560406 8.306915673100338 0 0 0
2676 1 14.684691007985151 20.347704735424088 35.30439161067643 0 0 0
409 1 13.21622190718664 10.173852367712044 8.881784197001252e-16 0 0 0
1236 1 23.49550561277625 20.347704735424088 16.613831346200673 0 0 0
1198 1 28.63514746557105 3.815194637892017 12.460373509650504 0 0 0
1209 1 24.963974713574764 15.260778551568066 14.53710242792559 0 0 0
1055 1 25.698209263974015 8.902120821748039 10.38364459137542 0 0 0
2396 1 16.15316010878367 15.260778551568066 20.76728918275084 0 0 0
1930 1 0.0 5.086926183856024 31.150933774126266 0 0 0
936 1 26.43244381437328 7.630389275784033 0.0 0 0 0
1502 1 37.44596207036214 19.075973189460083 6.230186754825255 0 0 0
2157 1 4.405407302395545 20.34770473542409 31.150933774126266 0 0 0
88 1 0.7342345503992576 21.619436281388097 8.306915673100338 0 0 0
197 1 2.2027036511977736 19.07597318946009 12.460373509650504 0 0 0
2827 1 24.229740163175503 6.358657729820028 31.150933774126266 0 0 0
2022 1 2.2027036511977727 24.162899373316108 31.150933774126266 0 0 0
893 1 22.02703651197773 10.173852367712044 6.230186754825254 0 0 0
2571 1 22.76127106237699 11.445583913676051 20.767289182750844 0 0 0
697 1 16.15316010878367 7.630389275784033 8.306915673100336 0 0 0
2490 1 14.684691007985156 12.717315459640057 29.07420485585118 0 0 0
3358 1 37.44596207036214 3.815194637892017 31.150933774126266 0 0 0
1186 1 28.63514746557105 1.271731545964006 12.460373509650504 0 0 0
2110 1 7.342345503992577 5.086926183856022 26.99747593757609 0 0 0
3054 1 31.57208566716808 8.902120821748039 26.99747593757609 0 0 0
2739 1 26.43244381437328 5.086926183856022 18.69056026447576 0 0 0
2584 1 19.090098310380704 17.804241643496077 22.844018101025924 0 0 0
1361 1 27.90091291517179 7.630389275784033 16.613831346200673 0 0 0
994 1 20.55856741117921 2.543463091928011 14.537102427925587 0 0 0
3074 1 27.166678364772537 24.162899373316105 33.227662692401346 0 0 0
2407 1 13.21622190718664 22.8911678273521 24.920747019301004 0 0 0
2634 1 18.35586375998145 6.358657729820028 33.227662692401346 0 0 0
3159 1 31.57208566716808 1.271731545964005 33.227662692401346 0 0 0
778 1 18.35586375998144 21.619436281388094 8.306915673100338 0 0 0
896 1 22.02703651197773 7.630389275784034 6.230186754825253 0 0 0
244 1 11.013518255988869 8.902120821748039 -8.881784197001252e-16 0 0 0
3339 1 34.50902386876511 6.358657729820028 35.30439161067643 0 0 0
2443 1 12.481987356787382 6.358657729820028 35.30439161067643 0 0 0
830 1 16.88739465918293 8.902120821748039 16.613831346200673 0 0 0
3513 1 40.38290027195918 8.902120821748039 33.227662692401346 0 0 0
1312 1 32.30632021756735 17.80424164349608 4.153457836550167 0 0 0
39 1 0.7342345503992576 8.902120821748039 8.306915673100338 0 0 0
3496 1 39.64866572155992 5.086926183856022 31.15093377412626 0 0 0
474 1 9.545049155190348 6.358657729820028 14.53710242792559 0 0 0
2568 1 20.55856741117922 10.173852367712044 20.767289182750844 0 0 0
1562 1 38.914431171160665 1.2717315459640064 10.383644591375422 0 0 0
2998 1 28.63514746557105 3.815194637892017 31.150933774126266 0 0 0
2116 1 9.545049155190352 3.815194637892017 26.99747593757609 0 0 0
2925 1 29.36938201597031 12.717315459640057 20.76728918275084 0 0 0
1840 1 0.0 5.086926183856021 24.92074701930101 0 0 0
3141 1 37.44596207036214 16.53251009753207 18.69056026447576 0 0 0
1833 1 0.7342345503992558 3.815194637892017 26.99747593757609 0 0 0
1650 1 42.58560392315695 7.630389275784034 2.076728918275084 0 0 0
3014 1 27.166678364772537 11.44558391367605 33.227662692401346 0 0 0
2454 1 16.153160108783673 0.0 26.99747593757609 0 0 0
1901 1 5.139641852794803 16.532510097532075 20.767289182750844 0 0 0
1578 1 37.44596207036215 8.902120821748039 12.460373509650504 0 0 0
471 1 8.076580054391833 11.44558391367605 16.613831346200673 0 0 0
764 1 19.090098310380704 12.717315459640057 4.153457836550167 0 0 0
2526 1 16.88739465918293 13.989047005604062 29.07420485585118 0 0 0
2082 1 2.9369382015970302 7.630389275784037 33.227662692401346 0 0 0
2613 1 16.153160108783666 0.0 33.227662692401346 0 0 0
3477 1 43.3198384735562 21.619436281388097 22.844018101025924 0 0 0
2598 1 21.29280196157848 21.619436281388097 22.844018101025927 0 0 0
295 1 8.076580054391833 1.2717315459640055 10.38364459137542 0 0 0
2810 1 23.49550561277625 2.5434630919280106 29.07420485585118 0 0 0
3369 1 33.77478931836586 15.260778551568066 33.227662692401346 0 0 0
939 1 26.43244381437328 5.086926183856022 0.0 0 0 0
1631 1 36.71172751996289 20.34770473542409 10.383644591375418 0 0 0
1523 1 40.38290027195917 21.619436281388097 2.076728918275084 0 0 0
1711 1 38.1801966207614 10.173852367712044 14.537102427925593 0 0 0
2401 1 18.35586375998144 11.44558391367605 20.76728918275084 0 0 0
2471 1 16.88739465918293 3.815194637892017 29.07420485585118 0 0 0
32 2 0.7342345503992576 1.271731545964006 8.306915673100338 0 0 0
2590 2 22.76127106237699 13.98904700560406 20.767289182750844 0 0 0
212 2 7.342345503992577 10.173852367712044 2.0767289182750845 0 0 0
2936 2 24.963974713574764 22.891167827352103 26.99747593757609 0 0 0
2997 2 27.900912915171794 5.086926183856022 29.07420485585118 0 0 0
2334 2 13.950456457585895 8.902120821748039 26.99747593757609 0 0 0
2001 2 3.6711727519962896 16.53251009753207 29.07420485585118 0 0 0
3438 2 38.18019662076141 15.260778551568068 26.99747593757609 0 0 0
2668 2 22.027036511977727 2.543463091928011 24.92074701930101 0 0 0
2995 2 27.166678364772537 8.902120821748039 33.227662692401346 0 0 0
2014 2 8.076580054391835 11.44558391367605 22.844018101025924 0 0 0
267 2 8.810814604791094 20.347704735424088 8.881784197001252e-16 0 0 0
1658 2 40.38290027195918 19.075973189460083 8.306915673100338 0 0 0
2161 2 5.873876403194062 17.804241643496077 29.07420485585118 0 0 0
3175 2 34.50902386876511 1.2717315459640055 29.07420485585118 0 0 0
3530 2 39.64866572155992 15.260778551568066 31.15093377412626 0 0 0
1737 2 41.11713482235843 10.173852367712044 10.383644591375424 0 0 0
963 2 26.43244381437328 10.173852367712044 1.7763568394002505e-15 0 0 0
2367 2 13.216221907186638 12.717315459640057 24.920747019301007 0 0 0
2080 2 1.4684691007985151 10.173852367712044 35.30439161067643 0 0 0
355 2 3.6711727519962887 24.162899373316105 16.613831346200673 0 0 0
2381 2 19.82433286077996 6.358657729820028 18.69056026447576 0 0 0
3381 2 38.18019662076141 7.630389275784034 26.99747593757609 0 0 0
1093 2 27.90091291517179 10.173852367712044 4.153457836550167 0 0 0
2292 2 7.342345503992576 12.717315459640057 33.227662692401346 0 0 0
476 2 8.810814604791094 5.086926183856022 12.460373509650504 0 0 0
140 2 5.139641852794804 1.2717315459640055 8.306915673100336 0 0 0
1566 2 40.38290027195918 1.2717315459640046 8.306915673100338 0 0 0
1817 2 2.2027036511977727 11.44558391367605 18.69056026447576 0 0 0
1938 2 2.9369382015970302 0.0 26.99747593757609 0 0 0
2876 2 20.55856741117922 20.347704735424088 33.227662692401346 0 0 0
1962 2 8.076580054391835 1.2717315459640064 22.844018101025924 0 0 0
661 2 11.747752806388124 10.173852367712044 14.53710242792559 0 0 0
613 2 16.887394659182927 19.075973189460083 4.153457836550168 0 0 0
1277 2 28.63514746557105 19.075973189460083 12.460373509650504 0 0 0
892 2 20.55856741117921 10.173852367712044 8.306915673100336 0 0 0
2978 2 25.69820926397402 3.815194637892017 35.30439161067643 0 0 0
2141 2 8.81081460479109 5.086926183856022 24.92074701930101 0 0 0
1549 2 33.774789318365855 10.173852367712044 14.53710242792559 0 0 0
1690 2 36.711727519962885 10.173852367712044 16.613831346200676 0 0 0
3162 2 29.36938201597031 7.630389275784033 33.227662692401346 0 0 0
560 2 11.747752806388124 17.804241643496077 8.306915673100336 0 0 0
1447 2 34.50902386876511 16.532510097532075 10.38364459137542 0 0 0
2160 2 4.405407302395545 17.804241643496077 31.150933774126266 0 0 0
591 2 13.21622190718664 17.804241643496077 6.230186754825253 0 0 0
3042 2 27.166678364772537 16.532510097532075 33.227662692401346 0 0 0
381 2 13.21622190718664 5.086926183856022 8.881784197001252e-16 0 0 0
1881 2 4.405407302395548 10.173852367712044 18.69056026447576 0 0 0
792 2 22.02703651197773 12.717315459640057 0.0 0 0 0
1569 2 33.774789318365855 15.260778551568066 14.53710242792559 0 0 0
3274 2 34.50902386876511 19.075973189460083 29.07420485585118 0 0 0
315 2 9.54504915519035 1.2717315459640055 8.306915673100336 0 0 0
1412 2 33.0405547679666 13.98904700560406 12.460373509650504 0 0 0
364 2 5.873876403194061 15.260778551568066 10.383644591375422 0 0 0
2802 2 20.55856741117922 7.630389275784033 33.227662692401346 0 0 0
2734 2 25.69820926397402 11.445583913676051 22.844018101025927 0 0 0
2766 2 22.761271062376988 24.162899373316108 26.99747593757609 0 0 0
3245 2 33.774789318365855 15.260778551568066 26.99747593757609 0 0 0
2707 2 27.166678364772537 3.815194637892017 20.767289182750844 0 0 0
397 2 8.810814604791092 17.804241643496077 6.230186754825253 0 0 0
1644 2 41.851369372757695 11.445583913676051 6.230186754825251 0 0 0
1050 2 23.495505612776245 12.717315459640057 10.38364459137542 0 0 0
18 2 0.0 17.804241643496077 0.0 0 0 0
1839 2 0.7342345503992558 8.90212082174804 26.99747593757609 0 0 0
3362 2 38.91443117116066 1.2717315459640055 29.07420485585118 0 0 0
3115 2 32.30632021756734 15.260778551568068 22.844018101025927 0 0 0
416 2 7.342345503992577 22.8911678273521 8.306915673100336 0 0 0
2860 2 27.16667836477254 8.902120821748039 26.99747593757609 0 0 0
2119 2 11.013518255988869 1.2717315459640064 24.92074701930101 0 0 0
2651 2 16.88739465918293 16.53251009753207 35.30439161067643 0 0 0
1193 2 26.43244381437328 7.630389275784033 12.460373509650504 0 0 0
721 2 14.684691007985156 17.804241643496077 10.38364459137542 0 0 0
3504 2 42.58560392315695 0.0 26.99747593757609 0 0 0
1378 2 29.369382015970302 12.717315459640057 14.53710242792559 0 0 0
2114 2 8.810814604791092 2.543463091928011 24.92074701930101 0 0 0
2716 2 19.090098310380696 20.34770473542409 29.07420485585118 0 0 0
2784 2 26.43244381437328 22.8911678273521 18.69056026447576 0 0 0
1023 2 22.761271062376988 8.902120821748039 14.53710242792559 0 0 0
1663 2 41.851369372757695 19.075973189460083 6.230186754825253 0 0 0
3501 2 41.851369372757695 1.2717315459640055 31.150933774126266 0 0 0
1923 2 0.7342345503992576 3.8151946378920174 33.227662692401346 0 0 0
1832 2 0.7342345503992558 1.2717315459640055 26.99747593757609 0 0 0
2804 2 21.29280196157848 8.902120821748039 35.30439161067643 0 0 0
698 2 17.621629209582185 7.630389275784033 6.230186754825252 0 0 0
2229 2 13.21622190718664 15.260778551568066 18.69056026447576 0 0 0
21 2 0.0 15.260778551568068 0.0 0 0 0
2592 2 22.02703651197773 12.717315459640057 18.69056026447576 0 0 0
2322 2 9.54504915519035 16.53251009753207 33.227662692401346 0 0 0
1269 2 37.44596207036214 1.2717315459640055 0.0 0 0 0
1122 2 28.63514746557105 13.98904700560406 6.230186754825253 0 0 0
2302 2 12.48198735678738 6.358657729820028 29.07420485585118 0 0 0
2870 2 30.837851116768825 0.0 18.69056026447576 0 0 0
3592 2 42.58560392315695 12.717315459640057 33.227662692401346 0 0 0
1589 2 41.11713482235843 2.543463091928011 4.153457836550167 0 0 0
2428 2 19.82433286077996 19.075973189460083 18.69056026447576 0 0 0
429 2 13.216221907186638 15.260778551568066 8.881784197001252e-16 0 0 0
1166 2 33.0405547679666 19.075973189460083 0.0 0 0 0
3503 2 41.11713482235843 0.0 29.07420485585117 0 0 0
1665 2 42.58560392315695 15.260778551568066 2.076728918275084 0 0 0
787 2 21.292801961578476 19.07597318946009 4.153457836550168 0 0 0
3155 2 30.103616566369567 1.2717315459640055 35.30439161067643 0 0 0
3188 2 33.0405547679666 8.902120821748039 31.150933774126266 0 0 0
868 2 22.02703651197773 2.543463091928011 6.230186754825253 0 0 0
2494 2 16.153160108783673 10.173852367712044 26.99747593757609 0 0 0
2811 2 24.229740163175503 1.2717315459640055 31.150933774126266 0 0 0
793 2 24.229740163175503 11.44558391367605 1.7763568394002505e-15 0 0 0
2508 2 21.29280196157848 3.815194637892017 22.844018101025927 0 0 0
1827 2 0.0 20.347704735424088 18.69056026447576 0 0 0
3145 2 35.97749296956363 21.619436281388094 20.76728918275084 0 0 0
545 2 17.62162920958219 2.5434630919280106 0.0 0 0 0
3495 2 38.1801966207614 5.086926183856022 33.227662692401346 0 0 0
1431 2 40.38290027195917 1.2717315459640055 2.076728918275084 0 0 0
1633 2 37.44596207036215 21.619436281388097 12.460373509650504 0 0 0
1248 2 27.900912915171794 12.717315459640057 10.38364459137542 0 0 0
1127 2 30.103616566369567 13.989047005604062 4.153457836550167 0 0 0
3549 2 40.38290027195918 21.619436281388094 33.227662692401346 0 0 0
3337 2 33.77478931836586 5.086926183856022 33.227662692401346 0 0 0
3116 2 33.774789318365855 15.260778551568066 20.767289182750844 0 0 0
362 2 6.60811095359332 16.53251009753207 12.460373509650504 0 0 0
565 2 13.950456457585895 13.98904700560406 8.306915673100335 0 0 0
2108 2 6.608110953593322 8.90212082174804 31.150933774126266 0 0 0
96 2 3.6711727519962887 16.53251009753207 4.153457836550167 0 0 0
1773 2 42.58560392315695 0.0 14.537102427925593 0 0 0
1442 2 33.0405547679666 16.53251009753207 12.460373509650504 0 0 0
1051 2 24.229740163175503 11.445583913676051 12.460373509650504 0 0 0
2360 2 11.74775280638812 17.80424164349608 26.99747593757609 0 0 0
1969 2 2.2027036511977727 16.53251009753207 31.150933774126266 0 0 0
534 2 13.950456457585895 8.902120821748039 8.306915673100336 0 0 0
2649 2 16.153160108783666 15.26077855156807 33.227662692401346 0 0 0
163 2 0.0 17.80424164349608 12.460373509650504 0 0 0
2324 2 8.810814604791092 15.260778551568066 31.15093377412626 0 0 0
1565 2 39.64866572155992 0.0 6.230186754825253 0 0 0
3198 2 36.711727519962885 0.0 22.844018101025927 0 0 0
1576 2 35.24325841916437 10.173852367712044 12.460373509650504 0 0 0
650 2 14.684691007985156 2.543463091928011 10.38364459137542 0 0 0
3378 2 37.44596207036214 8.902120821748039 31.150933774126266 0 0 0
1394 2 35.24325841916437 2.543463091928011 6.230186754825253 0 0 0
800 2 20.55856741117921 20.347704735424088 2.076728918275082 0 0 0
2957 2 29.36938201597031 22.8911678273521 20.76728918275084 0 0 0
1237 2 24.963974713574764 20.347704735424088 14.53710242792559 0 0 0
2179 2 12.481987356787384 8.902120821748039 22.844018101025924 0 0 0
1741 2 42.58560392315695 7.630389275784033 8.306915673100338 0 0 0
951 2 22.02703651197773 17.804241643496077 6.230186754825254 0 0 0
1007 2 22.761271062376988 3.815194637892017 14.53710242792559 0 0 0
2981 2 26.43244381437328 2.5434630919280106 31.150933774126266 0 0 0
2705 2 26.43244381437328 2.543463091928011 18.69056026447576 0 0 0
3430 2 35.24325841916438 20.347704735424088 31.150933774126266 0 0 0
3305 2 38.1801966207614 17.804241643496077 20.767289182750844 0 0 0
1281 2 30.103616566369567 16.53251009753207 10.383644591375422 0 0 0
174 2 2.936938201597032 10.173852367712044 8.306915673100338 0 0 0
1464 2 39.64866572155992 2.543463091928011 0.0 0 0 0
2031 2 4.405407302395547 17.804241643496077 24.920747019301007 0 0 0
3403 2 35.97749296956363 19.075973189460083 33.227662692401346 0 0 0
398 2 9.54504915519035 16.53251009753207 8.306915673100335 0 0 0
2717 2 19.82433286077996 19.07597318946009 31.150933774126266 0 0 0
1177 2 24.963974713574764 5.086926183856022 14.53710242792559 0 0 0
3084 2 30.837851116768825 15.260778551568066 24.92074701930101 0 0 0
942 2 19.82433286077996 24.162899373316105 12.460373509650504 0 0 0
2089 2 4.405407302395545 2.543463091928011 31.150933774126266 0 0 0
1205 2 30.837851116768825 0.0 6.230186754825253 0 0 0
3033 2 33.774789318365855 0.0 20.767289182750844 0 0 0
2228 2 11.747752806388124 15.260778551568066 20.767289182750844 0 0 0
221 2 11.013518255988869 6.358657729820028 0.0 0 0 0
1380 2 30.103616566369567 13.98904700560406 16.613831346200676 0 0 0
3043 2 27.166678364772537 19.07597318946009 33.227662692401346 0 0 0
1348 2 37.44596207036214 19.075973189460083 0.0 0 0 0
3086 2 31.57208566716808 16.53251009753207 26.99747593757609 0 0 0
3546 2 38.1801966207614 20.347704735424088 33.22766269240134 0 0 0
3591 2 43.31983847355621 16.53251009753207 35.30439161067643 0 0 0
1417 2 33.774789318365855 7.630389275784033 8.306915673100336 0 0 0
268 2 11.013518255988869 19.075973189460083 0.0 0 0 0
840 2 19.0900983103807 2.543463091928011 10.383644591375422 0 0 0
3533 2 39.64866572155992 12.717315459640057 31.15093377412626 0 0 0
3575 2 41.11713482235843 7.630389275784033 35.30439161067643 0 0 0
3262 2 40.38290027195917 3.815194637892017 20.76728918275084 0 0 0
2416 2 17.621629209582185 17.804241643496077 18.69056026447576 0 0 0
112 2 5.139641852794805 19.075973189460083 2.076728918275084 0 0 0
2832 2 25.698209263974025 6.358657729820028 29.07420485585118 0 0 0
3493 2 38.914431171160665 6.358657729820028 35.30439161067643 0 0 0
599 2 16.153160108783673 12.717315459640057 2.076728918275084 0 0 0
749 2 14.684691007985156 22.8911678273521 10.38364459137542 0 0 0
3258 2 38.91443117116066 6.358657729820028 22.844018101025924 0 0 0
597 2 16.887394659182927 13.98904700560406 4.153457836550168 0 0 0
2243 2 13.9504564575859 21.619436281388097 20.767289182750844 0 0 0
3468 2 42.58560392315695 12.717315459640057 20.767289182750844 0 0 0
1279 2 27.900912915171794 17.804241643496077 10.383644591375422 0 0 0
848 2 14.684691007985156 15.260778551568066 16.613831346200673 0 0 0
2880 2 22.02703651197773 17.804241643496077 31.150933774126266 0 0 0
860 2 19.0900983103807 7.630389275784033 10.383644591375422 0 0 0
3276 2 33.774789318365855 17.804241643496077 26.99747593757609 0 0 0
1115 2 25.698209263974015 21.619436281388097 10.38364459137542 0 0 0
2342 2 16.887394659182924 3.815194637892017 22.844018101025924 0 0 0
1136 2 24.96397471357476 22.891167827352103 8.306915673100335 0 0 0
1411 2 33.0405547679666 11.44558391367605 12.460373509650504 0 0 0
743 2 22.76127106237699 6.358657729820028 2.076728918275085 0 0 0
1929 2 0.7342345503992576 8.902120821748039 33.227662692401346 0 0 0
3506 2 36.711727519962885 15.260778551568066 35.304391610676426 0 0 0
243 2 8.810814604791092 10.173852367712044 -8.881784197001252e-16 0 0 0
130 2 0.0 5.086926183856023 12.460373509650504 0 0 0
1276 2 27.900912915171794 20.347704735424088 10.383644591375418 0 0 0
1242 2 27.166678364772537 16.53251009753207 14.53710242792559 0 0 0
1546 2 37.44596207036215 1.2717315459640055 12.460373509650504 0 0 0
141 2 8.881784197001252e-16 12.717315459640057 12.460373509650504 0 0 0
2948 2 29.36938201597031 15.260778551568068 20.76728918275084 0 0 0
3045 2 27.900912915171794 15.260778551568066 29.07420485585118 0 0 0
2379 2 17.621629209582185 5.086926183856022 18.69056026447576 0 0 0
3459 2 40.38290027195917 21.619436281388094 26.99747593757609 0 0 0
1809 2 0.0 5.086926183856022 18.69056026447576 0 0 0
1337 2 35.97749296956363 16.53251009753207 2.076728918275087 0 0 0
3485 2 38.914431171160665 1.271731545964006 35.30439161067643 0 0 0
660 2 12.48198735678738 13.98904700560406 16.613831346200673 0 0 0
2151 2 13.9504564575859 1.271731545964005 20.767289182750844 0 0 0
3004 2 29.36938201597031 0.0 26.99747593757609 0 0 0
1862 2 2.9369382015970302 5.086926183856022 20.767289182750844 0 0 0
216 2 8.810814604791094 7.630389275784033 0.0 0 0 0
1750 2 39.64866572155992 17.804241643496077 12.460373509650504 0 0 0
2881 2 23.49550561277625 17.80424164349608 29.07420485585118 0 0 0
1994 2 0.7342345503992576 24.162899373316105 33.227662692401346 0 0 0
1696 2 39.64866572155992 5.086926183856022 12.460373509650507 0 0 0
781 2 19.0900983103807 20.347704735424088 4.153457836550166 0 0 0
3325 2 41.85136937275769 16.53251009753207 18.69056026447576 0 0 0
2768 2 23.495505612776245 22.8911678273521 22.844018101025927 0 0 0
178 2 4.405407302395547 7.630389275784033 6.230186754825253 0 0 0
192 2 0.0 22.891167827352103 12.460373509650504 0 0 0
738 2 21.292801961578476 6.358657729820028 4.153457836550169 0 0 0
2527 2 16.88739465918293 16.532510097532075 29.07420485585118 0 0 0
313 2 7.342345503992577 2.543463091928011 8.306915673100336 0 0 0
3448 2 43.3198384735562 8.902120821748039 22.844018101025924 0 0 0
1788 2 41.11713482235843 15.260778551568066 16.613831346200676 0 0 0
1331 2 32.30632021756734 20.347704735424088 4.153457836550169 0 0 0
2696 2 22.02703651197773 7.630389275784034 24.92074701930101 0 0 0
1948 2 1.4684691007985151 7.630389275784034 29.07420485585118 0 0 0
2828 2 24.229740163175503 8.902120821748039 31.150933774126266 0 0 0
3386 2 40.38290027195917 3.815194637892017 26.99747593757609 0 0 0
1381 2 29.369382015970302 10.173852367712044 14.537102427925587 0 0 0
2061 2 11.013518255988863 16.53251009753207 18.69056026447576 0 0 0
2013 2 8.076580054391835 8.902120821748039 22.844018101025924 0 0 0
145 2 1.468469100798516 10.173852367712044 10.38364459137542 0 0 0
2431 2 10.279283705589611 0.0 35.30439161067643 0 0 0
1864 2 5.139641852794803 3.815194637892017 20.76728918275084 0 0 0
1391 2 34.50902386876511 3.815194637892017 10.383644591375422 0 0 0
1453 2 36.711727519962885 10.173852367712046 4.153457836550167 0 0 0
3536 2 41.851369372757695 13.98904700560406 31.150933774126266 0 0 0
3380 2 36.71172751996289 7.630389275784033 29.07420485585118 0 0 0
2186 2 15.418925558384416 3.815194637892017 18.69056026447576 0 0 0
1108 2 22.02703651197773 22.8911678273521 12.460373509650504 0 0 0
3309 2 39.64866572155992 15.260778551568066 18.69056026447576 0 0 0
2353 2 9.545049155190348 21.619436281388097 33.227662692401346 0 0 0
1751 2 41.11713482235844 17.80424164349608 10.383644591375422 0 0 0
1977 2 5.139641852794805 11.445583913676051 26.997475937576095 0 0 0
1393 2 33.774789318365855 2.543463091928012 8.306915673100335 0 0 0
1621 2 42.58560392315695 5.086926183856024 2.076728918275084 0 0 0
573 2 16.887394659182927 8.902120821748039 4.153457836550167 0 0 0
2215 2 8.076580054391837 24.162899373316108 29.07420485585118 0 0 0
182 2 5.873876403194062 5.086926183856022 4.153457836550168 0 0 0
2522 2 15.418925558384412 16.532510097532075 31.150933774126266 0 0 0
513 2 16.15316010878367 0.0 2.076728918275084 0 0 0
2513 2 11.747752806388124 22.891167827352103 33.227662692401346 0 0 0
1902 2 4.405407302395547 12.717315459640057 18.69056026447576 0 0 0
702 2 19.0900983103807 5.086926183856022 4.153457836550168 0 0 0
3125 2 37.44596207036214 11.44558391367605 18.69056026447576 0 0 0
611 2 14.684691007985156 20.347704735424088 4.153457836550169 0 0 0
454 2 8.076580054391833 1.271731545964005 16.613831346200673 0 0 0
276 2 3.671172751996288 3.815194637892017 16.613831346200673 0 0 0
3257 2 38.1801966207614 7.630389275784033 20.767289182750844 0 0 0
2046 2 5.139641852794803 24.162899373316108 26.997475937576095 0 0 0
2644 2 20.55856741117921 0.0 26.99747593757609 0 0 0
1366 2 30.83785111676882 5.086926183856022 12.460373509650504 0 0 0
990 2 28.635147465571052 24.162899373316105 1.7763568394002505e-15 0 0 0
2723 2 20.55856741117921 15.260778551568066 26.99747593757609 0 0 0
1408 2 31.57208566716808 16.53251009753207 14.53710242792559 0 0 0
2204 2 10.279283705589608 12.717315459640057 22.844018101025924 0 0 0
255 2 7.342345503992578 17.804241643496077 2.0767289182750845 0 0 0
5 2 2.2027036511977736 1.2717315459640055 0.0 0 0 0
1202 2 30.103616566369567 1.271731545964005 10.383644591375422 0 0 0
1797 2 43.3198384735562 21.619436281388097 16.613831346200673 0 0 0
2621 2 17.62162920958218 2.543463091928011 31.15093377412626 0 0 0
2699 2 24.229740163175503 8.902120821748039 24.92074701930101 0 0 0
3064 2 33.774789318365855 2.543463091928011 20.767289182750844 0 0 0
326 2 4.405407302395547 15.260778551568066 12.460373509650504 0 0 0
3346 2 37.44596207036214 1.2717315459640055 31.150933774126266 0 0 0
1469 2 32.30632021756734 22.891167827352103 10.383644591375418 0 0 0
7 2 0.734234550399258 6.358657729820028 2.0767289182750845 0 0 0
592 2 14.684691007985156 17.804241643496077 4.153457836550168 0 0 0
946 2 21.29280196157848 24.162899373316108 10.38364459137542 0 0 0
1157 2 29.36938201597031 22.8911678273521 2.076728918275082 0 0 0
1966 2 0.0 15.260778551568066 31.15093377412626 0 0 0
1505 2 38.1801966207614 17.804241643496077 2.076728918275084 0 0 0
2021 2 11.013518255988869 6.358657729820028 18.69056026447576 0 0 0
3523 2 42.58560392315695 2.543463091928011 26.99747593757609 0 0 0
446 2 15.418925558384412 19.07597318946009 -1.7763568394002505e-15 0 0 0
1002 2 20.55856741117921 7.630389275784034 14.537102427925587 0 0 0
2918 2 27.16667836477254 16.53251009753207 26.99747593757609 0 0 0
2700 2 23.495505612776245 5.086926183856022 22.844018101025924 0 0 0
1455 2 37.44596207036214 11.445583913676051 6.230186754825253 0 0 0
1429 2 38.1801966207614 0.0 2.076728918275084 0 0 0
2441 2 10.27928370558961 7.630389275784034 35.30439161067643 0 0 0
1552 2 33.774789318365855 7.630389275784034 14.537102427925587 0 0 0
1086 2 25.698209263974015 13.98904700560406 10.383644591375422 0 0 0
1676 2 43.31983847355621 19.075973189460083 4.153457836550167 0 0 0
430 2 13.950456457585895 13.98904700560406 2.076728918275084 0 0 0
3170 2 32.30632021756734 2.5434630919280115 29.07420485585118 0 0 0
557 2 11.013518255988863 19.075973189460083 12.460373509650504 0 0 0
2951 2 31.57208566716809 16.53251009753207 20.767289182750844 0 0 0
914 2 18.35586375998145 24.162899373316105 14.53710242792559 0 0 0
1156 2 27.90091291517179 22.8911678273521 4.153457836550169 0 0 0
76 2 1.468469100798516 12.717315459640057 4.153457836550169 0 0 0
2305 2 13.216221907186638 5.086926183856022 24.920747019301007 0 0 0
3219 2 35.97749296956363 6.358657729820028 26.99747593757609 0 0 0
3250 2 35.97749296956363 11.44558391367605 26.99747593757609 0 0 0
89 2 0.7342345503992576 24.162899373316108 8.306915673100338 0 0 0
3095 2 33.774789318365855 7.630389275784033 20.767289182750844 0 0 0
2041 2 9.545049155190352 11.44558391367605 20.767289182750844 0 0 0
3551 2 41.11713482235843 17.804241643496077 29.07420485585117 0 0 0
1227 2 31.57208566716808 6.358657729820028 8.306915673100338 0 0 0
332 2 6.608110953593318 13.98904700560406 12.460373509650504 0 0 0
1021 2 20.55856741117921 10.173852367712044 14.537102427925587 0 0 0
3062 2 34.50902386876511 3.815194637892017 22.844018101025924 0 0 0
913 2 18.35586375998145 21.619436281388094 14.53710242792559 0 0 0
2887 2 25.69820926397402 16.53251009753207 29.07420485585118 0 0 0
69 2 8.881784197001252e-16 17.804241643496077 6.230186754825253 0 0 0
2909 2 23.495505612776245 22.891167827352103 29.07420485585118 0 0 0
1020 2 21.292801961578476 13.98904700560406 16.613831346200673 0 0 0
1601 2 35.24325841916437 17.80424164349608 12.460373509650502 0 0 0
185 2 8.076580054391835 6.358657729820028 4.153457836550167 0 0 0
159 2 6.60811095359332 3.815194637892017 6.230186754825252 0 0 0
40 2 0.0 5.086926183856022 6.230186754825253 0 0 0
2515 2 12.481987356787384 24.162899373316105 35.30439161067643 0 0 0
318 2 10.279283705589608 0.0 4.153457836550169 0 0 0
587 2 11.747752806388124 20.347704735424088 8.306915673100336 0 0 0
1119 2 27.166678364772533 19.07597318946009 8.306915673100335 0 0 0
2805 2 20.55856741117921 5.086926183856022 33.227662692401346 0 0 0
2845 2 20.55856741117922 15.260778551568068 33.227662692401346 0 0 0
2674 2 25.69820926397402 1.2717315459640055 22.844018101025927 0 0 0
2328 2 10.279283705589608 12.717315459640057 29.07420485585118 0 0 0
3148 2 37.44596207036214 19.075973189460083 18.69056026447576 0 0 0
1305 2 30.103616566369567 21.619436281388097 10.383644591375422 0 0 0
791 2 22.76127106237699 16.532510097532075 2.076728918275084 0 0 0
875 2 14.684691007985156 22.8911678273521 16.613831346200676 0 0 0
269 2 11.013518255988869 21.619436281388097 -8.881784197001252e-16 0 0 0
1759 2 40.38290027195917 24.162899373316105 14.53710242792559 0 0 0
1340 2 37.44596207036214 13.98904700560406 3.552713678800501e-15 0 0 0
1656 2 38.1801966207614 20.347704735424088 8.306915673100336 0 0 0
2235 2 11.01351825598887 24.162899373316105 24.92074701930101 0 0 0
2945 2 29.36938201597031 17.804241643496077 20.76728918275084 0 0 0
459 2 8.076580054391833 6.358657729820028 16.613831346200673 0 0 0
3585 2 43.31983847355621 11.445583913676051 35.30439161067643 0 0 0
2127 2 5.139641852794807 13.98904700560406 33.227662692401346 0 0 0
2837 2 26.43244381437328 0.0 24.920747019301007 0 0 0
2543 2 22.76127106237699 6.358657729820028 20.767289182750844 0 0 0
3193 2 33.774789318365855 2.543463091928011 26.99747593757609 0 0 0
1106 2 33.0405547679666 3.815194637892016 0.0 0 0 0
859 2 19.82433286077996 11.44558391367605 12.460373509650504 0 0 0
439 2 12.48198735678738 24.162899373316108 4.153457836550166 0 0 0
2049 2 6.60811095359332 21.619436281388094 24.92074701930101 0 0 0
3385 2 39.64866572155992 5.086926183856022 24.92074701930101 0 0 0
3434 2 36.71172751996289 17.804241643496077 29.07420485585118 0 0 0
2174 2 11.013518255988869 8.902120821748039 24.92074701930101 0 0 0
3049 2 29.36938201597031 12.717315459640057 26.99747593757609 0 0 0
706 2 20.55856741117922 2.5434630919280106 2.076728918275084 0 0 0
2647 2 14.684691007985151 17.804241643496077 35.30439161067643 0 0 0
2523 2 15.418925558384414 19.075973189460083 31.150933774126266 0 0 0
2540 2 20.55856741117922 5.086926183856022 20.76728918275084 0 0 0
396 2 7.342345503992576 17.804241643496077 8.306915673100336 0 0 0
1313 2 33.0405547679666 16.532510097532075 6.230186754825253 0 0 0
256 2 8.810814604791092 17.804241643496077 0.0 0 0 0
2155 2 3.6711727519962913 24.162899373316105 35.30439161067643 0 0 0
2935 2 25.69820926397402 24.162899373316108 29.07420485585118 0 0 0
3177 2 27.900912915171794 12.717315459640057 35.30439161067643 0 0 0
1370 2 32.30632021756734 2.5434630919280106 10.38364459137542 0 0 0
2310 2 15.41892555838441 1.2717315459640055 24.92074701930101 0 0 0
3132 2 33.774789318365855 20.347704735424088 20.767289182750844 0 0 0
2481 2 10.27928370558961 17.804241643496077 35.30439161067643 0 0 0
3166 2 30.837851116768825 5.086926183856022 31.150933774126266 0 0 0
750 2 15.418925558384412 21.619436281388094 12.460373509650504 0 0 0
540 2 14.684691007985156 5.086926183856022 4.153457836550168 0 0 0
759 2 18.35586375998144 19.075973189460083 8.306915673100338 0 0 0
2512 2 10.279283705589611 22.8911678273521 35.30439161067643 0 0 0
3452 2 36.71172751996289 22.8911678273521 29.07420485585118 0 0 0
354 2 3.671172751996287 21.619436281388097 16.613831346200673 0 0 0
547 2 18.35586375998144 3.815194637892017 2.076728918275084 0 0 0
1986 2 7.342345503992577 2.543463091928012 20.767289182750844 0 0 0
2419 2 17.621629209582185 15.260778551568066 18.69056026447576 0 0 0
421 2 10.279283705589608 20.347704735424088 4.153457836550168 0 0 0
116 2 6.608110953593319 19.075973189460083 8.881784197001252e-16 0 0 0
676 2 18.35586375998144 3.815194637892017 8.306915673100338 0 0 0
1441 3 32.30632021756734 17.80424164349608 10.383644591375418 0 0 0
1670 3 39.64866572155992 22.8911678273521 6.230186754825251 0 0 0
3580 3 42.58560392315695 2.543463091928011 33.227662692401346 0 0 0
3144 3 35.24325841916437 22.8911678273521 18.69056026447576 0 0 0
139 3 4.405407302395547 0.0 6.230186754825253 0 0 0
1089 3 26.43244381437328 12.717315459640057 6.230186754825251 0 0 0
876 3 14.684691007985156 20.347704735424088 16.613831346200673 0 0 0
14 3 0.734234550399258 13.98904700560406 2.0767289182750845 0 0 0
1597 3 33.774789318365855 20.347704735424088 14.537102427925586 0 0 0
1605 3 36.711727519962885 15.260778551568068 10.383644591375418 0 0 0
1786 3 42.58560392315695 7.630389275784033 14.537102427925593 0 0 0
1845 3 2.936938201597032 2.543463091928011 20.76728918275084 0 0 0
2057 3 9.54504915519035 16.532510097532075 20.767289182750844 0 0 0
1874 3 2.202703651197771 13.989047005604064 24.92074701930101 0 0 0
556 3 10.27928370558961 20.347704735424088 10.383644591375422 0 0 0
1897 3 3.671172751996288 19.075973189460083 22.844018101025924 0 0 0
2709 3 28.63514746557105 1.2717315459640055 18.69056026447576 0 0 0
1654 3 38.914431171160665 21.619436281388094 10.383644591375422 0 0 0
2846 3 22.02703651197773 15.260778551568068 31.150933774126266 0 0 0
464 3 8.810814604791094 0.0 12.460373509650504 0 0 0
688 3 13.950456457585895 16.53251009753207 14.53710242792559 0 0 0
1025 3 22.02703651197773 7.630389275784033 12.460373509650504 0 0 0
492 3 7.342345503992577 12.717315459640057 14.53710242792559 0 0 0
2330 3 12.48198735678738 11.445583913676051 29.07420485585118 0 0 0
154 3 5.139641852794805 3.815194637892017 8.306915673100336 0 0 0
3497 3 40.38290027195918 3.815194637892017 33.227662692401346 0 0 0
2338 3 15.41892555838441 6.358657729820028 24.92074701930101 0 0 0
2582 3 19.82433286077996 19.07597318946009 24.92074701930101 0 0 0
626 3 18.35586375998144 24.162899373316108 2.076728918275084 0 0 0
2817 3 19.090098310380704 12.717315459640057 35.30439161067643 0 0 0
714 3 12.481987356787382 21.619436281388097 16.613831346200676 0 0 0
1170 3 33.0405547679666 24.162899373316108 -1.7763568394002505e-15 0 0 0
3233 3 29.369382015970302 22.891167827352103 33.22766269240135 0 0 0
2358 3 11.013518255988863 21.619436281388094 31.150933774126266 0 0 0
2979 3 25.69820926397402 6.358657729820028 35.30439161067643 0 0 0
1289 3 33.0405547679666 11.44558391367605 6.230186754825255 0 0 0
3058 3 33.0405547679666 6.358657729820028 24.92074701930101 0 0 0
1263 3 34.50902386876511 6.358657729820028 4.153457836550171 0 0 0
901 3 24.963974713574764 5.086926183856022 2.076728918275085 0 0 0
2027 3 2.9369382015970302 20.347704735424088 26.99747593757609 0 0 0
3149 3 37.44596207036214 21.619436281388097 18.69056026447576 0 0 0
372 3 8.810814604791092 10.173852367712044 6.230186754825253 0 0 0
1087 3 25.698209263974015 16.53251009753207 10.383644591375422 0 0 0
2952 3 30.837851116768825 12.717315459640057 18.69056026447576 0 0 0
2585 3 20.55856741117922 17.804241643496077 20.76728918275084 0 0 0
3359 3 37.44596207036214 6.358657729820028 31.150933774126266 0 0 0
2427 3 17.621629209582185 20.347704735424088 18.69056026447576 0 0 0
2226 3 12.481987356787384 16.532510097532075 22.844018101025927 0 0 0
2537 3 20.55856741117922 7.630389275784033 20.76728918275084 0 0 0
3332 3 32.30632021756735 0.0 35.30439161067643 0 0 0
3010 3 25.69820926397402 13.989047005604062 35.30439161067643 0 0 0
947 3 20.55856741117921 20.347704735424088 8.306915673100338 0 0 0
1693 3 38.91443117116066 6.358657729820028 16.613831346200673 0 0 0
23 3 2.202703651197773 16.53251009753207 1.1102230246251563e-15 0 0 0
1385 3 30.83785111676882 7.630389275784034 12.460373509650504 0 0 0
453 3 7.342345503992578 0.0 14.53710242792559 0 0 0
1757 3 43.3198384735562 16.532510097532075 10.38364459137542 0 0 0
989 3 28.63514746557105 21.619436281388094 0.0 0 0 0
1439 3 31.57208566716808 21.619436281388097 14.53710242792559 0 0 0
2823 3 22.76127106237699 8.902120821748039 33.227662692401346 0 0 0
1860 3 3.671172751996288 6.358657729820028 22.844018101025924 0 0 0
2980 3 24.963974713574764 2.543463091928012 33.22766269240135 0 0 0
965 3 28.63514746557105 11.445583913676051 0.0 0 0 0
2583 3 19.82433286077996 21.619436281388097 24.92074701930101 0 0 0
619 3 17.62162920958219 15.260778551568066 0.0 0 0 0
1594 3 43.31983847355621 1.2717315459640055 4.153457836550167 0 0 0
3449 3 43.3198384735562 11.44558391367605 22.844018101025924 0 0 0
3564 3 41.11713482235843 20.347704735424088 29.07420485585117 0 0 0
1184 3 26.43244381437328 0.0 12.460373509650504 0 0 0
2122 3 2.9369382015970302 17.80424164349608 33.22766269240135 0 0 0
2562 3 19.82433286077996 13.98904700560406 24.92074701930101 0 0 0
3172 3 33.0405547679666 3.815194637892017 31.150933774126266 0 0 0
1972 3 3.671172751996288 11.445583913676051 29.07420485585118 0 0 0
320 3 1.4684691007985131 20.34770473542409 16.613831346200676 0 0 0
360 3 4.405407302395546 17.804241643496077 12.460373509650504 0 0 0
3243 3 33.0405547679666 19.075973189460083 31.150933774126266 0 0 0
2394 3 15.41892555838441 19.07597318946009 24.92074701930101 0 0 0
2259 3 8.076580054391833 6.358657729820029 35.30439161067643 0 0 0
2100 3 3.6711727519962913 13.98904700560406 35.30439161067643 0 0 0
417 3 8.810814604791092 22.8911678273521 6.230186754825253 0 0 0
1933 3 2.2027036511977727 6.358657729820029 31.150933774126266 0 0 0
3535 3 41.851369372757695 11.44558391367605 31.150933774126266 0 0 0
2753 3 24.229740163175503 16.53251009753207 24.92074701930101 0 0 0
2964 3 30.837851116768825 17.804241643496077 18.69056026447576 0 0 0
3541 3 42.58560392315695 7.630389275784033 26.99747593757609 0 0 0
1112 3 23.495505612776245 20.347704735424088 10.38364459137542 0 0 0
57 3 2.202703651197773 11.445583913676051 6.230186754825253 0 0 0
535 3 13.950456457585895 11.44558391367605 8.306915673100336 0 0 0
1567 3 32.30632021756734 17.804241643496077 16.613831346200673 0 0 0
2496 3 16.88739465918293 11.44558391367605 29.07420485585118 0 0 0
504 3 11.747752806388124 5.086926183856022 8.306915673100336 0 0 0
1662 3 41.851369372757695 16.53251009753207 6.230186754825255 0 0 0
1041 3 19.0900983103807 17.804241643496077 16.61383134620067 0 0 0
648 3 13.950456457585895 6.358657729820028 14.53710242792559 0 0 0
1463 3 40.38290027195917 6.358657729820028 2.076728918275084 0 0 0
1995 3 1.7763568394002505e-15 20.347704735424088 31.15093377412626 0 0 0
2833 3 24.963974713574764 2.543463091928011 26.99747593757609 0 0 0
1116 3 24.96397471357476 17.804241643496077 8.306915673100335 0 0 0
801 3 22.02703651197773 20.34770473542409 -1.7763568394002505e-15 0 0 0
2610 3 24.229740163175503 24.162899373316105 18.69056026447576 0 0 0
2316 3 5.873876403194062 20.347704735424088 35.304391610676426 0 0 0
1459 3 38.91443117116066 8.90212082174804 4.153457836550167 0 0 0
3367 3 32.30632021756735 17.80424164349608 35.30439161067643 0 0 0
2614 3 16.887394659182927 1.2717315459640055 35.30439161067643 0 0 0
1319 3 33.774789318365855 12.717315459640057 2.076728918275084 0 0 0
608 3 14.684691007985156 22.8911678273521 4.153457836550166 0 0 0
367 3 8.076580054391833 16.53251009753207 10.38364459137542 0 0 0
1713 3 40.38290027195917 8.902120821748039 14.53710242792559 0 0 0
1018 3 20.55856741117921 12.717315459640057 14.537102427925587 0 0 0
1542 3 35.977492969563635 1.271731545964005 14.53710242792559 0 0 0
3307 3 38.91443117116066 19.075973189460083 22.844018101025924 0 0 0
3454 3 38.91443117116066 21.619436281388094 29.07420485585118 0 0 0
2223 3 11.013518255988869 21.619436281388094 24.92074701930101 0 0 0
369 3 8.810814604791092 12.717315459640057 6.230186754825253 0 0 0
2369 3 15.418925558384412 11.44558391367605 24.92074701930101 0 0 0
943 3 19.0900983103807 22.8911678273521 10.383644591375422 0 0 0
3097 3 35.97749296956363 6.358657729820028 20.76728918275084 0 0 0
1266 3 35.97749296956363 1.2717315459640055 2.076728918275087 0 0 0
496 3 8.810814604791094 10.173852367712044 12.460373509650504 0 0 0
2430 3 19.82433286077996 24.162899373316108 18.69056026447576 0 0 0
3354 3 35.97749296956363 6.358657729820028 33.227662692401346 0 0 0
249 3 6.608110953593321 21.619436281388094 6.230186754825252 0 0 0
2063 3 7.342345503992578 22.8911678273521 20.76728918275084 0 0 0
675 3 18.35586375998144 1.2717315459640055 8.306915673100338 0 0 0
242 3 9.54504915519035 13.98904700560406 2.0767289182750845 0 0 0
2718 3 19.82433286077996 21.619436281388094 31.150933774126266 0 0 0
1167 3 31.57208566716808 24.162899373316105 2.076728918275085 0 0 0
2329 3 11.747752806388124 12.717315459640057 26.99747593757609 0 0 0
1856 3 2.202703651197771 8.90212082174804 24.92074701930101 0 0 0
1626 3 33.774789318365855 22.891167827352103 14.537102427925587 0 0 0
2714 3 18.35586375998144 24.162899373316105 33.227662692401346 0 0 0
1622 3 43.31983847355621 3.815194637892017 4.153457836550171 0 0 0
1634 3 36.711727519962885 17.804241643496077 10.383644591375418 0 0 0
3340 3 33.77478931836586 2.543463091928011 33.227662692401346 0 0 0
923 3 20.55856741117921 15.260778551568066 8.306915673100338 0 0 0
2587 3 21.29280196157848 19.075973189460083 22.844018101025927 0 0 0
905 3 26.43244381437328 2.543463091928011 1.7763568394002505e-15 0 0 0
384 3 13.21622190718664 2.543463091928011 0.0 0 0 0
1376 3 27.90091291517179 15.260778551568066 16.613831346200673 0 0 0
1452 3 35.24325841916437 10.173852367712044 6.230186754825253 0 0 0
202 3 3.6711727519962887 19.075973189460083 10.38364459137542 0 0 0
386 3 15.418925558384412 3.815194637892017 -8.881784197001252e-16 0 0 0
2807 3 22.76127106237699 3.815194637892017 33.227662692401346 0 0 0
995 3 21.292801961578476 1.2717315459640055 16.613831346200673 0 0 0
1144 3 27.900912915171794 17.804241643496077 4.1534578365501655 0 0 0
2689 3 20.55856741117921 12.717315459640057 26.99747593757609 0 0 0
2299 3 11.013518255988863 11.445583913676051 31.150933774126266 0 0 0
1351 3 27.90091291517179 0.0 16.613831346200673 0 0 0
1448 3 33.774789318365855 12.717315459640057 8.306915673100336 0 0 0
228 3 4.405407302395547 20.347704735424088 6.230186754825253 0 0 0
79 3 3.6711727519962887 13.98904700560406 4.153457836550169 0 0 0
1941 3 0.0 12.717315459640057 31.15093377412626 0 0 0
1057 3 24.96397471357476 7.630389275784034 8.306915673100335 0 0 0
189 3 9.54504915519035 3.815194637892017 2.076728918275084 0 0 0
501 3 11.747752806388124 7.630389275784034 8.306915673100336 0 0 0
810 3 24.229740163175503 24.162899373316105 1.7763568394002505e-15 0 0 0
3133 3 34.50902386876511 19.075973189460083 22.844018101025924 0 0 0
3209 3 30.837851116768825 12.717315459640057 31.150933774126266 0 0 0
2868 3 30.10361656636957 3.815194637892017 22.844018101025927 0 0 0
2703 3 25.69820926397402 6.358657729820028 22.844018101025927 0 0 0
1619 3 41.851369372757695 8.90212082174804 6.230186754825251 0 0 0
991 3 19.0900983103807 0.0 16.613831346200673 0 0 0
1334 3 34.50902386876511 21.619436281388094 4.153457836550169 0 0 0
1765 3 42.58560392315695 20.347704735424088 8.306915673100338 0 0 0
404 3 10.279283705589608 12.717315459640057 4.153457836550168 0 0 0
180 3 6.60811095359332 6.358657729820028 6.230186754825253 0 0 0
128 3 0.7342345503992576 6.358657729820028 14.53710242792559 0 0 0
2666 3 22.76127106237699 3.815194637892017 26.99747593757609 0 0 0
63 3 4.405407302395546 5.086926183856022 -4.440892098500626e-16 0 0 0
2969 3 33.040554767966604 21.619436281388094 18.69056026447576 0 0 0
132 3 2.2027036511977727 3.815194637892017 12.460373509650504 0 0 0
1364 3 30.103616566369567 8.902120821748039 16.613831346200673 0 0 0
3267 3 31.57208566716808 24.162899373316108 33.227662692401346 0 0 0
1892 3 2.2027036511977727 19.075973189460083 24.92074701930101 0 0 0
3030 3 33.0405547679666 1.2717315459640055 24.92074701930101 0 0 0
3296 3 33.774789318365855 22.8911678273521 26.99747593757609 0 0 0
2963 3 31.57208566716809 21.619436281388094 20.767289182750844 0 0 0
222 3 2.202703651197772 24.162899373316108 12.460373509650504 0 0 0
297 3 1.4684691007985151 12.717315459640057 16.613831346200673 0 0 0
1 3 0.0 2.543463091928011 0.0 0 0 0
359 3 5.139641852794804 21.619436281388097 14.53710242792559 0 0 0
3121 3 35.97749296956363 11.445583913676051 20.76728918275084 0 0 0
3348 3 32.30632021756735 10.173852367712044 35.30439161067643 0 0 0
1836 3 2.202703651197771 1.2717315459640055 24.920747019301007 0 0 0
2616 3 14.684691007985151 5.086926183856021 35.30439161067643 0 0 0
428 3 11.747752806388124 15.260778551568066 2.0767289182750845 0 0 0
1870 3 0.7342345503992576 16.53251009753207 26.99747593757609 0 0 0
1220 3 27.900912915171794 7.630389275784034 10.38364459137542 0 0 0
1019 3 21.292801961578476 11.44558391367605 16.613831346200673 0 0 0
1536 3 32.30632021756734 5.086926183856022 16.613831346200673 0 0 0
1421 3 35.24325841916437 5.086926183856022 6.230186754825251 0 0 0
1752 3 41.85136937275769 16.532510097532075 12.460373509650504 0 0 0
2337 3 14.684691007985156 7.630389275784033 22.844018101025924 0 0 0
2648 3 14.684691007985151 15.260778551568066 35.30439161067643 0 0 0
2059 3 8.810814604791092 15.260778551568066 18.69056026447576 0 0 0
2599 3 21.29280196157848 24.162899373316108 22.844018101025927 0 0 0
1145 3 29.36938201597031 17.80424164349608 2.076728918275082 0 0 0
3292 3 39.64866572155992 7.630389275784034 18.69056026447576 0 0 0
2681 3 17.62162920958218 17.80424164349608 31.150933774126266 0 0 0
2757 3 25.69820926397402 13.98904700560406 22.844018101025924 0 0 0
527 3 11.013518255988863 16.53251009753207 12.460373509650504 0 0 0
373 3 10.279283705589608 10.173852367712044 4.153457836550169 0 0 0
2785 3 27.166678364772537 21.619436281388094 20.767289182750844 0 0 0
748 3 13.21622190718664 22.8911678273521 12.460373509650504 0 0 0
2225 3 11.747752806388124 17.80424164349608 20.767289182750844 0 0 0
2446 3 13.21622190718664 5.086926183856022 31.150933774126266 0 0 0
1290 3 33.0405547679666 13.989047005604062 6.230186754825253 0 0 0
2675 3 14.684691007985151 22.891167827352103 35.30439161067643 0 0 0
1210 3 25.69820926397402 13.98904700560406 16.613831346200673 0 0 0
1625 3 34.50902386876512 24.162899373316108 16.613831346200673 0 0 0
628 3 19.82433286077996 19.07597318946009 0.0 0 0 0
2658 3 19.82433286077996 8.902120821748039 31.150933774126266 0 0 0
3520 3 42.58560392315695 5.086926183856022 26.99747593757609 0 0 0
3298 3 35.97749296956363 21.619436281388094 26.99747593757609 0 0 0
1103 3 31.57208566716808 6.358657729820028 2.076728918275085 0 0 0
351 3 13.950456457585895 1.271731545964006 2.0767289182750828 0 0 0
3117 3 34.50902386876511 13.98904700560406 22.844018101025924 0 0 0
2751 3 22.02703651197773 17.804241643496077 24.920747019301007 0 0 0
3061 3 33.774789318365855 5.086926183856022 20.767289182750844 0 0 0
953 3 24.229740163175503 16.53251009753207 6.230186754825254 0 0 0
3023 3 30.103616566369567 8.902120821748039 29.07420485585118 0 0 0
87 3 0.0 22.8911678273521 6.230186754825255 0 0 0
1932 3 2.2027036511977727 3.8151946378920174 31.150933774126266 0 0 0
1493 3 41.85136937275769 6.358657729820029 0.0 0 0 0
2048 3 5.873876403194062 22.8911678273521 22.844018101025924 0 0 0
2135 3 8.076580054391837 8.90212082174804 29.07420485585118 0 0 0
1054 3 24.96397471357476 10.173852367712044 8.306915673100335 0 0 0
12 3 0.0 12.717315459640057 0.0 0 0 0
3212 3 33.0405547679666 13.98904700560406 31.150933774126266 0 0 0
3099 3 35.24325841916437 5.086926183856022 18.69056026447576 0 0 0
797 3 20.55856741117922 22.891167827352103 2.076728918275082 0 0 0
1777 3 42.58560392315695 5.086926183856022 14.537102427925593 0 0 0
2706 3 27.166678364772537 1.2717315459640055 20.767289182750844 0 0 0
1467 3 31.57208566716808 24.162899373316108 14.53710242792559 0 0 0
2251 3 5.8738764031940605 2.543463091928013 35.30439161067643 0 0 0
1700 3 41.11713482235843 2.543463091928011 10.383644591375424 0 0 0
546 3 18.35586375998144 1.271731545964005 2.076728918275084 0 0 0
1003 3 21.292801961578476 6.358657729820028 16.613831346200673 0 0 0
35 3 1.4684691007985156 0.0 4.153457836550168 0 0 0
962 3 27.166678364772537 13.989047005604062 2.076728918275084 0 0 0
113 3 5.139641852794803 21.619436281388094 2.0767289182750845 0 0 0
3559 3 40.38290027195918 24.162899373316108 33.22766269240135 0 0 0
1114 3 25.698209263974015 19.075973189460083 10.383644591375422 0 0 0
1178 3 25.69820926397402 3.815194637892017 16.613831346200673 0 0 0
2175 3 11.013518255988869 11.44558391367605 24.92074701930101 0 0 0
2403 3 17.621629209582185 10.173852367712044 18.69056026447576 0 0 0
2692 3 20.55856741117921 10.173852367712044 26.99747593757609 0 0 0
198 3 2.2027036511977736 21.619436281388097 12.460373509650504 0 0 0
3560 3 39.64866572155992 22.8911678273521 31.15093377412626 0 0 0
822 3 18.35586375998145 1.2717315459640055 14.53710242792559 0 0 0
839 3 19.82433286077996 6.358657729820028 12.460373509650504 0 0 0
2688 3 19.090098310380696 12.717315459640057 29.07420485585118 0 0 0
662 3 13.21622190718664 10.173852367712044 12.460373509650504 0 0 0
2398 3 16.887394659182924 16.53251009753207 22.844018101025924 0 0 0
485 3 13.21622190718664 0.0 6.230186754825253 0 0 0
213 3 8.076580054391835 8.902120821748039 4.153457836550168 0 0 0
2250 3 15.418925558384416 24.162899373316108 18.69056026447576 0 0 0
3260 3 38.1801966207614 5.086926183856022 20.767289182750844 0 0 0
2910 3 24.229740163175503 21.619436281388097 31.150933774126266 0 0 0
2103 3 5.139641852794807 8.902120821748042 33.227662692401346 0 0 0
2639 3 19.82433286077996 6.358657729820028 31.150933774126266 0 0 0
1683 3 36.711727519962885 2.543463091928011 16.613831346200676 0 0 0
2202 3 11.013518255988869 13.989047005604062 24.92074701930101 0 0 0
2908 3 22.02703651197773 22.8911678273521 31.15093377412626 0 0 0
1614 3 40.38290027195918 8.902120821748039 8.306915673100338 0 0 0
2713 3 18.35586375998145 21.619436281388094 33.227662692401346 0 0 0
2084 3 3.6711727519962913 8.902120821748039 35.304391610676426 0 0 0
1091 3 27.166678364772533 13.98904700560406 8.306915673100336 0 0 0
752 3 14.684691007985156 20.347704735424088 10.38364459137542 0 0 0
616 3 17.62162920958219 17.80424164349608 -1.7763568394002505e-15 0 0 0
2106 3 5.8738764031940605 7.630389275784035 29.07420485585118 0 0 0
361 3 5.873876403194062 17.804241643496077 10.383644591375422 0 0 0
3431 3 36.71172751996289 20.347704735424088 29.07420485585118 0 0 0
458 3 8.076580054391833 3.815194637892017 16.613831346200673 0 0 0
1152 3 30.837851116768825 12.717315459640057 -1.7763568394002505e-15 0 0 0
610 3 15.41892555838441 24.162899373316108 6.230186754825251 0 0 0
1428 3 38.91443117116066 3.815194637892016 4.153457836550169 0 0 0
123 3 0.7342345503992576 3.815194637892017 14.53710242792559 0 0 0
2612 3 14.684691007985151 0.0 35.30439161067643 0 0 0
2884 3 23.49550561277625 15.260778551568066 29.07420485585118 0 0 0
1280 3 29.36938201597031 17.80424164349608 8.306915673100335 0 0 0
2470 3 16.153160108783673 5.086926183856022 26.99747593757609 0 0 0
531 3 12.48198735678738 13.98904700560406 10.383644591375422 0 0 0
3174 3 33.774789318365855 0.0 26.99747593757609 0 0 0
3263 3 40.38290027195917 6.358657729820028 20.76728918275084 0 0 0
3498 3 40.38290027195918 6.358657729820028 33.227662692401346 0 0 0
3181 3 29.36938201597031 10.173852367712044 33.227662692401346 0 0 0
28 3 2.202703651197774 19.075973189460083 -6.661338147750939e-16 0 0 0
2320 3 7.342345503992576 17.804241643496077 33.227662692401346 0 0 0
1399 3 37.44596207036214 1.2717315459640046 6.230186754825255 0 0 0
19 3 0.734234550399258 16.53251009753207 2.0767289182750828 0 0 0
2732 3 24.96397471357476 10.173852367712044 20.76728918275084 0 0 0
2629 3 16.153160108783666 10.173852367712046 33.227662692401346 0 0 0
2759 3 24.96397471357476 12.717315459640057 20.76728918275084 0 0 0
1912 3 5.139641852794801 19.07597318946009 20.767289182750844 0 0 0
1482 3 37.44596207036214 13.989047005604062 6.230186754825253 0 0 0
711 3 22.76127106237699 1.2717315459640055 2.076728918275085 0 0 0
1286 3 31.57208566716808 16.532510097532075 8.306915673100336 0 0 0
1472 3 32.30632021756734 20.347704735424088 10.383644591375418 0 0 0
1733 3 39.64866572155992 12.717315459640057 12.460373509650507 0 0 0
3377 3 36.71172751996289 10.173852367712044 29.07420485585118 0 0 0
34 3 0.0 0.0 6.230186754825253 0 0 0
1850 3 5.139641852794803 1.2717315459640064 20.76728918275084 0 0 0
3218 3 35.24325841916437 7.630389275784034 24.92074701930101 0 0 0
2301 3 11.747752806388124 7.630389275784033 26.99747593757609 0 0 0
2897 3 29.36938201597031 7.630389275784034 20.76728918275084 0 0 0
567 3 13.21622190718664 12.717315459640057 6.230186754825252 0 0 0
1630 3 35.24325841916437 20.347704735424088 12.460373509650502 0 0 0
2066 3 9.545049155190352 24.162899373316105 20.767289182750844 0 0 0
888 3 19.0900983103807 12.717315459640057 10.383644591375422 0 0 0
2253 3 7.342345503992577 0.0 33.227662692401346 0 0 0
1838 3 0.7342345503992558 6.358657729820028 26.99747593757609 0 0 0
807 3 22.761271062376988 24.162899373316105 2.076728918275085 0 0 0
2415 3 16.15316010878367 17.804241643496077 20.76728918275084 0 0 0
1309 3 31.57208566716808 19.07597318946009 8.306915673100338 0 0 0
1526 3 41.85136937275769 19.07597318946009 0.0 0 0 0
370 3 9.54504915519035 11.44558391367605 8.306915673100335 0 0 0
1970 3 1.4684691007985151 12.717315459640057 29.07420485585118 0 0 0
2325 3 10.279283705589606 15.26077855156807 29.07420485585118 0 0 0
2632 3 16.153160108783666 7.630389275784033 33.227662692401346 0 0 0
377 3 11.747752806388124 7.630389275784033 2.0767289182750845 0 0 0
2448 3 13.950456457585895 6.358657729820028 33.227662692401346 0 0 0
3435 3 38.18019662076141 17.804241643496077 26.99747593757609 0 0 0
94 3 1.4684691007985151 17.804241643496077 4.153457836550167 0 0 0
3063 3 34.50902386876511 6.358657729820028 22.844018101025924 0 0 0
715 3 12.481987356787382 24.162899373316108 16.613831346200676 0 0 0
2455 3 16.88739465918293 1.2717315459640064 29.07420485585118 0 0 0
1140 3 26.43244381437328 20.347704735424088 6.230186754825249 0 0 0
2201 3 10.279283705589608 15.260778551568068 22.844018101025927 0 0 0
1300 3 37.44596207036214 3.815194637892017 3.552713678800501e-15 0 0 0
669 3 14.684691007985156 5.086926183856022 10.38364459137542 0 0 0
906 3 27.166678364772537 1.2717315459640064 2.076728918275085 0 0 0
395 3 8.076580054391833 21.619436281388094 10.38364459137542 0 0 0
1201 3 29.36938201597031 2.5434630919280106 8.306915673100336 0 0 0
399 3 9.545049155190348 19.075973189460083 8.306915673100336 0 0 0
3376 3 35.24325841916438 10.173852367712044 31.150933774126266 0 0 0
2534 3 19.82433286077996 8.902120821748039 24.92074701930101 0 0 0
1357 3 29.369382015970302 0.0 14.53710242792559 0 0 0
3475 3 42.58560392315695 20.347704735424088 20.76728918275084 0 0 0
2199 3 9.545049155190354 19.075973189460083 26.99747593757609 0 0 0
481 3 11.747752806388124 2.543463091928011 8.306915673100336 0 0 0
568 3 14.684691007985156 12.717315459640057 4.153457836550169 0 0 0
2005 3 5.139641852794803 13.989047005604064 26.99747593757609 0 0 0
2436 3 12.481987356787382 3.815194637892017 35.30439161067643 0 0 0
3565 3 42.58560392315695 20.347704735424088 26.99747593757609 0 0 0
1371 3 33.0405547679666 1.271731545964005 12.460373509650504 0 0 0
2219 3 9.545049155190352 24.162899373316105 26.99747593757609 0 0 0
3463 3 41.85136937275769 19.075973189460083 24.92074701930101 0 0 0
890 3 21.29280196157848 11.445583913676051 10.383644591375422 0 0 0
2350 3 8.076580054391833 24.162899373316108 35.30439161067643 0 0 0
2492 3 15.418925558384414 13.989047005604062 31.150933774126266 0 0 0
2849 3 22.02703651197773 12.717315459640057 31.15093377412626 0 0 0
1474 3 34.50902386876511 19.07597318946009 10.383644591375422 0 0 0
316 3 9.54504915519035 3.815194637892017 8.306915673100336 0 0 0
1267 3 35.97749296956363 3.815194637892016 2.076728918275085 0 0 0
3479 3 43.3198384735562 24.162899373316108 22.844018101025924 0 0 0
2449 3 13.21622190718664 2.54346309192801 31.150933774126266 0 0 0
2261 3 8.810814604791092 2.543463091928011 31.15093377412626 0 0 0
3466 3 43.3198384735562 13.98904700560406 22.844018101025924 0 0 0
572 3 16.15316010878367 10.173852367712044 2.0767289182750845 0 0 0
964 3 28.63514746557105 8.902120821748039 1.7763568394002505e-15 0 0 0
2132 3 6.608110953593323 13.98904700560406 31.15093377412626 0 0 0
2054 3 8.076580054391835 21.619436281388094 22.844018101025924 0 0 0
2422 3 16.887394659182924 24.162899373316108 22.844018101025924 0 0 0
1653 3 38.1801966207614 22.8911678273521 8.306915673100335 0 0 0
3342 3 35.97749296956363 1.271731545964006 33.227662692401346 0 0 0
1099 3 30.103616566369567 8.902120821748039 4.153457836550169 0 0 0
1461 3 39.64866572155992 5.086926183856024 0.0 0 0 0
1731 3 40.38290027195917 13.98904700560406 14.53710242792559 0 0 0
1799 3 43.3198384735562 24.162899373316105 16.613831346200673 0 0 0
2237 3 11.74775280638812 22.891167827352103 20.767289182750844 0 0 0
346 3 11.747752806388124 2.5434630919280115 2.0767289182750845 0 0 0
3301 3 36.711727519962885 20.347704735424088 22.844018101025927 0 0 0
200 3 2.936938201597032 17.804241643496077 8.306915673100336 0 0 0
2947 3 30.10361656636957 19.075973189460083 22.844018101025927 0 0 0
2933 3 33.040554767966604 6.358657729820028 18.69056026447576 0 0 0
1494 3 41.85136937275769 8.902120821748042 0.0 0 0 0
1097 3 29.36938201597031 7.630389275784033 2.076728918275082 0 0 0
1243 3 27.166678364772537 19.075973189460083 14.537102427925593 0 0 0
2813 3 23.49550561277625 0.0 29.07420485585118 0 0 0
119 3 6.60811095359332 21.619436281388094 0.0 0 0 0
1796 3 43.3198384735562 19.07597318946009 16.613831346200673 0 0 0
1863 3 4.405407302395547 5.086926183856022 18.69056026447576 0 0 0
1064 3 28.63514746557105 6.358657729820028 6.230186754825253 0 0 0
2461 3 11.747752806388124 10.173852367712046 33.227662692401346 0 0 0
1602 3 35.977492969563635 16.53251009753207 14.53710242792559 0 0 0
3152 3 27.900912915171794 5.086926183856022 35.30439161067643 0 0 0
2069 3 11.013518255988869 21.619436281388097 18.69056026447576 0 0 0
2009 3 6.60811095359332 11.445583913676051 24.92074701930101 0 0 0
3544 3 38.914431171160665 21.619436281388097 35.30439161067643 0 0 0
2932 3 30.837851116768825 7.630389275784033 18.69056026447576 0 0 0
2970 3 33.0405547679666 24.162899373316108 18.69056026447576 0 0 0
680 3 10.27928370558961 20.347704735424088 16.613831346200673 0 0 0
866 3 22.76127106237699 3.815194637892017 8.306915673100338 0 0 0
549 3 19.82433286077996 1.2717315459640055 0.0 0 0 0
2391 3 13.216221907186638 17.804241643496077 24.92074701930101 0 0 0
442 3 13.950456457585895 19.075973189460083 2.076728918275084 0 0 0
452 3 5.873876403194062 0.0 16.613831346200673 0 0 0
2975 3 23.49550561277625 7.630389275784033 35.30439161067643 0 0 0
2380 3 19.82433286077996 3.815194637892017 18.69056026447576 0 0 0
2842 3 20.55856741117921 17.80424164349608 33.227662692401346 0 0 0
447 3 13.950456457585895 24.162899373316108 2.076728918275082 0 0 0
3360 3 36.71172751996289 2.543463091928011 29.07420485585118 0 0 0
3508 3 38.1801966207614 12.717315459640057 33.22766269240134 0 0 0
1913 3 5.139641852794803 21.619436281388094 20.76728918275084 0 0 0
2816 3 19.0900983103807 15.26077855156807 35.30439161067643 0 0 0
1790 3 43.3198384735562 13.98904700560406 16.613831346200673 0 0 0
203 3 2.936938201597031 15.260778551568066 8.306915673100336 0 0 0
894 3 22.76127106237699 8.902120821748039 8.306915673100336 0 0 0
220 3 11.013518255988869 3.815194637892017 0.0 0 0 0
3111 3 30.837851116768825 17.804241643496077 24.92074701930101 0 0 0
239 3 7.342345503992577 12.717315459640057 2.076728918275084 0 0 0
3122 3 35.97749296956363 13.98904700560406 20.767289182750844 0 0 0
679 3 19.82433286077996 1.271731545964006 6.230186754825253 0 0 0
3509 3 38.914431171160665 11.44558391367605 35.30439161067643 0 0 0
3319 3 38.91443117116066 24.162899373316108 22.844018101025924 0 0 0
1189 3 24.963974713574764 10.173852367712044 14.53710242792559 0 0 0
2789 3 28.63514746557105 21.619436281388094 18.69056026447576 0 0 0
3474 3 41.11713482235844 20.347704735424088 22.844018101025927 0 0 0
1028 3 24.229740163175503 8.902120821748039 12.460373509650504 0 0 0
1846 3 3.671172751996288 1.2717315459640046 22.844018101025924 0 0 0
3025 3 30.837851116768825 5.086926183856022 24.92074701930101 0 0 0
3161 3 27.900912915171794 7.630389275784033 35.30439161067643 0 0 0
2365 3 13.950456457585895 13.989047005604062 26.99747593757609 0 0 0
1139 3 27.166678364772537 24.162899373316108 8.306915673100336 0 0 0
3568 3 42.58560392315695 17.804241643496077 26.99747593757609 0 0 0
850 3 16.88739465918293 13.98904700560406 16.613831346200673 0 0 0
3473 3 41.85136937275769 24.162899373316108 24.920747019301007 0 0 0
3051 3 30.103616566369567 13.98904700560406 29.07420485585118 0 0 0
2929 3 30.837851116768825 10.173852367712044 18.69056026447576 0 0 0
1914 3 4.405407302395547 17.804241643496077 18.69056026447576 0 0 0
2214 3 15.418925558384416 8.902120821748039 18.69056026447576 0 0 0
2687 3 19.82433286077996 16.532510097532075 31.150933774126266 0 0 0
725 3 16.15316010878367 15.260778551568066 8.306915673100336 0 0 0
1147 3 30.103616566369567 19.07597318946009 4.153457836550167 0 0 0
1296 3 35.24325841916438 7.630389275784035 0.0 0 0 0
1896 3 3.671172751996286 16.532510097532075 22.844018101025924 0 0 0
652 3 15.418925558384412 3.815194637892017 12.460373509650504 0 0 0
2092 3 6.608110953593322 3.815194637892017 31.15093377412626 0 0 0
1952 3 2.9369382015970302 5.086926183856021 26.99747593757609 0 0 0
500 3 10.27928370558961 7.630389275784033 10.38364459137542 0 0 0
1894 3 1.468469100798517 17.804241643496077 22.844018101025924 0 0 0
907 3 27.166678364772537 3.815194637892017 2.076728918275085 0 0 0
2266 3 11.013518255988863 1.2717315459640055 31.15093377412626 0 0 0
2395 3 14.684691007985151 15.260778551568066 22.844018101025924 0 0 0
3596 3 43.31983847355621 19.075973189460083 35.30439161067643 0 0 0
1161 3 30.837851116768825 20.347704735424088 -1.7763568394002505e-15 0 0 0
1418 3 35.24325841916437 7.630389275784033 6.230186754825251 0 0 0
783 3 19.82433286077996 21.619436281388097 6.230186754825253 0 0 0
3406 3 37.44596207036214 13.98904700560406 31.15093377412626 0 0 0
2352 3 8.81081460479109 22.891167827352103 31.15093377412626 0 0 0
1520 3 38.1801966207614 20.347704735424088 2.076728918275084 0 0 0
70 3 0.7342345503992584 16.53251009753207 8.306915673100336 0 0 0
1980 3 6.60811095359332 6.358657729820028 24.92074701930101 0 0 0
321 3 1.4684691007985151 17.804241643496077 16.613831346200676 0 0 0
1657 3 39.64866572155992 20.347704735424088 6.230186754825251 0 0 0
918 3 19.82433286077996 21.619436281388094 12.460373509650504 0 0 0
2392 3 14.684691007985151 17.80424164349608 22.844018101025924 0 0 0
1798 3 42.58560392315695 17.804241643496077 14.53710242792559 0 0 0
686 3 13.21622190718664 15.260778551568066 12.460373509650504 0 0 0
2462 3 13.21622190718664 10.173852367712046 31.150933774126266 0 0 0
3521 3 43.31983847355621 3.815194637892017 29.07420485585118 0 0 0
1404 3 30.103616566369567 19.075973189460083 16.613831346200676 0 0 0
2417 3 18.35586375998144 16.53251009753207 20.76728918275084 0 0 0
1507 3 38.91443117116066 19.075973189460083 4.153457836550169 0 0 0
51 3 4.440892098500626e-16 12.717315459640057 6.230186754825251 0 0 0
467 3 5.873876403194063 12.717315459640057 16.613831346200673 0 0 0
2255 3 5.8738764031940605 7.630389275784037 35.304391610676426 0 0 0
806 3 24.229740163175503 19.07597318946009 0.0 0 0 0
2778 3 27.166678364772537 19.075973189460083 20.767289182750844 0 0 0
2038 3 8.076580054391835 16.532510097532075 22.844018101025927 0 0 0
2447 3 13.9504564575859 3.815194637892016 33.227662692401346 0 0 0
814 3 16.88739465918293 1.2717315459640055 16.613831346200673 0 0 0
3077 3 28.63514746557105 19.07597318946009 31.150933774126266 0 0 0
3199 3 37.44596207036214 1.2717315459640055 24.920747019301007 0 0 0
2539 3 21.29280196157848 8.902120821748039 22.844018101025927 0 0 0
2715 3 17.62162920958218 20.347704735424088 31.15093377412626 0 0 0
2857 3 24.963974713574764 7.630389275784034 26.99747593757609 0 0 0
1301 3 37.44596207036214 6.358657729820028 0.0 0 0 0
1652 3 36.711727519962885 22.8911678273521 10.383644591375422 0 0 0
1008 3 22.761271062376988 6.358657729820028 14.53710242792559 0 0 0
184 3 8.076580054391835 3.815194637892017 4.153457836550168 0 0 0
238 3 8.076580054391835 16.53251009753207 4.153457836550169 0 0 0
3502 3 41.851369372757695 3.815194637892017 31.150933774126266 0 0 0
1540 3 33.774789318365855 2.543463091928011 14.537102427925587 0 0 0
1012 3 24.229740163175503 3.815194637892017 12.460373509650504 0 0 0
2727 3 22.027036511977727 12.717315459640057 24.92074701930101 0 0 0
2124 3 3.671172751996293 19.075973189460083 35.30439161067643 0 0 0
436 3 10.279283705589608 22.8911678273521 4.153457836550169 0 0 0
1110 3 24.229740163175503 21.619436281388094 12.460373509650504 0 0 0
3284 3 36.711727519962885 12.717315459640057 22.844018101025927 0 0 0
201 3 3.6711727519962896 16.53251009753207 10.38364459137542 0 0 0
1169 3 33.0405547679666 21.619436281388094 0.0 0 0 0
817 3 16.15316010878367 5.086926183856022 14.53710242792559 0 0 0
3460 3 39.64866572155992 17.804241643496077 24.92074701930101 0 0 0
1307 3 29.36938201597031 20.347704735424088 8.306915673100335 0 0 0
668 3 15.418925558384412 8.902120821748039 12.460373509650504 0 0 0
465 3 10.27928370558961 0.0 10.38364459137542 0 0 0
2181 3 13.21622190718664 5.086926183856022 18.69056026447576 0 0 0
3515 3 39.64866572155992 7.630389275784033 31.15093377412626 0 0 0
1982 3 5.8738764031940605 5.086926183856022 22.844018101025924 0 0 0
1413 3 32.30632021756734 10.173852367712044 10.38364459137542 0 0 0
135 3 2.936938201597031 2.5434630919280115 8.306915673100336 0 0 0
933 3 25.69820926397402 8.902120821748039 4.153457836550169 0 0 0
2070 3 11.013518255988863 24.162899373316108 18.69056026447576 0 0 0
1919 3 6.608110953593317 21.619436281388097 18.69056026447576 0 0 0
3280 3 35.24325841916437 15.260778551568068 24.92074701930101 0 0 0
1196 3 26.43244381437328 5.086926183856022 12.460373509650504 0 0 0
1706 3 36.711727519962885 15.260778551568066 16.613831346200676 0 0 0
1105 3 33.0405547679666 1.2717315459640055 1.7763568394002505e-15 0 0 0
2472 3 16.88739465918293 6.358657729820028 29.07420485585118 0 0 0
131 3 1.468469100798516 5.086926183856022 10.38364459137542 0 0 0
3400 3 33.77478931836586 17.804241643496077 33.227662692401346 0 0 0
804 3 22.02703651197773 17.804241643496077 -1.7763568394002505e-15 0 0 0
3413 3 39.64866572155992 10.173852367712044 24.92074701930101 0 0 0
924 3 22.02703651197773 15.260778551568066 6.230186754825254 0 0 0
1992 3 0.0 22.891167827352103 31.150933774126266 0 0 0
2671 3 24.229740163175503 3.815194637892017 24.92074701930101 0 0 0
625 3 18.35586375998144 21.619436281388097 2.0767289182750828 0 0 0
1532 3 32.30632021756734 0.0 16.613831346200673 0 0 0
967 3 22.02703651197773 22.891167827352103 6.230186754825253 0 0 0
1148 3 29.36938201597031 15.260778551568068 2.076728918275082 0 0 0
2473 3 16.153160108783673 2.543463091928012 26.99747593757609 0 0 0
3216 3 34.50902386876511 11.445583913676051 29.07420485585118 0 0 0
2920 3 26.43244381437328 15.260778551568066 24.920747019301007 0 0 0
2090 3 5.873876403194062 2.543463091928011 29.07420485585118 0 0 0
2694 3 22.76127106237699 8.902120821748039 26.99747593757609 0 0 0
2943 3 28.635147465571052 21.619436281388094 24.92074701930101 0 0 0
1228 3 30.837851116768825 2.543463091928012 6.230186754825251 0 0 0
2684 3 17.62162920958218 15.260778551568068 31.150933774126266 0 0 0
845 3 22.02703651197773 0.0 6.230186754825253 0 0 0
2818 3 20.55856741117922 12.717315459640057 33.227662692401346 0 0 0
2474 3 17.62162920958219 2.5434630919280106 24.92074701930101 0 0 0
3517 3 41.851369372757695 6.358657729820028 31.150933774126266 0 0 0
2596 3 19.090098310380704 22.891167827352103 22.844018101025924 0 0 0
472 3 7.342345503992578 7.630389275784034 14.53710242792559 0 0 0
2384 3 11.747752806388124 22.8911678273521 26.99747593757609 0 0 0
1352 3 27.90091291517179 5.086926183856022 16.613831346200673 0 0 0
331 3 6.60811095359332 11.44558391367605 12.460373509650502 0 0 0
3317 3 38.1801966207614 22.8911678273521 20.76728918275084 0 0 0
772 3 22.02703651197773 7.630389275784033 0.0 0 0 0
2276 3 8.81081460479109 5.086926183856021 31.15093377412626 0 0 0
2011 3 5.873876403194062 10.173852367712044 22.844018101025924 0 0 0
2016 3 8.810814604791094 7.630389275784033 18.69056026447576 0 0 0
3019 3 28.63514746557105 11.44558391367605 31.150933774126266 0 0 0
827 3 14.684691007985156 12.717315459640057 16.613831346200673 0 0 0
1317 3 34.50902386876511 13.989047005604062 4.153457836550169 0 0 0
1246 3 28.63514746557105 13.98904700560406 12.460373509650504 0 0 0
1345 3 35.97749296956363 21.619436281388094 2.076728918275085 0 0 0
1465 3 41.85136937275769 1.2717315459640055 3.552713678800501e-15 0 0 0
2645 3 22.02703651197773 0.0 24.92074701930101 0 0 0
1383 3 31.57208566716808 8.902120821748039 14.53710242792559 0 0 0
80 3 2.936938201597031 10.173852367712044 2.076728918275084 0 0 0
261 3 11.013518255988863 16.53251009753207 0.0 0 0 0
389 3 5.873876403194061 22.8911678273521 10.383644591375422 0 0 0
3083 3 29.36938201597031 15.260778551568066 26.99747593757609 0 0 0
716 3 11.747752806388124 20.347704735424088 14.537102427925587 0 0 0
2349 3 19.82433286077996 1.2717315459640055 18.69056026447576 0 0 0
251 3 5.873876403194062 20.347704735424088 4.153457836550168 0 0 0
64 3 5.139641852794804 3.815194637892017 2.0767289182750845 0 0 0
2220 3 8.810814604791092 20.347704735424088 24.92074701930101 0 0 0
1635 3 38.18019662076141 17.80424164349608 8.306915673100335 0 0 0
2086 3 4.405407302395545 5.086926183856024 31.150933774126266 0 0 0
1735 3 41.85136937275769 11.44558391367605 12.460373509650504 0 0 0
3597 3 43.31983847355621 21.619436281388094 35.30439161067643 0 0 0
2950 3 31.57208566716809 13.98904700560406 20.76728918275084 0 0 0
1783 3 42.58560392315695 10.173852367712044 14.537102427925593 0 0 0
1694 3 38.91443117116066 8.902120821748039 16.613831346200673 0 0 0
3000 3 27.900912915171794 2.543463091928011 29.07420485585118 0 0 0
2542 3 22.76127106237699 3.815194637892017 20.767289182750844 0 0 0
584 3 11.747752806388124 22.8911678273521 8.306915673100336 0 0 0
3297 3 35.24325841916437 22.8911678273521 24.92074701930101 0 0 0
419 3 9.545049155190348 24.162899373316105 8.306915673100335 0 0 0
2854 3 24.963974713574764 10.173852367712044 26.99747593757609 0 0 0
1535 3 32.30632021756734 7.630389275784033 16.613831346200673 0 0 0
2074 3 2.9369382015970302 2.543463091928013 33.22766269240135 0 0 0
3398 3 34.50902386876511 19.07597318946009 35.30439161067643 0 0 0
2831 3 25.69820926397402 3.815194637892017 29.07420485585118 0 0 0
3227 3 38.91443117116066 1.2717315459640055 22.844018101025924 0 0 0
2055 3 7.342345503992577 17.804241643496077 20.767289182750844 0 0 0
1310 3 31.57208566716809 21.619436281388097 8.306915673100338 0 0 0
1643 3 41.11713482235844 12.71731545964006 4.153457836550167 0 0 0
92 3 2.2027036511977736 19.075973189460083 6.230186754825252 0 0 0
264 3 8.810814604791094 22.8911678273521 -1.7763568394002505e-15 0 0 0
3241 3 32.30632021756734 17.804241643496077 29.07420485585118 0 0 0
208 3 5.873876403194062 12.717315459640057 4.153457836550168 0 0 0
1176 3 23.49550561277625 5.086926183856022 16.613831346200673 0 0 0
11 3 2.202703651197773 6.358657729820028 -2.220446049250313e-16 0 0 0
3518 3 41.851369372757695 8.902120821748039 31.150933774126266 0 0 0
2966 3 33.0405547679666 19.075973189460083 18.69056026447576 0 0 0
2853 3 23.49550561277625 10.173852367712044 29.07420485585118 0 0 0
2347 3 18.35586375998144 3.815194637892017 20.76728918275084 0 0 0
1422 3 36.711727519962885 5.086926183856022 4.153457836550167 0 0 0
2162 3 6.608110953593323 16.53251009753207 31.150933774126266 0 0 0
84 3 4.405407302395547 7.630389275784033 0.0 0 0 0
158 3 6.60811095359332 1.2717315459640055 6.230186754825252 0 0 0
3190 3 33.774789318365855 5.086926183856022 26.99747593757609 0 0 0
2958 3 30.10361656636957 21.619436281388094 22.844018101025924 0 0 0
2626 3 19.82433286077996 1.2717315459640064 31.150933774126266 0 0 0
225 3 3.6711727519962887 21.619436281388097 10.383644591375422 0 0 0
732 3 17.621629209582185 10.173852367712044 6.230186754825251 0 0 0
2642 3 21.29280196157848 1.2717315459640055 29.07420485585118 0 0 0
2468 3 15.418925558384414 8.902120821748039 31.150933774126266 0 0 0
38 3 0.7342345503992576 6.358657729820028 8.306915673100336 0 0 0
1171 3 23.49550561277625 2.543463091928011 16.613831346200673 0 0 0
1034 3 26.43244381437328 2.5434630919280106 6.230186754825251 0 0 0
3217 3 33.774789318365855 7.630389275784033 26.99747593757609 0 0 0
3254 3 37.44596207036214 8.902120821748039 24.92074701930101 0 0 0
2926 3 30.10361656636957 11.44558391367605 22.844018101025924 0 0 0
301 3 2.9369382015970302 10.173852367712044 14.53710242792559 0 0 0
2111 3 8.076580054391838 3.815194637892016 29.07420485585118 0 0 0
2752 3 23.495505612776245 17.804241643496077 22.844018101025924 0 0 0
462 3 9.545049155190348 1.271731545964006 14.53710242792559 0 0 0
1245 3 27.900912915171794 15.260778551568066 10.383644591375422 0 0 0
3379 3 37.44596207036214 11.445583913676051 31.150933774126266 0 0 0
380 3 11.747752806388124 5.086926183856022 2.0767289182750845 0 0 0
593 3 15.418925558384412 16.53251009753207 6.230186754825252 0 0 0
2507 3 21.29280196157848 1.271731545964006 22.844018101025927 0 0 0
1516 3 36.711727519962885 22.8911678273521 4.153457836550167 0 0 0
2549 3 14.684691007985156 22.8911678273521 29.07420485585118 0 0 0
2002 3 3.671172751996288 19.075973189460083 29.07420485585118 0 0 0
2076 3 3.6711727519962913 3.8151946378920174 35.30439161067643 0 0 0
3570 3 42.58560392315695 22.8911678273521 26.99747593757609 0 0 0
3034 3 34.50902386876511 1.2717315459640055 22.844018101025924 0 0 0
2371 3 14.684691007985151 10.173852367712044 22.844018101025924 0 0 0
214 3 8.076580054391835 11.44558391367605 4.153457836550168 0 0 0
1967 3 1.468469100798517 15.260778551568066 29.07420485585118 0 0 0
2458 3 11.747752806388124 12.71731545964006 33.227662692401346 0 0 0
1843 3 2.202703651197771 6.358657729820028 24.920747019301007 0 0 0
1563 3 38.914431171160665 3.815194637892017 10.383644591375422 0 0 0
1397 3 35.24325841916437 0.0 6.230186754825251 0 0 0
3578 3 43.31983847355621 3.815194637892017 35.30439161067643 0 0 0
1581 3 38.1801966207614 7.630389275784033 8.306915673100335 0 0 0
2557 3 17.62162920958219 17.80424164349608 24.92074701930101 0 0 0
3076 3 27.900912915171794 20.347704735424088 29.074204855851185 0 0 0
877 3 16.15316010878367 20.347704735424088 14.53710242792559 0 0 0
632 3 10.27928370558961 5.086926183856022 16.613831346200673 0 0 0
1133 3 33.0405547679666 6.358657729820028 1.7763568394002505e-15 0 0 0
600 3 17.621629209582185 12.717315459640057 0.0 0 0 0
2234 3 15.418925558384414 13.98904700560406 18.69056026447576 0 0 0
2691 3 21.29280196157848 13.98904700560406 29.07420485585118 0 0 0
103 3 6.60811095359332 11.445583913676051 0.0 0 0 0
1251 3 30.103616566369567 13.98904700560406 10.383644591375422 0 0 0
3391 3 41.85136937275769 3.815194637892017 24.920747019301007 0 0 0
1329 3 33.0405547679666 21.619436281388094 6.230186754825255 0 0 0
2608 3 22.02703651197773 22.8911678273521 18.69056026447576 0 0 0
371 3 9.54504915519035 13.98904700560406 8.306915673100336 0 0 0
2829 3 23.49550561277625 5.086926183856023 29.07420485585118 0 0 0
3130 3 33.0405547679666 24.162899373316105 24.92074701930101 0 0 0
2242 3 13.9504564575859 19.07597318946009 20.767289182750844 0 0 0
1720 3 42.58560392315695 5.086926183856022 8.306915673100338 0 0 0
3079 3 27.900912915171794 17.804241643496077 29.07420485585118 0 0 0
872 3 23.49550561277625 0.0 4.153457836550169 0 0 0
1456 3 36.711727519962885 7.630389275784033 4.153457836550167 0 0 0
90 3 0.0 20.347704735424088 6.230186754825251 0 0 0
2993 3 26.43244381437328 7.630389275784033 31.150933774126266 0 0 0
2460 3 12.481987356787384 13.98904700560406 35.30439161067643 0 0 0
2791 3 19.090098310380704 0.0 35.304391610676426 0 0 0
2489 3 13.21622190718664 12.717315459640057 31.150933774126266 0 0 0
2774 3 25.69820926397402 21.619436281388094 22.844018101025927 0 0 0
2985 3 27.900912915171794 0.0 29.07420485585118 0 0 0
1522 3 40.38290027195917 19.075973189460083 2.076728918275084 0 0 0
2281 3 11.747752806388124 2.543463091928011 26.99747593757609 0 0 0
111 3 4.405407302395546 20.347704735424088 -4.440892098500626e-16 0 0 0
543 3 16.887394659182927 6.358657729820028 4.153457836550168 0 0 0
1857 3 2.2027036511977727 11.445583913676051 24.92074701930101 0 0 0
2745 3 21.292801961578476 21.619436281388097 29.07420485585118 0 0 0
259 3 8.810814604791094 15.260778551568066 0.0 0 0 0
3128 3 32.30632021756734 22.8911678273521 22.844018101025927 0 0 0
2594 3 24.229740163175503 13.98904700560406 18.69056026447576 0 0 0
230 3 5.139641852794804 21.619436281388094 8.306915673100336 0 0 0
3067 3 35.97749296956363 3.815194637892017 20.76728918275084 0 0 0
2973 3 24.963974713574764 0.0 33.227662692401346 0 0 0
1044 3 21.292801961578476 19.075973189460083 16.613831346200673 0 0 0
3081 3 30.103616566369567 16.53251009753207 29.07420485585118 0 0 0
171 3 2.936938201597032 12.717315459640057 8.306915673100335 0 0 0
287 3 5.139641852794803 3.815194637892017 14.53710242792559 0 0 0
853 3 17.621629209582185 12.717315459640057 12.460373509650504 0 0 0
3289 3 39.64866572155992 10.173852367712044 18.69056026447576 0 0 0
299 3 3.6711727519962887 11.44558391367605 16.613831346200673 0 0 0
3371 3 34.50902386876511 16.53251009753207 35.304391610676426 0 0 0
291 3 6.608110953593319 1.271731545964006 12.460373509650504 0 0 0
211 3 5.873876403194062 10.173852367712044 4.153457836550168 0 0 0
1341 3 37.44596207036214 16.53251009753207 0.0 0 0 0
3173 3 32.30632021756734 0.0 29.07420485585118 0 0 0
1709 3 38.91443117116066 11.44558391367605 16.613831346200673 0 0 0
2782 3 25.69820926397402 24.162899373316108 22.844018101025927 0 0 0
582 3 11.013518255988863 24.162899373316108 12.460373509650504 0 0 0
3457 3 39.64866572155992 20.347704735424088 24.92074701930101 0 0 0
2657 3 19.0900983103807 10.173852367712044 29.07420485585118 0 0 0
3281 3 36.711727519962885 15.260778551568066 22.844018101025927 0 0 0
162 3 8.076580054391835 1.2717315459640055 4.153457836550168 0 0 0
934 3 25.69820926397402 11.44558391367605 4.153457836550169 0 0 0
3239 3 31.57208566716808 21.619436281388097 33.227662692401346 0 0 0
236 3 7.342345503992577 15.260778551568066 2.0767289182750845 0 0 0
3160 3 27.900912915171794 10.173852367712044 35.30439161067643 0 0 0
1047 3 22.761271062376988 13.98904700560406 14.53710242792559 0 0 0
2491 3 15.418925558384414 11.445583913676051 31.150933774126266 0 0 0
3499 3 39.64866572155992 2.543463091928011 31.15093377412626 0 0 0
2888 3 24.963974713574764 12.717315459640057 26.99747593757609 0 0 0
480 3 10.27928370558961 2.543463091928011 10.38364459137542 0 0 0
494 3 9.54504915519035 11.44558391367605 14.537102427925587 0 0 0
1153 3 33.0405547679666 11.445583913676051 -1.7763568394002505e-15 0 0 0
2445 3 11.747752806388124 5.086926183856021 33.227662692401346 0 0 0
1805 3 2.2027036511977727 1.2717315459640064 18.69056026447576 0 0 0
443 3 13.950456457585895 21.619436281388097 2.0767289182750828 0 0 0
3279 3 35.97749296956363 19.075973189460083 26.99747593757609 0 0 0
1717 3 41.85136937275769 6.358657729820028 12.460373509650504 0 0 0
2130 3 5.8738764031940605 12.71731545964006 29.07420485585118 0 0 0
3224 3 37.44596207036214 6.358657729820028 24.920747019301007 0 0 0
2941 3 27.900912915171794 20.347704735424088 22.844018101025924 0 0 0
973 3 25.69820926397402 19.07597318946009 4.153457836550169 0 0 0
2420 3 19.82433286077996 13.98904700560406 18.69056026447576 0 0 0
491 3 8.076580054391833 16.53251009753207 16.613831346200673 0 0 0
1072 3 19.0900983103807 22.8911678273521 16.61383134620067 0 0 0
553 3 9.545049155190348 21.619436281388097 14.53710242792559 0 0 0
2463 3 13.950456457585895 8.90212082174804 33.22766269240135 0 0 0
2960 3 29.36938201597031 20.347704735424088 20.76728918275084 0 0 0
880 3 16.15316010878367 17.804241643496077 14.53710242792559 0 0 0
2227 3 12.481987356787384 19.07597318946009 22.844018101025924 0 0 0
2630 3 16.887394659182927 8.90212082174804 35.30439161067643 0 0 0
737 3 20.55856741117921 7.630389275784033 2.076728918275084 0 0 0
1829 3 2.2027036511977727 21.619436281388094 18.69056026447576 0 0 0
1742 3 36.711727519962885 22.891167827352103 16.613831346200676 0 0 0
2665 3 22.02703651197773 5.086926183856022 24.920747019301007 0 0 0
3514 3 40.38290027195918 11.445583913676051 33.227662692401346 0 0 0
2999 3 28.63514746557105 6.358657729820028 31.150933774126266 0 0 0
2052 3 7.342345503992576 20.34770473542409 20.767289182750844 0 0 0
2326 3 11.013518255988863 13.989047005604064 31.150933774126266 0 0 0
636 3 12.481987356787382 3.815194637892017 16.613831346200673 0 0 0
533 3 13.21622190718664 10.173852367712044 6.230186754825253 0 0 0
234 3 6.608110953593319 19.075973189460083 6.230186754825253 0 0 0
3365 3 39.64866572155992 0.0 24.92074701930101 0 0 0
3027 3 31.57208566716808 6.358657729820028 26.99747593757609 0 0 0
1082 3 24.229740163175503 16.53251009753207 12.460373509650504 0 0 0
1816 3 2.2027036511977727 8.902120821748039 18.69056026447576 0 0 0
284 3 3.671172751996288 8.902120821748039 16.613831346200673 0 0 0
1887 3 0.0 22.891167827352103 24.92074701930101 0 0 0
2656 3 17.62162920958218 10.173852367712044 31.15093377412626 0 0 0
1975 3 4.405407302395547 10.173852367712046 24.92074701930101 0 0 0
1468 3 30.83785111676882 22.891167827352103 12.460373509650504 0 0 0
524 3 8.810814604791094 15.260778551568066 12.460373509650504 0 0 0
3318 3 38.91443117116066 21.619436281388094 22.844018101025924 0 0 0
2498 3 17.62162920958219 7.630389275784033 24.92074701930101 0 0 0
708 3 21.29280196157848 3.815194637892017 4.153457836550169 0 0 0
1661 3 41.11713482235843 17.804241643496077 4.153457836550167 0 0 0
776 3 16.15316010878367 22.8911678273521 8.306915673100336 0 0 0
821 3 17.621629209582185 2.543463091928011 12.460373509650504 0 0 0
502 3 12.48198735678738 6.358657729820028 10.38364459137542 0 0 0
2800 3 19.090098310380704 10.173852367712046 35.30439161067643 0 0 0
1531 3 32.30632021756734 2.5434630919280115 16.613831346200673 0 0 0
2284 3 11.747752806388124 0.0 26.99747593757609 0 0 0
422 3 11.013518255988869 19.075973189460083 6.230186754825251 0 0 0
1252 3 29.36938201597031 10.173852367712044 8.306915673100336 0 0 0
1976 3 5.139641852794803 8.90212082174804 26.997475937576095 0 0 0
2771 3 23.495505612776245 20.347704735424088 22.844018101025924 0 0 0
1616 3 39.64866572155992 7.630389275784033 6.230186754825251 0 0 0
561 3 12.48198735678738 16.53251009753207 10.383644591375418 0 0 0
83 3 5.139641852794804 11.44558391367605 2.0767289182750845 0 0 0
3427 3 35.24325841916438 22.8911678273521 31.150933774126266 0 0 0
1841 3 1.468469100798517 5.086926183856022 22.844018101025924 0 0 0
97 3 3.671172751996288 19.075973189460083 4.153457836550169 0 0 0
335 3 8.076580054391835 8.902120821748039 10.38364459137542 0 0 0
3347 3 32.30632021756735 12.717315459640057 35.30439161067643 0 0 0
2898 3 30.10361656636957 6.358657729820028 22.844018101025927 0 0 0
1414 3 33.774789318365855 10.173852367712044 8.306915673100336 0 0 0
2164 3 5.873876403194062 15.260778551568066 29.07420485585118 0 0 0
3481 3 36.711727519962885 0.0 35.304391610676426 0 0 0
2313 3 16.15316010878367 0.0 20.76728918275084 0 0 0
1303 3 27.900912915171794 22.891167827352103 10.38364459137542 0 0 0
2298 3 11.013518255988863 8.90212082174804 31.150933774126266 0 0 0
1497 3 35.24325841916437 22.8911678273521 6.230186754825251 0 0 0
1485 3 38.1801966207614 12.71731545964006 2.076728918275084 0 0 0
704 3 19.82433286077996 6.358657729820028 6.230186754825254 0 0 0
2662 3 21.29280196157848 6.358657729820028 29.07420485585118 0 0 0
3165 3 29.36938201597031 5.086926183856023 33.227662692401346 0 0 0
2478 3 19.090098310380704 0.0 22.844018101025924 0 0 0
2953 3 33.040554767966604 11.445583913676051 18.69056026447576 0 0 0
1688 3 39.64866572155992 0.0 12.460373509650507 0 0 0
2763 3 26.43244381437328 10.173852367712044 18.69056026447576 0 0 0
186 3 7.342345503992577 2.543463091928011 2.076728918275084 0 0 0
2886 3 25.698209263974025 13.98904700560406 29.07420485585118 0 0 0
724 3 14.684691007985156 15.260778551568068 10.38364459137542 0 0 0
2125 3 2.9369382015970302 15.260778551568066 33.227662692401346 0 0 0
2724 3 22.02703651197773 15.260778551568066 24.920747019301007 0 0 0
2149 3 11.747752806388124 0.0 20.767289182750844 0 0 0
1623 3 43.31983847355621 6.358657729820028 4.153457836550167 0 0 0
183 3 7.342345503992577 5.086926183856022 2.076728918275084 0 0 0
585 3 12.481987356787382 21.619436281388094 10.38364459137542 0 0 0
1951 3 3.671172751996288 8.90212082174804 29.07420485585118 0 0 0
2283 3 12.481987356787378 3.815194637892017 29.07420485585118 0 0 0
2559 3 18.35586375998145 19.07597318946009 26.99747593757609 0 0 0
1349 3 37.44596207036214 21.619436281388097 0.0 0 0 0
1283 3 29.36938201597031 15.260778551568066 8.306915673100336 0 0 0
1225 3 30.837851116768825 5.086926183856022 6.230186754825253 0 0 0
2282 3 12.48198735678738 1.2717315459640046 29.07420485585118 0 0 0
2986 3 28.63514746557105 1.271731545964005 31.150933774126266 0 0 0
672 3 16.887394659182927 6.358657729820028 10.383644591375422 0 0 0
237 3 8.076580054391835 13.98904700560406 4.153457836550167 0 0 0
746 3 24.229740163175503 3.815194637892017 1.7763568394002505e-15 0 0 0
401 3 10.279283705589608 15.260778551568066 4.153457836550169 0 0 0
930 3 24.229740163175503 13.98904700560406 6.230186754825253 0 0 0
3136 3 35.24325841916437 17.804241643496077 18.69056026447576 0 0 0
2518 3 13.9504564575859 19.075973189460083 33.227662692401346 0 0 0
1767 3 43.3198384735562 21.619436281388094 10.38364459137542 0 0 0
1692 3 38.1801966207614 7.630389275784033 14.537102427925593 0 0 0
2303 3 12.48198735678738 8.902120821748039 29.07420485585118 0 0 0
2683 3 18.35586375998145 19.075973189460083 33.227662692401346 0 0 0
1749 3 40.38290027195917 21.619436281388097 14.53710242792559 0 0 0
356 3 2.936938201597031 20.347704735424088 14.537102427925593 0 0 0
1998 3 2.2027036511977744 21.619436281388094 31.150933774126266 0 0 0
575 3 16.15316010878367 7.630389275784034 2.076728918275084 0 0 0
107 3 2.936938201597031 22.8911678273521 2.076728918275084 0 0 0
358 3 5.139641852794804 19.07597318946009 14.53710242792559 0 0 0
54 3 4.440892098500626e-16 10.173852367712044 6.230186754825253 0 0 0
3201 3 27.900912915171794 17.804241643496077 35.30439161067643 0 0 0
1427 3 38.91443117116066 1.2717315459640055 4.153457836550171 0 0 0
615 3 16.15316010878367 17.804241643496077 2.0767289182750845 0 0 0
1956 3 4.405407302395545 2.54346309192801 24.92074701930101 0 0 0
2987 3 23.49550561277625 12.717315459640057 35.30439161067643 0 0 0
2573 3 24.229740163175503 6.358657729820028 18.69056026447576 0 0 0
620 3 19.82433286077996 13.98904700560406 0.0 0 0 0
526 3 11.013518255988863 13.98904700560406 12.460373509650504 0 0 0
2233 3 15.418925558384416 11.44558391367605 18.69056026447576 0 0 0
3237 3 30.837851116768825 20.347704735424088 31.150933774126266 0 0 0
3009 3 24.963974713574764 15.260778551568068 33.22766269240135 0 0 0
2905 3 33.040554767966604 1.2717315459640055 18.69056026447576 0 0 0
1294 3 34.50902386876511 11.445583913676051 4.153457836550169 0 0 0
544 3 16.153160108783673 2.543463091928011 2.076728918275084 0 0 0
1875 3 2.2027036511977727 16.53251009753207 24.920747019301007 0 0 0
834 3 18.35586375998145 6.358657729820028 14.53710242792559 0 0 0
2113 3 7.342345503992576 2.54346309192801 26.99747593757609 0 0 0
742 3 22.76127106237699 3.815194637892017 2.076728918275085 0 0 0
998 3 22.02703651197773 0.0 12.460373509650504 0 0 0
1978 3 4.405407302395545 7.630389275784033 24.92074701930101 0 0 0
2806 3 22.02703651197773 5.086926183856022 31.15093377412626 0 0 0
1059 3 27.166678364772533 6.358657729820028 8.306915673100336 0 0 0
1224 3 29.36938201597031 5.086926183856023 8.306915673100336 0 0 0
2501 3 17.62162920958219 5.086926183856023 24.92074701930101 0 0 0
1668 3 42.58560392315695 12.717315459640057 2.076728918275084 0 0 0
3068 3 35.24325841916437 0.0 18.69056026447576 0 0 0
684 3 12.481987356787382 19.075973189460083 16.613831346200673 0 0 0
2097 3 1.4684691007985151 12.717315459640057 35.30439161067643 0 0 0
3240 3 30.837851116768825 17.804241643496077 31.150933774126266 0 0 0
922 3 21.29280196157848 19.075973189460083 10.383644591375422 0 0 0
3003 3 30.103616566369567 3.815194637892017 29.07420485585118 0 0 0
795 3 19.82433286077996 24.162899373316108 6.230186754825252 0 0 0
1265 3 35.24325841916437 2.543463091928011 0.0 0 0 0
1344 3 35.24325841916438 22.891167827352103 0.0 0 0 0
408 3 11.747752806388124 10.173852367712044 2.076728918275084 0 0 0
1705 3 43.3198384735562 1.2717315459640046 10.383644591375422 0 0 0
296 3 1.4684691007985151 15.260778551568068 16.613831346200676 0 0 0
970 3 24.22974016317551 24.162899373316108 6.230186754825253 0 0 0
863 3 21.29280196157848 8.902120821748039 10.383644591375422 0 0 0
6 3 0.0 7.630389275784034 0.0 0 0 0
2597 3 20.55856741117922 22.8911678273521 20.767289182750844 0 0 0
379 3 12.48198735678738 8.902120821748039 4.153457836550167 0 0 0
1612 3 38.1801966207614 10.173852367712044 8.306915673100336 0 0 0
3526 3 38.1801966207614 17.804241643496077 33.227662692401346 0 0 0
1498 3 35.97749296956363 21.619436281388094 8.306915673100338 0 0 0
1609 3 38.1801966207614 12.717315459640057 8.306915673100335 0 0 0
2405 3 19.82433286077996 11.445583913676051 18.69056026447576 0 0 0
385 3 15.418925558384412 1.271731545964005 -8.881784197001252e-16 0 0 0
1181 3 26.43244381437328 2.5434630919280115 12.460373509650504 0 0 0
2528 3 16.153160108783673 12.717315459640057 26.99747593757609 0 0 0
3445 3 41.85136937275769 13.98904700560406 24.92074701930101 0 0 0
1335 3 33.774789318365855 17.804241643496077 2.076728918275085 0 0 0
250 3 6.608110953593319 24.162899373316105 6.230186754825252 0 0 0
218 3 9.54504915519035 8.902120821748039 2.076728918275084 0 0 0
2685 3 19.090098310380696 15.260778551568068 29.07420485585118 0 0 0
3436 3 38.91443117116066 16.53251009753207 29.07420485585117 0 0 0
1143 3 28.63514746557105 21.619436281388097 6.230186754825253 0 0 0
2402 3 18.35586375998144 13.98904700560406 20.76728918275084 0 0 0
3206 3 30.837851116768825 15.260778551568066 31.150933774126266 0 0 0
61 3 3.671172751996288 8.902120821748039 4.153457836550168 0 0 0
153 3 4.405407302395547 5.086926183856022 6.230186754825253 0 0 0
1405 3 29.369382015970302 15.260778551568066 14.53710242792559 0 0 0
2852 3 24.229740163175503 13.98904700560406 31.150933774126266 0 0 0
2065 3 9.545049155190348 21.619436281388097 20.767289182750844 0 0 0
339 3 9.54504915519035 6.358657729820028 8.306915673100336 0 0 0
986 3 27.166678364772537 24.162899373316105 2.076728918275085 0 0 0
353 3 2.9369382015970293 22.891167827352103 14.537102427925593 0 0 0
3053 3 30.837851116768825 10.173852367712044 24.92074701930101 0 0 0
1094 3 28.63514746557105 8.902120821748039 6.230186754825253 0 0 0
2864 3 28.635147465571052 6.358657729820028 24.92074701930101 0 0 0
308 3 6.608110953593319 8.902120821748039 12.460373509650504 0 0 0
3302 3 37.44596207036214 19.075973189460083 24.920747019301007 0 0 0
515 3 5.873876403194061 22.891167827352103 16.613831346200676 0 0 0
2506 3 20.55856741117922 2.5434630919280115 20.76728918275084 0 0 0
2196 3 7.342345503992577 17.804241643496077 26.99747593757609 0 0 0
2047 3 4.405407302395545 22.8911678273521 24.92074701930101 0 0 0
1529 3 41.85136937275769 21.619436281388094 0.0 0 0 0
979 3 26.43244381437328 15.260778551568068 0.0 0 0 0
217 3 9.545049155190352 6.358657729820028 2.076728918275084 0 0 0
835 3 18.35586375998145 8.902120821748039 14.53710242792559 0 0 0
2678 3 16.88739465918293 19.075973189460083 35.30439161067643 0 0 0
27 3 0.0 20.347704735424088 0.0 0 0 0
812 3 14.684691007985156 0.0 16.613831346200673 0 0 0
3103 3 27.900912915171794 22.891167827352103 29.07420485585118 0 0 0
2877 3 22.02703651197773 20.34770473542409 31.150933774126266 0 0 0
1519 3 38.91443117116066 24.162899373316108 4.153457836550167 0 0 0
82 3 5.139641852794805 8.902120821748039 2.0767289182750845 0 0 0
271 3 1.4684691007985151 0.0 16.613831346200673 0 0 0
1608 3 36.711727519962885 12.717315459640057 10.38364459137542 0 0 0
1128 3 29.36938201597031 10.173852367712044 2.076728918275084 0 0 0
2115 3 9.545049155190354 1.2717315459640046 26.99747593757609 0 0 0
1460 3 38.1801966207614 5.086926183856021 2.076728918275084 0 0 0
235 3 5.873876403194062 15.260778551568068 4.153457836550168 0 0 0
3273 3 33.774789318365855 20.347704735424088 26.99747593757609 0 0 0
2726 3 22.76127106237699 16.53251009753207 26.99747593757609 0 0 0
2893 4 27.900912915171794 10.173852367712044 22.844018101025924 0 0 0
1503 4 37.44596207036214 21.619436281388094 6.230186754825253 0 0 0
1255 4 31.57208566716808 11.44558391367605 8.306915673100338 0 0 0
1375 4 34.50902386876511 1.2717315459640055 10.383644591375422 0 0 0
3169 4 30.837851116768825 2.543463091928011 31.150933774126266 0 0 0
3221 4 35.24325841916437 5.086926183856022 24.92074701930101 0 0 0
1046 4 22.02703651197773 15.260778551568066 12.460373509650504 0 0 0
1272 4 26.43244381437328 22.8911678273521 12.460373509650502 0 0 0
2126 4 4.405407302395547 15.260778551568066 31.150933774126266 0 0 0
1895 4 2.9369382015970302 17.80424164349608 20.767289182750844 0 0 0
3093 4 34.50902386876511 8.902120821748039 22.844018101025924 0 0 0
3491 4 36.711727519962885 7.630389275784034 35.304391610676426 0 0 0
3584 4 43.31983847355621 8.902120821748039 35.30439161067643 0 0 0
1681 4 36.711727519962885 0.0 16.613831346200676 0 0 0
2740 4 28.63514746557105 3.815194637892017 18.69056026447576 0 0 0
253 4 8.076580054391837 19.075973189460083 4.153457836550167 0 0 0
1052 4 24.229740163175503 13.98904700560406 12.460373509650504 0 0 0
3351 4 34.50902386876511 11.44558391367605 35.30439161067643 0 0 0
1211 4 25.69820926397402 16.53251009753207 16.613831346200676 0 0 0
1037 4 26.43244381437328 0.0 6.230186754825251 0 0 0
1715 4 39.64866572155992 7.630389275784033 12.460373509650507 0 0 0
2698 4 24.229740163175503 6.358657729820028 24.92074701930101 0 0 0
2413 4 16.887394659182927 19.07597318946009 22.844018101025927 0 0 0
1355 4 30.103616566369567 1.2717315459640055 16.613831346200673 0 0 0
1776 4 41.11713482235843 5.086926183856023 16.613831346200676 0 0 0
3179 4 30.103616566369567 11.44558391367605 35.30439161067643 0 0 0
811 4 14.684691007985156 2.5434630919280115 16.613831346200673 0 0 0
2825 4 22.02703651197773 7.630389275784033 31.15093377412626 0 0 0
460 4 7.342345503992577 2.543463091928011 14.53710242792559 0 0 0
1229 4 32.30632021756734 2.543463091928011 4.153457836550169 0 0 0
170 4 1.4684691007985151 12.717315459640057 10.383644591375422 0 0 0
897 4 23.495505612776245 7.630389275784033 4.153457836550169 0 0 0
148 4 1.468469100798516 7.630389275784034 10.383644591375422 0 0 0
53 4 0.7342345503992571 13.98904700560406 8.306915673100336 0 0 0
2194 4 8.076580054391838 19.075973189460083 29.07420485585118 0 0 0
3268 4 30.837851116768825 22.891167827352103 31.150933774126266 0 0 0
2495 4 16.88739465918293 8.902120821748039 29.07420485585118 0 0 0
899 4 24.229740163175503 8.902120821748039 6.230186754825254 0 0 0
2376 4 17.621629209582185 7.630389275784033 18.69056026447576 0 0 0
855 4 18.35586375998145 13.98904700560406 14.53710242792559 0 0 0
1716 4 41.11713482235843 7.630389275784033 10.383644591375422 0 0 0
2000 4 2.936938201597032 17.804241643496077 26.99747593757609 0 0 0
393 4 7.342345503992577 20.347704735424088 8.306915673100338 0 0 0
3167 4 31.57208566716808 3.815194637892017 33.227662692401346 0 0 0
1318 4 34.50902386876511 16.532510097532075 4.153457836550169 0 0 0
1173 4 24.963974713574764 0.0 14.53710242792559 0 0 0
1504 4 36.711727519962885 17.804241643496077 4.153457836550169 0 0 0
152 4 2.936938201597031 5.086926183856022 8.306915673100336 0 0 0
841 4 20.55856741117921 2.5434630919280115 8.306915673100338 0 0 0
2187 4 5.139641852794807 24.162899373316108 33.227662692401346 0 0 0
1142 4 28.63514746557105 19.07597318946009 6.230186754825253 0 0 0
3090 4 33.0405547679666 13.98904700560406 24.92074701930101 0 0 0
2659 4 19.82433286077996 11.44558391367605 31.150933774126266 0 0 0
1959 4 6.608110953593318 3.815194637892017 24.92074701930101 0 0 0
1433 4 29.369382015970302 22.8911678273521 14.537102427925586 0 0 0
578 4 18.35586375998144 8.902120821748039 2.0767289182750845 0 0 0
2131 4 6.608110953593322 11.445583913676051 31.150933774126266 0 0 0
2374 4 16.887394659182924 11.44558391367605 22.844018101025924 0 0 0
3480 4 42.58560392315695 22.891167827352103 20.767289182750844 0 0 0
1185 4 27.900912915171794 0.0 10.38364459137542 0 0 0
1247 4 28.63514746557105 16.53251009753207 12.460373509650504 0 0 0
2500 4 18.35586375998145 8.902120821748039 26.99747593757609 0 0 0
25 4 0.7342345503992589 21.619436281388094 2.076728918275084 0 0 0
282 4 2.936938201597031 7.630389275784033 14.53710242792559 0 0 0
1314 4 33.0405547679666 19.07597318946009 6.230186754825253 0 0 0
536 4 13.21622190718664 7.630389275784033 6.230186754825253 0 0 0
2068 4 11.013518255988869 19.07597318946009 18.69056026447576 0 0 0
1221 4 29.36938201597031 7.630389275784033 8.306915673100336 0 0 0
3002 4 30.103616566369567 1.271731545964006 29.07420485585118 0 0 0
755 4 16.887394659182927 21.619436281388094 10.383644591375422 0 0 0
169 4 2.2027036511977727 16.53251009753207 12.460373509650504 0 0 0
1068 4 30.103616566369567 3.815194637892017 4.153457836550169 0 0 0
2931 4 31.57208566716809 11.44558391367605 20.767289182750844 0 0 0
294 4 7.342345503992577 0.0 8.306915673100336 0 0 0
2036 4 7.342345503992577 15.260778551568068 20.767289182750844 0 0 0
2545 4 24.229740163175503 1.2717315459640055 18.69056026447576 0 0 0
1330 4 33.0405547679666 24.162899373316105 6.230186754825255 0 0 0
1514 4 41.85136937275769 13.98904700560406 0.0 0 0 0
691 4 15.418925558384412 11.44558391367605 12.460373509650504 0 0 0
1083 4 24.229740163175503 19.075973189460083 12.460373509650504 0 0 0
3249 4 35.24325841916437 12.717315459640057 24.92074701930101 0 0 0
1489 4 39.64866572155992 10.173852367712048 0.0 0 0 0
938 4 27.166678364772537 8.902120821748039 2.076728918275085 0 0 0
490 4 8.076580054391835 13.98904700560406 16.613831346200673 0 0 0
1273 4 27.166678364772537 21.619436281388094 14.53710242792559 0 0 0
1949 4 2.9369382015970302 7.630389275784035 26.99747593757609 0 0 0
1049 4 22.02703651197773 12.717315459640057 12.460373509650502 0 0 0
736 4 19.0900983103807 7.630389275784034 4.153457836550167 0 0 0
762 4 19.82433286077996 13.98904700560406 6.230186754825254 0 0 0
1146 4 30.103616566369567 16.532510097532075 4.153457836550167 0 0 0
2051 4 5.873876403194062 20.347704735424088 22.844018101025924 0 0 0
1257 4 32.30632021756734 7.630389275784033 4.153457836550167 0 0 0
1304 4 29.369382015970317 22.891167827352103 8.306915673100335 0 0 0
774 4 24.229740163175503 8.902120821748039 1.7763568394002505e-15 0 0 0
784 4 19.0900983103807 17.804241643496077 4.153457836550168 0 0 0
2217 4 8.810814604791092 22.8911678273521 24.92074701930101 0 0 0
1165 4 33.0405547679666 16.53251009753207 1.7763568394002505e-15 0 0 0
957 4 25.69820926397402 13.98904700560406 4.153457836550169 0 0 0
2554 4 16.887394659182927 19.07597318946009 29.07420485585118 0 0 0
2865 4 27.900912915171794 2.543463091928011 22.844018101025924 0 0 0
2923 4 28.635147465571052 16.53251009753207 24.92074701930101 0 0 0
984 4 26.43244381437328 22.8911678273521 0.0 0 0 0
734 4 19.82433286077996 8.902120821748039 6.230186754825253 0 0 0
1437 4 30.83785111676882 20.347704735424088 12.460373509650502 0 0 0
3089 4 33.0405547679666 11.44558391367605 24.92074701930101 0 0 0
3525 4 36.711727519962885 17.804241643496077 35.304391610676426 0 0 0
1647 4 42.58560392315695 10.173852367712048 2.076728918275084 0 0 0
2497 4 16.153160108783673 7.630389275784033 26.99747593757609 0 0 0
1740 4 43.3198384735562 11.445583913676051 10.38364459137542 0 0 0
1899 4 4.405407302395547 15.260778551568068 18.69056026447576 0 0 0
1814 4 0.7342345503992576 13.989047005604062 20.76728918275084 0 0 0
2390 4 13.950456457585895 21.619436281388094 26.99747593757609 0 0 0
117 4 5.139641852794805 24.162899373316105 2.0767289182750845 0 0 0
3018 4 28.63514746557105 8.902120821748039 31.150933774126266 0 0 0
2361 4 12.481987356787378 16.532510097532075 29.07420485585118 0 0 0
75 4 2.2027036511977727 16.53251009753207 6.230186754825253 0 0 0
3055 4 31.57208566716808 11.445583913676051 26.99747593757609 0 0 0
3291 4 40.38290027195917 11.44558391367605 20.767289182750844 0 0 0
2404 4 19.82433286077996 8.902120821748039 18.69056026447576 0 0 0
3429 4 35.97749296956363 24.162899373316108 33.227662692401346 0 0 0
2867 4 30.10361656636957 1.2717315459640055 22.844018101025927 0 0 0
31 4 0.0 2.5434630919280115 6.230186754825253 0 0 0
3073 4 27.166678364772533 21.619436281388097 33.227662692401346 0 0 0
1771 4 41.11713482235843 2.5434630919280106 16.613831346200676 0 0 0
1550 4 34.50902386876512 8.902120821748039 16.613831346200673 0 0 0
1074 4 21.292801961578476 21.619436281388094 16.613831346200673 0 0 0
42 4 2.202703651197773 3.815194637892017 6.230186754825253 0 0 0
3046 4 28.63514746557105 13.98904700560406 31.150933774126266 0 0 0
2166 4 8.076580054391837 13.989047005604064 29.07420485585118 0 0 0
3143 4 33.774789318365855 22.8911678273521 20.767289182750844 0 0 0
1466 4 41.85136937275769 3.8151946378920174 0.0 0 0 0
1917 4 5.139641852794805 24.162899373316105 20.76728918275084 0 0 0
2710 4 16.887394659182927 24.162899373316108 35.30439161067643 0 0 0
1761 4 41.11713482235843 22.8911678273521 10.383644591375422 0 0 0
2955 4 28.635147465571052 24.162899373316108 24.92074701930101 0 0 0
190 4 8.810814604791094 0.0 0.0 0 0 0
695 4 16.887394659182927 8.902120821748039 10.383644591375422 0 0 0
2254 4 8.076580054391833 1.2717315459640055 35.304391610676426 0 0 0
1852 4 0.7342345503992558 11.445583913676051 26.99747593757609 0 0 0
525 4 10.27928370558961 15.260778551568066 10.38364459137542 0 0 0
1120 4 26.43244381437328 15.260778551568066 6.230186754825251 0 0 0
3363 4 38.91443117116066 3.815194637892017 29.07420485585118 0 0 0
687 4 13.950456457585895 13.98904700560406 14.53710242792559 0 0 0
469 4 7.342345503992578 10.173852367712044 14.53710242792559 0 0 0
1262 4 34.50902386876511 3.815194637892017 4.153457836550171 0 0 0
2277 4 10.279283705589608 5.086926183856022 29.07420485585118 0 0 0
1671 4 41.11713482235844 22.891167827352103 4.153457836550167 0 0 0
1726 4 38.1801966207614 17.80424164349608 14.53710242792559 0 0 0
224 4 2.936938201597031 22.8911678273521 8.306915673100338 0 0 0
740 4 20.55856741117922 5.086926183856023 2.076728918275084 0 0 0
3180 4 30.103616566369567 13.98904700560406 35.30439161067643 0 0 0
3310 4 40.38290027195917 13.98904700560406 20.76728918275084 0 0 0
26 4 0.7342345503992571 24.162899373316105 2.076728918275084 0 0 0
3098 4 35.97749296956363 8.902120821748039 20.76728918275084 0 0 0
3576 4 41.11713482235843 5.086926183856022 35.30439161067643 0 0 0
1890 4 0.0 20.347704735424088 24.92074701930101 0 0 0
1486 4 38.91443117116066 11.445583913676051 4.153457836550167 0 0 0
898 4 24.229740163175503 6.358657729820028 6.230186754825253 0 0 0
382 4 13.950456457585895 3.815194637892017 2.076728918275084 0 0 0
1580 4 36.711727519962885 7.630389275784033 10.38364459137542 0 0 0
47 4 3.6711727519962887 3.815194637892017 4.153457836550168 0 0 0
542 4 16.887394659182927 3.815194637892017 4.153457836550168 0 0 0
1234 4 34.50902386876511 1.2717315459640046 4.153457836550171 0 0 0
78 4 3.6711727519962887 11.44558391367605 4.153457836550168 0 0 0
3065 4 35.24325841916437 2.5434630919280115 18.69056026447576 0 0 0
3096 4 35.24325841916437 7.630389275784033 18.69056026447576 0 0 0
1866 4 4.405407302395547 2.543463091928012 18.69056026447576 0 0 0
1939 4 4.405407302395547 0.0 24.920747019301007 0 0 0
2609 4 24.229740163175503 21.619436281388094 18.69056026447576 0 0 0
3231 4 40.38290027195917 1.271731545964006 20.76728918275084 0 0 0
1830 4 2.2027036511977744 24.162899373316105 18.69056026447576 0 0 0
3383 4 38.91443117116066 8.902120821748039 29.07420485585118 0 0 0
1328 4 32.30632021756734 22.8911678273521 4.153457836550167 0 0 0
670 4 16.15316010878367 5.086926183856022 8.306915673100335 0 0 0
2008 4 5.873876403194062 12.717315459640057 22.844018101025924 0 0 0
2565 4 20.55856741117922 12.717315459640057 20.76728918275084 0 0 0
2356 4 10.279283705589608 20.347704735424088 29.07420485585118 0 0 0
2389 4 13.950456457585894 19.07597318946009 26.99747593757609 0 0 0
1029 4 23.495505612776245 5.086926183856022 10.383644591375418 0 0 0
771 4 22.761271062376988 11.44558391367605 2.076728918275085 0 0 0
1063 4 28.63514746557105 3.815194637892017 6.230186754825253 0 0 0
2712 4 17.62162920958218 22.8911678273521 31.150933774126266 0 0 0
2670 4 24.229740163175503 1.271731545964006 24.92074701930101 0 0 0
3512 4 39.64866572155992 10.173852367712044 31.15093377412626 0 0 0
3562 4 41.851369372757695 21.619436281388094 31.150933774126266 0 0 0
780 4 17.621629209582185 20.347704735424088 6.230186754825253 0 0 0
1669 4 40.38290027195918 24.162899373316105 8.306915673100338 0 0 0
1226 4 31.57208566716808 3.815194637892017 8.306915673100338 0 0 0
2459 4 12.481987356787382 11.445583913676051 35.30439161067643 0 0 0
2287 4 5.8738764031940605 17.80424164349608 35.30439161067643 0 0 0
3324 4 39.64866572155992 17.804241643496077 18.69056026447576 0 0 0
3404 4 35.24325841916438 15.260778551568066 31.150933774126266 0 0 0
1812 4 0.0 12.717315459640057 18.69056026447576 0 0 0
968 4 23.49550561277625 22.891167827352103 4.153457836550167 0 0 0
2719 4 19.090098310380696 17.804241643496077 29.07420485585118 0 0 0
209 4 6.60811095359332 11.44558391367605 6.230186754825252 0 0 0
723 4 15.418925558384412 19.075973189460083 12.460373509650504 0 0 0
2297 4 10.279283705589608 10.173852367712046 29.07420485585118 0 0 0
2421 4 19.82433286077996 16.53251009753207 18.69056026447576 0 0 0
980 4 28.63514746557105 13.989047005604062 0.0 0 0 0
1723 4 42.58560392315695 2.54346309192801 8.306915673100338 0 0 0
1577 4 36.711727519962885 10.173852367712044 10.38364459137542 0 0 0
634 4 11.747752806388124 2.5434630919280115 14.53710242792559 0 0 0
2697 4 23.495505612776245 7.630389275784033 22.844018101025924 0 0 0
2663 4 21.29280196157848 8.902120821748039 29.07420485585118 0 0 0
1916 4 6.608110953593318 19.07597318946009 18.69056026447576 0 0 0
2488 4 13.9504564575859 16.53251009753207 33.227662692401346 0 0 0
590 4 13.950456457585894 21.619436281388094 8.306915673100336 0 0 0
1216 4 26.43244381437328 10.173852367712044 12.460373509650504 0 0 0
160 4 5.873876403194062 0.0 4.153457836550168 0 0 0
1159 4 30.103616566369563 24.162899373316105 4.153457836550169 0 0 0
1238 4 25.69820926397402 19.075973189460083 16.613831346200673 0 0 0
341 4 8.810814604791092 5.086926183856022 6.230186754825253 0 0 0
3247 4 34.50902386876511 16.53251009753207 29.07420485585118 0 0 0
1449 4 35.24325841916437 12.717315459640057 6.230186754825251 0 0 0
1721 4 43.3198384735562 3.815194637892017 10.383644591375422 0 0 0
1206 4 31.57208566716808 1.2717315459640055 8.306915673100338 0 0 0
2836 4 27.16667836477254 3.815194637892017 26.99747593757609 0 0 0
2904 4 30.837851116768825 2.543463091928011 18.69056026447576 0 0 0
2954 4 33.0405547679666 13.98904700560406 18.69056026447576 0 0 0
1478 4 35.97749296956363 16.532510097532075 8.306915673100336 0 0 0
3441 4 40.38290027195917 16.53251009753207 26.99747593757609 0 0 0
2366 4 13.950456457585895 16.532510097532075 26.99747593757609 0 0 0
298 4 2.936938201597031 12.717315459640057 14.53710242792559 0 0 0
999 4 22.761271062376988 1.2717315459640055 14.53710242792559 0 0 0
306 4 5.873876403194061 7.630389275784033 10.383644591375422 0 0 0
548 4 17.62162920958219 0.0 0.0 0 0 0
2622 4 18.35586375998145 1.2717315459640046 33.227662692401346 0 0 0
2203 4 11.013518255988869 16.532510097532075 24.92074701930101 0 0 0
3186 4 32.30632021756734 7.630389275784033 29.07420485585118 0 0 0
2248 4 13.21622190718664 22.891167827352103 18.69056026447576 0 0 0
1678 4 42.58560392315695 17.804241643496077 2.076728918275084 0 0 0
3286 4 38.91443117116066 11.445583913676051 22.844018101025924 0 0 0
519 4 8.076580054391833 21.619436281388097 16.613831346200673 0 0 0
1192 4 24.963974713574764 7.630389275784033 14.53710242792559 0 0 0
974 4 25.698209263974025 21.619436281388097 4.153457836550169 0 0 0
2617 4 16.153160108783666 5.086926183856022 33.227662692401346 0 0 0
2790 4 28.63514746557105 24.162899373316105 18.69056026447576 0 0 0
2433 4 10.27928370558961 2.543463091928011 35.30439161067643 0 0 0
2896 4 27.900912915171794 7.630389275784033 22.844018101025924 0 0 0
2286 4 13.950456457585895 1.2717315459640064 26.99747593757609 0 0 0
1386 4 32.30632021756734 7.630389275784033 10.38364459137542 0 0 0
2946 4 30.10361656636957 16.53251009753207 22.844018101025924 0 0 0
663 4 13.950456457585895 8.902120821748039 14.53710242792559 0 0 0
3088 4 32.30632021756734 12.717315459640057 22.844018101025927 0 0 0
2653 4 17.62162920958218 12.717315459640057 31.150933774126266 0 0 0
1813 4 0.7342345503992576 11.445583913676051 20.76728918275084 0 0 0
2213 4 15.418925558384416 6.358657729820028 18.69056026447576 0 0 0
3492 4 38.1801966207614 7.630389275784033 33.227662692401346 0 0 0
1354 4 29.369382015970302 2.5434630919280115 14.53710242792559 0 0 0
3178 4 29.36938201597031 12.717315459640057 33.227662692401346 0 0 0
3147 4 35.24325841916437 20.347704735424088 18.69056026447576 0 0 0
1651 4 37.44596207036215 24.162899373316105 12.460373509650504 0 0 0
127 4 8.881784197001252e-16 7.630389275784033 12.460373509650504 0 0 0
187 4 8.810814604791094 2.5434630919280115 0.0 0 0 0
2241 4 13.21622190718664 20.347704735424088 18.69056026447576 0 0 0
2268 4 5.8738764031940605 10.173852367712044 35.304391610676426 0 0 0
954 4 24.229740163175503 19.07597318946009 6.230186754825252 0 0 0
1825 4 0.7342345503992576 21.619436281388094 20.76728918275084 0 0 0
3407 4 37.44596207036214 16.53251009753207 31.150933774126266 0 0 0
2064 4 8.81081460479109 22.891167827352103 18.69056026447576 0 0 0
1302 4 28.63514746557105 24.162899373316108 12.460373509650504 0 0 0
3210 4 32.30632021756734 12.717315459640057 29.07420485585118 0 0 0
2971 4 23.49550561277625 2.543463091928011 35.30439161067643 0 0 0
2440 4 10.27928370558961 10.173852367712048 35.30439161067643 0 0 0
1440 4 30.83785111676882 17.804241643496077 12.460373509650504 0 0 0
2425 4 18.35586375998144 21.619436281388097 20.767289182750844 0 0 0
1931 4 1.4684691007985151 5.086926183856024 29.07420485585118 0 0 0
74 4 2.2027036511977736 13.98904700560406 6.230186754825252 0 0 0
81 4 4.405407302395547 10.173852367712044 4.440892098500626e-16 0 0 0
1239 4 25.69820926397402 21.619436281388094 16.613831346200676 0 0 0
1096 4 27.900912915171794 7.630389275784033 4.153457836550167 0 0 0
2786 4 27.166678364772537 24.162899373316105 20.767289182750844 0 0 0
3311 4 40.38290027195917 16.53251009753207 20.76728918275084 0 0 0
1677 4 43.31983847355621 21.619436281388097 4.153457836550167 0 0 0
2524 4 14.684691007985156 15.260778551568068 29.07420485585118 0 0 0
1629 4 35.977492969563635 24.162899373316108 14.53710242792559 0 0 0
643 4 12.481987356787382 6.358657729820028 16.613831346200673 0 0 0
3035 4 23.49550561277625 22.8911678273521 35.30439161067643 0 0 0
3372 4 33.77478931836586 12.717315459640057 33.227662692401346 0 0 0
2916 4 24.963974713574764 17.804241643496077 26.99747593757609 0 0 0
1426 4 38.1801966207614 2.543463091928011 2.076728918275084 0 0 0
86 4 6.60811095359332 8.902120821748039 4.440892098500626e-16 0 0 0
521 4 8.810814604791094 17.804241643496077 12.460373509650504 0 0 0
1753 4 41.85136937275769 19.07597318946009 12.460373509650504 0 0 0
1729 4 38.1801966207614 15.260778551568066 14.537102427925593 0 0 0
1039 4 28.63514746557105 1.2717315459640055 6.230186754825253 0 0 0
2600 4 20.55856741117922 20.347704735424088 20.76728918275084 0 0 0
2729 4 24.229740163175503 11.44558391367605 24.92074701930101 0 0 0
2332 4 11.747752806388124 10.173852367712044 26.99747593757609 0 0 0
1141 4 27.900912915171794 20.34770473542409 4.1534578365501655 0 0 0
3540 4 43.31983847355621 11.44558391367605 29.07420485585118 0 0 0
3091 4 32.30632021756734 10.173852367712044 22.844018101025927 0 0 0
2184 4 13.216221907186638 2.543463091928011 18.69056026447576 0 0 0
911 4 16.15316010878367 22.8911678273521 14.53710242792559 0 0 0
739 4 21.292801961578476 8.902120821748039 4.15345783655017 0 0 0
2758 4 25.69820926397402 16.53251009753207 22.844018101025927 0 0 0
2293 4 8.81081460479109 12.71731545964006 31.15093377412626 0 0 0
2098 4 2.9369382015970302 12.717315459640057 33.227662692401346 0 0 0
418 4 9.545049155190352 21.619436281388094 8.306915673100335 0 0 0
3388 4 39.64866572155992 2.543463091928011 24.92074701930101 0 0 0
2256 4 5.8738764031940605 5.086926183856024 35.30439161067643 0 0 0
2348 4 17.621629209582185 0.0 18.69056026447576 0 0 0
1769 4 43.3198384735562 24.162899373316105 10.383644591375422 0 0 0
2072 4 1.4684691007985151 5.086926183856026 35.30439161067643 0 0 0
3590 4 43.31983847355621 13.98904700560406 35.30439161067643 0 0 0
108 4 3.6711727519962896 21.619436281388094 4.153457836550168 0 0 0
1517 4 38.1801966207614 22.891167827352103 2.076728918275084 0 0 0
383 4 13.950456457585895 6.358657729820028 2.076728918275084 0 0 0
658 4 11.747752806388124 12.717315459640057 14.537102427925587 0 0 0
2007 4 4.405407302395547 12.717315459640057 24.92074701930101 0 0 0
2503 4 19.82433286077996 3.815194637892017 24.92074701930101 0 0 0
1274 4 27.166678364772537 24.162899373316108 14.53710242792559 0 0 0
2924 4 27.900912915171794 12.717315459640057 22.844018101025924 0 0 0
1073 4 20.55856741117921 22.8911678273521 14.537102427925587 0 0 0
1889 4 0.7342345503992576 24.162899373316105 26.99747593757609 0 0 0
2143 4 11.013518255988869 3.815194637892017 24.92074701930101 0 0 0
136 4 3.6711727519962887 1.271731545964006 10.383644591375422 0 0 0
1958 4 6.60811095359332 1.2717315459640046 24.92074701930101 0 0 0
3272 4 32.30632021756734 20.347704735424088 29.07420485585118 0 0 0
2359 4 10.279283705589608 17.804241643496077 29.07420485585117 0 0 0
2288 4 5.8738764031940605 15.260778551568066 35.304391610676426 0 0 0
2165 4 7.342345503992576 15.26077855156807 26.99747593757609 0 0 0
2965 4 33.040554767966604 16.53251009753207 18.69056026447576 0 0 0
1444 4 32.30632021756734 15.260778551568066 10.38364459137542 0 0 0
2182 4 13.9504564575859 3.815194637892017 20.767289182750844 0 0 0
2866 4 29.36938201597031 2.543463091928011 20.76728918275084 0 0 0
2172 4 8.810814604791092 10.173852367712044 24.92074701930101 0 0 0
388 4 4.405407302395546 22.891167827352103 12.460373509650504 0 0 0
1745 4 38.91443117116066 24.162899373316108 16.613831346200673 0 0 0
3505 4 43.31983847355621 1.2717315459640055 29.07420485585118 0 0 0
2855 4 25.698209263974025 8.902120821748039 29.07420485585118 0 0 0
347 4 12.481987356787382 1.2717315459640055 4.153457836550167 0 0 0
2620 4 16.153160108783666 2.54346309192801 33.227662692401346 0 0 0
671 4 16.887394659182927 3.815194637892017 10.383644591375422 0 0 0
919 4 19.0900983103807 17.804241643496077 10.383644591375422 0 0 0
2117 4 8.810814604791092 0.0 24.92074701930101 0 0 0
518 4 8.076580054391833 19.07597318946009 16.613831346200673 0 0 0
1847 4 3.671172751996286 3.815194637892017 22.844018101025924 0 0 0
629 4 19.82433286077996 21.619436281388097 0.0 0 0 0
2654 4 18.35586375998145 11.445583913676051 33.227662692401346 0 0 0
756 4 16.15316010878367 17.804241643496077 8.306915673100336 0 0 0
2146 4 11.747752806388124 2.5434630919280106 20.767289182750844 0 0 0
3184 4 31.57208566716808 11.44558391367605 33.227662692401346 0 0 0
1501 4 36.711727519962885 20.347704735424088 4.153457836550167 0 0 0
3589 4 42.58560392315695 15.260778551568066 33.227662692401346 0 0 0
1538 4 34.50902386876512 3.815194637892017 16.613831346200673 0 0 0
3516 4 41.11713482235843 7.630389275784034 29.07420485585117 0 0 0
2835 4 27.16667836477254 1.271731545964006 26.99747593757609 0 0 0
2482 4 11.747752806388126 17.804241643496077 33.227662692401346 0 0 0
630 4 19.82433286077996 24.162899373316105 0.0 0 0 0
978 4 27.16667836477254 19.07597318946009 2.076728918275084 0 0 0
1015 4 25.698209263974015 1.271731545964006 10.38364459137542 0 0 0
3373 4 35.24325841916438 12.717315459640057 31.150933774126266 0 0 0
2136 4 8.076580054391838 11.445583913676051 29.07420485585118 0 0 0
2667 4 22.76127106237699 6.358657729820028 26.99747593757609 0 0 0
3164 4 30.103616566369567 8.902120821748039 35.30439161067643 0 0 0
972 4 24.963974713574764 20.34770473542409 2.076728918275084 0 0 0
2572 4 22.02703651197773 7.630389275784033 18.69056026447576 0 0 0
2025 4 3.671172751996288 21.619436281388097 29.07420485585118 0 0 0
3 4 0.7342345503992578 3.815194637892017 2.076728918275084 0 0 0
785 4 20.55856741117922 17.80424164349608 2.076728918275082 0 0 0
928 4 23.495505612776245 12.717315459640057 4.153457836550169 0 0 0
624 4 17.62162920958219 22.891167827352103 -1.7763568394002505e-15 0 0 0
324 4 3.671172751996288 19.07597318946009 16.613831346200673 0 0 0
357 4 4.405407302395546 20.347704735424088 12.460373509650504 0 0 0
2260 4 7.342345503992576 2.543463091928011 33.227662692401346 0 0 0
1820 4 0.7342345503992576 19.075973189460083 20.76728918275084 0 0 0
1579 4 37.44596207036215 11.44558391367605 12.460373509650504 0 0 0
3269 4 32.30632021756734 22.8911678273521 29.074204855851185 0 0 0
977 4 27.166678364772537 16.532510097532075 2.076728918275084 0 0 0
3282 4 37.44596207036214 13.98904700560406 24.920747019301007 0 0 0
2847 4 22.76127106237699 13.989047005604062 33.227662692401346 0 0 0
3300 4 35.24325841916437 20.347704735424088 24.92074701930101 0 0 0
2017 4 9.54504915519035 6.358657729820028 20.767289182750844 0 0 0
3356 4 35.24325841916438 5.086926183856022 31.150933774126266 0 0 0
1960 4 5.873876403194062 0.0 22.844018101025924 0 0 0
713 4 11.747752806388124 22.8911678273521 14.53710242792559 0 0 0
3338 4 34.50902386876511 3.815194637892017 35.30439161067643 0 0 0
3464 4 41.11713482235844 15.260778551568066 22.844018101025927 0 0 0
1065 4 27.900912915171794 2.543463091928012 4.1534578365501655 0 0 0
1947 4 2.2027036511977727 11.44558391367605 31.15093377412626 0 0 0
1606 4 37.44596207036215 13.98904700560406 12.460373509650504 0 0 0
3094 4 34.50902386876511 11.44558391367605 22.844018101025924 0 0 0
941 4 28.63514746557105 6.358657729820028 1.7763568394002505e-15 0 0 0
555 4 8.810814604791094 20.347704735424088 12.460373509650504 0 0 0
330 4 5.873876403194062 12.717315459640057 10.38364459137542 0 0 0
637 4 11.747752806388124 0.0 14.53710242792559 0 0 0
167 4 1.468469100798517 15.260778551568066 10.38364459137542 0 0 0
1965 4 0.7342345503992593 19.075973189460083 33.227662692401346 0 0 0
13 4 0.734234550399258 11.44558391367605 2.076728918275084 0 0 0
571 4 14.684691007985156 10.173852367712044 4.153457836550167 0 0 0
2906 4 33.040554767966604 3.815194637892017 18.69056026447576 0 0 0
151 4 3.6711727519962887 8.902120821748039 10.383644591375422 0 0 0
920 4 20.55856741117921 17.804241643496077 8.306915673100338 0 0 0
1268 4 35.24325841916438 0.0 0.0 0 0 0
3204 4 30.103616566369567 19.07597318946009 35.30439161067643 0 0 0
2607 4 22.76127106237699 24.162899373316108 20.767289182750844 0 0 0
2339 4 15.41892555838441 8.902120821748039 24.92074701930101 0 0 0
2077 4 2.9369382015970302 0.0 33.227662692401346 0 0 0
2815 4 25.69820926397402 1.271731545964005 29.07420485585118 0 0 0
570 4 15.41892555838441 13.98904700560406 6.230186754825253 0 0 0
528 4 10.27928370558961 12.717315459640057 10.383644591375422 0 0 0
2167 4 8.076580054391838 16.53251009753207 29.07420485585118 0 0 0
1818 4 0.0 17.80424164349608 18.69056026447576 0 0 0
2809 4 22.02703651197773 2.543463091928012 31.150933774126266 0 0 0
3355 4 35.97749296956363 8.902120821748039 33.227662692401346 0 0 0
1387 4 33.0405547679666 6.358657729820028 12.460373509650504 0 0 0
2788 4 28.63514746557105 19.075973189460083 18.69056026447576 0 0 0
1208 4 23.49550561277625 15.260778551568068 16.613831346200673 0 0 0
1879 4 3.671172751996288 13.989047005604062 22.844018101025924 0 0 0
673 4 16.15316010878367 2.543463091928011 8.306915673100336 0 0 0
1004 4 21.292801961578476 8.902120821748039 16.613831346200673 0 0 0
1384 4 31.57208566716808 11.44558391367605 14.537102427925593 0 0 0
1111 4 24.229740163175503 24.162899373316108 12.460373509650504 0 0 0
463 4 9.545049155190348 3.815194637892017 14.53710242792559 0 0 0
912 4 17.621629209582185 22.8911678273521 12.460373509650504 0 0 0
621 4 19.82433286077996 16.532510097532075 -1.7763568394002505e-15 0 0 0
457 4 7.342345503992578 5.086926183856022 14.53710242792559 0 0 0
1724 4 36.711727519962885 20.347704735424088 16.613831346200673 0 0 0
2341 4 16.15316010878367 5.086926183856022 20.76728918275084 0 0 0
146 4 2.2027036511977736 8.902120821748039 12.460373509650504 0 0 0
210 4 6.60811095359332 13.98904700560406 6.230186754825253 0 0 0
2034 4 6.60811095359332 19.075973189460083 24.92074701930101 0 0 0
512 4 14.684691007985156 0.0 4.153457836550168 0 0 0
1217 4 27.900912915171794 10.173852367712044 10.383644591375422 0 0 0
802 4 22.76127106237699 19.07597318946009 2.076728918275085 0 0 0
2638 4 19.82433286077996 3.815194637892017 31.150933774126266 0 0 0
483 4 12.48198735678738 3.815194637892017 10.38364459137542 0 0 0
3050 4 30.103616566369567 11.44558391367605 29.07420485585118 0 0 0
2643 4 21.29280196157848 3.815194637892017 29.07420485585118 0 0 0
2783 4 24.96397471357476 22.8911678273521 20.76728918275084 0 0 0
3026 4 31.57208566716808 3.815194637892017 26.99747593757609 0 0 0
925 4 22.76127106237699 13.98904700560406 8.306915673100338 0 0 0
2044 4 11.013518255988869 8.902120821748039 18.69056026447576 0 0 0
1321 4 35.97749296956363 11.445583913676051 2.076728918275084 0 0 0
3008 4 23.49550561277625 15.260778551568068 35.30439161067643 0 0 0
1586 4 40.38290027195918 3.815194637892017 8.306915673100338 0 0 0
2212 4 13.21622190718664 7.630389275784034 18.69056026447576 0 0 0
3070 4 25.69820926397402 24.162899373316105 35.30439161067643 0 0 0
1374 4 33.774789318365855 0.0 8.306915673100336 0 0 0
2875 4 21.29280196157848 24.162899373316105 35.30439161067643 0 0 0
657 4 10.279283705589608 12.717315459640057 16.613831346200673 0 0 0
3484 4 38.1801966207614 2.5434630919280115 33.227662692401346 0 0 0
944 4 20.55856741117921 22.8911678273521 8.306915673100335 0 0 0
3112 4 32.30632021756734 17.804241643496077 22.844018101025927 0 0 0
2514 4 12.481987356787382 21.619436281388097 35.30439161067643 0 0 0
3539 4 43.31983847355621 8.902120821748039 29.07420485585118 0 0 0
1320 4 35.24325841916438 12.71731545964006 0.0 0 0 0
3566 4 43.31983847355621 19.075973189460083 29.07420485585118 0 0 0
71 4 0.7342345503992576 19.075973189460083 8.306915673100336 0 0 0
2264 4 8.81081460479109 0.0 31.15093377412626 0 0 0
3138 4 35.97749296956363 19.075973189460083 20.767289182750844 0 0 0
2426 4 18.35586375998144 24.162899373316108 20.767289182750844 0 0 0
482 4 12.48198735678738 1.2717315459640055 10.38364459137542 0 0 0
2861 4 26.43244381437328 5.086926183856022 24.920747019301007 0 0 0
639 4 13.950456457585895 1.2717315459640055 14.53710242792559 0 0 0
2796 4 21.29280196157848 3.815194637892017 35.30439161067643 0 0 0
2601 4 22.02703651197773 20.347704735424088 18.69056026447576 0 0 0
2551 4 15.418925558384412 24.162899373316105 31.150933774126266 0 0 0
1596 4 32.30632021756734 20.347704735424088 16.613831346200673 0 0 0
325 4 2.9369382015970302 15.260778551568066 14.53710242792559 0 0 0
17 4 2.202703651197773 11.44558391367605 2.220446049250313e-16 0 0 0
2274 4 9.545049155190348 6.358657729820028 33.227662692401346 0 0 0
2442 4 11.747752806388124 7.630389275784035 33.227662692401346 0 0 0
2547 4 13.950456457585895 24.162899373316108 33.22766269240135 0 0 0
2335 4 13.950456457585895 11.44558391367605 26.99747593757609 0 0 0
2927 4 30.10361656636957 13.98904700560406 22.844018101025927 0 0 0
2894 4 28.635147465571052 8.902120821748039 24.92074701930101 0 0 0
1336 4 35.24325841916437 17.804241643496077 0.0 0 0 0
60 4 3.6711727519962887 6.358657729820028 4.153457836550169 0 0 0
837 4 19.0900983103807 5.086926183856022 10.383644591375422 0 0 0
2319 4 8.076580054391835 21.619436281388094 35.30439161067643 0 0 0
3119 4 33.774789318365855 12.717315459640057 20.767289182750844 0 0 0
1628 4 35.977492969563635 21.619436281388097 14.53710242792559 0 0 0
903 4 25.69820926397402 6.358657729820028 4.153457836550169 0 0 0
345 4 10.279283705589608 2.543463091928011 4.153457836550169 0 0 0
2589 4 22.02703651197773 15.260778551568066 18.69056026447576 0 0 0
2704 4 24.96397471357476 2.543463091928011 20.76728918275084 0 0 0
1333 4 34.50902386876511 19.075973189460083 4.153457836550171 0 0 0
696 4 16.887394659182927 11.44558391367605 10.383644591375422 0 0 0
434 4 15.41892555838441 13.98904700560406 -8.881784197001252e-16 0 0 0
857 4 19.0900983103807 10.173852367712044 10.383644591375422 0 0 0
2679 4 16.887394659182927 21.619436281388094 35.30439161067643 0 0 0
3446 4 41.11713482235844 10.173852367712044 22.844018101025924 0 0 0
4 4 0.0 0.0 0.0 0 0 0
2615 4 14.684691007985151 7.630389275784035 35.30439161067643 0 0 0
1483 4 37.44596207036214 16.532510097532075 6.230186754825253 0 0 0
2531 4 18.35586375998145 13.98904700560406 26.99747593757609 0 0 0
2550 4 15.418925558384414 21.619436281388094 31.150933774126266 0 0 0
2949 4 30.837851116768825 15.260778551568066 18.69056026447576 0 0 0
3031 4 33.0405547679666 3.815194637892017 24.92074701930101 0 0 0
1803 4 0.7342345503992558 3.815194637892017 20.76728918275084 0 0 0
231 4 4.405407302395546 17.804241643496077 6.230186754825252 0 0 0
1164 4 30.837851116768825 17.804241643496077 0.0 0 0 0
2221 4 10.279283705589606 20.34770473542409 22.844018101025927 0 0 0
350 4 13.21622190718664 0.0 0.0 0 0 0
777 4 17.621629209582185 22.8911678273521 6.23018675482525 0 0 0
1763 4 41.85136937275769 24.162899373316105 12.460373509650504 0 0 0
541 4 16.15316010878367 5.086926183856022 2.0767289182750845 0 0 0
3552 4 41.851369372757695 16.53251009753207 31.150933774126266 0 0 0
987 4 26.43244381437328 20.347704735424088 1.7763568394002505e-15 0 0 0
1604 4 35.24325841916437 15.260778551568066 12.460373509650504 0 0 0
2519 4 13.950456457585895 21.619436281388094 33.227662692401346 0 0 0
22 4 2.202703651197773 13.98904700560406 -6.661338147750939e-16 0 0 0
2377 4 18.35586375998144 6.358657729820028 20.76728918275084 0 0 0
1642 4 39.64866572155992 12.717315459640057 6.230186754825251 0 0 0
2003 4 2.936938201597032 15.260778551568066 26.99747593757609 0 0 0
3366 4 40.38290027195917 1.2717315459640055 26.99747593757609 0 0 0
3104 4 29.36938201597031 22.8911678273521 26.997475937576095 0 0 0
1325 4 37.44596207036214 11.445583913676051 0.0 0 0 0
2042 4 9.54504915519035 13.98904700560406 20.767289182750844 0 0 0
3315 4 37.44596207036214 24.162899373316105 24.92074701930101 0 0 0
1985 4 8.076580054391835 6.358657729820028 22.844018101025924 0 0 0
3507 4 36.711727519962885 12.717315459640057 35.304391610676426 0 0 0
150 4 3.6711727519962887 6.358657729820028 10.38364459137542 0 0 0
1132 4 30.837851116768825 7.630389275784033 -1.7763568394002505e-15 0 0 0
2858 4 26.43244381437328 7.630389275784033 24.920747019301007 0 0 0
1613 4 39.64866572155992 10.173852367712046 6.230186754825251 0 0 0
3082 4 30.103616566369567 19.075973189460083 29.07420485585118 0 0 0
2236 4 10.27928370558961 22.8911678273521 22.844018101025924 0 0 0
3384 4 38.18019662076141 5.086926183856022 26.99747593757609 0 0 0
475 4 9.545049155190348 8.902120821748039 14.53710242792559 0 0 0
2378 4 18.35586375998144 8.902120821748039 20.767289182750844 0 0 0
2529 4 17.62162920958219 12.717315459640057 24.92074701930101 0 0 0
245 4 11.013518255988863 11.44558391367605 8.881784197001252e-16 0 0 0
2265 4 10.279283705589608 0.0 29.07420485585117 0 0 0
30 4 2.202703651197774 24.162899373316105 2.220446049250313e-16 0 0 0
3494 4 38.914431171160665 8.902120821748039 35.30439161067643 0 0 0
3226 4 38.1801966207614 2.5434630919280115 20.767289182750844 0 0 0
2364 4 13.216221907186638 15.260778551568068 24.92074701930101 0 0 0
3467 4 43.3198384735562 16.53251009753207 22.844018101025924 0 0 0
1627 4 35.24325841916437 22.891167827352103 12.460373509650502 0 0 0
2058 4 9.54504915519035 19.07597318946009 20.767289182750844 0 0 0
1080 4 22.02703651197773 17.804241643496077 12.460373509650504 0 0 0
415 4 8.076580054391835 24.162899373316108 10.383644591375422 0 0 0
1527 4 40.38290027195917 24.162899373316105 2.076728918275087 0 0 0
2883 4 24.229740163175503 19.07597318946009 31.150933774126266 0 0 0
2725 4 22.76127106237699 13.98904700560406 26.99747593757609 0 0 0
786 4 21.29280196157848 16.53251009753207 4.15345783655017 0 0 0
956 4 24.963974713574764 15.260778551568068 2.076728918275084 0 0 0
2624 4 17.62162920958218 0.0 31.150933774126266 0 0 0
215 4 7.342345503992577 7.630389275784033 2.076728918275084 0 0 0
1858 4 1.4684691007985151 7.630389275784033 22.844018101025924 0 0 0
1162 4 31.57208566716808 19.075973189460083 2.076728918275085 0 0 0
909 4 28.63514746557105 1.2717315459640046 1.7763568394002505e-15 0 0 0
1787 4 41.11713482235843 17.80424164349608 16.613831346200673 0 0 0
3350 4 34.50902386876511 8.902120821748039 35.304391610676426 0 0 0
2538 4 21.29280196157848 6.358657729820028 22.844018101025927 0 0 0
2770 4 24.229740163175503 24.162899373316108 24.92074701930101 0 0 0
1584 4 38.18019662076141 5.086926183856022 8.306915673100335 0 0 0
3423 4 43.3198384735562 6.358657729820028 22.844018101025924 0 0 0
1259 4 33.0405547679666 8.902120821748039 6.230186754825255 0 0 0
3587 4 41.11713482235843 17.804241643496077 35.30439161067643 0 0 0
2509 4 20.55856741117922 0.0 20.76728918275084 0 0 0
3414 4 40.38290027195917 8.902120821748039 26.99747593757609 0 0 0
2206 4 12.481987356787386 11.44558391367605 22.844018101025924 0 0 0
307 4 6.608110953593319 6.358657729820028 12.460373509650504 0 0 0
1996 4 1.4684691007985151 20.34770473542409 29.07420485585118 0 0 0
904 4 24.963974713574764 2.543463091928012 2.076728918275084 0 0 0
2511 4 22.76127106237699 1.2717315459640055 20.767289182750844 0 0 0
1484 4 36.711727519962885 12.717315459640057 4.153457836550167 0 0 0
1768 4 42.58560392315695 17.804241643496077 8.30691567310034 0 0 0
344 4 11.013518255988863 6.358657729820028 6.230186754825251 0 0 0
2737 4 27.166678364772537 6.358657729820028 20.767289182750844 0 0 0
1591 4 41.851369372757695 3.815194637892016 6.230186754825253 0 0 0
1470 4 33.0405547679666 21.619436281388097 12.460373509650504 0 0 0
1030 4 24.96397471357476 5.086926183856022 8.306915673100335 0 0 0
564 4 13.21622190718664 15.260778551568066 6.230186754825253 0 0 0
1900 4 5.139641852794803 13.989047005604062 20.767289182750844 0 0 0
2083 4 3.6711727519962896 6.358657729820031 35.30439161067643 0 0 0
2874 4 21.29280196157848 21.619436281388094 35.30439161067643 0 0 0
983 4 24.96397471357476 22.8911678273521 2.076728918275087 0 0 0
426 4 12.481987356787382 16.53251009753207 4.153457836550167 0 0 0
312 4 8.076580054391833 6.358657729820028 10.38364459137542 0 0 0
137 4 3.6711727519962887 3.815194637892017 10.38364459137542 0 0 0
2869 4 29.36938201597031 0.0 20.76728918275084 0 0 0
2821 4 20.55856741117922 10.173852367712044 33.227662692401346 0 0 0
1060 4 27.166678364772533 8.902120821748039 8.306915673100338 0 0 0
3146 4 35.97749296956363 24.162899373316108 20.76728918275084 0 0 0
2079 4 5.139641852794807 1.2717315459640055 33.227662692401346 0 0 0
2208 4 11.747752806388124 10.173852367712044 20.767289182750844 0 0 0
2669 4 23.495505612776245 2.5434630919280115 22.844018101025924 0 0 0
1306 4 30.10361656636957 24.162899373316108 10.383644591375422 0 0 0
2641 4 20.55856741117921 2.5434630919280106 26.99747593757609 0 0 0
1324 4 37.44596207036214 8.90212082174804 0.0 0 0 0
2702 4 25.69820926397402 3.815194637892017 22.844018101025927 0 0 0
3092 4 33.774789318365855 10.173852367712044 20.767289182750844 0 0 0
3036 4 23.49550561277625 20.347704735424088 35.30439161067643 0 0 0
3401 4 35.24325841916438 17.804241643496077 31.150933774126266 0 0 0
1793 4 41.11713482235843 22.891167827352103 16.613831346200673 0 0 0
3554 4 41.11713482235843 15.260778551568068 29.07420485585117 0 0 0
2701 4 24.96397471357476 5.086926183856022 20.76728918275084 0 0 0
1568 4 32.30632021756734 15.260778551568066 16.613831346200673 0 0 0
1534 4 34.50902386876512 1.271731545964006 16.613831346200673 0 0 0
2682 4 18.35586375998144 16.532510097532075 33.227662692401346 0 0 0
1359 4 31.57208566716808 1.271731545964006 14.53710242792559 0 0 0
798 4 21.292801961578476 21.619436281388097 4.153457836550168 0 0 0
1779 4 43.3198384735562 6.358657729820028 16.613831346200673 0 0 0
2793 4 19.0900983103807 2.54346309192801 35.30439161067643 0 0 0
1853 4 0.7342345503992576 13.98904700560406 26.99747593757609 0 0 0
498 4 11.013518255988863 8.902120821748039 12.460373509650504 0 0 0
2567 4 21.29280196157848 13.98904700560406 22.844018101025927 0 0 0
529 4 11.747752806388124 12.717315459640057 8.306915673100336 0 0 0
2238 4 12.481987356787382 21.619436281388097 22.844018101025924 0 0 0
2769 4 24.229740163175503 21.619436281388097 24.92074701930101 0 0 0
2081 4 1.4684691007985151 7.630389275784033 35.30439161067643 0 0 0
768 4 20.55856741117922 10.173852367712044 2.076728918275084 0 0 0
3567 4 43.31983847355621 21.619436281388094 29.07420485585118 0 0 0
3553 4 41.851369372757695 19.075973189460083 31.150933774126266 0 0 0
173 4 3.671172751996288 13.98904700560406 10.38364459137542 0 0 0
1401 4 27.90091291517179 17.804241643496077 16.613831346200673 0 0 0
2892 4 26.43244381437328 10.173852367712044 24.92074701930101 0 0 0
2922 4 28.635147465571052 13.98904700560406 24.92074701930101 0 0 0
195 4 8.881784197001252e-16 20.347704735424088 12.460373509650504 0 0 0
2532 4 17.62162920958219 10.173852367712044 24.92074701930101 0 0 0
441 4 13.21622190718664 20.347704735424088 -8.881784197001252e-16 0 0 0
106 4 1.468469100798516 22.8911678273521 4.153457836550167 0 0 0
1664 4 41.11713482235843 15.260778551568066 4.153457836550167 0 0 0
2312 4 14.684691007985151 0.0 22.844018101025924 0 0 0
3411 4 38.91443117116066 13.98904700560406 29.07420485585118 0 0 0
1911 4 4.405407302395545 20.34770473542409 18.69056026447576 0 0 0
2015 4 7.342345503992577 7.630389275784033 20.76728918275084 0 0 0
493 4 8.810814604791094 12.717315459640057 12.460373509650504 0 0 0
1573 4 35.24325841916437 12.717315459640057 12.460373509650504 0 0 0
41 4 1.4684691007985158 5.086926183856022 4.153457836550169 0 0 0
1880 4 2.936938201597032 10.173852367712044 20.76728918275084 0 0 0
2060 4 11.013518255988869 13.98904700560406 18.69056026447576 0 0 0
726 4 16.887394659182927 13.98904700560406 10.383644591375422 0 0 0
1791 4 43.3198384735562 16.532510097532075 16.61383134620067 0 0 0
1480 4 35.24325841916437 15.260778551568068 6.230186754825251 0 0 0
794 4 24.229740163175503 13.989047005604062 0.0 0 0 0
2574 4 24.229740163175503 8.902120821748039 18.69056026447576 0 0 0
3345 4 36.71172751996289 0.0 29.07420485585118 0 0 0
1909 4 3.671172751996286 24.162899373316105 22.844018101025924 0 0 0
3225 4 36.711727519962885 2.543463091928011 22.844018101025927 0 0 0
2291 4 8.076580054391833 16.53251009753207 35.30439161067643 0 0 0
2372 4 16.15316010878367 10.173852367712044 20.76728918275084 0 0 0
2432 4 10.27928370558961 5.086926183856024 35.30439161067643 0 0 0
2053 4 8.076580054391833 19.07597318946009 22.844018101025927 0 0 0
3455 4 38.91443117116066 24.162899373316105 29.07420485585118 0 0 0
569 4 15.41892555838441 11.445583913676051 6.230186754825252 0 0 0
3189 4 32.30632021756734 5.086926183856022 29.07420485585118 0 0 0
2039 4 7.342345503992577 12.717315459640057 20.76728918275084 0 0 0
649 4 13.21622190718664 2.543463091928011 12.460373509650504 0 0 0
414 4 15.418925558384412 8.902120821748039 0.0 0 0 0
2357 4 11.013518255988863 19.075973189460083 31.150933774126266 0 0 0
3242 4 33.0405547679666 16.53251009753207 31.150933774126266 0 0 0
635 4 12.481987356787382 1.271731545964006 16.613831346200676 0 0 0
499 4 11.013518255988863 11.445583913676051 12.460373509650504 0 0 0
3048 4 27.900912915171794 12.717315459640057 29.07420485585118 0 0 0
2138 4 8.810814604791092 7.630389275784033 24.92074701930101 0 0 0
1702 4 41.85136937275769 3.815194637892017 12.460373509650504 0 0 0
2424 4 17.621629209582185 22.8911678273521 18.69056026447576 0 0 0
1129 4 30.837851116768825 10.173852367712046 -1.7763568394002505e-15 0 0 0
2252 4 5.8738764031940605 0.0 35.304391610676426 0 0 0
1973 4 3.6711727519962896 13.98904700560406 29.07420485585118 0 0 0
3343 4 35.97749296956363 3.815194637892017 33.227662692401346 0 0 0
826 4 19.82433286077996 1.2717315459640055 12.460373509650504 0 0 0
862 4 21.29280196157848 6.358657729820028 10.383644591375422 0 0 0
1624 4 42.58560392315695 2.543463091928011 2.076728918275084 0 0 0
2216 4 7.342345503992576 22.8911678273521 26.99747593757609 0 0 0
226 4 3.6711727519962887 24.162899373316108 10.383644591375422 0 0 0
1855 4 1.468469100798517 10.173852367712046 22.844018101025924 0 0 0
1739 4 43.3198384735562 8.902120821748039 10.383644591375422 0 0 0
138 4 2.936938201597031 0.0 8.306915673100336 0 0 0
2211 4 13.9504564575859 11.44558391367605 20.767289182750844 0 0 0
1123 4 28.63514746557105 16.532510097532075 6.230186754825251 0 0 0
444 4 13.21622190718664 17.804241643496077 8.881784197001252e-16 0 0 0
2919 4 27.16667836477254 19.075973189460083 26.99747593757609 0 0 0
1241 4 26.43244381437328 17.804241643496077 12.460373509650504 0 0 0
952 4 23.49550561277625 17.80424164349608 4.153457836550167 0 0 0
718 4 13.950456457585895 19.075973189460083 14.53710242792559 0 0 0
3275 4 34.50902386876511 21.619436281388094 29.07420485585118 0 0 0
958 4 25.69820926397402 16.532510097532075 4.153457836550167 0 0 0
1667 4 43.31983847355621 16.53251009753207 4.153457836550167 0 0 0
2230 4 13.9504564575859 13.98904700560406 20.767289182750844 0 0 0
3364 4 38.18019662076141 0.0 26.99747593757609 0 0 0
2961 4 30.837851116768825 20.347704735424088 18.69056026447576 0 0 0
266 4 9.54504915519035 24.162899373316108 2.0767289182750828 0 0 0
1754 4 41.11713482235843 15.260778551568068 10.383644591375422 0 0 0
3066 4 35.97749296956363 1.2717315459640055 20.76728918275084 0 0 0
692 4 15.418925558384412 13.98904700560406 12.460373509650504 0 0 0
789 4 22.02703651197773 15.260778551568068 -1.7763568394002505e-15 0 0 0
3352 4 33.77478931836586 7.630389275784034 33.227662692401346 0 0 0
2504 4 19.82433286077996 6.358657729820028 24.92074701930101 0 0 0
2903 4 31.57208566716809 6.358657729820028 20.76728918275084 0 0 0
1462 4 40.38290027195917 3.815194637892017 2.076728918275087 0 0 0
683 4 12.481987356787382 16.53251009753207 16.613831346200673 0 0 0
2820 4 21.29280196157848 13.989047005604062 35.30439161067643 0 0 0
2351 4 7.342345503992577 22.8911678273521 33.227662692401346 0 0 0
322 4 2.9369382015970302 17.80424164349608 14.537102427925593 0 0 0
1214 4 27.166678364772537 11.445583913676051 14.53710242792559 0 0 0
1686 4 38.91443117116066 3.815194637892017 16.613831346200673 0 0 0
1368 4 31.57208566716808 6.358657729820028 14.53710242792559 0 0 0
2882 4 24.229740163175503 16.532510097532075 31.150933774126266 0 0 0
3020 4 27.900912915171794 7.630389275784034 29.07420485585118 0 0 0
410 4 13.950456457585895 8.902120821748039 2.0767289182750828 0 0 0
996 4 21.292801961578476 3.815194637892017 16.613831346200673 0 0 0
392 4 5.873876403194061 20.347704735424088 10.38364459137542 0 0 0
2588 4 20.55856741117922 15.260778551568066 20.76728918275084 0 0 0
1316 4 33.77478931836586 15.26077855156807 2.076728918275084 0 0 0
1595 4 32.30632021756734 22.8911678273521 16.61383134620067 0 0 0
2331 4 12.48198735678738 13.989047005604062 29.07420485585118 0 0 0
2856 4 25.69820926397402 11.44558391367605 29.07420485585118 0 0 0
808 4 22.02703651197773 22.8911678273521 1.7763568394002505e-15 0 0 0
3156 4 30.103616566369567 3.815194637892017 35.30439161067643 0 0 0
1180 4 24.963974713574764 2.543463091928011 14.53710242792559 0 0 0
3047 4 28.63514746557105 16.53251009753207 31.150933774126266 0 0 0
869 4 23.49550561277625 2.5434630919280106 4.153457836550169 0 0 0
336 4 8.076580054391835 11.445583913676051 10.38364459137542 0 0 0
2101 4 2.9369382015970302 10.173852367712044 33.227662692401346 0 0 0
2502 4 19.090098310380704 5.086926183856022 22.844018101025924 0 0 0
2801 4 19.0900983103807 7.630389275784033 35.30439161067643 0 0 0
2606 4 24.229740163175503 19.075973189460083 18.69056026447576 0 0 0
651 4 15.418925558384412 1.2717315459640055 12.460373509650504 0 0 0
2548 4 13.21622190718664 22.8911678273521 31.150933774126266 0 0 0
2023 4 1.468469100798517 22.8911678273521 29.07420485585118 0 0 0
3202 4 29.36938201597031 17.80424164349608 33.22766269240135 0 0 0
2012 4 7.342345503992578 10.173852367712044 20.76728918275084 0 0 0
1794 4 41.11713482235843 20.347704735424088 16.613831346200673 0 0 0
758 4 18.35586375998144 16.53251009753207 8.306915673100338 0 0 0
265 4 9.545049155190352 21.619436281388094 2.076728918275084 0 0 0
363 4 6.608110953593319 19.075973189460083 12.460373509650504 0 0 0
729 4 17.621629209582185 12.717315459640057 6.230186754825253 0 0 0
1407 4 31.57208566716808 13.98904700560406 14.53710242792559 0 0 0
1807 4 0.7342345503992576 6.358657729820028 20.76728918275084 0 0 0
917 4 19.82433286077996 19.075973189460083 12.460373509650504 0 0 0
1191 4 25.69820926397402 11.44558391367605 16.613831346200676 0 0 0
110 4 2.936938201597031 20.347704735424088 2.076728918275084 0 0 0
3176 4 27.900912915171794 15.260778551568068 35.30439161067643 0 0 0
1865 4 5.139641852794803 6.358657729820028 20.76728918275084 0 0 0
1641 4 40.38290027195918 16.532510097532075 8.306915673100336 0 0 0
693 4 14.684691007985156 10.173852367712044 10.38364459137542 0 0 0
1513 4 41.85136937275769 11.44558391367605 3.552713678800501e-15 0 0 0
1000 4 19.0900983103807 10.173852367712044 16.61383134620067 0 0 0
753 4 16.15316010878367 20.347704735424088 8.306915673100335 0 0 0
1095 4 28.63514746557105 11.44558391367605 6.230186754825253 0 0 0
425 4 11.747752806388124 17.804241643496077 2.0767289182750845 0 0 0
2035 4 5.873876403194062 15.260778551568068 22.844018101025924 0 0 0
2010 4 6.60811095359332 13.989047005604062 24.92074701930101 0 0 0
1500 4 35.24325841916437 20.347704735424088 6.230186754825253 0 0 0
823 4 18.35586375998145 3.815194637892017 14.53710242792559 0 0 0
1872 4 1.7763568394002505e-15 15.260778551568066 24.92074701930101 0 0 0
2673 4 24.96397471357476 0.0 20.76728918275084 0 0 0
1728 4 38.91443117116066 19.07597318946009 16.613831346200673 0 0 0
2109 4 5.8738764031940605 5.086926183856021 29.07420485585118 0 0 0
1571 4 34.50902386876511 16.53251009753207 16.613831346200673 0 0 0
2808 4 22.76127106237699 6.358657729820028 33.227662692401346 0 0 0
1077 4 22.02703651197773 20.347704735424088 12.460373509650502 0 0 0
1078 4 22.761271062376988 19.075973189460083 14.53710242792559 0 0 0
558 4 11.013518255988863 21.619436281388094 12.460373509650504 0 0 0
2839 4 28.635147465571052 1.2717315459640055 24.92074701930101 0 0 0
456 4 5.873876403194062 5.086926183856023 16.613831346200673 0 0 0
3461 4 41.11713482235844 17.804241643496077 22.844018101025927 0 0 0
921 4 21.29280196157848 16.53251009753207 10.383644591375422 0 0 0
1871 4 0.7342345503992558 19.075973189460083 26.99747593757609 0 0 0
2296 4 8.81081460479109 10.173852367712046 31.15093377412626 0 0 0
1950 4 3.671172751996288 6.358657729820028 29.07420485585118 0 0 0
2595 4 19.82433286077996 24.162899373316108 24.92074701930101 0 0 0
1350 4 37.44596207036214 24.162899373316105 3.552713678800501e-15 0 0 0
3246 4 34.50902386876511 13.98904700560406 29.07420485585118 0 0 0
1906 4 1.4684691007985151 22.8911678273521 22.844018101025924 0 0 0
2627 4 14.684691007985151 12.71731545964006 35.30439161067643 0 0 0
2040 4 8.810814604791094 12.717315459640057 18.69056026447576 0 0 0
2561 4 19.090098310380704 15.260778551568066 22.844018101025924 0 0 0
2976 4 23.495505612776245 5.086926183856022 35.30439161067643 0 0 0
3135 4 33.774789318365855 17.804241643496077 20.767289182750844 0 0 0
2499 4 18.35586375998145 6.358657729820028 26.99747593757609 0 0 0
248 4 5.873876403194062 22.8911678273521 4.153457836550168 0 0 0
147 4 2.2027036511977727 11.44558391367605 12.460373509650504 0 0 0
836 4 17.621629209582185 5.086926183856022 12.460373509650504 0 0 0
3183 4 31.57208566716808 8.902120821748039 33.227662692401346 0 0 0
2 5 0.7342345503992578 1.2717315459640055 2.076728918275084 0 0 0
49 5 4.405407302395547 0.0 0.0 0 0 0
50 5 5.139641852794804 1.2717315459640055 2.0767289182750845 0 0 0
68 5 6.60811095359332 3.815194637892017 0.0 0 0 0
188 5 9.545049155190352 1.2717315459640055 2.076728918275084 0 0 0
349 5 11.747752806388124 0.0 2.0767289182750845 0 0 0
745 5 24.229740163175503 1.2717315459640064 1.7763568394002505e-15 0 0 0
873 5 24.963974713574764 0.0 2.076728918275085 0 0 0
940 5 28.635147465571052 3.815194637892017 1.7763568394002505e-15 0 0 0
1069 5 29.36938201597031 0.0 2.076728918275082 0 0 0
1071 5 31.57208566716808 1.2717315459640046 2.076728918275085 0 0 0
1104 5 30.837851116768825 2.54346309192801 -1.7763568394002505e-15 0 0 0
1264 5 33.77478931836586 2.54346309192801 2.076728918275084 0 0 0
1430 5 39.64866572155992 0.0 0.0 0 0 0
9 5 0.0 5.086926183856022 0.0 0 0 0
412 5 13.21622190718664 7.630389275784034 0.0 0 0 0
413 5 15.418925558384412 6.358657729820028 -8.881784197001252e-16 0 0 0
577 5 18.35586375998144 6.358657729820028 2.076728918275084 0 0 0
581 5 19.82433286077996 6.358657729820028 0.0 0 0 0
741 5 22.02703651197773 5.086926183856022 0.0 0 0 0
935 5 24.963974713574764 7.630389275784033 2.076728918275085 0 0 0
1100 5 29.36938201597031 5.086926183856022 2.076728918275082 0 0 0
1261 5 33.774789318365855 5.086926183856022 2.076728918275084 0 0 0
1295 5 33.77478931836586 7.630389275784033 2.076728918275084 0 0 0
1299 5 35.24325841916438 5.086926183856021 0.0 0 0 0
1492 5 39.64866572155992 7.630389275784034 0.0 0 0 0
8 5 0.7342345503992576 8.902120821748039 2.076728918275084 0 0 0
15 5 0.0 10.173852367712044 0.0 0 0 0
16 5 2.2027036511977736 8.902120821748039 2.220446049250313e-16 0 0 0
604 5 19.82433286077996 8.902120821748039 0.0 0 0 0
605 5 19.82433286077996 11.44558391367605 0.0 0 0 0
770 5 22.76127106237699 8.902120821748039 2.076728918275085 0 0 0
961 5 27.166678364772537 11.44558391367605 2.076728918275085 0 0 0
1130 5 31.57208566716808 8.902120821748039 2.076728918275085 0 0 0
1131 5 31.57208566716808 11.445583913676051 2.076728918275084 0 0 0
1491 5 40.38290027195917 11.445583913676051 2.076728918275084 0 0 0
99 5 4.405407302395546 15.260778551568066 4.440892098500626e-16 0 0 0
100 5 5.139641852794804 13.98904700560406 2.076728918275084 0 0 0
101 5 5.139641852794804 16.53251009753207 2.076728918275085 0 0 0
102 5 4.405407302395546 12.717315459640057 -4.440892098500626e-16 0 0 0
104 5 6.608110953593319 13.98904700560406 8.881784197001252e-16 0 0 0
240 5 8.810814604791092 12.717315459640057 8.881784197001252e-16 0 0 0
405 5 11.747752806388124 12.717315459640057 2.076728918275085 0 0 0
432 5 13.21622190718664 12.717315459640057 0.0 0 0 0
445 5 15.418925558384412 16.53251009753207 0.0 0 0 0
596 5 16.15316010878367 15.260778551568066 2.0767289182750845 0 0 0
602 5 18.35586375998144 13.98904700560406 2.076728918275084 0 0 0
617 5 18.35586375998144 16.53251009753207 2.0767289182750845 0 0 0
765 5 20.55856741117921 12.717315459640057 2.076728918275084 0 0 0
788 5 20.55856741117922 15.260778551568066 2.076728918275084 0 0 0
790 5 22.76127106237699 13.98904700560406 2.076728918275085 0 0 0
805 5 24.229740163175503 16.532510097532075 0.0 0 0 0
959 5 24.963974713574764 12.717315459640057 2.076728918275085 0 0 0
981 5 28.635147465571052 16.532510097532075 0.0 0 0 0
1149 5 30.837851116768825 15.26077855156807 -1.7763568394002505e-15 0 0 0
1154 5 33.0405547679666 13.989047005604064 0.0 0 0 0
1322 5 35.97749296956363 13.989047005604064 2.076728918275085 0 0 0
1512 5 39.64866572155992 12.717315459640057 0.0 0 0 0
1510 5 40.38290027195917 13.98904700560406 2.076728918275087 0 0 0
1511 5 40.38290027195917 16.53251009753207 2.076728918275084 0 0 0
114 5 4.405407302395547 17.804241643496077 4.440892098500626e-16 0 0 0
618 5 18.35586375998144 19.07597318946009 2.0767289182750828 0 0 0
627 5 17.621629209582185 20.347704735424088 -1.7763568394002505e-15 0 0 0
976 5 26.43244381437328 17.80424164349608 0.0 0 0 0
1160 5 29.36938201597031 20.347704735424088 2.076728918275084 0 0 0
1524 5 39.64866572155992 17.804241643496077 0.0 0 0 0
1675 5 42.58560392315695 20.34770473542409 2.07672891827508 0 0 0
120 5 6.608110953593319 24.162899373316108 -8.881784197001252e-16 0 0 0
263 5 7.342345503992577 22.8911678273521 2.0767289182750845 0 0 0
449 5 15.418925558384412 21.619436281388097 -1.7763568394002505e-15 0 0 0
803 5 22.76127106237699 21.619436281388097 2.076728918275085 0 0 0
985 5 27.166678364772537 21.619436281388094 2.076728918275085 0 0 0
1163 5 31.57208566716808 21.619436281388094 2.076728918275084 0 0 0
1168 5 30.837851116768825 22.8911678273521 -1.7763568394002505e-15 0 0 0
1346 5 35.97749296956363 24.162899373316108 2.076728918275084 0 0 0
1530 5 41.85136937275769 24.162899373316108 0.0 0 0 0
36 5 2.2027036511977727 1.2717315459640055 6.230186754825253 0 0 0
44 5 1.4684691007985156 2.543463091928011 4.153457836550168 0 0 0
46 5 3.6711727519962887 1.2717315459640055 4.153457836550168 0 0 0
156 5 4.405407302395547 2.543463091928011 6.230186754825253 0 0 0
314 5 8.810814604791092 2.543463091928011 6.230186754825253 0 0 0
348 5 12.48198735678738 3.815194637892017 4.153457836550167 0 0 0
509 5 14.684691007985156 2.5434630919280115 4.153457836550168 0 0 0
510 5 15.418925558384412 1.2717315459640055 6.230186754825252 0 0 0
514 5 16.887394659182927 1.271731545964006 4.153457836550167 0 0 0
674 5 17.621629209582185 2.5434630919280115 6.230186754825252 0 0 0
678 5 19.0900983103807 0.0 4.153457836550167 0 0 0
705 5 19.090098310380704 2.543463091928011 4.153457836550167 0 0 0
707 5 21.29280196157848 1.271731545964005 4.153457836550169 0 0 0
871 5 24.229740163175503 3.815194637892017 6.230186754825253 0 0 0
874 5 25.69820926397402 1.2717315459640055 4.153457836550169 0 0 0
902 5 25.69820926397402 3.815194637892017 4.153457836550169 0 0 0
1038 5 27.900912915171794 0.0 4.153457836550167 0 0 0
1230 5 33.0405547679666 1.2717315459640064 6.230186754825255 0 0 0
1231 5 33.0405547679666 3.815194637892017 6.230186754825255 0 0 0
1232 5 32.30632021756734 0.0 4.153457836550167 0 0 0
1398 5 36.711727519962885 0.0 4.153457836550169 0 0 0
1423 5 37.44596207036214 3.815194637892017 6.230186754825255 0 0 0
1425 5 36.711727519962885 2.54346309192801 4.153457836550167 0 0 0
1590 5 41.851369372757695 1.2717315459640055 6.230186754825255 0 0 0
1592 5 41.11713482235844 0.0 4.153457836550167 0 0 0
37 5 0.0 7.630389275784033 6.230186754825253 0 0 0
58 5 1.4684691007985156 7.630389275784033 4.153457836550168 0 0 0
179 5 5.873876403194062 7.630389275784034 4.153457836550168 0 0 0
338 5 8.810814604791092 7.630389275784034 6.230186754825253 0 0 0
342 5 10.279283705589608 5.086926183856022 4.153457836550168 0 0 0
376 5 10.279283705589608 7.630389275784033 4.153457836550169 0 0 0
505 5 13.21622190718664 5.086926183856022 6.230186754825252 0 0 0
537 5 14.684691007985156 7.630389275784033 4.153457836550168 0 0 0
538 5 15.418925558384412 6.358657729820028 6.230186754825252 0 0 0
701 5 17.621629209582185 5.086926183856022 6.230186754825252 0 0 0
1058 5 26.43244381437328 7.630389275784033 6.230186754825251 0 0 0
1061 5 26.43244381437328 5.086926183856023 6.230186754825251 0 0 0
1062 5 27.900912915171794 5.086926183856022 4.153457836550167 0 0 0
1256 5 30.837851116768825 7.630389275784033 6.230186754825253 0 0 0
1260 5 32.30632021756735 5.086926183856022 4.153457836550167 0 0 0
1424 5 37.44596207036214 6.358657729820028 6.230186754825255 0 0 0
1458 5 38.91443117116066 6.358657729820028 4.153457836550171 0 0 0
56 5 2.202703651197773 8.902120821748039 6.230186754825253 0 0 0
175 5 4.405407302395547 10.173852367712044 6.230186754825252 0 0 0
406 5 12.48198735678738 11.445583913676051 4.153457836550167 0 0 0
574 5 16.887394659182927 11.44558391367605 4.153457836550169 0 0 0
735 5 19.82433286077996 11.44558391367605 6.230186754825255 0 0 0
931 5 23.49550561277625 10.173852367712044 4.153457836550169 0 0 0
929 5 24.229740163175503 11.44558391367605 6.230186754825253 0 0 0
1092 5 26.43244381437328 10.173852367712044 6.230186754825251 0 0 0
1126 5 30.103616566369567 11.44558391367605 4.153457836550169 0 0 0
1253 5 30.837851116768825 10.173852367712044 6.230186754825253 0 0 0
1291 5 32.30632021756734 10.173852367712044 4.153457836550169 0 0 0
1293 5 34.50902386876511 8.902120821748039 4.153457836550171 0 0 0
1454 5 37.44596207036214 8.902120821748039 6.230186754825255 0 0 0
1646 5 41.11713482235844 10.173852367712046 4.153457836550167 0 0 0
1648 5 43.31983847355621 8.90212082174804 4.153457836550167 0 0 0
72 5 0.0 15.260778551568066 6.230186754825253 0 0 0
204 5 4.405407302395547 15.260778551568066 6.230186754825252 0 0 0
207 5 4.405407302395547 12.717315459640057 6.230186754825253 0 0 0
233 5 6.60811095359332 16.53251009753207 6.230186754825251 0 0 0
402 5 11.013518255988863 13.98904700560406 6.230186754825251 0 0 0
403 5 11.013518255988863 16.53251009753207 6.230186754825253 0 0 0
595 5 14.684691007985156 15.260778551568066 4.153457836550168 0 0 0
598 5 16.887394659182924 16.53251009753207 4.153457836550168 0 0 0
763 5 19.82433286077996 16.53251009753207 6.230186754825254 0 0 0
767 5 21.292801961578476 13.98904700560406 4.153457836550169 0 0 0
927 5 22.02703651197773 12.717315459640057 6.230186754825253 0 0 0
1121 5 27.900912915171794 15.260778551568068 4.1534578365501655 0 0 0
1287 5 30.837851116768825 12.717315459640057 6.230186754825253 0 0 0
1288 5 32.30632021756734 12.717315459640057 4.153457836550167 0 0 0
1315 5 32.30632021756734 15.260778551568068 4.153457836550167 0 0 0
1481 5 36.711727519962885 15.26077855156807 4.153457836550167 0 0 0
1506 5 38.91443117116066 16.53251009753207 4.153457836550171 0 0 0
1639 5 39.64866572155992 15.26077855156807 6.230186754825251 0 0 0
1645 5 41.851369372757695 13.989047005604064 6.230186754825253 0 0 0
1666 5 43.31983847355621 13.98904700560406 4.153457836550171 0 0 0
232 5 5.873876403194062 17.804241643496077 4.153457836550168 0 0 0
424 5 10.27928370558961 17.804241643496077 4.153457836550169 0 0 0
427 5 12.48198735678738 19.075973189460083 4.153457836550168 0 0 0
757 5 17.621629209582185 17.804241643496077 6.230186754825252 0 0 0
1117 5 26.43244381437328 17.80424164349608 6.230186754825249 0 0 0
1477 5 35.24325841916437 17.80424164349608 6.230186754825251 0 0 0
1674 5 41.11713482235844 20.347704735424088 4.153457836550167 0 0 0
93 5 2.2027036511977727 21.619436281388094 6.230186754825253 0 0 0
254 5 8.076580054391833 21.619436281388094 4.153457836550168 0 0 0
435 5 11.013518255988869 24.162899373316105 6.230186754825252 0 0 0
438 5 12.481987356787382 21.619436281388094 4.153457836550167 0 0 0
607 5 13.21622190718664 22.8911678273521 6.230186754825253 0 0 0
614 5 16.887394659182927 21.619436281388097 4.153457836550167 0 0 0
622 5 16.887394659182927 24.162899373316108 4.153457836550166 0 0 0
796 5 19.0900983103807 22.891167827352103 4.153457836550167 0 0 0
799 5 21.29280196157848 24.162899373316108 4.153457836550169 0 0 0
969 5 24.229740163175503 21.619436281388097 6.230186754825252 0 0 0
982 5 25.69820926397402 24.162899373316105 4.153457836550169 0 0 0
1327 5 30.837851116768825 22.8911678273521 6.230186754825255 0 0 0
1342 5 34.50902386876511 24.162899373316105 4.153457836550171 0 0 0
1515 5 37.44596207036214 24.162899373316105 6.230186754825255 0 0 0
1518 5 38.91443117116066 21.619436281388094 4.153457836550169 0 0 0
1672 5 41.851369372757695 21.619436281388094 6.230186754825253 0 0 0
134 5 1.4684691007985151 2.543463091928011 10.383644591375422 0 0 0
293 5 5.873876403194061 0.0 10.383644591375422 0 0 0
311 5 8.076580054391835 3.815194637892017 10.38364459137542 0 0 0
484 5 11.747752806388124 0.0 8.306915673100336 0 0 0
486 5 13.950456457585895 1.2717315459640055 8.306915673100336 0 0 0
506 5 13.950456457585895 3.815194637892017 8.306915673100336 0 0 0
654 5 16.15316010878367 0.0 8.306915673100336 0 0 0
655 5 16.887394659182927 1.2717315459640055 10.383644591375422 0 0 0
825 5 19.0900983103807 0.0 10.383644591375422 0 0 0
843 5 21.29280196157848 3.815194637892017 10.383644591375422 0 0 0
844 5 20.55856741117921 0.0 8.306915673100338 0 0 0
846 5 22.76127106237699 1.271731545964006 8.306915673100336 0 0 0
1010 5 23.495505612776245 2.5434630919280115 10.383644591375418 0 0 0
1013 5 23.495505612776245 0.0 10.383644591375418 0 0 0
1014 5 24.96397471357476 0.0 8.306915673100335 0 0 0
1031 5 25.698209263974015 3.815194637892017 10.383644591375422 0 0 0
1035 5 27.166678364772537 1.271731545964005 8.306915673100336 0 0 0
1036 5 27.166678364772537 3.815194637892017 8.306915673100336 0 0 0
1200 5 27.900912915171794 2.543463091928011 10.38364459137542 0 0 0
1203 5 30.103616566369567 3.815194637892017 10.383644591375422 0 0 0
1204 5 29.36938201597031 0.0 8.306915673100336 0 0 0
1373 5 32.30632021756734 0.0 10.38364459137542 0 0 0
1396 5 35.97749296956363 3.815194637892017 8.306915673100338 0 0 0
1561 5 38.1801966207614 2.543463091928011 8.306915673100336 0 0 0
1564 5 38.1801966207614 0.0 8.306915673100335 0 0 0
1703 5 41.11713482235843 0.0 10.383644591375422 0 0 0
155 5 5.139641852794804 6.358657729820028 8.306915673100336 0 0 0
309 5 5.873876403194061 5.086926183856022 10.383644591375422 0 0 0
310 5 7.342345503992577 5.086926183856022 8.306915673100338 0 0 0
699 5 18.35586375998144 6.358657729820028 8.306915673100338 0 0 0
864 5 20.55856741117921 5.086926183856022 8.306915673100338 0 0 0
867 5 22.76127106237699 6.358657729820028 8.306915673100338 0 0 0
1026 5 23.495505612776245 7.630389275784033 10.383644591375418 0 0 0
1197 5 27.900912915171794 5.086926183856022 10.383644591375422 0 0 0
1419 5 35.97749296956363 6.358657729820028 8.306915673100338 0 0 0
1557 5 36.711727519962885 5.086926183856022 10.38364459137542 0 0 0
1582 5 38.914431171160665 6.358657729820028 10.383644591375422 0 0 0
1587 5 40.38290027195918 6.358657729820028 8.306915673100338 0 0 0
1722 5 43.3198384735562 6.358657729820028 10.383644591375422 0 0 0
177 5 5.139641852794805 11.445583913676051 8.306915673100336 0 0 0
333 5 5.873876403194062 10.173852367712044 10.383644591375422 0 0 0
497 5 10.27928370558961 10.173852367712044 10.38364459137542 0 0 0
532 5 11.747752806388124 10.173852367712044 8.306915673100336 0 0 0
503 5 12.48198735678738 8.902120821748039 10.38364459137542 0 0 0
530 5 12.48198735678738 11.44558391367605 10.38364459137542 0 0 0
694 5 16.15316010878367 10.173852367712044 8.306915673100336 0 0 0
700 5 18.35586375998144 8.902120821748039 8.306915673100338 0 0 0
730 5 18.35586375998144 11.445583913676051 8.306915673100338 0 0 0
1053 5 23.495505612776245 10.173852367712044 10.383644591375418 0 0 0
1056 5 25.698209263974015 11.44558391367605 10.383644591375422 0 0 0
1090 5 27.166678364772537 11.44558391367605 8.306915673100336 0 0 0
1250 5 30.103616566369567 11.44558391367605 10.383644591375422 0 0 0
1254 5 31.57208566716808 8.902120821748039 8.306915673100338 0 0 0
1416 5 34.50902386876511 11.44558391367605 10.383644591375422 0 0 0
1583 5 38.914431171160665 8.902120821748039 10.383644591375422 0 0 0
1610 5 38.914431171160665 11.44558391367605 10.383644591375422 0 0 0
1738 5 42.58560392315695 10.173852367712046 8.306915673100338 0 0 0
563 5 11.747752806388124 15.260778551568068 8.306915673100336 0 0 0
566 5 13.950456457585895 16.53251009753207 8.306915673100338 0 0 0
727 5 16.887394659182927 16.53251009753207 10.383644591375422 0 0 0
728 5 16.15316010878367 12.717315459640057 8.306915673100335 0 0 0
926 5 22.76127106237699 16.53251009753207 8.306915673100338 0 0 0
1085 5 24.96397471357476 15.260778551568066 8.306915673100335 0 0 0
1088 5 24.963974713574764 12.717315459640057 8.306915673100335 0 0 0
1249 5 29.36938201597031 12.717315459640057 8.306915673100336 0 0 0
1285 5 31.57208566716808 13.98904700560406 8.306915673100338 0 0 0
1410 5 32.30632021756734 12.717315459640057 10.38364459137542 0 0 0
1446 5 34.50902386876511 13.98904700560406 10.383644591375422 0 0 0
1451 5 35.97749296956363 13.989047005604062 8.306915673100336 0 0 0
1638 5 38.1801966207614 15.260778551568068 8.306915673100335 0 0 0
1640 5 40.38290027195918 13.989047005604062 8.306915673100336 0 0 0
1734 5 41.11713482235843 12.717315459640057 10.383644591375422 0 0 0
1756 5 43.3198384735562 13.989047005604062 10.38364459137542 0 0 0
199 5 1.468469100798516 17.804241643496077 10.38364459137542 0 0 0
229 5 5.139641852794805 19.075973189460083 8.306915673100335 0 0 0
559 5 10.27928370558961 17.804241643496077 10.38364459137542 0 0 0
754 5 16.887394659182927 19.075973189460083 10.383644591375422 0 0 0
1113 5 24.96397471357476 20.347704735424088 8.306915673100335 0 0 0
1282 5 30.103616566369567 19.07597318946009 10.383644591375422 0 0 0
1473 5 33.774789318365855 20.34770473542409 8.306915673100335 0 0 0
1476 5 33.774789318365855 17.804241643496077 8.306915673100335 0 0 0
1479 5 35.97749296956363 19.07597318946009 8.306915673100336 0 0 0
1637 5 38.914431171160665 19.07597318946009 10.38364459137542 0 0 0
1766 5 43.3198384735562 19.075973189460083 10.383644591375422 0 0 0
223 5 1.468469100798516 22.891167827352103 10.383644591375422 0 0 0
246 5 5.139641852794805 24.162899373316108 8.306915673100338 0 0 0
586 5 12.481987356787378 24.162899373316105 10.38364459137542 0 0 0
779 5 18.35586375998144 24.162899373316108 8.306915673100336 0 0 0
945 5 21.29280196157848 21.619436281388094 10.383644591375422 0 0 0
950 5 22.76127106237699 21.619436281388097 8.306915673100336 0 0 0
966 5 22.76127106237699 24.162899373316108 8.306915673100335 0 0 0
1109 5 23.495505612776245 22.8911678273521 10.383644591375418 0 0 0
1138 5 27.166678364772533 21.619436281388097 8.306915673100335 0 0 0
1475 5 34.50902386876511 21.619436281388097 10.383644591375422 0 0 0
1496 5 33.774789318365855 22.8911678273521 8.306915673100338 0 0 0
1499 5 35.97749296956363 24.162899373316105 8.306915673100338 0 0 0
1655 5 38.91443117116066 24.162899373316105 10.383644591375422 0 0 0
1659 5 40.38290027195918 21.619436281388094 8.306915673100336 0 0 0
1770 5 42.58560392315695 22.8911678273521 8.306915673100338 0 0 0
121 5 0.0 2.5434630919280106 12.460373509650504 0 0 0
124 5 0.0 0.0 12.460373509650504 0 0 0
126 5 2.2027036511977727 1.271731545964005 12.460373509650504 0 0 0
277 5 2.9369382015970302 0.0 14.53710242792559 0 0 0
278 5 4.405407302395546 0.0 12.460373509650504 0 0 0
279 5 5.139641852794803 1.271731545964005 14.53710242792559 0 0 0
292 5 6.608110953593319 3.815194637892017 12.460373509650504 0 0 0
478 5 11.013518255988863 3.815194637892017 12.460373509650504 0 0 0
638 5 13.21622190718664 0.0 12.460373509650504 0 0 0
813 5 16.15316010878367 0.0 14.53710242792559 0 0 0
820 5 16.15316010878367 2.543463091928011 14.53710242792559 0 0 0
824 5 17.621629209582185 0.0 12.460373509650504 0 0 0
1009 5 22.02703651197773 2.543463091928011 12.460373509650504 0 0 0
1011 5 24.229740163175503 1.2717315459640055 12.460373509650504 0 0 0
1182 5 27.166678364772537 1.2717315459640055 14.53710242792559 0 0 0
1183 5 27.166678364772537 3.815194637892017 14.53710242792559 0 0 0
1369 5 30.837851116768825 2.543463091928011 12.460373509650504 0 0 0
1372 5 33.0405547679666 3.815194637892017 12.460373509650504 0 0 0
1533 5 33.774789318365855 0.0 14.537102427925587 0 0 0
1541 5 35.24325841916437 2.5434630919280106 12.460373509650504 0 0 0
1543 5 35.977492969563635 3.815194637892017 14.53710242792559 0 0 0
1684 5 38.1801966207614 2.5434630919280106 14.537102427925593 0 0 0
1687 5 38.1801966207614 0.0 14.537102427925593 0 0 0
1689 5 40.38290027195917 1.2717315459640055 14.53710242792559 0 0 0
1701 5 41.85136937275769 1.2717315459640064 12.460373509650504 0 0 0
133 5 2.2027036511977736 6.358657729820028 12.460373509650504 0 0 0
286 5 4.405407302395546 5.086926183856022 12.460373509650504 0 0 0
288 5 5.139641852794804 6.358657729820028 14.53710242792559 0 0 0
473 5 8.810814604791094 7.630389275784033 12.460373509650504 0 0 0
479 5 11.013518255988863 6.358657729820028 12.460373509650504 0 0 0
642 5 11.747752806388124 7.630389275784033 14.53710242792559 0 0 0
646 5 13.21622190718664 5.086926183856022 12.460373509650504 0 0 0
665 5 13.21622190718664 7.630389275784033 12.460373509650504 0 0 0
833 5 17.621629209582185 7.630389275784034 12.460373509650504 0 0 0
1027 5 24.229740163175503 6.358657729820028 12.460373509650504 0 0 0
1194 5 27.166678364772537 6.358657729820028 14.53710242792559 0 0 0
1362 5 29.369382015970302 7.630389275784033 14.53710242792559 0 0 0
1537 5 33.774789318365855 5.086926183856022 14.53710242792559 0 0 0
1553 5 35.24325841916437 7.630389275784033 12.460373509650504 0 0 0
1554 5 35.977492969563635 6.358657729820028 14.53710242792559 0 0 0
1556 5 35.24325841916437 5.086926183856023 12.460373509650504 0 0 0
1559 5 37.44596207036215 6.358657729820028 12.460373509650504 0 0 0
1695 5 38.1801966207614 5.086926183856023 14.537102427925593 0 0 0
1698 5 40.38290027195917 6.358657729820028 14.53710242792559 0 0 0
129 5 0.7342345503992576 8.902120821748039 14.53710242792559 0 0 0
142 5 0.7342345503992584 11.44558391367605 14.53710242792559 0 0 0
302 5 4.405407302395546 10.173852367712044 12.460373509650504 0 0 0
303 5 5.139641852794804 8.902120821748039 14.537102427925587 0 0 0
304 5 5.139641852794803 11.44558391367605 14.53710242792559 0 0 0
829 5 16.15316010878367 10.173852367712044 14.53710242792559 0 0 0
854 5 18.35586375998145 11.44558391367605 14.53710242792559 0 0 0
1022 5 22.02703651197773 10.173852367712044 12.460373509650504 0 0 0
1024 5 22.761271062376988 11.44558391367605 14.53710242792559 0 0 0
1218 5 28.63514746557105 8.902120821748039 12.460373509650504 0 0 0
1388 5 33.0405547679666 8.902120821748039 12.460373509650504 0 0 0
1555 5 35.977492969563635 8.902120821748039 14.53710242792559 0 0 0
1574 5 35.977492969563635 11.44558391367605 14.53710242792559 0 0 0
1712 5 39.64866572155992 10.173852367712044 12.460373509650507 0 0 0
143 5 0.7342345503992576 13.98904700560406 14.53710242792559 0 0 0
166 5 0.0 15.260778551568066 12.460373509650504 0 0 0
328 5 5.139641852794803 16.53251009753207 14.537102427925587 0 0 0
329 5 4.405407302395545 12.717315459640057 12.460373509650504 0 0 0
495 5 9.545049155190348 13.98904700560406 14.53710242792559 0 0 0
522 5 9.54504915519035 16.53251009753207 14.53710242792559 0 0 0
689 5 13.21622190718664 12.717315459640057 12.460373509650504 0 0 0
849 5 16.15316010878367 15.260778551568066 14.53710242792559 0 0 0
884 5 17.621629209582185 15.260778551568068 12.460373509650504 0 0 0
886 5 19.82433286077996 13.98904700560406 12.460373509650504 0 0 0
887 5 19.82433286077996 16.53251009753207 12.460373509650504 0 0 0
1045 5 20.55856741117921 15.260778551568068 14.537102427925587 0 0 0
1213 5 26.43244381437328 12.717315459640057 12.460373509650504 0 0 0
1406 5 30.83785111676882 15.260778551568066 12.460373509650504 0 0 0
1572 5 33.774789318365855 12.717315459640057 14.537102427925587 0 0 0
1607 5 37.44596207036215 16.532510097532075 12.460373509650504 0 0 0
1730 5 39.64866572155992 15.260778551568068 12.460373509650504 0 0 0
1736 5 41.85136937275769 13.989047005604062 12.460373509650504 0 0 0
1789 5 42.58560392315695 15.260778551568068 14.53710242792559 0 0 0
1792 5 42.58560392315695 12.717315459640057 14.537102427925593 0 0 0
165 5 0.7342345503992576 19.07597318946009 14.53710242792559 0 0 0
517 5 7.342345503992578 20.347704735424088 14.53710242792559 0 0 0
523 5 9.545049155190348 19.075973189460083 14.53710242792559 0 0 0
682 5 11.747752806388124 17.804241643496077 14.53710242792559 0 0 0
717 5 13.21622190718664 20.347704735424088 12.460373509650504 0 0 0
720 5 13.21622190718664 17.804241643496077 12.460373509650504 0 0 0
881 5 17.621629209582185 17.804241643496077 12.460373509650504 0 0 0
883 5 18.35586375998145 19.075973189460083 14.53710242792559 0 0 0
915 5 17.621629209582185 20.347704735424088 12.460373509650504 0 0 0
1076 5 20.55856741117921 20.347704735424088 14.537102427925587 0 0 0
1436 5 29.369382015970302 20.347704735424088 14.53710242792559 0 0 0
1438 5 31.57208566716808 19.075973189460083 14.53710242792559 0 0 0
1443 5 33.0405547679666 19.07597318946009 12.460373509650504 0 0 0
1603 5 35.977492969563635 19.07597318946009 14.53710242792559 0 0 0
1632 5 37.44596207036215 19.07597318946009 12.460373509650504 0 0 0
1747 5 39.64866572155992 20.34770473542409 12.460373509650504 0 0 0
193 5 0.7342345503992567 21.619436281388097 14.53710242792559 0 0 0
194 5 0.7342345503992584 24.162899373316105 14.53710242792559 0 0 0
387 5 5.139641852794802 24.162899373316108 14.53710242792559 0 0 0
552 5 8.810814604791094 22.8911678273521 12.460373509650504 0 0 0
554 5 9.545049155190348 24.162899373316108 14.53710242792559 0 0 0
719 5 13.950456457585895 21.619436281388094 14.53710242792559 0 0 0
747 5 13.950456457585895 24.162899373316108 14.537102427925593 0 0 0
1079 5 22.761271062376988 21.619436281388094 14.53710242792559 0 0 0
1107 5 22.761271062376988 24.162899373316105 14.53710242792559 0 0 0
1271 5 24.963974713574764 22.8911678273521 14.53710242792559 0 0 0
1278 5 28.63514746557105 21.619436281388097 12.460373509650504 0 0 0
1743 5 38.1801966207614 22.891167827352103 14.53710242792559 0 0 0
1760 5 39.64866572155992 22.8911678273521 12.460373509650507 0 0 0
1800 5 42.58560392315695 22.8911678273521 14.537102427925593 0 0 0
273 5 1.4684691007985151 2.543463091928012 16.613831346200676 0 0 0
275 5 3.671172751996288 1.2717315459640055 16.613831346200673 0 0 0
1801 5 0.0 2.543463091928011 18.69056026447576 0 0 0
451 5 5.873876403194062 2.5434630919280106 16.613831346200673 0 0 0
1867 5 6.608110953593318 1.2717315459640055 18.69056026447576 0 0 0
1868 5 6.608110953593318 3.815194637892017 18.69056026447576 0 0 0
1987 5 8.810814604791092 2.5434630919280106 18.69056026447576 0 0 0
1990 5 8.810814604791092 0.0 18.69056026447576 0 0 0
2150 5 13.21622190718664 0.0 18.69056026447576 0 0 0
2185 5 15.418925558384416 1.271731545964006 18.69056026447576 0 0 0
818 5 16.88739465918293 3.815194637892017 16.613831346200673 0 0 0
993 5 19.0900983103807 2.543463091928011 16.613831346200673 0 0 0
2345 5 17.621629209582185 2.5434630919280115 18.69056026447576 0 0 0
1172 5 23.49550561277625 0.0 16.613831346200673 0 0 0
2510 5 22.02703651197773 0.0 18.69056026447576 0 0 0
2544 5 22.02703651197773 2.543463091928011 18.69056026447576 0 0 0
2546 5 24.229740163175503 3.815194637892017 18.69056026447576 0 0 0
2708 5 26.43244381437328 0.0 18.69056026447576 0 0 0
1685 5 38.91443117116066 1.271731545964005 16.613831346200673 0 0 0
3264 5 39.64866572155992 2.543463091928011 18.69056026447576 0 0 0
1774 5 43.3198384735562 1.2717315459640055 16.613831346200673 0 0 0
1778 5 43.3198384735562 3.815194637892017 16.613831346200673 0 0 0
3266 5 41.85136937275769 3.815194637892017 18.69056026447576 0 0 0
272 5 1.4684691007985151 5.086926183856022 16.613831346200673 0 0 0
281 5 1.4684691007985151 7.630389275784033 16.613831346200673 0 0 0
283 5 3.671172751996288 6.358657729820028 16.613831346200673 0 0 0
1806 5 0.0 7.630389275784033 18.69056026447576 0 0 0
455 5 5.873876403194063 7.630389275784033 16.613831346200673 0 0 0
1884 5 4.405407302395547 7.630389275784033 18.69056026447576 0 0 0
1885 5 6.608110953593318 6.358657729820028 18.69056026447576 0 0 0
641 5 10.27928370558961 7.630389275784034 16.613831346200673 0 0 0
2019 5 8.810814604791092 5.086926183856023 18.69056026447576 0 0 0
815 5 14.684691007985156 7.630389275784033 16.613831346200673 0 0 0
992 5 19.0900983103807 5.086926183856022 16.613831346200673 0 0 0
1001 5 19.0900983103807 7.630389275784033 16.613831346200673 0 0 0
1175 5 23.49550561277625 7.630389275784034 16.613831346200673 0 0 0
1179 5 25.69820926397402 6.358657729820028 16.613831346200673 0 0 0
1363 5 30.103616566369567 6.358657729820028 16.613831346200673 0 0 0
2741 5 28.63514746557105 6.358657729820028 18.69056026447576 0 0 0
1691 5 36.711727519962885 7.630389275784034 16.613831346200676 0 0 0
3101 5 37.44596207036214 6.358657729820028 18.69056026447576 0 0 0
1775 5 41.11713482235843 7.630389275784033 16.613831346200676 0 0 0
3293 5 41.85136937275769 6.358657729820028 18.69056026447576 0 0 0
1886 5 6.608110953593318 8.902120821748039 18.69056026447576 0 0 0
1903 5 6.608110953593319 11.44558391367605 18.69056026447576 0 0 0
640 5 10.27928370558961 10.173852367712044 16.613831346200673 0 0 0
2043 5 8.810814604791092 10.173852367712044 18.69056026447576 0 0 0
644 5 12.481987356787382 8.902120821748039 16.613831346200676 0 0 0
2209 5 13.21622190718664 10.173852367712044 18.69056026447576 0 0 0
831 5 16.88739465918293 11.445583913676051 16.613831346200673 0 0 0
1188 5 23.49550561277625 10.173852367712044 16.613831346200673 0 0 0
1190 5 25.69820926397402 8.902120821748039 16.613831346200676 0 0 0
2593 5 24.229740163175503 11.44558391367605 18.69056026447576 0 0 0
1379 5 30.103616566369567 11.445583913676051 16.613831346200673 0 0 0
2765 5 28.63514746557105 11.44558391367605 18.69056026447576 0 0 0
1548 5 32.30632021756734 10.173852367712044 16.61383134620067 0 0 0
3123 5 35.24325841916437 10.173852367712044 18.69056026447576 0 0 0
3124 5 37.44596207036214 8.902120821748039 18.69056026447576 0 0 0
1782 5 41.11713482235843 10.173852367712044 16.613831346200676 0 0 0
1785 5 43.3198384735562 11.44558391367605 16.613831346200673 0 0 0
3313 5 41.85136937275769 11.44558391367605 18.69056026447576 0 0 0
323 5 3.671172751996288 16.532510097532075 16.613831346200673 0 0 0
1821 5 0.0 15.260778551568068 18.69056026447576 0 0 0
1904 5 6.608110953593318 13.98904700560406 18.69056026447576 0 0 0
656 5 10.27928370558961 15.260778551568066 16.613831346200673 0 0 0
2232 5 13.216221907186638 12.717315459640057 18.69056026447576 0 0 0
1016 5 19.0900983103807 15.260778551568066 16.61383134620067 0 0 0
1017 5 19.0900983103807 12.717315459640057 16.613831346200673 0 0 0
1043 5 21.292801961578476 16.53251009753207 16.613831346200673 0 0 0
1377 5 27.90091291517179 12.717315459640057 16.613831346200673 0 0 0
2760 5 26.43244381437328 12.717315459640057 18.69056026447576 0 0 0
2779 5 26.43244381437328 15.260778551568068 18.69056026447576 0 0 0
2780 5 28.63514746557105 13.98904700560406 18.69056026447576 0 0 0
2781 5 28.63514746557105 16.53251009753207 18.69056026447576 0 0 0
1547 5 32.30632021756734 12.717315459640057 16.613831346200673 0 0 0
3120 5 35.24325841916437 12.717315459640057 18.69056026447576 0 0 0
3139 5 35.24325841916437 15.260778551568066 18.69056026447576 0 0 0
1710 5 38.91443117116066 13.98904700560406 16.613831346200673 0 0 0
1727 5 38.91443117116066 16.53251009753207 16.613831346200673 0 0 0
3312 5 39.64866572155992 12.717315459640057 18.69056026447576 0 0 0
1828 5 2.202703651197771 19.07597318946009 18.69056026447576 0 0 0
516 5 5.873876403194063 20.347704735424088 16.613831346200676 0 0 0
681 5 10.27928370558961 17.804241643496077 16.613831346200673 0 0 0
2056 5 8.810814604791092 17.80424164349608 18.69056026447576 0 0 0
847 5 14.684691007985156 17.804241643496077 16.613831346200673 0 0 0
2246 5 15.418925558384416 19.075973189460083 18.69056026447576 0 0 0
1040 5 19.0900983103807 20.347704735424088 16.613831346200673 0 0 0
1207 5 23.49550561277625 17.804241643496077 16.613831346200673 0 0 0
2776 5 26.43244381437328 17.804241643496077 18.69056026447576 0 0 0
1598 5 34.50902386876512 19.075973189460083 16.613831346200673 0 0 0
3321 5 39.64866572155992 20.347704735424088 18.69056026447576 0 0 0
3326 5 41.85136937275769 19.07597318946009 18.69056026447576 0 0 0
352 5 1.468469100798516 22.8911678273521 16.61383134620067 0 0 0
1918 5 4.405407302395548 22.8911678273521 18.69056026447576 0 0 0
550 5 8.076580054391833 24.162899373316108 16.613831346200673 0 0 0
712 5 10.27928370558961 22.891167827352103 16.613831346200673 0 0 0
2249 5 15.418925558384416 21.619436281388097 18.69056026447576 0 0 0
879 5 16.88739465918293 21.619436281388094 16.613831346200673 0 0 0
1075 5 21.292801961578476 24.162899373316105 16.613831346200673 0 0 0
1270 5 25.69820926397402 24.162899373316105 16.613831346200676 0 0 0
1435 5 30.103616566369567 24.162899373316108 16.613831346200673 0 0 0
2968 5 30.837851116768825 22.8911678273521 18.69056026447576 0 0 0
1599 5 34.50902386876512 21.619436281388097 16.613831346200673 0 0 0
1744 5 38.91443117116066 21.619436281388097 16.613831346200673 0 0 0
3328 5 39.64866572155992 22.891167827352103 18.69056026447576 0 0 0
3329 5 41.85136937275769 21.619436281388097 18.69056026447576 0 0 0
1802 5 0.7342345503992576 1.2717315459640046 20.76728918275084 0 0 0
1957 5 5.873876403194062 2.543463091928011 22.844018101025924 0 0 0
1961 5 7.342345503992577 0.0 20.76728918275084 0 0 0
1988 5 9.54504915519035 1.2717315459640055 20.767289182750844 0 0 0
2118 5 10.279283705589608 0.0 22.844018101025924 0 0 0
2148 5 12.481987356787384 3.815194637892017 22.844018101025924 0 0 0
2314 5 16.887394659182924 1.271731545964005 22.844018101025924 0 0 0
2346 5 18.35586375998144 1.271731545964006 20.767289182750844 0 0 0
2838 5 27.900912915171794 0.0 22.844018101025924 0 0 0
2902 5 31.57208566716809 3.815194637892017 20.76728918275084 0 0 0
3032 5 32.30632021756734 0.0 22.844018101025927 0 0 0
3229 5 38.1801966207614 0.0 20.767289182750844 0 0 0
3393 5 42.58560392315695 0.0 20.767289182750844 0 0 0
3394 5 43.3198384735562 1.271731545964006 22.844018101025924 0 0 0
3424 5 42.58560392315695 2.543463091928011 20.767289182750844 0 0 0
1979 5 5.873876403194062 7.630389275784033 22.844018101025924 0 0 0
1983 5 7.342345503992577 5.086926183856022 20.76728918275084 0 0 0
2142 5 10.279283705589608 5.086926183856022 22.844018101025924 0 0 0
2177 5 11.747752806388124 7.630389275784033 20.767289182750844 0 0 0
2180 5 11.747752806388124 5.086926183856023 20.767289182750844 0 0 0
2178 5 12.481987356787384 6.358657729820028 22.844018101025924 0 0 0
2183 5 13.9504564575859 6.358657729820028 20.767289182750844 0 0 0
2340 5 14.684691007985151 5.086926183856023 22.844018101025924 0 0 0
2343 5 16.887394659182927 6.358657729820028 22.844018101025924 0 0 0
2375 5 16.15316010878367 7.630389275784034 20.76728918275084 0 0 0
2536 5 19.090098310380704 7.630389275784034 22.844018101025924 0 0 0
2735 5 24.96397471357476 7.630389275784033 20.76728918275084 0 0 0
2900 5 29.36938201597031 5.086926183856022 20.76728918275084 0 0 0
3057 5 32.30632021756734 7.630389275784034 22.844018101025927 0 0 0
3420 5 41.11713482235844 5.086926183856022 22.844018101025927 0 0 0
3450 5 42.58560392315695 7.630389275784034 20.767289182750844 0 0 0
1808 5 0.7342345503992576 8.902120821748039 20.76728918275084 0 0 0
1878 5 3.671172751996288 11.445583913676051 22.844018101025924 0 0 0
1882 5 5.139641852794803 8.902120821748039 20.76728918275084 0 0 0
1883 5 5.139641852794803 11.44558391367605 20.76728918275084 0 0 0
2018 5 9.54504915519035 8.902120821748039 20.767289182750844 0 0 0
2173 5 10.27928370558961 10.173852367712044 22.844018101025924 0 0 0
2533 5 19.090098310380704 10.173852367712044 22.844018101025924 0 0 0
2566 5 21.29280196157848 11.44558391367605 22.844018101025924 0 0 0
2731 5 23.495505612776245 10.173852367712044 22.844018101025924 0 0 0
2733 5 25.69820926397402 8.902120821748039 22.844018101025927 0 0 0
2738 5 27.166678364772537 8.902120821748039 20.767289182750844 0 0 0
2761 5 27.166678364772537 11.44558391367605 20.767289182750844 0 0 0
2899 5 30.10361656636957 8.902120821748039 22.844018101025924 0 0 0
2928 5 29.36938201597031 10.173852367712044 20.76728918275084 0 0 0
2930 5 31.57208566716809 8.902120821748039 20.767289182750844 0 0 0
3253 5 36.711727519962885 10.173852367712044 22.844018101025927 0 0 0
3259 5 38.91443117116066 8.902120821748039 22.844018101025924 0 0 0
3288 5 38.1801966207614 10.173852367712044 20.767289182750844 0 0 0
3447 5 42.58560392315695 10.173852367712044 20.767289182750844 0 0 0
1873 5 1.4684691007985151 15.26077855156807 22.844018101025924 0 0 0
1876 5 1.468469100798517 12.717315459640057 22.844018101025924 0 0 0
1898 5 2.936938201597032 15.260778551568068 20.767289182750844 0 0 0
2205 5 11.747752806388124 12.717315459640057 20.767289182750844 0 0 0
2207 5 12.481987356787384 13.98904700560406 22.844018101025924 0 0 0
2397 5 16.887394659182927 13.98904700560406 22.844018101025924 0 0 0
2564 5 19.090098310380704 12.717315459640057 22.844018101025924 0 0 0
2591 5 22.76127106237699 16.53251009753207 20.767289182750844 0 0 0
2728 5 23.495505612776245 12.717315459640057 22.844018101025924 0 0 0
2756 5 24.96397471357476 15.260778551568066 20.76728918275084 0 0 0
2762 5 27.166678364772537 13.98904700560406 20.767289182750844 0 0 0
2777 5 27.166678364772537 16.53251009753207 20.76728918275084 0 0 0
2921 5 27.900912915171794 15.260778551568066 22.844018101025924 0 0 0
3287 5 38.91443117116066 13.98904700560406 22.844018101025924 0 0 0
3308 5 38.1801966207614 15.260778551568066 20.767289182750844 0 0 0
3443 5 41.11713482235844 12.717315459640057 22.844018101025927 0 0 0
2032 5 5.8738764031940605 17.80424164349608 22.844018101025924 0 0 0
2224 5 10.279283705589608 17.804241643496077 22.844018101025927 0 0 0
2240 5 11.747752806388124 20.347704735424088 20.767289182750844 0 0 0
2411 5 14.684691007985156 20.347704735424088 22.844018101025924 0 0 0
2412 5 16.15316010878367 20.347704735424088 20.76728918275084 0 0 0
2581 5 19.090098310380704 20.347704735424088 22.844018101025927 0 0 0
2602 5 22.76127106237699 19.075973189460083 20.767289182750844 0 0 0
2772 5 24.96397471357476 20.347704735424088 20.76728918275084 0 0 0
2773 5 25.69820926397402 19.075973189460083 22.844018101025924 0 0 0
2775 5 24.96397471357476 17.804241643496077 20.76728918275084 0 0 0
3304 5 36.711727519962885 17.804241643496077 22.844018101025927 0 0 0
3478 5 42.58560392315695 17.804241643496077 20.767289182750844 0 0 0
1826 5 0.7342345503992558 24.162899373316105 20.76728918275084 0 0 0
1907 5 2.936938201597032 22.8911678273521 20.767289182750844 0 0 0
1908 5 3.671172751996288 21.619436281388094 22.844018101025924 0 0 0
2239 5 12.481987356787386 24.162899373316105 22.844018101025924 0 0 0
2408 5 14.684691007985151 22.891167827352103 22.844018101025924 0 0 0
2423 5 16.15316010878367 22.891167827352103 20.76728918275084 0 0 0
2603 5 22.76127106237699 21.619436281388094 20.767289182750844 0 0 0
2956 5 27.900912915171794 22.8911678273521 22.844018101025924 0 0 0
2967 5 31.57208566716809 24.162899373316105 20.767289182750844 0 0 0
3134 5 34.50902386876511 21.619436281388094 22.844018101025924 0 0 0
3142 5 34.50902386876511 24.162899373316105 22.844018101025924 0 0 0
3323 5 40.38290027195917 21.619436281388097 20.76728918275084 0 0 0
3327 5 40.38290027195917 24.162899373316108 20.76728918275084 0 0 0
3471 5 41.11713482235844 22.8911678273521 22.844018101025924 0 0 0
1831 5 1.7763568394002505e-15 2.543463091928011 24.92074701930101 0 0 0
1834 5 0.0 0.0 24.92074701930101 0 0 0
1842 5 2.2027036511977727 3.815194637892016 24.92074701930101 0 0 0
1935 5 2.936938201597032 2.543463091928011 26.99747593757609 0 0 0
1940 5 5.139641852794803 1.2717315459640055 26.99747593757609 0 0 0
2094 5 7.342345503992577 0.0 26.99747593757609 0 0 0
2285 5 13.216221907186638 0.0 24.920747019301007 0 0 0
2306 5 13.950456457585895 3.815194637892017 26.99747593757609 0 0 0
2475 5 18.35586375998145 1.2717315459640055 26.99747593757609 0 0 0
2477 5 17.62162920958219 0.0 24.92074701930101 0 0 0
2646 5 22.76127106237699 1.271731545964005 26.99747593757609 0 0 0
2834 5 26.43244381437328 2.5434630919280115 24.920747019301007 0 0 0
2863 5 28.635147465571052 3.815194637892017 24.92074701930101 0 0 0
3001 5 29.36938201597031 2.5434630919280115 26.99747593757609 0 0 0
3005 5 30.837851116768825 0.0 24.92074701930101 0 0 0
3006 5 31.57208566716808 1.2717315459640055 26.99747593757609 0 0 0
3194 5 35.24325841916437 2.543463091928011 24.92074701930101 0 0 0
3196 5 35.97749296956363 3.815194637892017 26.99747593757609 0 0 0
3197 5 35.24325841916437 0.0 24.92074701930101 0 0 0
3223 5 37.44596207036214 3.815194637892017 24.920747019301007 0 0 0
3361 5 38.18019662076141 2.543463091928011 26.99747593757609 0 0 0
3390 5 41.85136937275769 1.2717315459640055 24.920747019301007 0 0 0
1837 5 0.0 7.630389275784035 24.92074701930101 0 0 0
1953 5 4.405407302395547 5.086926183856022 24.92074701930101 0 0 0
1955 5 5.139641852794803 6.358657729820028 26.99747593757609 0 0 0
2137 5 7.342345503992576 7.630389275784033 26.99747593757609 0 0 0
2139 5 9.545049155190354 6.358657729820028 26.99747593757609 0 0 0
2304 5 11.74775280638812 5.086926183856022 26.99747593757609 0 0 0
2336 5 13.216221907186638 7.630389275784033 24.920747019301007 0 0 0
2661 5 20.55856741117921 7.630389275784033 26.99747593757609 0 0 0
2859 5 27.16667836477254 6.358657729820028 26.99747593757609 0 0 0
3021 5 29.36938201597031 7.630389275784033 26.99747593757609 0 0 0
3024 5 29.36938201597031 5.086926183856022 26.99747593757609 0 0 0
3387 5 40.38290027195917 6.358657729820028 26.99747593757609 0 0 0
1854 5 0.0 10.173852367712046 24.92074701930101 0 0 0
1974 5 2.9369382015970302 10.173852367712046 26.99747593757609 0 0 0
1981 5 6.60811095359332 8.902120821748039 24.92074701930101 0 0 0
2134 5 7.342345503992577 10.173852367712046 26.99747593757609 0 0 0
2140 5 9.545049155190354 8.902120821748039 26.99747593757609 0 0 0
2170 5 9.545049155190354 11.445583913676051 26.99747593757609 0 0 0
2693 5 22.02703651197773 10.173852367712044 24.920747019301007 0 0 0
2695 5 22.76127106237699 11.44558391367605 26.99747593757609 0 0 0
2895 5 28.635147465571052 11.445583913676051 24.92074701930101 0 0 0
3052 5 29.36938201597031 10.173852367712044 26.997475937576095 0 0 0
3059 5 33.0405547679666 8.902120821748039 24.92074701930101 0 0 0
3252 5 35.24325841916437 10.173852367712044 24.92074701930101 0 0 0
3415 5 40.38290027195917 11.44558391367605 26.99747593757609 0 0 0
3419 5 41.85136937275769 8.902120821748039 24.920747019301007 0 0 0
1971 5 2.9369382015970302 12.71731545964006 26.99747593757609 0 0 0
2006 5 5.139641852794805 16.53251009753207 26.99747593757609 0 0 0
2033 5 6.608110953593318 16.532510097532075 24.92074701930101 0 0 0
2169 5 8.810814604791092 12.717315459640057 24.92074701930101 0 0 0
2198 5 9.545049155190352 16.532510097532075 26.99747593757609 0 0 0
2370 5 15.41892555838441 13.98904700560406 24.92074701930101 0 0 0
2393 5 15.41892555838441 16.532510097532075 24.92074701930101 0 0 0
2560 5 17.62162920958219 15.260778551568066 24.92074701930101 0 0 0
2563 5 19.82433286077996 16.53251009753207 24.92074701930101 0 0 0
2730 5 24.229740163175503 13.98904700560406 24.92074701930101 0 0 0
2889 5 26.43244381437328 12.717315459640057 24.920747019301007 0 0 0
2891 5 27.16667836477254 13.98904700560406 26.99747593757609 0 0 0
3085 5 31.57208566716808 13.98904700560406 26.99747593757609 0 0 0
3113 5 33.0405547679666 16.53251009753207 24.920747019301007 0 0 0
3248 5 33.774789318365855 12.717315459640057 26.99747593757609 0 0 0
3409 5 38.18019662076141 12.717315459640057 26.99747593757609 0 0 0
3442 5 39.64866572155992 12.717315459640057 24.92074701930101 0 0 0
1869 5 1.7763568394002505e-15 17.804241643496077 24.92074701930101 0 0 0
2028 5 4.405407302395547 20.347704735424088 24.92074701930101 0 0 0
2193 5 7.342345503992577 20.347704735424088 26.99747593757609 0 0 0
2197 5 8.81081460479109 17.80424164349608 24.92074701930101 0 0 0
2222 5 11.013518255988869 19.07597318946009 24.92074701930101 0 0 0
2387 5 11.747752806388124 20.347704735424088 26.99747593757609 0 0 0
2388 5 13.216221907186636 20.34770473542409 24.92074701930101 0 0 0
2553 5 16.15316010878367 20.34770473542409 26.99747593757609 0 0 0
2556 5 16.153160108783673 17.804241643496077 26.99747593757609 0 0 0
2720 5 20.55856741117921 17.80424164349608 26.99747593757609 0 0 0
2747 5 20.55856741117921 20.347704735424088 26.99747593757609 0 0 0
2748 5 22.02703651197773 20.347704735424088 24.92074701930101 0 0 0
2749 5 22.76127106237699 19.07597318946009 26.99747593757609 0 0 0
2913 5 24.963974713574764 20.347704735424088 26.99747593757609 0 0 0
3114 5 33.0405547679666 19.075973189460083 24.92074701930101 0 0 0
3458 5 40.38290027195917 19.075973189460083 26.99747593757609 0 0 0
1893 5 2.202703651197771 21.619436281388094 24.92074701930101 0 0 0
1905 5 2.202703651197771 24.162899373316108 24.92074701930101 0 0 0
2050 5 6.608110953593318 24.162899373316105 24.92074701930101 0 0 0
2218 5 9.545049155190354 21.619436281388094 26.99747593757609 0 0 0
2406 5 13.950456457585895 24.162899373316105 26.99747593757609 0 0 0
2409 5 15.418925558384409 21.619436281388097 24.92074701930101 0 0 0
2576 5 16.153160108783673 22.8911678273521 26.99747593757609 0 0 0
2577 5 17.621629209582185 22.891167827352103 24.92074701930101 0 0 0
2578 5 18.35586375998144 21.619436281388097 26.99747593757609 0 0 0
2579 5 18.35586375998145 24.162899373316105 26.99747593757609 0 0 0
2744 5 20.55856741117921 22.891167827352103 26.99747593757609 0 0 0
2939 5 27.16667836477254 24.162899373316108 26.99747593757609 0 0 0
3110 5 31.57208566716808 21.619436281388094 26.99747593757609 0 0 0
3126 5 31.57208566716808 24.162899373316108 26.99747593757609 0 0 0
3127 5 30.837851116768825 22.8911678273521 24.92074701930101 0 0 0
3129 5 33.0405547679666 21.619436281388094 24.92074701930101 0 0 0
3299 5 35.97749296956363 24.162899373316105 26.99747593757609 0 0 0
3470 5 39.64866572155992 22.8911678273521 24.92074701930101 0 0 0
3472 5 41.85136937275769 21.619436281388094 24.920747019301007 0 0 0
1924 5 0.0 0.0 31.15093377412626 0 0 0
1925 5 1.468469100798517 0.0 29.07420485585118 0 0 0
1926 5 2.2027036511977727 1.2717315459640055 31.15093377412626 0 0 0
1934 5 1.4684691007985151 2.543463091928011 29.07420485585118 0 0 0
1936 5 3.671172751996288 1.2717315459640055 29.07420485585118 0 0 0
1937 5 3.671172751996288 3.815194637892017 29.07420485585118 0 0 0
2078 5 4.405407302395547 0.0 31.150933774126266 0 0 0
2091 5 6.608110953593322 1.2717315459640055 31.150933774126266 0 0 0
2093 5 5.8738764031940605 0.0 29.07420485585118 0 0 0
2278 5 11.013518255988863 3.815194637892016 31.150933774126266 0 0 0
2280 5 10.279283705589606 2.54346309192801 29.07420485585118 0 0 0
2438 5 13.21622190718664 0.0 31.15093377412626 0 0 0
2451 5 15.418925558384414 1.2717315459640046 31.150933774126266 0 0 0
2452 5 15.418925558384412 3.815194637892017 31.150933774126266 0 0 0
2640 5 19.090098310380696 2.543463091928012 29.07420485585118 0 0 0
2812 5 24.229740163175503 3.815194637892017 31.150933774126266 0 0 0
2984 5 26.43244381437328 0.0 31.150933774126266 0 0 0
3171 5 33.0405547679666 1.271731545964006 31.150933774126266 0 0 0
3191 5 34.50902386876511 3.815194637892017 29.07420485585118 0 0 0
3500 5 41.11713482235843 2.543463091928011 29.07420485585117 0 0 0
1927 5 0.0 7.630389275784037 31.15093377412626 0 0 0
2107 5 6.608110953593322 6.358657729820028 31.150933774126266 0 0 0
2112 5 8.076580054391837 6.358657729820028 29.07420485585118 0 0 0
2300 5 10.279283705589606 7.630389275784033 29.07420485585118 0 0 0
2465 5 13.21622190718664 7.630389275784033 31.150933774126266 0 0 0
2466 5 14.684691007985156 7.630389275784033 29.07420485585118 0 0 0
2469 5 14.684691007985156 5.086926183856022 29.07420485585118 0 0 0
2633 5 17.62162920958218 7.630389275784033 31.150933774126266 0 0 0
2637 5 19.090098310380696 5.086926183856022 29.07420485585118 0 0 0
2826 5 23.49550561277625 7.630389275784033 29.07420485585118 0 0 0
3022 5 30.103616566369567 6.358657729820028 29.07420485585118 0 0 0
3192 5 34.50902386876511 6.358657729820028 29.07420485585118 0 0 0
3353 5 35.24325841916438 7.630389275784033 31.150933774126266 0 0 0
3357 5 36.71172751996289 5.086926183856022 29.07420485585118 0 0 0
3519 5 41.11713482235843 5.086926183856022 29.07420485585117 0 0 0
1944 5 0.0 10.173852367712044 31.15093377412626 0 0 0
1945 5 1.4684691007985151 10.173852367712048 29.07420485585118 0 0 0
1946 5 2.2027036511977727 8.902120821748042 31.150933774126266 0 0 0
2102 5 4.405407302395545 10.173852367712048 31.150933774126266 0 0 0
2133 5 5.8738764031940605 10.173852367712046 29.07420485585118 0 0 0
2493 5 14.684691007985156 10.173852367712044 29.07420485585118 0 0 0
2690 5 21.29280196157848 11.44558391367605 29.07420485585118 0 0 0
2851 5 24.22974016317551 11.44558391367605 31.150933774126266 0 0 0
3016 5 26.43244381437328 10.173852367712044 31.150933774126266 0 0 0
3017 5 27.900912915171794 10.173852367712044 29.07420485585118 0 0 0
3182 5 30.837851116768825 10.173852367712044 31.150933774126266 0 0 0
3213 5 32.30632021756734 10.173852367712044 29.07420485585118 0 0 0
3215 5 34.50902386876511 8.902120821748039 29.07420485585118 0 0 0
3410 5 38.91443117116066 11.44558391367605 29.07420485585118 0 0 0
3537 5 41.11713482235843 10.173852367712044 29.07420485585117 0 0 0
1968 5 2.2027036511977727 13.98904700560406 31.150933774126266 0 0 0
2129 5 4.405407302395545 12.717315459640057 31.150933774126266 0 0 0
2486 5 13.21622190718664 15.26077855156807 31.150933774126266 0 0 0
2686 5 19.82433286077996 13.989047005604062 31.150933774126266 0 0 0
2721 5 21.29280196157848 16.532510097532075 29.07420485585118 0 0 0
3013 5 26.43244381437328 12.717315459640057 31.150933774126266 0 0 0
3408 5 36.71172751996289 12.717315459640057 29.07420485585118 0 0 0
3534 5 41.11713482235843 12.717315459640057 29.07420485585117 0 0 0
3557 5 43.31983847355621 16.53251009753207 29.074204855851185 0 0 0
1963 5 0.0 17.80424164349608 31.150933774126266 0 0 0
1997 5 2.2027036511977727 19.07597318946009 31.150933774126266 0 0 0
1999 5 1.4684691007985151 17.804241643496077 29.07420485585118 0 0 0
2163 5 6.608110953593322 19.075973189460083 31.150933774126266 0 0 0
2192 5 5.8738764031940605 20.347704735424088 29.07420485585118 0 0 0
2517 5 13.21622190718664 20.347704735424088 31.150933774126266 0 0 0
2520 5 13.21622190718664 17.804241643496077 31.15093377412626 0 0 0
2552 5 14.684691007985156 20.347704735424088 29.07420485585118 0 0 0
3075 5 26.43244381437328 20.347704735424088 31.150933774126266 0 0 0
3432 5 37.44596207036214 19.075973189460083 31.15093377412626 0 0 0
3547 5 39.64866572155992 20.347704735424088 31.15093377412626 0 0 0
3550 5 39.64866572155992 17.804241643496077 31.15093377412626 0 0 0
2026 5 3.6711727519962896 24.162899373316105 29.07420485585118 0 0 0
2188 5 4.405407302395547 22.8911678273521 31.150933774126266 0 0 0
2189 5 5.8738764031940605 22.891167827352103 29.07420485585118 0 0 0
2190 5 6.608110953593322 21.619436281388097 31.150933774126266 0 0 0
2191 5 6.608110953593323 24.162899373316105 31.15093377412626 0 0 0
2195 5 8.076580054391837 21.619436281388094 29.07420485585118 0 0 0
2382 5 11.013518255988863 24.162899373316108 31.150933774126266 0 0 0
2385 5 12.48198735678738 21.619436281388094 29.07420485585118 0 0 0
2743 5 19.0900983103807 22.8911678273521 29.07420485585117 0 0 0
2911 5 24.22974016317551 24.162899373316105 31.150933774126266 0 0 0
2915 5 25.698209263974025 21.619436281388097 29.07420485585118 0 0 0
3102 5 28.63514746557105 24.162899373316108 31.150933774126266 0 0 0
3106 5 30.103616566369567 24.162899373316108 29.07420485585118 0 0 0
3270 5 33.0405547679666 21.619436281388097 31.150933774126266 0 0 0
3271 5 33.0405547679666 24.162899373316108 31.150933774126266 0 0 0
3295 5 34.50902386876511 24.162899373316108 29.07420485585118 0 0 0
3433 5 37.44596207036214 21.619436281388094 31.150933774126266 0 0 0
3451 5 37.44596207036214 24.162899373316108 31.150933774126266 0 0 0
3561 5 41.11713482235843 22.8911678273521 29.07420485585117 0 0 0
3563 5 41.851369372757695 24.162899373316105 31.150933774126266 0 0 0
1922 5 0.7342345503992576 1.2717315459640073 33.227662692401346 0 0 0
2071 5 1.4684691007985151 0.0 35.30439161067643 0 0 0
2073 5 1.4684691007985151 2.543463091928013 35.30439161067643 0 0 0
2258 5 8.076580054391833 3.8151946378920174 35.30439161067643 0 0 0
2263 5 9.545049155190348 3.815194637892017 33.227662692401346 0 0 0
2437 5 11.747752806388124 0.0 33.227662692401346 0 0 0
2439 5 13.950456457585895 1.2717315459640055 33.227662692401346 0 0 0
2611 5 14.684691007985151 2.543463091928011 35.30439161067643 0 0 0
2794 5 20.55856741117922 2.543463091928011 33.227662692401346 0 0 0
2799 5 22.76127106237699 1.2717315459640064 33.227662692401346 0 0 0
2972 5 23.49550561277625 0.0 35.30439161067643 0 0 0
2982 5 27.166678364772537 1.2717315459640055 33.227662692401346 0 0 0
3153 5 27.900912915171794 2.543463091928012 35.30439161067643 0 0 0
3157 5 29.36938201597031 0.0 33.227662692401346 0 0 0
3331 5 32.30632021756735 2.5434630919280106 35.30439161067643 0 0 0
3487 5 38.1801966207614 0.0 33.227662692401346 0 0 0
3571 5 41.11713482235843 2.5434630919280115 35.30439161067643 0 0 0
3572 5 41.11713482235843 0.0 35.30439161067643 0 0 0
3574 5 43.31983847355621 1.2717315459640055 35.30439161067643 0 0 0
1928 5 0.7342345503992558 6.358657729820031 33.227662692401346 0 0 0
2085 5 2.9369382015970302 5.086926183856024 33.22766269240135 0 0 0
2257 5 7.342345503992576 5.086926183856024 33.227662692401346 0 0 0
2272 5 7.342345503992576 7.630389275784034 33.227662692401346 0 0 0
2992 5 24.963974713574764 7.630389275784033 33.227662692401346 0 0 0
2994 5 27.166678364772537 6.358657729820028 33.227662692401346 0 0 0
3168 5 31.57208566716808 6.358657729820028 33.227662692401346 0 0 0
3577 5 42.58560392315695 5.086926183856022 33.227662692401346 0 0 0
3579 5 43.31983847355621 6.358657729820028 35.30439161067643 0 0 0
3586 5 42.58560392315695 7.630389275784033 33.227662692401346 0 0 0
1942 5 0.7342345503992576 11.44558391367605 33.227662692401346 0 0 0
2104 5 5.139641852794807 11.44558391367605 33.227662692401346 0 0 0
2269 5 7.342345503992576 10.173852367712048 33.227662692401346 0 0 0
2270 5 8.076580054391833 8.902120821748042 35.30439161067643 0 0 0
2271 5 8.076580054391833 11.44558391367605 35.304391610676426 0 0 0
2294 5 9.545049155190348 11.445583913676051 33.227662692401346 0 0 0
2464 5 13.9504564575859 11.445583913676051 33.22766269240135 0 0 0
2631 5 16.88739465918293 11.445583913676051 35.30439161067643 0 0 0
2635 5 18.35586375998145 8.902120821748039 33.227662692401346 0 0 0
2819 5 21.29280196157848 11.445583913676051 35.30439161067643 0 0 0
2824 5 22.76127106237699 11.44558391367605 33.227662692401346 0 0 0
2988 5 23.49550561277625 10.173852367712044 35.30439161067643 0 0 0
2990 5 25.69820926397402 8.902120821748039 35.30439161067643 0 0 0
2991 5 25.69820926397402 11.44558391367605 35.30439161067643 0 0 0
3583 5 42.58560392315695 10.173852367712044 33.227662692401346 0 0 0
2123 5 3.6711727519962913 16.532510097532075 35.30439161067643 0 0 0
2267 5 5.8738764031940605 12.717315459640057 35.304391610676426 0 0 0
2289 5 7.342345503992577 15.260778551568066 33.227662692401346 0 0 0
2295 5 9.54504915519035 13.98904700560406 33.227662692401346 0 0 0
2456 5 10.279283705589611 15.260778551568066 35.30439161067643 0 0 0
2483 5 12.481987356787384 16.53251009753207 35.30439161067643 0 0 0
2487 5 13.950456457585895 13.989047005604064 33.227662692401346 0 0 0
2650 5 16.887394659182927 13.989047005604064 35.30439161067643 0 0 0
2652 5 16.153160108783666 12.717315459640057 33.227662692401346 0 0 0
2848 5 22.76127106237699 16.532510097532075 33.227662692401346 0 0 0
3012 5 24.963974713574764 12.717315459640057 33.227662692401346 0 0 0
3205 5 29.36938201597031 15.260778551568066 33.227662692401346 0 0 0
3207 5 31.57208566716808 13.98904700560406 33.227662692401346 0 0 0
3368 5 32.30632021756735 15.260778551568066 35.30439161067643 0 0 0
3370 5 34.50902386876511 13.98904700560406 35.30439161067643 0 0 0
3375 5 35.97749296956363 13.98904700560406 33.227662692401346 0 0 0
3510 5 38.914431171160665 13.98904700560406 35.30439161067643 0 0 0
3531 5 40.38290027195918 13.98904700560406 33.227662692401346 0 0 0
2156 5 2.936938201597032 20.347704735424088 33.227662692401346 0 0 0
2317 5 7.342345503992576 20.34770473542409 33.227662692401346 0 0 0
2516 5 11.747752806388124 20.347704735424088 33.227662692401346 0 0 0
2484 5 12.481987356787382 19.075973189460083 35.30439161067643 0 0 0
2677 5 16.153160108783666 20.347704735424088 33.227662692401346 0 0 0
2840 5 19.090098310380704 20.347704735424088 35.30439161067643 0 0 0
2878 5 22.76127106237699 19.07597318946009 33.227662692401346 0 0 0
3007 5 23.495505612776245 17.80424164349608 35.30439161067643 0 0 0
3038 5 25.698209263974015 19.07597318946009 35.30439161067643 0 0 0
3200 5 27.90091291517179 20.34770473542409 35.30439161067643 0 0 0
3236 5 29.36938201597031 20.347704735424088 33.22766269240135 0 0 0
3238 5 31.57208566716808 19.07597318946009 33.227662692401346 0 0 0
3396 5 32.30632021756735 20.347704735424088 35.30439161067643 0 0 0
3397 5 33.77478931836586 20.347704735424088 33.227662692401346 0 0 0
3528 5 38.914431171160665 19.075973189460083 35.30439161067643 0 0 0
3548 5 40.38290027195918 19.075973189460083 33.227662692401346 0 0 0
3594 5 41.11713482235843 20.347704735424088 35.30439161067643 0 0 0
1993 5 0.7342345503992576 21.619436281388097 33.227662692401346 0 0 0
2152 5 1.4684691007985151 22.8911678273521 35.30439161067643 0 0 0
2153 5 2.9369382015970302 22.891167827352103 33.22766269240135 0 0 0
2154 5 3.6711727519962913 21.619436281388097 35.30439161067643 0 0 0
2315 5 5.8738764031940605 22.891167827352103 35.30439161067643 0 0 0
2711 5 16.153160108783666 22.8911678273521 33.227662692401346 0 0 0
2872 5 19.0900983103807 22.8911678273521 35.30439161067643 0 0 0
2873 5 20.55856741117922 22.8911678273521 33.227662692401346 0 0 0
2907 5 22.761271062376995 24.162899373316105 33.227662692401346 0 0 0
3039 5 25.69820926397402 21.619436281388094 35.30439161067643 0 0 0
3071 5 24.963974713574764 22.8911678273521 33.227662692401346 0 0 0
3232 5 27.900912915171794 22.8911678273521 35.30439161067643 0 0 0
3235 5 30.103616566369567 24.162899373316105 35.30439161067643 0 0 0
3395 5 32.30632021756735 22.891167827352103 35.30439161067643 0 0 0
3399 5 34.50902386876511 21.619436281388097 35.30439161067643 0 0 0
3425 5 34.50902386876511 24.162899373316108 35.30439161067643 0 0 0
3426 5 33.77478931836586 22.891167827352103 33.227662692401346 0 0 0
3428 5 35.97749296956363 21.619436281388097 33.227662692401346 0 0 0
3542 5 36.711727519962885 22.891167827352103 35.304391610676426 0 0 0
3545 5 38.914431171160665 24.162899373316108 35.30439161067643 0 0 0
3593 5 41.11713482235843 22.8911678273521 35.30439161067643 0 0 0
3599 5 43.31983847355621 24.162899373316108 35.30439161067643 0 0 0
