LAMMPS (29 Sep 2021)
OMP_NUM_THREADS environment is not set. Defaulting to 1 thread. (src/comm.cpp:98)
  using 1 OpenMP thread(s) per MPI task
# Input file for Stack Fault Energy surface of Nickel
# Richard Glaze, 2014
# --------------------- INITIALIZAITION ---------------------
clear
OMP_NUM_THREADS environment is not set. Defaulting to 1 thread. (src/comm.cpp:98)
  using 1 OpenMP thread(s) per MPI task
units		metal
dimension	3
boundary	p p s
atom_style	atomic

read_data 	../data111_use2.dat
Reading data file ...
  orthogonal box = (0.0000000 0.0000000 -0.0037381121) to (44.054073 25.434631 35.308130)
  1 by 1 by 1 MPI processor grid
  reading atoms ...
  3600 atoms
  read_data CPU = 0.010 seconds
#variable x_displace equal -1*(${latparam1}/sqrt(6))
variable zcut equal 17.4363
variable xdim equal 43.5152
variable ydim equal 25.1235

# --------------------- ATOM DEFINITION ---------------------

region		1 block -.001 INF -.001 INF -.001 ${zcut} units box
region		1 block -.001 INF -.001 INF -.001 17.4363 units box
region 	2 block -.001 INF -.001 INF ${zcut} INF units box
region 	2 block -.001 INF -.001 INF 17.4363 INF units box

region		whole block INF INF INF INF INF INF units box


# --------------------- FORCE FIELDS ---------------------
pair_style meam/c
pair_coeff	* * ../library.meam Co Ni Cr Fe Mn ../CoNiCrFeMn.meam Mn Cr Co Fe Ni

# --------------------- SETTINGS ---------------------

compute peratom all pe/atom
compute eatoms all reduce sum c_peratom
compute csym all centro/atom fcc

min_style cg
minimize 1e-10 1e-10 10000 100000
WARNING: Using 'neigh_modify every 1 delay 0 check yes' setting during minimization (src/min.cpp:188)
Neighbor list info ...
  update every 1 steps, delay 0 steps, check yes
  max neighbors/atom: 2000, page size: 100000
  master list distance cutoff = 6.5
  ghost atom cutoff = 6.5
  binsize = 3.25, bins = 14 8 11
  3 neighbor lists, perpetual/occasional/extra = 2 1 0
  (1) pair meam/c, perpetual
      attributes: full, newton on
      pair build: full/bin/atomonly
      stencil: full/bin/3d
      bin: standard
  (2) pair meam/c, perpetual, half/full from (1)
      attributes: half, newton on
      pair build: halffull/newton
      stencil: none
      bin: none
  (3) compute centro/atom, occasional, copy from (1)
      attributes: full, newton on
      pair build: copy
      stencil: none
      bin: none
Per MPI rank memory allocation (min/avg/max) = 15.41 | 15.41 | 15.41 Mbytes
Step Temp E_pair E_mol TotEng Press Volume 
       0            0   -15256.606            0   -15256.606   -63711.692    39566.452 
      52            0   -15293.416            0   -15293.416   -25968.991    39566.452 
Loop time of 13.5042 on 1 procs for 52 steps with 3600 atoms

99.9% CPU use with 1 MPI tasks x 1 OpenMP threads

Minimization stats:
  Stopping criterion = energy tolerance
  Energy initial, next-to-last, final = 
     -15256.6061386569   -15293.415779967  -15293.4157801635
  Force two-norm initial, final = 19.283416 0.24655583
  Force max component initial, final = 0.88236958 0.14262952
  Final line search alpha, max atom move = 0.61279165 0.087402176
  Iterations, force evaluations = 52 158

MPI task timing breakdown:
Section |  min time  |  avg time  |  max time  |%varavg| %total
---------------------------------------------------------------
Pair    | 13.491     | 13.491     | 13.491     |   0.0 | 99.90
Neigh   | 0          | 0          | 0          |   0.0 |  0.00
Comm    | 0.0035371  | 0.0035371  | 0.0035371  |   0.0 |  0.03
Output  | 0          | 0          | 0          |   0.0 |  0.00
Modify  | 0          | 0          | 0          |   0.0 |  0.00
Other   |            | 0.01001    |            |       |  0.07

Nlocal:        3600.00 ave        3600 max        3600 min
Histogram: 1 0 0 0 0 0 0 0 0 0
Nghost:        3558.00 ave        3558 max        3558 min
Histogram: 1 0 0 0 0 0 0 0 0 0
Neighs:        145200.0 ave      145200 max      145200 min
Histogram: 1 0 0 0 0 0 0 0 0 0
FullNghs:      290400.0 ave      290400 max      290400 min
Histogram: 1 0 0 0 0 0 0 0 0 0

Total # of neighbors = 290400
Ave neighs/atom = 80.666667
Neighbor list builds = 0
Dangerous builds = 0

thermo 1
thermo_style custom step pe c_eatoms
#dump 1 all custom 1 dump.relax id type xs ys zs c_peratom c_csym
run 0
WARNING: No fixes defined, atoms won't move (src/verlet.cpp:55)
Per MPI rank memory allocation (min/avg/max) = 14.29 | 14.29 | 14.29 Mbytes
Step PotEng c_eatoms 
      52   -15293.416   -15293.416 
Loop time of 8.5e-07 on 1 procs for 0 steps with 3600 atoms

235.3% CPU use with 1 MPI tasks x 1 OpenMP threads

MPI task timing breakdown:
Section |  min time  |  avg time  |  max time  |%varavg| %total
---------------------------------------------------------------
Pair    | 0          | 0          | 0          |   0.0 |  0.00
Neigh   | 0          | 0          | 0          |   0.0 |  0.00
Comm    | 0          | 0          | 0          |   0.0 |  0.00
Output  | 0          | 0          | 0          |   0.0 |  0.00
Modify  | 0          | 0          | 0          |   0.0 |  0.00
Other   |            | 8.5e-07    |            |       |100.00

Nlocal:        3600.00 ave        3600 max        3600 min
Histogram: 1 0 0 0 0 0 0 0 0 0
Nghost:        3558.00 ave        3558 max        3558 min
Histogram: 1 0 0 0 0 0 0 0 0 0
Neighs:        145294.0 ave      145294 max      145294 min
Histogram: 1 0 0 0 0 0 0 0 0 0
FullNghs:      290588.0 ave      290588 max      290588 min
Histogram: 1 0 0 0 0 0 0 0 0 0

Total # of neighbors = 290588
Ave neighs/atom = 80.718889
Neighbor list builds = 0
Dangerous builds = 0

#this command creates a model of the script before the displacement and minimization occur


variable E equal "c_eatoms"
variable Eo equal $E
variable Eo equal -15293.4157801636

#undump 1

#variable E equal "c_eatoms" computes the initial energy of the model before any sliding is done
#E is necessary to store the initial energy in Eo

group bot region 1
1800 atoms in group bot
group top region 2
1800 atoms in group top


reset_timestep 0
timestep 1

fix 1 top move linear -0.01 0.0 0.0 units box

#dump 2 all custom 1 dump2.relax id type xs ys zs c_peratom c_csym

#displace_atoms top move ${x_displace} 0.0 0.0 units box
#displace_atoms is the command neccessary to move atoms into the next stacking arrangement (ie: A -> B)

#fix 2 all setforce 0 0 NULL


thermo 1
thermo_style custom step pe ke c_eatoms

run 500
Per MPI rank memory allocation (min/avg/max) = 14.79 | 14.79 | 14.79 Mbytes
Step PotEng KinEng c_eatoms 
       0   -15293.416            0   -15293.416 
       1   -15293.403 0.0005358631   -15293.403 
       2   -15293.367 0.0005358631   -15293.367 
       3   -15293.307 0.0005358631   -15293.307 
       4   -15293.224 0.0005358631   -15293.224 
       5    -15293.12 0.0005358631    -15293.12 
       6   -15292.993 0.0005358631   -15292.993 
       7   -15292.846 0.0005358631   -15292.846 
       8   -15292.677 0.0005358631   -15292.677 
       9   -15292.489 0.0005358631   -15292.489 
      10    -15292.28 0.0005358631    -15292.28 
      11   -15292.053 0.0005358631   -15292.053 
      12   -15291.807 0.0005358631   -15291.807 
      13   -15291.542 0.0005358631   -15291.542 
      14    -15291.26 0.0005358631    -15291.26 
      15    -15290.96 0.0005358631    -15290.96 
      16   -15290.644 0.0005358631   -15290.644 
      17   -15290.311 0.0005358631   -15290.311 
      18   -15289.961 0.0005358631   -15289.961 
      19   -15289.596 0.0005358631   -15289.596 
      20   -15289.216 0.0005358631   -15289.216 
      21    -15288.82 0.0005358631    -15288.82 
      22   -15288.409 0.0005358631   -15288.409 
      23   -15287.983 0.0005358631   -15287.983 
      24   -15287.543 0.0005358631   -15287.543 
      25   -15287.089 0.0005358631   -15287.089 
      26   -15286.621 0.0005358631   -15286.621 
      27   -15286.139 0.0005358631   -15286.139 
      28   -15285.644 0.0005358631   -15285.644 
      29   -15285.136 0.0005358631   -15285.136 
      30   -15284.615 0.0005358631   -15284.615 
      31   -15284.082 0.0005358631   -15284.082 
      32   -15283.538 0.0005358631   -15283.538 
      33   -15282.982 0.0005358631   -15282.982 
      34   -15282.417 0.0005358631   -15282.417 
      35   -15281.842 0.0005358631   -15281.842 
      36   -15281.261 0.0005358631   -15281.261 
      37   -15280.673 0.0005358631   -15280.673 
      38   -15280.081 0.0005358631   -15280.081 
      39   -15279.486 0.0005358631   -15279.486 
      40   -15278.892 0.0005358631   -15278.892 
      41     -15278.3 0.0005358631     -15278.3 
      42   -15277.712 0.0005358631   -15277.712 
      43   -15277.131 0.0005358631   -15277.131 
      44   -15276.557 0.0005358631   -15276.557 
      45   -15275.993 0.0005358631   -15275.993 
      46   -15275.438 0.0005358631   -15275.438 
      47   -15274.895 0.0005358631   -15274.895 
      48   -15274.364 0.0005358631   -15274.364 
      49   -15273.845 0.0005358631   -15273.845 
      50   -15273.338 0.0005358631   -15273.338 
      51   -15272.843 0.0005358631   -15272.843 
      52   -15272.362 0.0005358631   -15272.362 
      53   -15271.894 0.0005358631   -15271.894 
      54   -15271.441 0.0005358631   -15271.441 
      55   -15271.003 0.0005358631   -15271.003 
      56   -15270.581 0.0005358631   -15270.581 
      57   -15270.177 0.0005358631   -15270.177 
      58   -15269.791 0.0005358631   -15269.791 
      59   -15269.424 0.0005358631   -15269.424 
      60   -15269.075 0.0005358631   -15269.075 
      61   -15268.745 0.0005358631   -15268.745 
      62   -15268.436 0.0005358631   -15268.436 
      63   -15268.148 0.0005358631   -15268.148 
      64   -15267.881 0.0005358631   -15267.881 
      65   -15267.636 0.0005358631   -15267.636 
      66   -15267.415 0.0005358631   -15267.415 
      67   -15267.217 0.0005358631   -15267.217 
      68   -15267.043 0.0005358631   -15267.043 
      69   -15266.893 0.0005358631   -15266.893 
      70   -15266.768 0.0005358631   -15266.768 
      71   -15266.668 0.0005358631   -15266.668 
      72   -15266.593 0.0005358631   -15266.593 
      73   -15266.544 0.0005358631   -15266.544 
      74   -15266.521 0.0005358631   -15266.521 
      75   -15266.522 0.0005358631   -15266.522 
      76    -15266.55 0.0005358631    -15266.55 
      77   -15266.602 0.0005358631   -15266.602 
      78    -15266.68 0.0005358631    -15266.68 
      79   -15266.782 0.0005358631   -15266.782 
      80   -15266.909 0.0005358631   -15266.909 
      81    -15267.06 0.0005358631    -15267.06 
      82   -15267.234 0.0005358631   -15267.234 
      83   -15267.432 0.0005358631   -15267.432 
      84   -15267.652 0.0005358631   -15267.652 
      85   -15267.893 0.0005358631   -15267.893 
      86   -15268.156 0.0005358631   -15268.156 
      87   -15268.438 0.0005358631   -15268.438 
      88   -15268.741 0.0005358631   -15268.741 
      89   -15269.063 0.0005358631   -15269.063 
      90   -15269.405 0.0005358631   -15269.405 
      91   -15269.765 0.0005358631   -15269.765 
      92   -15270.143 0.0005358631   -15270.143 
      93   -15270.539 0.0005358631   -15270.539 
      94   -15270.951 0.0005358631   -15270.951 
      95   -15271.381 0.0005358631   -15271.381 
      96   -15271.828 0.0005358631   -15271.828 
      97   -15272.293 0.0005358631   -15272.293 
      98   -15272.779 0.0005358631   -15272.779 
      99    -15273.29 0.0005358631    -15273.29 
     100   -15273.825 0.0005358631   -15273.825 
     101   -15274.382 0.0005358631   -15274.382 
     102   -15274.959 0.0005358631   -15274.959 
     103   -15275.554 0.0005358631   -15275.554 
     104   -15276.163 0.0005358631   -15276.163 
     105   -15276.783 0.0005358631   -15276.783 
     106   -15277.412 0.0005358631   -15277.412 
     107   -15278.044 0.0005358631   -15278.044 
     108   -15278.677 0.0005358631   -15278.677 
     109   -15279.309 0.0005358631   -15279.309 
     110   -15279.935 0.0005358631   -15279.935 
     111   -15280.554 0.0005358631   -15280.554 
     112   -15281.163 0.0005358631   -15281.163 
     113   -15281.761 0.0005358631   -15281.761 
     114   -15282.347 0.0005358631   -15282.347 
     115    -15282.92 0.0005358631    -15282.92 
     116   -15283.478 0.0005358631   -15283.478 
     117   -15284.022 0.0005358631   -15284.022 
     118    -15284.55 0.0005358631    -15284.55 
     119   -15285.064 0.0005358631   -15285.064 
     120   -15285.563 0.0005358631   -15285.563 
     121   -15286.046 0.0005358631   -15286.046 
     122   -15286.514 0.0005358631   -15286.514 
     123   -15286.966 0.0005358631   -15286.966 
     124   -15287.404 0.0005358631   -15287.404 
     125   -15287.825 0.0005358631   -15287.825 
     126   -15288.231 0.0005358631   -15288.231 
     127   -15288.621 0.0005358631   -15288.621 
     128   -15288.996 0.0005358631   -15288.996 
     129   -15289.354 0.0005358631   -15289.354 
     130   -15289.696 0.0005358631   -15289.696 
     131   -15290.021 0.0005358631   -15290.021 
     132   -15290.329 0.0005358631   -15290.329 
     133   -15290.621 0.0005358631   -15290.621 
     134   -15290.895 0.0005358631   -15290.895 
     135   -15291.151 0.0005358631   -15291.151 
     136   -15291.388 0.0005358631   -15291.388 
     137   -15291.607 0.0005358631   -15291.607 
     138   -15291.807 0.0005358631   -15291.807 
     139   -15291.987 0.0005358631   -15291.987 
     140   -15292.147 0.0005358631   -15292.147 
     141   -15292.287 0.0005358631   -15292.287 
     142   -15292.405 0.0005358631   -15292.405 
     143   -15292.502 0.0005358631   -15292.502 
     144   -15292.577 0.0005358631   -15292.577 
     145   -15292.629 0.0005358631   -15292.629 
     146   -15292.658 0.0005358631   -15292.658 
     147   -15292.664 0.0005358631   -15292.664 
     148   -15292.646 0.0005358631   -15292.646 
     149   -15292.603 0.0005358631   -15292.603 
     150   -15292.536 0.0005358631   -15292.536 
     151   -15292.444 0.0005358631   -15292.444 
     152   -15292.326 0.0005358631   -15292.326 
     153   -15292.182 0.0005358631   -15292.182 
     154   -15292.012 0.0005358631   -15292.012 
     155   -15291.815 0.0005358631   -15291.815 
     156   -15291.591 0.0005358631   -15291.591 
     157   -15291.339 0.0005358631   -15291.339 
     158    -15291.06 0.0005358631    -15291.06 
     159   -15290.753 0.0005358631   -15290.753 
     160   -15290.417 0.0005358631   -15290.417 
     161   -15290.053 0.0005358631   -15290.053 
     162   -15289.659 0.0005358631   -15289.659 
     163   -15289.237 0.0005358631   -15289.237 
     164   -15288.784 0.0005358631   -15288.784 
     165   -15288.301 0.0005358631   -15288.301 
     166   -15287.788 0.0005358631   -15287.788 
     167   -15287.243 0.0005358631   -15287.243 
     168   -15286.667 0.0005358631   -15286.667 
     169    -15286.06 0.0005358631    -15286.06 
     170    -15285.42 0.0005358631    -15285.42 
     171   -15284.748 0.0005358631   -15284.748 
     172   -15284.043 0.0005358631   -15284.043 
     173   -15283.304 0.0005358631   -15283.304 
     174   -15282.532 0.0005358631   -15282.532 
     175   -15281.724 0.0005358631   -15281.724 
     176   -15280.882 0.0005358631   -15280.882 
     177   -15280.005 0.0005358631   -15280.005 
     178   -15279.091 0.0005358631   -15279.091 
     179   -15278.141 0.0005358631   -15278.141 
     180   -15277.155 0.0005358631   -15277.155 
     181   -15276.131 0.0005358631   -15276.131 
     182   -15275.069 0.0005358631   -15275.069 
     183   -15273.969 0.0005358631   -15273.969 
     184    -15272.83 0.0005358631    -15272.83 
     185   -15271.652 0.0005358631   -15271.652 
     186   -15270.436 0.0005358631   -15270.436 
     187   -15269.179 0.0005358631   -15269.179 
     188   -15267.883 0.0005358631   -15267.883 
     189   -15266.548 0.0005358631   -15266.548 
     190   -15265.172 0.0005358631   -15265.172 
     191   -15263.758 0.0005358631   -15263.758 
     192   -15262.305 0.0005358631   -15262.305 
     193   -15260.815 0.0005358631   -15260.815 
     194   -15259.287 0.0005358631   -15259.287 
     195   -15257.724 0.0005358631   -15257.724 
     196   -15256.126 0.0005358631   -15256.126 
     197   -15254.496 0.0005358631   -15254.496 
     198   -15252.833 0.0005358631   -15252.833 
     199   -15251.139 0.0005358631   -15251.139 
     200   -15249.415 0.0005358631   -15249.415 
     201   -15247.664 0.0005358631   -15247.664 
     202   -15245.889 0.0005358631   -15245.889 
     203   -15244.092 0.0005358631   -15244.092 
     204   -15242.275 0.0005358631   -15242.275 
     205   -15240.442 0.0005358631   -15240.442 
     206   -15238.593 0.0005358631   -15238.593 
     207   -15236.728 0.0005358631   -15236.728 
     208   -15234.849 0.0005358631   -15234.849 
     209   -15232.955 0.0005358631   -15232.955 
     210   -15231.044 0.0005358631   -15231.044 
     211   -15229.117 0.0005358631   -15229.117 
     212   -15227.173 0.0005358631   -15227.173 
     213   -15225.209 0.0005358631   -15225.209 
     214   -15223.225 0.0005358631   -15223.225 
     215   -15221.219 0.0005358631   -15221.219 
     216   -15219.192 0.0005358631   -15219.192 
     217   -15217.144 0.0005358631   -15217.144 
     218   -15215.077 0.0005358631   -15215.077 
     219   -15212.992 0.0005358631   -15212.992 
     220    -15210.89 0.0005358631    -15210.89 
     221   -15208.771 0.0005358631   -15208.771 
     222   -15206.637 0.0005358631   -15206.637 
     223    -15204.49 0.0005358631    -15204.49 
     224    -15202.33 0.0005358631    -15202.33 
     225   -15200.159 0.0005358631   -15200.159 
     226   -15197.977 0.0005358631   -15197.977 
     227   -15195.787 0.0005358631   -15195.787 
     228    -15193.59 0.0005358631    -15193.59 
     229   -15191.386 0.0005358631   -15191.386 
     230   -15189.179 0.0005358631   -15189.179 
     231   -15186.968 0.0005358631   -15186.968 
     232   -15184.755 0.0005358631   -15184.755 
     233   -15182.543 0.0005358631   -15182.543 
     234   -15180.332 0.0005358631   -15180.332 
     235   -15178.124 0.0005358631   -15178.124 
     236   -15175.921 0.0005358631   -15175.921 
     237   -15173.724 0.0005358631   -15173.724 
     238   -15171.535 0.0005358631   -15171.535 
     239   -15169.355 0.0005358631   -15169.355 
     240   -15167.186 0.0005358631   -15167.186 
     241    -15165.03 0.0005358631    -15165.03 
     242   -15162.888 0.0005358631   -15162.888 
     243   -15160.762 0.0005358631   -15160.762 
     244   -15158.653 0.0005358631   -15158.653 
     245   -15156.562 0.0005358631   -15156.562 
     246   -15154.492 0.0005358631   -15154.492 
     247   -15152.444 0.0005358631   -15152.444 
     248   -15150.419 0.0005358631   -15150.419 
     249   -15148.419 0.0005358631   -15148.419 
     250   -15146.444 0.0005358631   -15146.444 
     251   -15144.498 0.0005358631   -15144.498 
     252   -15142.579 0.0005358631   -15142.579 
     253   -15140.691 0.0005358631   -15140.691 
     254   -15138.834 0.0005358631   -15138.834 
     255    -15137.01 0.0005358631    -15137.01 
     256   -15135.218 0.0005358631   -15135.218 
     257   -15133.461 0.0005358631   -15133.461 
     258   -15131.739 0.0005358631   -15131.739 
     259   -15130.054 0.0005358631   -15130.054 
     260   -15128.405 0.0005358631   -15128.405 
     261   -15126.794 0.0005358631   -15126.794 
     262   -15125.222 0.0005358631   -15125.222 
     263   -15123.688 0.0005358631   -15123.688 
     264   -15122.195 0.0005358631   -15122.195 
     265   -15120.743 0.0005358631   -15120.743 
     266   -15119.332 0.0005358631   -15119.332 
     267   -15117.964 0.0005358631   -15117.964 
     268   -15116.639 0.0005358631   -15116.639 
     269   -15115.358 0.0005358631   -15115.358 
     270   -15114.122 0.0005358631   -15114.122 
     271   -15112.932 0.0005358631   -15112.932 
     272   -15111.789 0.0005358631   -15111.789 
     273   -15110.693 0.0005358631   -15110.693 
     274   -15109.645 0.0005358631   -15109.645 
     275   -15108.646 0.0005358631   -15108.646 
     276   -15107.697 0.0005358631   -15107.697 
     277   -15106.798 0.0005358631   -15106.798 
     278    -15105.95 0.0005358631    -15105.95 
     279   -15105.153 0.0005358631   -15105.153 
     280   -15104.408 0.0005358631   -15104.408 
     281   -15103.716 0.0005358631   -15103.716 
     282   -15103.077 0.0005358631   -15103.077 
     283   -15102.491 0.0005358631   -15102.491 
     284   -15101.959 0.0005358631   -15101.959 
     285   -15101.481 0.0005358631   -15101.481 
     286   -15101.057 0.0005358631   -15101.057 
     287   -15100.688 0.0005358631   -15100.688 
     288   -15100.373 0.0005358631   -15100.373 
     289   -15100.114 0.0005358631   -15100.114 
     290    -15099.91 0.0005358631    -15099.91 
     291   -15099.761 0.0005358631   -15099.761 
     292   -15099.667 0.0005358631   -15099.667 
     293   -15099.629 0.0005358631   -15099.629 
     294   -15099.646 0.0005358631   -15099.646 
     295   -15099.718 0.0005358631   -15099.718 
     296   -15099.845 0.0005358631   -15099.845 
     297   -15100.027 0.0005358631   -15100.027 
     298   -15100.264 0.0005358631   -15100.264 
     299   -15100.556 0.0005358631   -15100.556 
     300   -15100.902 0.0005358631   -15100.902 
     301   -15101.302 0.0005358631   -15101.302 
     302   -15101.757 0.0005358631   -15101.757 
     303   -15102.264 0.0005358631   -15102.264 
     304   -15102.825 0.0005358631   -15102.825 
     305   -15103.439 0.0005358631   -15103.439 
     306   -15104.105 0.0005358631   -15104.105 
     307   -15104.823 0.0005358631   -15104.823 
     308   -15105.593 0.0005358631   -15105.593 
     309   -15106.413 0.0005358631   -15106.413 
     310   -15107.284 0.0005358631   -15107.284 
     311   -15108.204 0.0005358631   -15108.204 
     312   -15109.173 0.0005358631   -15109.173 
     313   -15110.191 0.0005358631   -15110.191 
     314   -15111.256 0.0005358631   -15111.256 
     315   -15112.369 0.0005358631   -15112.369 
     316   -15113.527 0.0005358631   -15113.527 
     317   -15114.731 0.0005358631   -15114.731 
     318    -15115.98 0.0005358631    -15115.98 
     319   -15117.272 0.0005358631   -15117.272 
     320   -15118.606 0.0005358631   -15118.606 
     321   -15119.983 0.0005358631   -15119.983 
     322   -15121.401 0.0005358631   -15121.401 
     323   -15122.859 0.0005358631   -15122.859 
     324   -15124.357 0.0005358631   -15124.357 
     325   -15125.894 0.0005358631   -15125.894 
     326    -15127.47 0.0005358631    -15127.47 
     327   -15129.084 0.0005358631   -15129.084 
     328   -15130.735 0.0005358631   -15130.735 
     329   -15132.423 0.0005358631   -15132.423 
     330   -15134.145 0.0005358631   -15134.145 
     331   -15135.901 0.0005358631   -15135.901 
     332    -15137.69 0.0005358631    -15137.69 
     333   -15139.511 0.0005358631   -15139.511 
     334   -15141.363 0.0005358631   -15141.363 
     335   -15143.244 0.0005358631   -15143.244 
     336   -15145.153 0.0005358631   -15145.153 
     337    -15147.09 0.0005358631    -15147.09 
     338   -15149.051 0.0005358631   -15149.051 
     339   -15151.037 0.0005358631   -15151.037 
     340   -15153.046 0.0005358631   -15153.046 
     341   -15155.076 0.0005358631   -15155.076 
     342   -15157.127 0.0005358631   -15157.127 
     343   -15159.195 0.0005358631   -15159.195 
     344   -15161.281 0.0005358631   -15161.281 
     345   -15163.383 0.0005358631   -15163.383 
     346   -15165.498 0.0005358631   -15165.498 
     347   -15167.627 0.0005358631   -15167.627 
     348   -15169.766 0.0005358631   -15169.766 
     349   -15171.916 0.0005358631   -15171.916 
     350   -15174.073 0.0005358631   -15174.073 
     351   -15176.238 0.0005358631   -15176.238 
     352   -15178.408 0.0005358631   -15178.408 
     353   -15180.581 0.0005358631   -15180.581 
     354   -15182.757 0.0005358631   -15182.757 
     355   -15184.934 0.0005358631   -15184.934 
     356    -15187.11 0.0005358631    -15187.11 
     357   -15189.284 0.0005358631   -15189.284 
     358   -15191.455 0.0005358631   -15191.455 
     359   -15193.622 0.0005358631   -15193.622 
     360   -15195.782 0.0005358631   -15195.782 
     361   -15197.936 0.0005358631   -15197.936 
     362    -15200.08 0.0005358631    -15200.08 
     363   -15202.215 0.0005358631   -15202.215 
     364   -15204.339 0.0005358631   -15204.339 
     365   -15206.451 0.0005358631   -15206.451 
     366   -15208.549 0.0005358631   -15208.549 
     367   -15210.633 0.0005358631   -15210.633 
     368   -15212.702 0.0005358631   -15212.702 
     369   -15214.753 0.0005358631   -15214.753 
     370   -15216.787 0.0005358631   -15216.787 
     371   -15218.805 0.0005358631   -15218.805 
     372   -15220.805 0.0005358631   -15220.805 
     373    -15222.79 0.0005358631    -15222.79 
     374   -15224.762 0.0005358631   -15224.762 
     375   -15226.723 0.0005358631   -15226.723 
     376   -15228.678 0.0005358631   -15228.678 
     377   -15230.626 0.0005358631   -15230.626 
     378   -15232.567 0.0005358631   -15232.567 
     379     -15234.5 0.0005358631     -15234.5 
     380   -15236.423 0.0005358631   -15236.423 
     381   -15238.333 0.0005358631   -15238.333 
     382   -15240.225 0.0005358631   -15240.225 
     383   -15242.095 0.0005358631   -15242.095 
     384   -15243.944 0.0005358631   -15243.944 
     385   -15245.768 0.0005358631   -15245.768 
     386   -15247.565 0.0005358631   -15247.565 
     387   -15249.332 0.0005358631   -15249.332 
     388   -15251.068 0.0005358631   -15251.068 
     389    -15252.77 0.0005358631    -15252.77 
     390   -15254.438 0.0005358631   -15254.438 
     391   -15256.071 0.0005358631   -15256.071 
     392   -15257.667 0.0005358631   -15257.667 
     393   -15259.226 0.0005358631   -15259.226 
     394   -15260.747 0.0005358631   -15260.747 
     395    -15262.23 0.0005358631    -15262.23 
     396   -15263.674 0.0005358631   -15263.674 
     397   -15265.079 0.0005358631   -15265.079 
     398   -15266.445 0.0005358631   -15266.445 
     399   -15267.773 0.0005358631   -15267.773 
     400   -15269.061 0.0005358631   -15269.061 
     401    -15270.31 0.0005358631    -15270.31 
     402    -15271.52 0.0005358631    -15271.52 
     403   -15272.692 0.0005358631   -15272.692 
     404   -15273.825 0.0005358631   -15273.825 
     405   -15274.921 0.0005358631   -15274.921 
     406   -15275.979 0.0005358631   -15275.979 
     407   -15276.999 0.0005358631   -15276.999 
     408   -15277.984 0.0005358631   -15277.984 
     409   -15278.931 0.0005358631   -15278.931 
     410   -15279.843 0.0005358631   -15279.843 
     411    -15280.72 0.0005358631    -15280.72 
     412   -15281.562 0.0005358631   -15281.562 
     413    -15282.37 0.0005358631    -15282.37 
     414   -15283.143 0.0005358631   -15283.143 
     415   -15283.884 0.0005358631   -15283.884 
     416   -15284.591 0.0005358631   -15284.591 
     417   -15285.265 0.0005358631   -15285.265 
     418   -15285.908 0.0005358631   -15285.908 
     419   -15286.519 0.0005358631   -15286.519 
     420   -15287.098 0.0005358631   -15287.098 
     421   -15287.647 0.0005358631   -15287.647 
     422   -15288.165 0.0005358631   -15288.165 
     423   -15288.653 0.0005358631   -15288.653 
     424   -15289.111 0.0005358631   -15289.111 
     425   -15289.539 0.0005358631   -15289.539 
     426   -15289.938 0.0005358631   -15289.938 
     427   -15290.309 0.0005358631   -15290.309 
     428   -15290.651 0.0005358631   -15290.651 
     429   -15290.964 0.0005358631   -15290.964 
     430    -15291.25 0.0005358631    -15291.25 
     431   -15291.508 0.0005358631   -15291.508 
     432   -15291.739 0.0005358631   -15291.739 
     433   -15291.943 0.0005358631   -15291.943 
     434    -15292.12 0.0005358631    -15292.12 
     435   -15292.271 0.0005358631   -15292.271 
     436   -15292.397 0.0005358631   -15292.397 
     437   -15292.497 0.0005358631   -15292.497 
     438   -15292.572 0.0005358631   -15292.572 
     439   -15292.623 0.0005358631   -15292.623 
     440   -15292.649 0.0005358631   -15292.649 
     441   -15292.652 0.0005358631   -15292.652 
     442   -15292.632 0.0005358631   -15292.632 
     443   -15292.589 0.0005358631   -15292.589 
     444   -15292.523 0.0005358631   -15292.523 
     445   -15292.436 0.0005358631   -15292.436 
     446   -15292.327 0.0005358631   -15292.327 
     447   -15292.196 0.0005358631   -15292.196 
     448   -15292.046 0.0005358631   -15292.046 
     449   -15291.875 0.0005358631   -15291.875 
     450   -15291.684 0.0005358631   -15291.684 
     451   -15291.474 0.0005358631   -15291.474 
     452   -15291.246 0.0005358631   -15291.246 
     453   -15290.999 0.0005358631   -15290.999 
     454   -15290.735 0.0005358631   -15290.735 
     455   -15290.453 0.0005358631   -15290.453 
     456   -15290.154 0.0005358631   -15290.154 
     457   -15289.838 0.0005358631   -15289.838 
     458   -15289.506 0.0005358631   -15289.506 
     459   -15289.157 0.0005358631   -15289.157 
     460   -15288.791 0.0005358631   -15288.791 
     461   -15288.409 0.0005358631   -15288.409 
     462   -15288.012 0.0005358631   -15288.012 
     463   -15287.598 0.0005358631   -15287.598 
     464   -15287.168 0.0005358631   -15287.168 
     465   -15286.721 0.0005358631   -15286.721 
     466   -15286.259 0.0005358631   -15286.259 
     467   -15285.781 0.0005358631   -15285.781 
     468   -15285.287 0.0005358631   -15285.287 
     469   -15284.777 0.0005358631   -15284.777 
     470   -15284.251 0.0005358631   -15284.251 
     471    -15283.71 0.0005358631    -15283.71 
     472   -15283.154 0.0005358631   -15283.154 
     473   -15282.584 0.0005358631   -15282.584 
     474       -15282 0.0005358631       -15282 
     475   -15281.405 0.0005358631   -15281.405 
     476     -15280.8 0.0005358631     -15280.8 
     477   -15280.187 0.0005358631   -15280.187 
     478   -15279.568 0.0005358631   -15279.568 
     479   -15278.948 0.0005358631   -15278.948 
     480   -15278.327 0.0005358631   -15278.327 
     481    -15277.71 0.0005358631    -15277.71 
     482     -15277.1 0.0005358631     -15277.1 
     483   -15276.498 0.0005358631   -15276.498 
     484   -15275.908 0.0005358631   -15275.908 
     485   -15275.332 0.0005358631   -15275.332 
     486    -15274.77 0.0005358631    -15274.77 
     487   -15274.225 0.0005358631   -15274.225 
     488   -15273.697 0.0005358631   -15273.697 
     489   -15273.186 0.0005358631   -15273.186 
     490    -15272.69 0.0005358631    -15272.69 
     491   -15272.212 0.0005358631   -15272.212 
     492   -15271.751 0.0005358631   -15271.751 
     493   -15271.308 0.0005358631   -15271.308 
     494   -15270.886 0.0005358631   -15270.886 
     495   -15270.482 0.0005358631   -15270.482 
     496   -15270.093 0.0005358631   -15270.093 
     497    -15269.72 0.0005358631    -15269.72 
     498   -15269.361 0.0005358631   -15269.361 
     499   -15269.019 0.0005358631   -15269.019 
     500   -15268.695 0.0005358631   -15268.695 
Loop time of 41.7206 on 1 procs for 500 steps with 3600 atoms

Performance: 1035.460 ns/day, 0.023 hours/ns, 11.984 timesteps/s
100.0% CPU use with 1 MPI tasks x 1 OpenMP threads

MPI task timing breakdown:
Section |  min time  |  avg time  |  max time  |%varavg| %total
---------------------------------------------------------------
Pair    | 41.597     | 41.597     | 41.597     |   0.0 | 99.70
Neigh   | 0.056927   | 0.056927   | 0.056927   |   0.0 |  0.14
Comm    | 0.010907   | 0.010907   | 0.010907   |   0.0 |  0.03
Output  | 0.03087    | 0.03087    | 0.03087    |   0.0 |  0.07
Modify  | 0.016344   | 0.016344   | 0.016344   |   0.0 |  0.04
Other   |            | 0.008299   |            |       |  0.02

Nlocal:        3600.00 ave        3600 max        3600 min
Histogram: 1 0 0 0 0 0 0 0 0 0
Nghost:        3606.00 ave        3606 max        3606 min
Histogram: 1 0 0 0 0 0 0 0 0 0
Neighs:        146946.0 ave      146946 max      146946 min
Histogram: 1 0 0 0 0 0 0 0 0 0
FullNghs:      293892.0 ave      293892 max      293892 min
Histogram: 1 0 0 0 0 0 0 0 0 0

Total # of neighbors = 293892
Ave neighs/atom = 81.636667
Neighbor list builds = 4
Dangerous builds = 0

Total wall time: 0:00:55
