LAMMPS (29 Sep 2021)
OMP_NUM_THREADS environment is not set. Defaulting to 1 thread. (src/comm.cpp:98)
  using 1 OpenMP thread(s) per MPI task
# Input file for Stack Fault Energy surface of Nickel
# Richard Glaze, 2014
# --------------------- INITIALIZAITION ---------------------
clear
OMP_NUM_THREADS environment is not set. Defaulting to 1 thread. (src/comm.cpp:98)
  using 1 OpenMP thread(s) per MPI task
units		metal
dimension	3
boundary	p p s
atom_style	atomic

read_data 	../data111_use3.dat
Reading data file ...
  orthogonal box = (0.0000000 0.0000000 -0.0037381121) to (44.054073 25.434631 35.308130)
  1 by 1 by 1 MPI processor grid
  reading atoms ...
  3600 atoms
  read_data CPU = 0.012 seconds
#variable x_displace equal -1*(${latparam1}/sqrt(6))
variable zcut equal 17.4363
variable xdim equal 43.5152
variable ydim equal 25.1235

# --------------------- ATOM DEFINITION ---------------------

region		1 block -.001 INF -.001 INF -.001 ${zcut} units box
region		1 block -.001 INF -.001 INF -.001 17.4363 units box
region 	2 block -.001 INF -.001 INF ${zcut} INF units box
region 	2 block -.001 INF -.001 INF 17.4363 INF units box

region		whole block INF INF INF INF INF INF units box


# --------------------- FORCE FIELDS ---------------------
pair_style meam/c
pair_coeff	* * ../library.meam Co Ni Cr Fe Mn ../CoNiCrFeMn.meam Mn Cr Co Fe Ni

# --------------------- SETTINGS ---------------------

compute peratom all pe/atom
compute eatoms all reduce sum c_peratom
compute csym all centro/atom fcc

min_style cg
minimize 1e-10 1e-10 10000 100000
WARNING: Using 'neigh_modify every 1 delay 0 check yes' setting during minimization (src/min.cpp:188)
Neighbor list info ...
  update every 1 steps, delay 0 steps, check yes
  max neighbors/atom: 2000, page size: 100000
  master list distance cutoff = 6.5
  ghost atom cutoff = 6.5
  binsize = 3.25, bins = 14 8 11
  3 neighbor lists, perpetual/occasional/extra = 2 1 0
  (1) pair meam/c, perpetual
      attributes: full, newton on
      pair build: full/bin/atomonly
      stencil: full/bin/3d
      bin: standard
  (2) pair meam/c, perpetual, half/full from (1)
      attributes: half, newton on
      pair build: halffull/newton
      stencil: none
      bin: none
  (3) compute centro/atom, occasional, copy from (1)
      attributes: full, newton on
      pair build: copy
      stencil: none
      bin: none
Per MPI rank memory allocation (min/avg/max) = 15.41 | 15.41 | 15.41 Mbytes
Step Temp E_pair E_mol TotEng Press Volume 
       0            0   -15254.826            0   -15254.826   -63781.464    39566.452 
      60            0   -15291.437            0   -15291.437   -25529.288    39566.452 
Loop time of 18.0879 on 1 procs for 60 steps with 3600 atoms

98.7% CPU use with 1 MPI tasks x 1 OpenMP threads

Minimization stats:
  Stopping criterion = energy tolerance
  Energy initial, next-to-last, final = 
     -15254.8262383973  -15291.4367404524   -15291.436741805
  Force two-norm initial, final = 19.237593 0.29058022
  Force max component initial, final = 1.2034150 0.17360768
  Final line search alpha, max atom move = 0.80044755 0.13896385
  Iterations, force evaluations = 60 207

MPI task timing breakdown:
Section |  min time  |  avg time  |  max time  |%varavg| %total
---------------------------------------------------------------
Pair    | 18.07      | 18.07      | 18.07      |   0.0 | 99.90
Neigh   | 0          | 0          | 0          |   0.0 |  0.00
Comm    | 0.0048258  | 0.0048258  | 0.0048258  |   0.0 |  0.03
Output  | 0          | 0          | 0          |   0.0 |  0.00
Modify  | 0          | 0          | 0          |   0.0 |  0.00
Other   |            | 0.01275    |            |       |  0.07

Nlocal:        3600.00 ave        3600 max        3600 min
Histogram: 1 0 0 0 0 0 0 0 0 0
Nghost:        3558.00 ave        3558 max        3558 min
Histogram: 1 0 0 0 0 0 0 0 0 0
Neighs:        145200.0 ave      145200 max      145200 min
Histogram: 1 0 0 0 0 0 0 0 0 0
FullNghs:      290400.0 ave      290400 max      290400 min
Histogram: 1 0 0 0 0 0 0 0 0 0

Total # of neighbors = 290400
Ave neighs/atom = 80.666667
Neighbor list builds = 0
Dangerous builds = 0

thermo 1
thermo_style custom step pe c_eatoms
#dump 1 all custom 1 dump.relax id type xs ys zs c_peratom c_csym
run 0
WARNING: No fixes defined, atoms won't move (src/verlet.cpp:55)
Per MPI rank memory allocation (min/avg/max) = 14.29 | 14.29 | 14.29 Mbytes
Step PotEng c_eatoms 
      60   -15291.437   -15291.437 
Loop time of 8.8e-07 on 1 procs for 0 steps with 3600 atoms

227.3% CPU use with 1 MPI tasks x 1 OpenMP threads

MPI task timing breakdown:
Section |  min time  |  avg time  |  max time  |%varavg| %total
---------------------------------------------------------------
Pair    | 0          | 0          | 0          |   0.0 |  0.00
Neigh   | 0          | 0          | 0          |   0.0 |  0.00
Comm    | 0          | 0          | 0          |   0.0 |  0.00
Output  | 0          | 0          | 0          |   0.0 |  0.00
Modify  | 0          | 0          | 0          |   0.0 |  0.00
Other   |            | 8.8e-07    |            |       |100.00

Nlocal:        3600.00 ave        3600 max        3600 min
Histogram: 1 0 0 0 0 0 0 0 0 0
Nghost:        3558.00 ave        3558 max        3558 min
Histogram: 1 0 0 0 0 0 0 0 0 0
Neighs:        145265.0 ave      145265 max      145265 min
Histogram: 1 0 0 0 0 0 0 0 0 0
FullNghs:      290530.0 ave      290530 max      290530 min
Histogram: 1 0 0 0 0 0 0 0 0 0

Total # of neighbors = 290530
Ave neighs/atom = 80.702778
Neighbor list builds = 0
Dangerous builds = 0

#this command creates a model of the script before the displacement and minimization occur


variable E equal "c_eatoms"
variable Eo equal $E
variable Eo equal -15291.436741805

#undump 1

#variable E equal "c_eatoms" computes the initial energy of the model before any sliding is done
#E is necessary to store the initial energy in Eo

group bot region 1
1800 atoms in group bot
group top region 2
1800 atoms in group top


reset_timestep 0
timestep 1

fix 1 top move linear -0.01 0.0 0.0 units box

#dump 2 all custom 1 dump2.relax id type xs ys zs c_peratom c_csym

#displace_atoms top move ${x_displace} 0.0 0.0 units box
#displace_atoms is the command neccessary to move atoms into the next stacking arrangement (ie: A -> B)

#fix 2 all setforce 0 0 NULL


thermo 1
thermo_style custom step pe ke c_eatoms

run 500
Per MPI rank memory allocation (min/avg/max) = 14.79 | 14.79 | 14.79 Mbytes
Step PotEng KinEng c_eatoms 
       0   -15291.437            0   -15291.437 
       1   -15291.425 0.00053525802   -15291.425 
       2   -15291.391 0.00053525802   -15291.391 
       3   -15291.335 0.00053525802   -15291.335 
       4   -15291.256 0.00053525802   -15291.256 
       5   -15291.156 0.00053525802   -15291.156 
       6   -15291.036 0.00053525802   -15291.036 
       7   -15290.896 0.00053525802   -15290.896 
       8   -15290.737 0.00053525802   -15290.737 
       9   -15290.558 0.00053525802   -15290.558 
      10   -15290.361 0.00053525802   -15290.361 
      11   -15290.146 0.00053525802   -15290.146 
      12   -15289.913 0.00053525802   -15289.913 
      13   -15289.663 0.00053525802   -15289.663 
      14   -15289.395 0.00053525802   -15289.395 
      15   -15289.112 0.00053525802   -15289.112 
      16   -15288.811 0.00053525802   -15288.811 
      17   -15288.495 0.00053525802   -15288.495 
      18   -15288.163 0.00053525802   -15288.163 
      19   -15287.815 0.00053525802   -15287.815 
      20   -15287.452 0.00053525802   -15287.452 
      21   -15287.074 0.00053525802   -15287.074 
      22    -15286.68 0.00053525802    -15286.68 
      23   -15286.271 0.00053525802   -15286.271 
      24   -15285.847 0.00053525802   -15285.847 
      25   -15285.407 0.00053525802   -15285.407 
      26   -15284.953 0.00053525802   -15284.953 
      27   -15284.483 0.00053525802   -15284.483 
      28   -15283.998 0.00053525802   -15283.998 
      29   -15283.499 0.00053525802   -15283.499 
      30   -15282.984 0.00053525802   -15282.984 
      31   -15282.455 0.00053525802   -15282.455 
      32   -15281.913 0.00053525802   -15281.913 
      33   -15281.357 0.00053525802   -15281.357 
      34   -15280.788 0.00053525802   -15280.788 
      35   -15280.209 0.00053525802   -15280.209 
      36    -15279.62 0.00053525802    -15279.62 
      37   -15279.022 0.00053525802   -15279.022 
      38   -15278.419 0.00053525802   -15278.419 
      39   -15277.812 0.00053525802   -15277.812 
      40   -15277.203 0.00053525802   -15277.203 
      41   -15276.596 0.00053525802   -15276.596 
      42   -15275.992 0.00053525802   -15275.992 
      43   -15275.394 0.00053525802   -15275.394 
      44   -15274.806 0.00053525802   -15274.806 
      45   -15274.228 0.00053525802   -15274.228 
      46   -15273.664 0.00053525802   -15273.664 
      47   -15273.114 0.00053525802   -15273.114 
      48    -15272.58 0.00053525802    -15272.58 
      49   -15272.064 0.00053525802   -15272.064 
      50   -15271.565 0.00053525802   -15271.565 
      51   -15271.084 0.00053525802   -15271.084 
      52   -15270.621 0.00053525802   -15270.621 
      53   -15270.176 0.00053525802   -15270.176 
      54   -15269.748 0.00053525802   -15269.748 
      55   -15269.338 0.00053525802   -15269.338 
      56   -15268.947 0.00053525802   -15268.947 
      57   -15268.575 0.00053525802   -15268.575 
      58   -15268.224 0.00053525802   -15268.224 
      59   -15267.892 0.00053525802   -15267.892 
      60   -15267.576 0.00053525802   -15267.576 
      61   -15267.279 0.00053525802   -15267.279 
      62       -15267 0.00053525802       -15267 
      63    -15266.74 0.00053525802    -15266.74 
      64   -15266.501 0.00053525802   -15266.501 
      65   -15266.282 0.00053525802   -15266.282 
      66   -15266.085 0.00053525802   -15266.085 
      67   -15265.909 0.00053525802   -15265.909 
      68   -15265.756 0.00053525802   -15265.756 
      69   -15265.626 0.00053525802   -15265.626 
      70   -15265.519 0.00053525802   -15265.519 
      71   -15265.435 0.00053525802   -15265.435 
      72   -15265.375 0.00053525802   -15265.375 
      73   -15265.339 0.00053525802   -15265.339 
      74   -15265.326 0.00053525802   -15265.326 
      75   -15265.338 0.00053525802   -15265.338 
      76   -15265.374 0.00053525802   -15265.374 
      77   -15265.433 0.00053525802   -15265.433 
      78   -15265.516 0.00053525802   -15265.516 
      79   -15265.623 0.00053525802   -15265.623 
      80   -15265.753 0.00053525802   -15265.753 
      81   -15265.905 0.00053525802   -15265.905 
      82    -15266.08 0.00053525802    -15266.08 
      83   -15266.277 0.00053525802   -15266.277 
      84   -15266.495 0.00053525802   -15266.495 
      85   -15266.734 0.00053525802   -15266.734 
      86   -15266.992 0.00053525802   -15266.992 
      87   -15267.271 0.00053525802   -15267.271 
      88   -15267.567 0.00053525802   -15267.567 
      89   -15267.882 0.00053525802   -15267.882 
      90   -15268.213 0.00053525802   -15268.213 
      91   -15268.561 0.00053525802   -15268.561 
      92   -15268.924 0.00053525802   -15268.924 
      93   -15269.301 0.00053525802   -15269.301 
      94   -15269.694 0.00053525802   -15269.694 
      95   -15270.102 0.00053525802   -15270.102 
      96   -15270.525 0.00053525802   -15270.525 
      97   -15270.962 0.00053525802   -15270.962 
      98   -15271.413 0.00053525802   -15271.413 
      99   -15271.879 0.00053525802   -15271.879 
     100   -15272.359 0.00053525802   -15272.359 
     101   -15272.853 0.00053525802   -15272.853 
     102   -15273.362 0.00053525802   -15273.362 
     103   -15273.887 0.00053525802   -15273.887 
     104   -15274.428 0.00053525802   -15274.428 
     105   -15274.985 0.00053525802   -15274.985 
     106   -15275.558 0.00053525802   -15275.558 
     107   -15276.146 0.00053525802   -15276.146 
     108   -15276.746 0.00053525802   -15276.746 
     109   -15277.357 0.00053525802   -15277.357 
     110   -15277.975 0.00053525802   -15277.975 
     111   -15278.598 0.00053525802   -15278.598 
     112   -15279.221 0.00053525802   -15279.221 
     113   -15279.842 0.00053525802   -15279.842 
     114   -15280.456 0.00053525802   -15280.456 
     115   -15281.062 0.00053525802   -15281.062 
     116   -15281.656 0.00053525802   -15281.656 
     117   -15282.236 0.00053525802   -15282.236 
     118   -15282.801 0.00053525802   -15282.801 
     119   -15283.349 0.00053525802   -15283.349 
     120   -15283.879 0.00053525802   -15283.879 
     121    -15284.39 0.00053525802    -15284.39 
     122   -15284.883 0.00053525802   -15284.883 
     123   -15285.357 0.00053525802   -15285.357 
     124   -15285.811 0.00053525802   -15285.811 
     125   -15286.247 0.00053525802   -15286.247 
     126   -15286.664 0.00053525802   -15286.664 
     127   -15287.062 0.00053525802   -15287.062 
     128   -15287.442 0.00053525802   -15287.442 
     129   -15287.803 0.00053525802   -15287.803 
     130   -15288.146 0.00053525802   -15288.146 
     131   -15288.471 0.00053525802   -15288.471 
     132   -15288.778 0.00053525802   -15288.778 
     133   -15289.067 0.00053525802   -15289.067 
     134   -15289.337 0.00053525802   -15289.337 
     135   -15289.589 0.00053525802   -15289.589 
     136   -15289.822 0.00053525802   -15289.822 
     137   -15290.037 0.00053525802   -15290.037 
     138   -15290.232 0.00053525802   -15290.232 
     139   -15290.408 0.00053525802   -15290.408 
     140   -15290.564 0.00053525802   -15290.564 
     141   -15290.699 0.00053525802   -15290.699 
     142   -15290.815 0.00053525802   -15290.815 
     143    -15290.91 0.00053525802    -15290.91 
     144   -15290.984 0.00053525802   -15290.984 
     145   -15291.036 0.00053525802   -15291.036 
     146   -15291.067 0.00053525802   -15291.067 
     147   -15291.075 0.00053525802   -15291.075 
     148    -15291.06 0.00053525802    -15291.06 
     149   -15291.022 0.00053525802   -15291.022 
     150    -15290.96 0.00053525802    -15290.96 
     151   -15290.874 0.00053525802   -15290.874 
     152   -15290.764 0.00053525802   -15290.764 
     153   -15290.628 0.00053525802   -15290.628 
     154   -15290.467 0.00053525802   -15290.467 
     155   -15290.281 0.00053525802   -15290.281 
     156   -15290.068 0.00053525802   -15290.068 
     157   -15289.829 0.00053525802   -15289.829 
     158   -15289.564 0.00053525802   -15289.564 
     159   -15289.271 0.00053525802   -15289.271 
     160   -15288.951 0.00053525802   -15288.951 
     161   -15288.603 0.00053525802   -15288.603 
     162   -15288.227 0.00053525802   -15288.227 
     163   -15287.823 0.00053525802   -15287.823 
     164   -15287.391 0.00053525802   -15287.391 
     165   -15286.929 0.00053525802   -15286.929 
     166   -15286.438 0.00053525802   -15286.438 
     167   -15285.918 0.00053525802   -15285.918 
     168   -15285.368 0.00053525802   -15285.368 
     169   -15284.787 0.00053525802   -15284.787 
     170   -15284.176 0.00053525802   -15284.176 
     171   -15283.534 0.00053525802   -15283.534 
     172    -15282.86 0.00053525802    -15282.86 
     173   -15282.155 0.00053525802   -15282.155 
     174   -15281.417 0.00053525802   -15281.417 
     175   -15280.647 0.00053525802   -15280.647 
     176   -15279.844 0.00053525802   -15279.844 
     177   -15279.007 0.00053525802   -15279.007 
     178   -15278.136 0.00053525802   -15278.136 
     179   -15277.231 0.00053525802   -15277.231 
     180   -15276.292 0.00053525802   -15276.292 
     181   -15275.317 0.00053525802   -15275.317 
     182   -15274.306 0.00053525802   -15274.306 
     183   -15273.259 0.00053525802   -15273.259 
     184   -15272.176 0.00053525802   -15272.176 
     185   -15271.056 0.00053525802   -15271.056 
     186   -15269.898 0.00053525802   -15269.898 
     187   -15268.703 0.00053525802   -15268.703 
     188   -15267.469 0.00053525802   -15267.469 
     189   -15266.197 0.00053525802   -15266.197 
     190   -15264.885 0.00053525802   -15264.885 
     191   -15263.534 0.00053525802   -15263.534 
     192   -15262.144 0.00053525802   -15262.144 
     193   -15260.713 0.00053525802   -15260.713 
     194   -15259.243 0.00053525802   -15259.243 
     195   -15257.733 0.00053525802   -15257.733 
     196   -15256.184 0.00053525802   -15256.184 
     197   -15254.595 0.00053525802   -15254.595 
     198   -15252.968 0.00053525802   -15252.968 
     199   -15251.304 0.00053525802   -15251.304 
     200   -15249.604 0.00053525802   -15249.604 
     201   -15247.869 0.00053525802   -15247.869 
     202   -15246.102 0.00053525802   -15246.102 
     203   -15244.305 0.00053525802   -15244.305 
     204    -15242.48 0.00053525802    -15242.48 
     205   -15240.631 0.00053525802   -15240.631 
     206   -15238.759 0.00053525802   -15238.759 
     207   -15236.868 0.00053525802   -15236.868 
     208   -15234.962 0.00053525802   -15234.962 
     209   -15233.044 0.00053525802   -15233.044 
     210   -15231.115 0.00053525802   -15231.115 
     211   -15229.175 0.00053525802   -15229.175 
     212   -15227.223 0.00053525802   -15227.223 
     213   -15225.258 0.00053525802   -15225.258 
     214    -15223.28 0.00053525802    -15223.28 
     215   -15221.292 0.00053525802   -15221.292 
     216   -15219.291 0.00053525802   -15219.291 
     217   -15217.274 0.00053525802   -15217.274 
     218    -15215.24 0.00053525802    -15215.24 
     219   -15213.189 0.00053525802   -15213.189 
     220    -15211.12 0.00053525802    -15211.12 
     221   -15209.034 0.00053525802   -15209.034 
     222   -15206.933 0.00053525802   -15206.933 
     223   -15204.818 0.00053525802   -15204.818 
     224   -15202.689 0.00053525802   -15202.689 
     225   -15200.549 0.00053525802   -15200.549 
     226   -15198.397 0.00053525802   -15198.397 
     227   -15196.237 0.00053525802   -15196.237 
     228   -15194.068 0.00053525802   -15194.068 
     229   -15191.892 0.00053525802   -15191.892 
     230   -15189.711 0.00053525802   -15189.711 
     231   -15187.526 0.00053525802   -15187.526 
     232   -15185.338 0.00053525802   -15185.338 
     233   -15183.149 0.00053525802   -15183.149 
     234   -15180.961 0.00053525802   -15180.961 
     235   -15178.774 0.00053525802   -15178.774 
     236   -15176.591 0.00053525802   -15176.591 
     237   -15174.412 0.00053525802   -15174.412 
     238    -15172.24 0.00053525802    -15172.24 
     239   -15170.076 0.00053525802   -15170.076 
     240   -15167.921 0.00053525802   -15167.921 
     241   -15165.776 0.00053525802   -15165.776 
     242   -15163.644 0.00053525802   -15163.644 
     243   -15161.526 0.00053525802   -15161.526 
     244   -15159.424 0.00053525802   -15159.424 
     245   -15157.338 0.00053525802   -15157.338 
     246   -15155.271 0.00053525802   -15155.271 
     247   -15153.223 0.00053525802   -15153.223 
     248   -15151.197 0.00053525802   -15151.197 
     249   -15149.193 0.00053525802   -15149.193 
     250   -15147.213 0.00053525802   -15147.213 
     251   -15145.258 0.00053525802   -15145.258 
     252   -15143.331 0.00053525802   -15143.331 
     253   -15141.431 0.00053525802   -15141.431 
     254    -15139.56 0.00053525802    -15139.56 
     255    -15137.72 0.00053525802    -15137.72 
     256   -15135.912 0.00053525802   -15135.912 
     257   -15134.137 0.00053525802   -15134.137 
     258   -15132.396 0.00053525802   -15132.396 
     259   -15130.689 0.00053525802   -15130.689 
     260   -15129.019 0.00053525802   -15129.019 
     261   -15127.385 0.00053525802   -15127.385 
     262   -15125.789 0.00053525802   -15125.789 
     263   -15124.232 0.00053525802   -15124.232 
     264   -15122.714 0.00053525802   -15122.714 
     265   -15121.236 0.00053525802   -15121.236 
     266     -15119.8 0.00053525802     -15119.8 
     267   -15118.406 0.00053525802   -15118.406 
     268   -15117.054 0.00053525802   -15117.054 
     269   -15115.747 0.00053525802   -15115.747 
     270   -15114.484 0.00053525802   -15114.484 
     271   -15113.267 0.00053525802   -15113.267 
     272   -15112.096 0.00053525802   -15112.096 
     273   -15110.972 0.00053525802   -15110.972 
     274   -15109.896 0.00053525802   -15109.896 
     275   -15108.868 0.00053525802   -15108.868 
     276    -15107.89 0.00053525802    -15107.89 
     277   -15106.962 0.00053525802   -15106.962 
     278   -15106.085 0.00053525802   -15106.085 
     279   -15105.259 0.00053525802   -15105.259 
     280   -15104.485 0.00053525802   -15104.485 
     281   -15103.763 0.00053525802   -15103.763 
     282   -15103.094 0.00053525802   -15103.094 
     283   -15102.479 0.00053525802   -15102.479 
     284   -15101.917 0.00053525802   -15101.917 
     285   -15101.409 0.00053525802   -15101.409 
     286   -15100.956 0.00053525802   -15100.956 
     287   -15100.557 0.00053525802   -15100.557 
     288   -15100.214 0.00053525802   -15100.214 
     289   -15099.925 0.00053525802   -15099.925 
     290   -15099.692 0.00053525802   -15099.692 
     291   -15099.515 0.00053525802   -15099.515 
     292   -15099.393 0.00053525802   -15099.393 
     293   -15099.327 0.00053525802   -15099.327 
     294   -15099.317 0.00053525802   -15099.317 
     295   -15099.362 0.00053525802   -15099.362 
     296   -15099.463 0.00053525802   -15099.463 
     297    -15099.62 0.00053525802    -15099.62 
     298   -15099.832 0.00053525802   -15099.832 
     299   -15100.099 0.00053525802   -15100.099 
     300   -15100.422 0.00053525802   -15100.422 
     301     -15100.8 0.00053525802     -15100.8 
     302   -15101.232 0.00053525802   -15101.232 
     303   -15101.718 0.00053525802   -15101.718 
     304   -15102.259 0.00053525802   -15102.259 
     305   -15102.854 0.00053525802   -15102.854 
     306   -15103.501 0.00053525802   -15103.501 
     307   -15104.202 0.00053525802   -15104.202 
     308   -15104.954 0.00053525802   -15104.954 
     309   -15105.759 0.00053525802   -15105.759 
     310   -15106.615 0.00053525802   -15106.615 
     311   -15107.522 0.00053525802   -15107.522 
     312   -15108.478 0.00053525802   -15108.478 
     313   -15109.485 0.00053525802   -15109.485 
     314   -15110.539 0.00053525802   -15110.539 
     315   -15111.642 0.00053525802   -15111.642 
     316   -15112.792 0.00053525802   -15112.792 
     317   -15113.988 0.00053525802   -15113.988 
     318    -15115.23 0.00053525802    -15115.23 
     319   -15116.516 0.00053525802   -15116.516 
     320   -15117.846 0.00053525802   -15117.846 
     321   -15119.219 0.00053525802   -15119.219 
     322   -15120.634 0.00053525802   -15120.634 
     323    -15122.09 0.00053525802    -15122.09 
     324   -15123.586 0.00053525802   -15123.586 
     325    -15125.12 0.00053525802    -15125.12 
     326   -15126.693 0.00053525802   -15126.693 
     327   -15128.302 0.00053525802   -15128.302 
     328   -15129.947 0.00053525802   -15129.947 
     329   -15131.627 0.00053525802   -15131.627 
     330   -15133.341 0.00053525802   -15133.341 
     331   -15135.088 0.00053525802   -15135.088 
     332   -15136.867 0.00053525802   -15136.867 
     333   -15138.675 0.00053525802   -15138.675 
     334   -15140.513 0.00053525802   -15140.513 
     335    -15142.38 0.00053525802    -15142.38 
     336   -15144.274 0.00053525802   -15144.274 
     337   -15146.194 0.00053525802   -15146.194 
     338   -15148.139 0.00053525802   -15148.139 
     339   -15150.107 0.00053525802   -15150.107 
     340   -15152.098 0.00053525802   -15152.098 
     341   -15154.109 0.00053525802   -15154.109 
     342    -15156.14 0.00053525802    -15156.14 
     343   -15158.189 0.00053525802   -15158.189 
     344   -15160.255 0.00053525802   -15160.255 
     345   -15162.337 0.00053525802   -15162.337 
     346   -15164.433 0.00053525802   -15164.433 
     347   -15166.541 0.00053525802   -15166.541 
     348    -15168.66 0.00053525802    -15168.66 
     349    -15170.79 0.00053525802    -15170.79 
     350   -15172.928 0.00053525802   -15172.928 
     351   -15175.073 0.00053525802   -15175.073 
     352   -15177.223 0.00053525802   -15177.223 
     353   -15179.378 0.00053525802   -15179.378 
     354   -15181.535 0.00053525802   -15181.535 
     355   -15183.693 0.00053525802   -15183.693 
     356   -15185.852 0.00053525802   -15185.852 
     357   -15188.008 0.00053525802   -15188.008 
     358   -15190.162 0.00053525802   -15190.162 
     359   -15192.311 0.00053525802   -15192.311 
     360   -15194.454 0.00053525802   -15194.454 
     361   -15196.591 0.00053525802   -15196.591 
     362   -15198.719 0.00053525802   -15198.719 
     363   -15200.837 0.00053525802   -15200.837 
     364   -15202.944 0.00053525802   -15202.944 
     365    -15205.04 0.00053525802    -15205.04 
     366   -15207.121 0.00053525802   -15207.121 
     367   -15209.188 0.00053525802   -15209.188 
     368    -15211.24 0.00053525802    -15211.24 
     369   -15213.275 0.00053525802   -15213.275 
     370   -15215.293 0.00053525802   -15215.293 
     371   -15217.297 0.00053525802   -15217.297 
     372   -15219.286 0.00053525802   -15219.286 
     373   -15221.264 0.00053525802   -15221.264 
     374   -15223.232 0.00053525802   -15223.232 
     375    -15225.19 0.00053525802    -15225.19 
     376   -15227.141 0.00053525802   -15227.141 
     377   -15229.085 0.00053525802   -15229.085 
     378   -15231.018 0.00053525802   -15231.018 
     379   -15232.938 0.00053525802   -15232.938 
     380    -15234.84 0.00053525802    -15234.84 
     381   -15236.723 0.00053525802   -15236.723 
     382   -15238.583 0.00053525802   -15238.583 
     383   -15240.417 0.00053525802   -15240.417 
     384   -15242.226 0.00053525802   -15242.226 
     385   -15244.012 0.00053525802   -15244.012 
     386   -15245.772 0.00053525802   -15245.772 
     387   -15247.507 0.00053525802   -15247.507 
     388   -15249.218 0.00053525802   -15249.218 
     389   -15250.904 0.00053525802   -15250.904 
     390   -15252.564 0.00053525802   -15252.564 
     391   -15254.194 0.00053525802   -15254.194 
     392   -15255.793 0.00053525802   -15255.793 
     393    -15257.36 0.00053525802    -15257.36 
     394   -15258.892 0.00053525802   -15258.892 
     395   -15260.387 0.00053525802   -15260.387 
     396   -15261.845 0.00053525802   -15261.845 
     397   -15263.264 0.00053525802   -15263.264 
     398   -15264.644 0.00053525802   -15264.644 
     399   -15265.982 0.00053525802   -15265.982 
     400    -15267.28 0.00053525802    -15267.28 
     401   -15268.537 0.00053525802   -15268.537 
     402   -15269.752 0.00053525802   -15269.752 
     403   -15270.927 0.00053525802   -15270.927 
     404    -15272.06 0.00053525802    -15272.06 
     405   -15273.154 0.00053525802   -15273.154 
     406   -15274.208 0.00053525802   -15274.208 
     407   -15275.223 0.00053525802   -15275.223 
     408   -15276.199 0.00053525802   -15276.199 
     409   -15277.137 0.00053525802   -15277.137 
     410   -15278.037 0.00053525802   -15278.037 
     411   -15278.901 0.00053525802   -15278.901 
     412    -15279.73 0.00053525802    -15279.73 
     413   -15280.523 0.00053525802   -15280.523 
     414   -15281.281 0.00053525802   -15281.281 
     415   -15282.006 0.00053525802   -15282.006 
     416   -15282.697 0.00053525802   -15282.697 
     417   -15283.355 0.00053525802   -15283.355 
     418   -15283.981 0.00053525802   -15283.981 
     419   -15284.576 0.00053525802   -15284.576 
     420   -15285.139 0.00053525802   -15285.139 
     421   -15285.672 0.00053525802   -15285.672 
     422   -15286.174 0.00053525802   -15286.174 
     423   -15286.646 0.00053525802   -15286.646 
     424   -15287.089 0.00053525802   -15287.089 
     425   -15287.503 0.00053525802   -15287.503 
     426   -15287.889 0.00053525802   -15287.889 
     427   -15288.246 0.00053525802   -15288.246 
     428   -15288.574 0.00053525802   -15288.574 
     429   -15288.875 0.00053525802   -15288.875 
     430   -15289.149 0.00053525802   -15289.149 
     431   -15289.397 0.00053525802   -15289.397 
     432   -15289.618 0.00053525802   -15289.618 
     433   -15289.812 0.00053525802   -15289.812 
     434   -15289.981 0.00053525802   -15289.981 
     435   -15290.125 0.00053525802   -15290.125 
     436   -15290.244 0.00053525802   -15290.244 
     437   -15290.339 0.00053525802   -15290.339 
     438   -15290.409 0.00053525802   -15290.409 
     439   -15290.456 0.00053525802   -15290.456 
     440    -15290.48 0.00053525802    -15290.48 
     441   -15290.481 0.00053525802   -15290.481 
     442    -15290.46 0.00053525802    -15290.46 
     443   -15290.416 0.00053525802   -15290.416 
     444   -15290.351 0.00053525802   -15290.351 
     445   -15290.265 0.00053525802   -15290.265 
     446   -15290.158 0.00053525802   -15290.158 
     447   -15290.031 0.00053525802   -15290.031 
     448   -15289.884 0.00053525802   -15289.884 
     449   -15289.718 0.00053525802   -15289.718 
     450   -15289.533 0.00053525802   -15289.533 
     451    -15289.33 0.00053525802    -15289.33 
     452    -15289.11 0.00053525802    -15289.11 
     453   -15288.872 0.00053525802   -15288.872 
     454   -15288.616 0.00053525802   -15288.616 
     455   -15288.344 0.00053525802   -15288.344 
     456   -15288.056 0.00053525802   -15288.056 
     457   -15287.751 0.00053525802   -15287.751 
     458    -15287.43 0.00053525802    -15287.43 
     459   -15287.094 0.00053525802   -15287.094 
     460   -15286.742 0.00053525802   -15286.742 
     461   -15286.374 0.00053525802   -15286.374 
     462   -15285.991 0.00053525802   -15285.991 
     463   -15285.593 0.00053525802   -15285.593 
     464    -15285.18 0.00053525802    -15285.18 
     465   -15284.752 0.00053525802   -15284.752 
     466   -15284.308 0.00053525802   -15284.308 
     467    -15283.85 0.00053525802    -15283.85 
     468   -15283.376 0.00053525802   -15283.376 
     469   -15282.887 0.00053525802   -15282.887 
     470   -15282.384 0.00053525802   -15282.384 
     471   -15281.865 0.00053525802   -15281.865 
     472   -15281.331 0.00053525802   -15281.331 
     473   -15280.784 0.00053525802   -15280.784 
     474   -15280.222 0.00053525802   -15280.222 
     475   -15279.648 0.00053525802   -15279.648 
     476   -15279.062 0.00053525802   -15279.062 
     477   -15278.466 0.00053525802   -15278.466 
     478   -15277.861 0.00053525802   -15277.861 
     479    -15277.25 0.00053525802    -15277.25 
     480   -15276.636 0.00053525802   -15276.636 
     481    -15276.02 0.00053525802    -15276.02 
     482   -15275.405 0.00053525802   -15275.405 
     483   -15274.796 0.00053525802   -15274.796 
     484   -15274.194 0.00053525802   -15274.194 
     485   -15273.603 0.00053525802   -15273.603 
     486   -15273.026 0.00053525802   -15273.026 
     487   -15272.465 0.00053525802   -15272.465 
     488   -15271.922 0.00053525802   -15271.922 
     489     -15271.4 0.00053525802     -15271.4 
     490   -15270.899 0.00053525802   -15270.899 
     491   -15270.421 0.00053525802   -15270.421 
     492   -15269.965 0.00053525802   -15269.965 
     493   -15269.528 0.00053525802   -15269.528 
     494   -15269.108 0.00053525802   -15269.108 
     495   -15268.705 0.00053525802   -15268.705 
     496   -15268.319 0.00053525802   -15268.319 
     497   -15267.952 0.00053525802   -15267.952 
     498   -15267.601 0.00053525802   -15267.601 
     499   -15267.269 0.00053525802   -15267.269 
     500   -15266.954 0.00053525802   -15266.954 
Loop time of 43.2754 on 1 procs for 500 steps with 3600 atoms

Performance: 998.258 ns/day, 0.024 hours/ns, 11.554 timesteps/s
99.8% CPU use with 1 MPI tasks x 1 OpenMP threads

MPI task timing breakdown:
Section |  min time  |  avg time  |  max time  |%varavg| %total
---------------------------------------------------------------
Pair    | 43.146     | 43.146     | 43.146     |   0.0 | 99.70
Neigh   | 0.060007   | 0.060007   | 0.060007   |   0.0 |  0.14
Comm    | 0.011377   | 0.011377   | 0.011377   |   0.0 |  0.03
Output  | 0.033084   | 0.033084   | 0.033084   |   0.0 |  0.08
Modify  | 0.016762   | 0.016762   | 0.016762   |   0.0 |  0.04
Other   |            | 0.00834    |            |       |  0.02

Nlocal:        3600.00 ave        3600 max        3600 min
Histogram: 1 0 0 0 0 0 0 0 0 0
Nghost:        3606.00 ave        3606 max        3606 min
Histogram: 1 0 0 0 0 0 0 0 0 0
Neighs:        146837.0 ave      146837 max      146837 min
Histogram: 1 0 0 0 0 0 0 0 0 0
FullNghs:      293674.0 ave      293674 max      293674 min
Histogram: 1 0 0 0 0 0 0 0 0 0

Total # of neighbors = 293674
Ave neighs/atom = 81.576111
Neighbor list builds = 4
Dangerous builds = 0

Total wall time: 0:01:01
