LAMMPS (29 Sep 2021)
OMP_NUM_THREADS environment is not set. Defaulting to 1 thread. (src/comm.cpp:98)
  using 1 OpenMP thread(s) per MPI task
# Input file for Stack Fault Energy surface of Nickel
# Richard Glaze, 2014
# --------------------- INITIALIZAITION ---------------------
clear
OMP_NUM_THREADS environment is not set. Defaulting to 1 thread. (src/comm.cpp:98)
  using 1 OpenMP thread(s) per MPI task
units		metal
dimension	3
boundary	p p s
atom_style	atomic

read_data 	../data111_use1.dat
Reading data file ...
  orthogonal box = (0.0000000 0.0000000 -0.0037381121) to (44.054073 25.434631 35.308130)
  1 by 1 by 1 MPI processor grid
  reading atoms ...
  3600 atoms
  read_data CPU = 0.007 seconds
#variable x_displace equal -1*(${latparam1}/sqrt(6))
variable zcut equal 17.4363
variable xdim equal 43.5152
variable ydim equal 25.1235

# --------------------- ATOM DEFINITION ---------------------

region		1 block -.001 INF -.001 INF -.001 ${zcut} units box
region		1 block -.001 INF -.001 INF -.001 17.4363 units box
region 	2 block -.001 INF -.001 INF ${zcut} INF units box
region 	2 block -.001 INF -.001 INF 17.4363 INF units box

region		whole block INF INF INF INF INF INF units box


# --------------------- FORCE FIELDS ---------------------
pair_style meam/c
pair_coeff	* * ../library.meam Co Ni Cr Fe Mn ../CoNiCrFeMn.meam Mn Cr Co Fe Ni

# --------------------- SETTINGS ---------------------

compute peratom all pe/atom
compute eatoms all reduce sum c_peratom
compute csym all centro/atom fcc

min_style cg
minimize 1e-10 1e-10 10000 100000
WARNING: Using 'neigh_modify every 1 delay 0 check yes' setting during minimization (src/min.cpp:188)
Neighbor list info ...
  update every 1 steps, delay 0 steps, check yes
  max neighbors/atom: 2000, page size: 100000
  master list distance cutoff = 6.5
  ghost atom cutoff = 6.5
  binsize = 3.25, bins = 14 8 11
  3 neighbor lists, perpetual/occasional/extra = 2 1 0
  (1) pair meam/c, perpetual
      attributes: full, newton on
      pair build: full/bin/atomonly
      stencil: full/bin/3d
      bin: standard
  (2) pair meam/c, perpetual, half/full from (1)
      attributes: half, newton on
      pair build: halffull/newton
      stencil: none
      bin: none
  (3) compute centro/atom, occasional, copy from (1)
      attributes: full, newton on
      pair build: copy
      stencil: none
      bin: none
Per MPI rank memory allocation (min/avg/max) = 15.41 | 15.41 | 15.41 Mbytes
Step Temp E_pair E_mol TotEng Press Volume 
       0            0    -15258.88            0    -15258.88   -63838.981    39566.452 
      81            0   -15295.342            0   -15295.342   -25686.458    39566.452 
Loop time of 20.6617 on 1 procs for 81 steps with 3600 atoms

100.0% CPU use with 1 MPI tasks x 1 OpenMP threads

Minimization stats:
  Stopping criterion = energy tolerance
  Energy initial, next-to-last, final = 
     -15258.8804556051  -15295.3417047691  -15295.3417055426
  Force two-norm initial, final = 19.140849 0.038820569
  Force max component initial, final = 0.99839692 0.017112464
  Final line search alpha, max atom move = 1.0000000 0.017112464
  Iterations, force evaluations = 81 302

MPI task timing breakdown:
Section |  min time  |  avg time  |  max time  |%varavg| %total
---------------------------------------------------------------
Pair    | 20.646     | 20.646     | 20.646     |   0.0 | 99.93
Neigh   | 0          | 0          | 0          |   0.0 |  0.00
Comm    | 0.0041367  | 0.0041367  | 0.0041367  |   0.0 |  0.02
Output  | 0          | 0          | 0          |   0.0 |  0.00
Modify  | 0          | 0          | 0          |   0.0 |  0.00
Other   |            | 0.01119    |            |       |  0.05

Nlocal:        3600.00 ave        3600 max        3600 min
Histogram: 1 0 0 0 0 0 0 0 0 0
Nghost:        3558.00 ave        3558 max        3558 min
Histogram: 1 0 0 0 0 0 0 0 0 0
Neighs:        145200.0 ave      145200 max      145200 min
Histogram: 1 0 0 0 0 0 0 0 0 0
FullNghs:      290400.0 ave      290400 max      290400 min
Histogram: 1 0 0 0 0 0 0 0 0 0

Total # of neighbors = 290400
Ave neighs/atom = 80.666667
Neighbor list builds = 0
Dangerous builds = 0

thermo 1
thermo_style custom step pe c_eatoms
#dump 1 all custom 1 dump.relax id type xs ys zs c_peratom c_csym
run 0
WARNING: No fixes defined, atoms won't move (src/verlet.cpp:55)
Per MPI rank memory allocation (min/avg/max) = 14.29 | 14.29 | 14.29 Mbytes
Step PotEng c_eatoms 
      81   -15295.342   -15295.342 
Loop time of 5.8e-07 on 1 procs for 0 steps with 3600 atoms

172.4% CPU use with 1 MPI tasks x 1 OpenMP threads

MPI task timing breakdown:
Section |  min time  |  avg time  |  max time  |%varavg| %total
---------------------------------------------------------------
Pair    | 0          | 0          | 0          |   0.0 |  0.00
Neigh   | 0          | 0          | 0          |   0.0 |  0.00
Comm    | 0          | 0          | 0          |   0.0 |  0.00
Output  | 0          | 0          | 0          |   0.0 |  0.00
Modify  | 0          | 0          | 0          |   0.0 |  0.00
Other   |            | 5.8e-07    |            |       |100.00

Nlocal:        3600.00 ave        3600 max        3600 min
Histogram: 1 0 0 0 0 0 0 0 0 0
Nghost:        3558.00 ave        3558 max        3558 min
Histogram: 1 0 0 0 0 0 0 0 0 0
Neighs:        145275.0 ave      145275 max      145275 min
Histogram: 1 0 0 0 0 0 0 0 0 0
FullNghs:      290550.0 ave      290550 max      290550 min
Histogram: 1 0 0 0 0 0 0 0 0 0

Total # of neighbors = 290550
Ave neighs/atom = 80.708333
Neighbor list builds = 0
Dangerous builds = 0

#this command creates a model of the script before the displacement and minimization occur


variable E equal "c_eatoms"
variable Eo equal $E
variable Eo equal -15295.3417055425

#undump 1

#variable E equal "c_eatoms" computes the initial energy of the model before any sliding is done
#E is necessary to store the initial energy in Eo

group bot region 1
1800 atoms in group bot
group top region 2
1800 atoms in group top


reset_timestep 0
timestep 1

fix 1 top move linear -0.01 0.0 0.0 units box

#dump 2 all custom 1 dump2.relax id type xs ys zs c_peratom c_csym

#displace_atoms top move ${x_displace} 0.0 0.0 units box
#displace_atoms is the command neccessary to move atoms into the next stacking arrangement (ie: A -> B)

#fix 2 all setforce 0 0 NULL


thermo 1
thermo_style custom step pe ke c_eatoms

run 500
Per MPI rank memory allocation (min/avg/max) = 14.79 | 14.79 | 14.79 Mbytes
Step PotEng KinEng c_eatoms 
       0   -15295.342            0   -15295.342 
       1   -15295.329 0.00053590076   -15295.329 
       2   -15295.294 0.00053590076   -15295.294 
       3   -15295.235 0.00053590076   -15295.235 
       4   -15295.153 0.00053590076   -15295.153 
       5   -15295.049 0.00053590076   -15295.049 
       6   -15294.923 0.00053590076   -15294.923 
       7   -15294.776 0.00053590076   -15294.776 
       8   -15294.608 0.00053590076   -15294.608 
       9    -15294.42 0.00053590076    -15294.42 
      10   -15294.211 0.00053590076   -15294.211 
      11   -15293.983 0.00053590076   -15293.983 
      12   -15293.737 0.00053590076   -15293.737 
      13   -15293.471 0.00053590076   -15293.471 
      14   -15293.188 0.00053590076   -15293.188 
      15   -15292.886 0.00053590076   -15292.886 
      16   -15292.567 0.00053590076   -15292.567 
      17   -15292.231 0.00053590076   -15292.231 
      18   -15291.878 0.00053590076   -15291.878 
      19   -15291.508 0.00053590076   -15291.508 
      20   -15291.121 0.00053590076   -15291.121 
      21   -15290.717 0.00053590076   -15290.717 
      22   -15290.297 0.00053590076   -15290.297 
      23   -15289.861 0.00053590076   -15289.861 
      24   -15289.408 0.00053590076   -15289.408 
      25   -15288.938 0.00053590076   -15288.938 
      26   -15288.452 0.00053590076   -15288.452 
      27    -15287.95 0.00053590076    -15287.95 
      28   -15287.431 0.00053590076   -15287.431 
      29   -15286.895 0.00053590076   -15286.895 
      30   -15286.344 0.00053590076   -15286.344 
      31   -15285.776 0.00053590076   -15285.776 
      32   -15285.193 0.00053590076   -15285.193 
      33   -15284.596 0.00053590076   -15284.596 
      34   -15283.984 0.00053590076   -15283.984 
      35   -15283.361 0.00053590076   -15283.361 
      36   -15282.726 0.00053590076   -15282.726 
      37   -15282.083 0.00053590076   -15282.083 
      38   -15281.433 0.00053590076   -15281.433 
      39    -15280.78 0.00053590076    -15280.78 
      40   -15280.124 0.00053590076   -15280.124 
      41   -15279.471 0.00053590076   -15279.471 
      42   -15278.821 0.00053590076   -15278.821 
      43   -15278.179 0.00053590076   -15278.179 
      44   -15277.545 0.00053590076   -15277.545 
      45   -15276.924 0.00053590076   -15276.924 
      46   -15276.317 0.00053590076   -15276.317 
      47   -15275.726 0.00053590076   -15275.726 
      48   -15275.151 0.00053590076   -15275.151 
      49   -15274.596 0.00053590076   -15274.596 
      50   -15274.061 0.00053590076   -15274.061 
      51   -15273.549 0.00053590076   -15273.549 
      52   -15273.059 0.00053590076   -15273.059 
      53   -15272.593 0.00053590076   -15272.593 
      54   -15272.149 0.00053590076   -15272.149 
      55   -15271.725 0.00053590076   -15271.725 
      56    -15271.32 0.00053590076    -15271.32 
      57   -15270.934 0.00053590076   -15270.934 
      58   -15270.567 0.00053590076   -15270.567 
      59   -15270.219 0.00053590076   -15270.219 
      60    -15269.89 0.00053590076    -15269.89 
      61    -15269.58 0.00053590076    -15269.58 
      62   -15269.291 0.00053590076   -15269.291 
      63   -15269.024 0.00053590076   -15269.024 
      64   -15268.778 0.00053590076   -15268.778 
      65   -15268.556 0.00053590076   -15268.556 
      66   -15268.356 0.00053590076   -15268.356 
      67   -15268.181 0.00053590076   -15268.181 
      68   -15268.031 0.00053590076   -15268.031 
      69   -15267.905 0.00053590076   -15267.905 
      70   -15267.804 0.00053590076   -15267.804 
      71    -15267.73 0.00053590076    -15267.73 
      72   -15267.681 0.00053590076   -15267.681 
      73   -15267.658 0.00053590076   -15267.658 
      74   -15267.662 0.00053590076   -15267.662 
      75   -15267.691 0.00053590076   -15267.691 
      76   -15267.747 0.00053590076   -15267.747 
      77   -15267.829 0.00053590076   -15267.829 
      78   -15267.936 0.00053590076   -15267.936 
      79   -15268.069 0.00053590076   -15268.069 
      80   -15268.227 0.00053590076   -15268.227 
      81   -15268.409 0.00053590076   -15268.409 
      82   -15268.616 0.00053590076   -15268.616 
      83   -15268.846 0.00053590076   -15268.846 
      84   -15269.099 0.00053590076   -15269.099 
      85   -15269.374 0.00053590076   -15269.374 
      86   -15269.671 0.00053590076   -15269.671 
      87   -15269.989 0.00053590076   -15269.989 
      88   -15270.327 0.00053590076   -15270.327 
      89   -15270.685 0.00053590076   -15270.685 
      90   -15271.064 0.00053590076   -15271.064 
      91   -15271.461 0.00053590076   -15271.461 
      92   -15271.876 0.00053590076   -15271.876 
      93   -15272.307 0.00053590076   -15272.307 
      94   -15272.755 0.00053590076   -15272.755 
      95   -15273.221 0.00053590076   -15273.221 
      96   -15273.706 0.00053590076   -15273.706 
      97   -15274.211 0.00053590076   -15274.211 
      98   -15274.735 0.00053590076   -15274.735 
      99   -15275.277 0.00053590076   -15275.277 
     100   -15275.837 0.00053590076   -15275.837 
     101   -15276.412 0.00053590076   -15276.412 
     102   -15277.001 0.00053590076   -15277.001 
     103   -15277.601 0.00053590076   -15277.601 
     104   -15278.209 0.00053590076   -15278.209 
     105   -15278.823 0.00053590076   -15278.823 
     106    -15279.44 0.00053590076    -15279.44 
     107   -15280.057 0.00053590076   -15280.057 
     108   -15280.672 0.00053590076   -15280.672 
     109   -15281.283 0.00053590076   -15281.283 
     110   -15281.887 0.00053590076   -15281.887 
     111   -15282.484 0.00053590076   -15282.484 
     112   -15283.072 0.00053590076   -15283.072 
     113   -15283.649 0.00053590076   -15283.649 
     114   -15284.216 0.00053590076   -15284.216 
     115    -15284.77 0.00053590076    -15284.77 
     116   -15285.313 0.00053590076   -15285.313 
     117   -15285.843 0.00053590076   -15285.843 
     118   -15286.364 0.00053590076   -15286.364 
     119   -15286.875 0.00053590076   -15286.875 
     120   -15287.375 0.00053590076   -15287.375 
     121   -15287.863 0.00053590076   -15287.863 
     122   -15288.339 0.00053590076   -15288.339 
     123   -15288.802 0.00053590076   -15288.802 
     124   -15289.252 0.00053590076   -15289.252 
     125   -15289.688 0.00053590076   -15289.688 
     126   -15290.109 0.00053590076   -15290.109 
     127   -15290.516 0.00053590076   -15290.516 
     128   -15290.906 0.00053590076   -15290.906 
     129   -15291.282 0.00053590076   -15291.282 
     130    -15291.64 0.00053590076    -15291.64 
     131   -15291.983 0.00053590076   -15291.983 
     132   -15292.308 0.00053590076   -15292.308 
     133   -15292.616 0.00053590076   -15292.616 
     134   -15292.906 0.00053590076   -15292.906 
     135   -15293.179 0.00053590076   -15293.179 
     136   -15293.432 0.00053590076   -15293.432 
     137   -15293.667 0.00053590076   -15293.667 
     138   -15293.882 0.00053590076   -15293.882 
     139   -15294.077 0.00053590076   -15294.077 
     140   -15294.252 0.00053590076   -15294.252 
     141   -15294.406 0.00053590076   -15294.406 
     142   -15294.539 0.00053590076   -15294.539 
     143   -15294.651 0.00053590076   -15294.651 
     144    -15294.74 0.00053590076    -15294.74 
     145   -15294.807 0.00053590076   -15294.807 
     146   -15294.851 0.00053590076   -15294.851 
     147   -15294.871 0.00053590076   -15294.871 
     148   -15294.868 0.00053590076   -15294.868 
     149   -15294.841 0.00053590076   -15294.841 
     150   -15294.789 0.00053590076   -15294.789 
     151   -15294.712 0.00053590076   -15294.712 
     152   -15294.611 0.00053590076   -15294.611 
     153   -15294.483 0.00053590076   -15294.483 
     154    -15294.33 0.00053590076    -15294.33 
     155   -15294.151 0.00053590076   -15294.151 
     156   -15293.944 0.00053590076   -15293.944 
     157   -15293.711 0.00053590076   -15293.711 
     158   -15293.451 0.00053590076   -15293.451 
     159   -15293.164 0.00053590076   -15293.164 
     160   -15292.848 0.00053590076   -15292.848 
     161   -15292.504 0.00053590076   -15292.504 
     162   -15292.131 0.00053590076   -15292.131 
     163    -15291.73 0.00053590076    -15291.73 
     164   -15291.299 0.00053590076   -15291.299 
     165   -15290.839 0.00053590076   -15290.839 
     166   -15290.349 0.00053590076   -15290.349 
     167   -15289.828 0.00053590076   -15289.828 
     168   -15289.277 0.00053590076   -15289.277 
     169   -15288.694 0.00053590076   -15288.694 
     170   -15288.081 0.00053590076   -15288.081 
     171   -15287.435 0.00053590076   -15287.435 
     172   -15286.757 0.00053590076   -15286.757 
     173   -15286.047 0.00053590076   -15286.047 
     174   -15285.303 0.00053590076   -15285.303 
     175   -15284.526 0.00053590076   -15284.526 
     176   -15283.716 0.00053590076   -15283.716 
     177    -15282.87 0.00053590076    -15282.87 
     178    -15281.99 0.00053590076    -15281.99 
     179   -15281.075 0.00053590076   -15281.075 
     180   -15280.123 0.00053590076   -15280.123 
     181   -15279.136 0.00053590076   -15279.136 
     182   -15278.111 0.00053590076   -15278.111 
     183    -15277.05 0.00053590076    -15277.05 
     184    -15275.95 0.00053590076    -15275.95 
     185   -15274.813 0.00053590076   -15274.813 
     186   -15273.636 0.00053590076   -15273.636 
     187   -15272.421 0.00053590076   -15272.421 
     188   -15271.165 0.00053590076   -15271.165 
     189   -15269.869 0.00053590076   -15269.869 
     190   -15268.533 0.00053590076   -15268.533 
     191   -15267.156 0.00053590076   -15267.156 
     192   -15265.738 0.00053590076   -15265.738 
     193   -15264.279 0.00053590076   -15264.279 
     194   -15262.778 0.00053590076   -15262.778 
     195   -15261.237 0.00053590076   -15261.237 
     196   -15259.655 0.00053590076   -15259.655 
     197   -15258.033 0.00053590076   -15258.033 
     198   -15256.373 0.00053590076   -15256.373 
     199   -15254.675 0.00053590076   -15254.675 
     200   -15252.943 0.00053590076   -15252.943 
     201   -15251.176 0.00053590076   -15251.176 
     202    -15249.38 0.00053590076    -15249.38 
     203   -15247.555 0.00053590076   -15247.555 
     204   -15245.704 0.00053590076   -15245.704 
     205   -15243.829 0.00053590076   -15243.829 
     206   -15241.933 0.00053590076   -15241.933 
     207   -15240.021 0.00053590076   -15240.021 
     208   -15238.096 0.00053590076   -15238.096 
     209   -15236.159 0.00053590076   -15236.159 
     210    -15234.21 0.00053590076    -15234.21 
     211   -15232.253 0.00053590076   -15232.253 
     212   -15230.284 0.00053590076   -15230.284 
     213   -15228.299 0.00053590076   -15228.299 
     214   -15226.293 0.00053590076   -15226.293 
     215    -15224.27 0.00053590076    -15224.27 
     216   -15222.227 0.00053590076   -15222.227 
     217   -15220.166 0.00053590076   -15220.166 
     218    -15218.09 0.00053590076    -15218.09 
     219       -15216 0.00053590076       -15216 
     220   -15213.897 0.00053590076   -15213.897 
     221   -15211.781 0.00053590076   -15211.781 
     222   -15209.655 0.00053590076   -15209.655 
     223   -15207.518 0.00053590076   -15207.518 
     224   -15205.369 0.00053590076   -15205.369 
     225   -15203.208 0.00053590076   -15203.208 
     226   -15201.036 0.00053590076   -15201.036 
     227   -15198.855 0.00053590076   -15198.855 
     228   -15196.665 0.00053590076   -15196.665 
     229   -15194.469 0.00053590076   -15194.469 
     230   -15192.267 0.00053590076   -15192.267 
     231   -15190.062 0.00053590076   -15190.062 
     232   -15187.854 0.00053590076   -15187.854 
     233   -15185.646 0.00053590076   -15185.646 
     234   -15183.439 0.00053590076   -15183.439 
     235   -15181.235 0.00053590076   -15181.235 
     236   -15179.034 0.00053590076   -15179.034 
     237    -15176.84 0.00053590076    -15176.84 
     238   -15174.653 0.00053590076   -15174.653 
     239   -15172.475 0.00053590076   -15172.475 
     240   -15170.308 0.00053590076   -15170.308 
     241   -15168.153 0.00053590076   -15168.153 
     242   -15166.012 0.00053590076   -15166.012 
     243   -15163.886 0.00053590076   -15163.886 
     244   -15161.778 0.00053590076   -15161.778 
     245   -15159.688 0.00053590076   -15159.688 
     246   -15157.618 0.00053590076   -15157.618 
     247    -15155.57 0.00053590076    -15155.57 
     248   -15153.544 0.00053590076   -15153.544 
     249   -15151.543 0.00053590076   -15151.543 
     250   -15149.567 0.00053590076   -15149.567 
     251   -15147.618 0.00053590076   -15147.618 
     252   -15145.698 0.00053590076   -15145.698 
     253   -15143.806 0.00053590076   -15143.806 
     254   -15141.945 0.00053590076   -15141.945 
     255   -15140.115 0.00053590076   -15140.115 
     256   -15138.318 0.00053590076   -15138.318 
     257   -15136.554 0.00053590076   -15136.554 
     258   -15134.823 0.00053590076   -15134.823 
     259   -15133.128 0.00053590076   -15133.128 
     260   -15131.468 0.00053590076   -15131.468 
     261   -15129.844 0.00053590076   -15129.844 
     262   -15128.257 0.00053590076   -15128.257 
     263   -15126.709 0.00053590076   -15126.709 
     264   -15125.199 0.00053590076   -15125.199 
     265   -15123.729 0.00053590076   -15123.729 
     266   -15122.298 0.00053590076   -15122.298 
     267   -15120.909 0.00053590076   -15120.909 
     268   -15119.561 0.00053590076   -15119.561 
     269   -15118.256 0.00053590076   -15118.256 
     270   -15116.995 0.00053590076   -15116.995 
     271   -15115.778 0.00053590076   -15115.778 
     272   -15114.606 0.00053590076   -15114.606 
     273    -15113.48 0.00053590076    -15113.48 
     274   -15112.402 0.00053590076   -15112.402 
     275    -15111.37 0.00053590076    -15111.37 
     276   -15110.387 0.00053590076   -15110.387 
     277   -15109.452 0.00053590076   -15109.452 
     278   -15108.567 0.00053590076   -15108.567 
     279   -15107.732 0.00053590076   -15107.732 
     280   -15106.947 0.00053590076   -15106.947 
     281   -15106.213 0.00053590076   -15106.213 
     282   -15105.531 0.00053590076   -15105.531 
     283     -15104.9 0.00053590076     -15104.9 
     284   -15104.322 0.00053590076   -15104.322 
     285   -15103.796 0.00053590076   -15103.796 
     286   -15103.323 0.00053590076   -15103.323 
     287   -15102.903 0.00053590076   -15102.903 
     288   -15102.537 0.00053590076   -15102.537 
     289   -15102.225 0.00053590076   -15102.225 
     290   -15101.967 0.00053590076   -15101.967 
     291   -15101.763 0.00053590076   -15101.763 
     292   -15101.613 0.00053590076   -15101.613 
     293   -15101.518 0.00053590076   -15101.518 
     294   -15101.477 0.00053590076   -15101.477 
     295   -15101.491 0.00053590076   -15101.491 
     296   -15101.559 0.00053590076   -15101.559 
     297   -15101.682 0.00053590076   -15101.682 
     298   -15101.859 0.00053590076   -15101.859 
     299    -15102.09 0.00053590076    -15102.09 
     300   -15102.376 0.00053590076   -15102.376 
     301   -15102.716 0.00053590076   -15102.716 
     302    -15103.11 0.00053590076    -15103.11 
     303   -15103.557 0.00053590076   -15103.557 
     304   -15104.058 0.00053590076   -15104.058 
     305   -15104.611 0.00053590076   -15104.611 
     306   -15105.218 0.00053590076   -15105.218 
     307   -15105.877 0.00053590076   -15105.877 
     308   -15106.588 0.00053590076   -15106.588 
     309   -15107.351 0.00053590076   -15107.351 
     310   -15108.164 0.00053590076   -15108.164 
     311   -15109.029 0.00053590076   -15109.029 
     312   -15109.943 0.00053590076   -15109.943 
     313   -15110.907 0.00053590076   -15110.907 
     314    -15111.92 0.00053590076    -15111.92 
     315   -15112.982 0.00053590076   -15112.982 
     316   -15114.091 0.00053590076   -15114.091 
     317   -15115.247 0.00053590076   -15115.247 
     318   -15116.449 0.00053590076   -15116.449 
     319   -15117.696 0.00053590076   -15117.696 
     320   -15118.988 0.00053590076   -15118.988 
     321   -15120.323 0.00053590076   -15120.323 
     322   -15121.702 0.00053590076   -15121.702 
     323   -15123.122 0.00053590076   -15123.122 
     324   -15124.584 0.00053590076   -15124.584 
     325   -15126.085 0.00053590076   -15126.085 
     326   -15127.626 0.00053590076   -15127.626 
     327   -15129.205 0.00053590076   -15129.205 
     328   -15130.822 0.00053590076   -15130.822 
     329   -15132.476 0.00053590076   -15132.476 
     330   -15134.165 0.00053590076   -15134.165 
     331   -15135.889 0.00053590076   -15135.889 
     332   -15137.647 0.00053590076   -15137.647 
     333   -15139.437 0.00053590076   -15139.437 
     334   -15141.258 0.00053590076   -15141.258 
     335   -15143.109 0.00053590076   -15143.109 
     336   -15144.989 0.00053590076   -15144.989 
     337   -15146.897 0.00053590076   -15146.897 
     338   -15148.831 0.00053590076   -15148.831 
     339    -15150.79 0.00053590076    -15150.79 
     340   -15152.773 0.00053590076   -15152.773 
     341   -15154.778 0.00053590076   -15154.778 
     342   -15156.805 0.00053590076   -15156.805 
     343   -15158.851 0.00053590076   -15158.851 
     344   -15160.916 0.00053590076   -15160.916 
     345   -15162.998 0.00053590076   -15162.998 
     346   -15165.096 0.00053590076   -15165.096 
     347   -15167.208 0.00053590076   -15167.208 
     348   -15169.333 0.00053590076   -15169.333 
     349   -15171.469 0.00053590076   -15171.469 
     350   -15173.615 0.00053590076   -15173.615 
     351    -15175.77 0.00053590076    -15175.77 
     352   -15177.931 0.00053590076   -15177.931 
     353   -15180.098 0.00053590076   -15180.098 
     354   -15182.269 0.00053590076   -15182.269 
     355   -15184.442 0.00053590076   -15184.442 
     356   -15186.617 0.00053590076   -15186.617 
     357   -15188.791 0.00053590076   -15188.791 
     358   -15190.963 0.00053590076   -15190.963 
     359   -15193.131 0.00053590076   -15193.131 
     360   -15195.295 0.00053590076   -15195.295 
     361   -15197.453 0.00053590076   -15197.453 
     362   -15199.602 0.00053590076   -15199.602 
     363   -15201.743 0.00053590076   -15201.743 
     364   -15203.874 0.00053590076   -15203.874 
     365   -15205.994 0.00053590076   -15205.994 
     366   -15208.102 0.00053590076   -15208.102 
     367   -15210.198 0.00053590076   -15210.198 
     368   -15212.281 0.00053590076   -15212.281 
     369   -15214.351 0.00053590076   -15214.351 
     370   -15216.408 0.00053590076   -15216.408 
     371   -15218.451 0.00053590076   -15218.451 
     372   -15220.481 0.00053590076   -15220.481 
     373   -15222.497 0.00053590076   -15222.497 
     374     -15224.5 0.00053590076     -15224.5 
     375   -15226.493 0.00053590076   -15226.493 
     376   -15228.478 0.00053590076   -15228.478 
     377    -15230.46 0.00053590076    -15230.46 
     378   -15232.437 0.00053590076   -15232.437 
     379   -15234.406 0.00053590076   -15234.406 
     380   -15236.365 0.00053590076   -15236.365 
     381   -15238.309 0.00053590076   -15238.309 
     382   -15240.233 0.00053590076   -15240.233 
     383   -15242.138 0.00053590076   -15242.138 
     384   -15244.023 0.00053590076   -15244.023 
     385   -15245.886 0.00053590076   -15245.886 
     386   -15247.726 0.00053590076   -15247.726 
     387   -15249.542 0.00053590076   -15249.542 
     388   -15251.332 0.00053590076   -15251.332 
     389   -15253.092 0.00053590076   -15253.092 
     390   -15254.819 0.00053590076   -15254.819 
     391   -15256.511 0.00053590076   -15256.511 
     392   -15258.165 0.00053590076   -15258.165 
     393    -15259.78 0.00053590076    -15259.78 
     394   -15261.355 0.00053590076   -15261.355 
     395   -15262.891 0.00053590076   -15262.891 
     396   -15264.389 0.00053590076   -15264.389 
     397   -15265.846 0.00053590076   -15265.846 
     398   -15267.263 0.00053590076   -15267.263 
     399   -15268.639 0.00053590076   -15268.639 
     400   -15269.974 0.00053590076   -15269.974 
     401   -15271.268 0.00053590076   -15271.268 
     402   -15272.521 0.00053590076   -15272.521 
     403   -15273.734 0.00053590076   -15273.734 
     404   -15274.906 0.00053590076   -15274.906 
     405   -15276.039 0.00053590076   -15276.039 
     406   -15277.132 0.00053590076   -15277.132 
     407   -15278.187 0.00053590076   -15278.187 
     408   -15279.203 0.00053590076   -15279.203 
     409   -15280.181 0.00053590076   -15280.181 
     410   -15281.122 0.00053590076   -15281.122 
     411   -15282.027 0.00053590076   -15282.027 
     412   -15282.895 0.00053590076   -15282.895 
     413   -15283.728 0.00053590076   -15283.728 
     414   -15284.525 0.00053590076   -15284.525 
     415   -15285.288 0.00053590076   -15285.288 
     416   -15286.018 0.00053590076   -15286.018 
     417   -15286.713 0.00053590076   -15286.713 
     418   -15287.376 0.00053590076   -15287.376 
     419   -15288.006 0.00053590076   -15288.006 
     420   -15288.604 0.00053590076   -15288.604 
     421    -15289.17 0.00053590076    -15289.17 
     422   -15289.705 0.00053590076   -15289.705 
     423   -15290.209 0.00053590076   -15290.209 
     424   -15290.683 0.00053590076   -15290.683 
     425   -15291.127 0.00053590076   -15291.127 
     426   -15291.541 0.00053590076   -15291.541 
     427   -15291.926 0.00053590076   -15291.926 
     428   -15292.283 0.00053590076   -15292.283 
     429    -15292.61 0.00053590076    -15292.61 
     430    -15292.91 0.00053590076    -15292.91 
     431   -15293.182 0.00053590076   -15293.182 
     432   -15293.426 0.00053590076   -15293.426 
     433   -15293.644 0.00053590076   -15293.644 
     434   -15293.835 0.00053590076   -15293.835 
     435   -15293.999 0.00053590076   -15293.999 
     436   -15294.137 0.00053590076   -15294.137 
     437    -15294.25 0.00053590076    -15294.25 
     438   -15294.338 0.00053590076   -15294.338 
     439   -15294.401 0.00053590076   -15294.401 
     440    -15294.44 0.00053590076    -15294.44 
     441   -15294.454 0.00053590076   -15294.454 
     442   -15294.445 0.00053590076   -15294.445 
     443   -15294.413 0.00053590076   -15294.413 
     444   -15294.358 0.00053590076   -15294.358 
     445   -15294.281 0.00053590076   -15294.281 
     446   -15294.182 0.00053590076   -15294.182 
     447   -15294.061 0.00053590076   -15294.061 
     448    -15293.92 0.00053590076    -15293.92 
     449   -15293.758 0.00053590076   -15293.758 
     450   -15293.576 0.00053590076   -15293.576 
     451   -15293.375 0.00053590076   -15293.375 
     452   -15293.155 0.00053590076   -15293.155 
     453   -15292.915 0.00053590076   -15292.915 
     454   -15292.658 0.00053590076   -15292.658 
     455   -15292.383 0.00053590076   -15292.383 
     456    -15292.09 0.00053590076    -15292.09 
     457    -15291.78 0.00053590076    -15291.78 
     458   -15291.453 0.00053590076   -15291.453 
     459   -15291.109 0.00053590076   -15291.109 
     460    -15290.75 0.00053590076    -15290.75 
     461   -15290.374 0.00053590076   -15290.374 
     462   -15289.982 0.00053590076   -15289.982 
     463   -15289.574 0.00053590076   -15289.574 
     464    -15289.15 0.00053590076    -15289.15 
     465   -15288.711 0.00053590076   -15288.711 
     466   -15288.257 0.00053590076   -15288.257 
     467   -15287.788 0.00053590076   -15287.788 
     468   -15287.304 0.00053590076   -15287.304 
     469   -15286.806 0.00053590076   -15286.806 
     470   -15286.294 0.00053590076   -15286.294 
     471   -15285.769 0.00053590076   -15285.769 
     472   -15285.231 0.00053590076   -15285.231 
     473   -15284.681 0.00053590076   -15284.681 
     474    -15284.12 0.00053590076    -15284.12 
     475    -15283.55 0.00053590076    -15283.55 
     476   -15282.971 0.00053590076   -15282.971 
     477   -15282.384 0.00053590076   -15282.384 
     478   -15281.792 0.00053590076   -15281.792 
     479   -15281.194 0.00053590076   -15281.194 
     480   -15280.593 0.00053590076   -15280.593 
     481   -15279.991 0.00053590076   -15279.991 
     482   -15279.388 0.00053590076   -15279.388 
     483   -15278.787 0.00053590076   -15278.787 
     484   -15278.189 0.00053590076   -15278.189 
     485   -15277.598 0.00053590076   -15277.598 
     486   -15277.014 0.00053590076   -15277.014 
     487   -15276.441 0.00053590076   -15276.441 
     488   -15275.879 0.00053590076   -15275.879 
     489    -15275.33 0.00053590076    -15275.33 
     490   -15274.795 0.00053590076   -15274.795 
     491   -15274.276 0.00053590076   -15274.276 
     492   -15273.771 0.00053590076   -15273.771 
     493   -15273.282 0.00053590076   -15273.282 
     494   -15272.808 0.00053590076   -15272.808 
     495   -15272.351 0.00053590076   -15272.351 
     496   -15271.909 0.00053590076   -15271.909 
     497   -15271.484 0.00053590076   -15271.484 
     498   -15271.076 0.00053590076   -15271.076 
     499   -15270.686 0.00053590076   -15270.686 
     500   -15270.315 0.00053590076   -15270.315 
Loop time of 34.1032 on 1 procs for 500 steps with 3600 atoms

Performance: 1266.742 ns/day, 0.019 hours/ns, 14.661 timesteps/s
100.0% CPU use with 1 MPI tasks x 1 OpenMP threads

MPI task timing breakdown:
Section |  min time  |  avg time  |  max time  |%varavg| %total
---------------------------------------------------------------
Pair    | 34.01      | 34.01      | 34.01      |   0.0 | 99.73
Neigh   | 0.047863   | 0.047863   | 0.047863   |   0.0 |  0.14
Comm    | 0.007109   | 0.007109   | 0.007109   |   0.0 |  0.02
Output  | 0.020314   | 0.020314   | 0.020314   |   0.0 |  0.06
Modify  | 0.012596   | 0.012596   | 0.012596   |   0.0 |  0.04
Other   |            | 0.004864   |            |       |  0.01

Nlocal:        3600.00 ave        3600 max        3600 min
Histogram: 1 0 0 0 0 0 0 0 0 0
Nghost:        3606.00 ave        3606 max        3606 min
Histogram: 1 0 0 0 0 0 0 0 0 0
Neighs:        146918.0 ave      146918 max      146918 min
Histogram: 1 0 0 0 0 0 0 0 0 0
FullNghs:      293836.0 ave      293836 max      293836 min
Histogram: 1 0 0 0 0 0 0 0 0 0

Total # of neighbors = 293836
Ave neighs/atom = 81.621111
Neighbor list builds = 4
Dangerous builds = 0

Total wall time: 0:00:55
