LAMMPS (29 Sep 2021)
OMP_NUM_THREADS environment is not set. Defaulting to 1 thread. (src/comm.cpp:98)
  using 1 OpenMP thread(s) per MPI task
# Input file for Stack Fault Energy surface of Nickel
# Richard Glaze, 2014
# --------------------- INITIALIZAITION ---------------------
clear
OMP_NUM_THREADS environment is not set. Defaulting to 1 thread. (src/comm.cpp:98)
  using 1 OpenMP thread(s) per MPI task
units		metal
dimension	3
boundary	p p s
atom_style	atomic

read_data 	../data111_use2.dat
Reading data file ...
  orthogonal box = (0.0000000 0.0000000 -0.0037381121) to (44.054073 25.434631 35.308130)
  1 by 1 by 1 MPI processor grid
  reading atoms ...
  3600 atoms
  read_data CPU = 0.009 seconds
#variable x_displace equal -1*(${latparam1}/sqrt(6))
variable zcut equal 17.4363
variable xdim equal 43.5152
variable ydim equal 25.1235

# --------------------- ATOM DEFINITION ---------------------

region		1 block -.001 INF -.001 INF -.001 ${zcut} units box
region		1 block -.001 INF -.001 INF -.001 17.4363 units box
region 	2 block -.001 INF -.001 INF ${zcut} INF units box
region 	2 block -.001 INF -.001 INF 17.4363 INF units box

region		whole block INF INF INF INF INF INF units box


# --------------------- FORCE FIELDS ---------------------
pair_style meam/c
pair_coeff	* * ../library.meam Co Ni Cr Fe Mn ../CoNiCrFeMn.meam Mn Cr Co Fe Ni

# --------------------- SETTINGS ---------------------

compute peratom all pe/atom
compute eatoms all reduce sum c_peratom
compute csym all centro/atom fcc

min_style cg
minimize 1e-10 1e-10 10000 100000
WARNING: Using 'neigh_modify every 1 delay 0 check yes' setting during minimization (src/min.cpp:188)
Neighbor list info ...
  update every 1 steps, delay 0 steps, check yes
  max neighbors/atom: 2000, page size: 100000
  master list distance cutoff = 6.5
  ghost atom cutoff = 6.5
  binsize = 3.25, bins = 14 8 11
  3 neighbor lists, perpetual/occasional/extra = 2 1 0
  (1) pair meam/c, perpetual
      attributes: full, newton on
      pair build: full/bin/atomonly
      stencil: full/bin/3d
      bin: standard
  (2) pair meam/c, perpetual, half/full from (1)
      attributes: half, newton on
      pair build: halffull/newton
      stencil: none
      bin: none
  (3) compute centro/atom, occasional, copy from (1)
      attributes: full, newton on
      pair build: copy
      stencil: none
      bin: none
Per MPI rank memory allocation (min/avg/max) = 15.41 | 15.41 | 15.41 Mbytes
Step Temp E_pair E_mol TotEng Press Volume 
       0            0   -15256.911            0   -15256.911   -63882.135    39566.452 
     100            0   -15294.377            0   -15294.377   -25578.923    39566.452 
Loop time of 23.2877 on 1 procs for 100 steps with 3600 atoms

100.0% CPU use with 1 MPI tasks x 1 OpenMP threads

Minimization stats:
  Stopping criterion = energy tolerance
  Energy initial, next-to-last, final = 
     -15256.9107037256  -15294.3769104681  -15294.3769119656
  Force two-norm initial, final = 19.634147 0.026066779
  Force max component initial, final = 1.2312626 0.015056177
  Final line search alpha, max atom move = 0.062500000 0.00094101104
  Iterations, force evaluations = 100 325

MPI task timing breakdown:
Section |  min time  |  avg time  |  max time  |%varavg| %total
---------------------------------------------------------------
Pair    | 23.263     | 23.263     | 23.263     |   0.0 | 99.90
Neigh   | 0          | 0          | 0          |   0.0 |  0.00
Comm    | 0.0067097  | 0.0067097  | 0.0067097  |   0.0 |  0.03
Output  | 0          | 0          | 0          |   0.0 |  0.00
Modify  | 0          | 0          | 0          |   0.0 |  0.00
Other   |            | 0.01756    |            |       |  0.08

Nlocal:        3600.00 ave        3600 max        3600 min
Histogram: 1 0 0 0 0 0 0 0 0 0
Nghost:        3558.00 ave        3558 max        3558 min
Histogram: 1 0 0 0 0 0 0 0 0 0
Neighs:        145200.0 ave      145200 max      145200 min
Histogram: 1 0 0 0 0 0 0 0 0 0
FullNghs:      290400.0 ave      290400 max      290400 min
Histogram: 1 0 0 0 0 0 0 0 0 0

Total # of neighbors = 290400
Ave neighs/atom = 80.666667
Neighbor list builds = 0
Dangerous builds = 0

thermo 1
thermo_style custom step pe c_eatoms
#dump 1 all custom 1 dump.relax id type xs ys zs c_peratom c_csym
run 0
WARNING: No fixes defined, atoms won't move (src/verlet.cpp:55)
Per MPI rank memory allocation (min/avg/max) = 14.29 | 14.29 | 14.29 Mbytes
Step PotEng c_eatoms 
     100   -15294.377   -15294.377 
Loop time of 8.2e-07 on 1 procs for 0 steps with 3600 atoms

243.9% CPU use with 1 MPI tasks x 1 OpenMP threads

MPI task timing breakdown:
Section |  min time  |  avg time  |  max time  |%varavg| %total
---------------------------------------------------------------
Pair    | 0          | 0          | 0          |   0.0 |  0.00
Neigh   | 0          | 0          | 0          |   0.0 |  0.00
Comm    | 0          | 0          | 0          |   0.0 |  0.00
Output  | 0          | 0          | 0          |   0.0 |  0.00
Modify  | 0          | 0          | 0          |   0.0 |  0.00
Other   |            | 8.2e-07    |            |       |100.00

Nlocal:        3600.00 ave        3600 max        3600 min
Histogram: 1 0 0 0 0 0 0 0 0 0
Nghost:        3562.00 ave        3562 max        3562 min
Histogram: 1 0 0 0 0 0 0 0 0 0
Neighs:        145289.0 ave      145289 max      145289 min
Histogram: 1 0 0 0 0 0 0 0 0 0
FullNghs:      290578.0 ave      290578 max      290578 min
Histogram: 1 0 0 0 0 0 0 0 0 0

Total # of neighbors = 290578
Ave neighs/atom = 80.716111
Neighbor list builds = 0
Dangerous builds = 0

#this command creates a model of the script before the displacement and minimization occur


variable E equal "c_eatoms"
variable Eo equal $E
variable Eo equal -15294.3769119656

#undump 1

#variable E equal "c_eatoms" computes the initial energy of the model before any sliding is done
#E is necessary to store the initial energy in Eo

group bot region 1
1800 atoms in group bot
group top region 2
1800 atoms in group top


reset_timestep 0
timestep 1

fix 1 top move linear -0.01 0.0 0.0 units box

#dump 2 all custom 1 dump2.relax id type xs ys zs c_peratom c_csym

#displace_atoms top move ${x_displace} 0.0 0.0 units box
#displace_atoms is the command neccessary to move atoms into the next stacking arrangement (ie: A -> B)

#fix 2 all setforce 0 0 NULL


thermo 1
thermo_style custom step pe ke c_eatoms

run 500
Per MPI rank memory allocation (min/avg/max) = 14.79 | 14.79 | 14.79 Mbytes
Step PotEng KinEng c_eatoms 
       0   -15294.377            0   -15294.377 
       1   -15294.366 0.00053573357   -15294.366 
       2   -15294.333 0.00053573357   -15294.333 
       3   -15294.278 0.00053573357   -15294.278 
       4   -15294.201 0.00053573357   -15294.201 
       5   -15294.104 0.00053573357   -15294.104 
       6   -15293.986 0.00053573357   -15293.986 
       7   -15293.848 0.00053573357   -15293.848 
       8   -15293.691 0.00053573357   -15293.691 
       9   -15293.515 0.00053573357   -15293.515 
      10   -15293.321 0.00053573357   -15293.321 
      11   -15293.108 0.00053573357   -15293.108 
      12   -15292.878 0.00053573357   -15292.878 
      13    -15292.63 0.00053573357    -15292.63 
      14   -15292.365 0.00053573357   -15292.365 
      15   -15292.084 0.00053573357   -15292.084 
      16   -15291.786 0.00053573357   -15291.786 
      17   -15291.473 0.00053573357   -15291.473 
      18   -15291.143 0.00053573357   -15291.143 
      19   -15290.798 0.00053573357   -15290.798 
      20   -15290.437 0.00053573357   -15290.437 
      21    -15290.06 0.00053573357    -15290.06 
      22   -15289.667 0.00053573357   -15289.667 
      23   -15289.259 0.00053573357   -15289.259 
      24   -15288.835 0.00053573357   -15288.835 
      25   -15288.394 0.00053573357   -15288.394 
      26   -15287.939 0.00053573357   -15287.939 
      27   -15287.467 0.00053573357   -15287.467 
      28   -15286.978 0.00053573357   -15286.978 
      29   -15286.474 0.00053573357   -15286.474 
      30   -15285.954 0.00053573357   -15285.954 
      31   -15285.417 0.00053573357   -15285.417 
      32   -15284.864 0.00053573357   -15284.864 
      33   -15284.295 0.00053573357   -15284.295 
      34   -15283.711 0.00053573357   -15283.711 
      35   -15283.113 0.00053573357   -15283.113 
      36   -15282.501 0.00053573357   -15282.501 
      37   -15281.878 0.00053573357   -15281.878 
      38   -15281.246 0.00053573357   -15281.246 
      39   -15280.607 0.00053573357   -15280.607 
      40   -15279.964 0.00053573357   -15279.964 
      41   -15279.322 0.00053573357   -15279.322 
      42   -15278.684 0.00053573357   -15278.684 
      43   -15278.054 0.00053573357   -15278.054 
      44   -15277.437 0.00053573357   -15277.437 
      45   -15276.836 0.00053573357   -15276.836 
      46   -15276.255 0.00053573357   -15276.255 
      47   -15275.697 0.00053573357   -15275.697 
      48   -15275.163 0.00053573357   -15275.163 
      49   -15274.655 0.00053573357   -15274.655 
      50   -15274.171 0.00053573357   -15274.171 
      51    -15273.71 0.00053573357    -15273.71 
      52   -15273.268 0.00053573357   -15273.268 
      53   -15272.844 0.00053573357   -15272.844 
      54   -15272.437 0.00053573357   -15272.437 
      55   -15272.047 0.00053573357   -15272.047 
      56   -15271.675 0.00053573357   -15271.675 
      57   -15271.322 0.00053573357   -15271.322 
      58   -15270.987 0.00053573357   -15270.987 
      59   -15270.671 0.00053573357   -15270.671 
      60   -15270.372 0.00053573357   -15270.372 
      61   -15270.092 0.00053573357   -15270.092 
      62   -15269.831 0.00053573357   -15269.831 
      63   -15269.591 0.00053573357   -15269.591 
      64   -15269.371 0.00053573357   -15269.371 
      65   -15269.172 0.00053573357   -15269.172 
      66   -15268.996 0.00053573357   -15268.996 
      67   -15268.842 0.00053573357   -15268.842 
      68   -15268.711 0.00053573357   -15268.711 
      69   -15268.603 0.00053573357   -15268.603 
      70    -15268.52 0.00053573357    -15268.52 
      71    -15268.46 0.00053573357    -15268.46 
      72   -15268.424 0.00053573357   -15268.424 
      73   -15268.413 0.00053573357   -15268.413 
      74   -15268.426 0.00053573357   -15268.426 
      75   -15268.464 0.00053573357   -15268.464 
      76   -15268.527 0.00053573357   -15268.527 
      77   -15268.614 0.00053573357   -15268.614 
      78   -15268.725 0.00053573357   -15268.725 
      79    -15268.86 0.00053573357    -15268.86 
      80   -15269.019 0.00053573357   -15269.019 
      81   -15269.201 0.00053573357   -15269.201 
      82   -15269.406 0.00053573357   -15269.406 
      83   -15269.633 0.00053573357   -15269.633 
      84   -15269.883 0.00053573357   -15269.883 
      85   -15270.155 0.00053573357   -15270.155 
      86   -15270.449 0.00053573357   -15270.449 
      87   -15270.765 0.00053573357   -15270.765 
      88     -15271.1 0.00053573357     -15271.1 
      89   -15271.455 0.00053573357   -15271.455 
      90   -15271.828 0.00053573357   -15271.828 
      91   -15272.219 0.00053573357   -15272.219 
      92   -15272.626 0.00053573357   -15272.626 
      93   -15273.047 0.00053573357   -15273.047 
      94   -15273.484 0.00053573357   -15273.484 
      95   -15273.935 0.00053573357   -15273.935 
      96     -15274.4 0.00053573357     -15274.4 
      97    -15274.88 0.00053573357    -15274.88 
      98   -15275.374 0.00053573357   -15275.374 
      99   -15275.882 0.00053573357   -15275.882 
     100   -15276.403 0.00053573357   -15276.403 
     101   -15276.937 0.00053573357   -15276.937 
     102   -15277.482 0.00053573357   -15277.482 
     103   -15278.038 0.00053573357   -15278.038 
     104   -15278.602 0.00053573357   -15278.602 
     105   -15279.175 0.00053573357   -15279.175 
     106   -15279.754 0.00053573357   -15279.754 
     107   -15280.338 0.00053573357   -15280.338 
     108   -15280.925 0.00053573357   -15280.925 
     109   -15281.512 0.00053573357   -15281.512 
     110   -15282.099 0.00053573357   -15282.099 
     111   -15282.683 0.00053573357   -15282.683 
     112   -15283.261 0.00053573357   -15283.261 
     113   -15283.833 0.00053573357   -15283.833 
     114   -15284.396 0.00053573357   -15284.396 
     115    -15284.95 0.00053573357    -15284.95 
     116   -15285.492 0.00053573357   -15285.492 
     117   -15286.022 0.00053573357   -15286.022 
     118    -15286.54 0.00053573357    -15286.54 
     119   -15287.044 0.00053573357   -15287.044 
     120   -15287.533 0.00053573357   -15287.533 
     121   -15288.008 0.00053573357   -15288.008 
     122   -15288.468 0.00053573357   -15288.468 
     123   -15288.913 0.00053573357   -15288.913 
     124   -15289.342 0.00053573357   -15289.342 
     125   -15289.756 0.00053573357   -15289.756 
     126   -15290.153 0.00053573357   -15290.153 
     127   -15290.535 0.00053573357   -15290.535 
     128     -15290.9 0.00053573357     -15290.9 
     129   -15291.248 0.00053573357   -15291.248 
     130    -15291.58 0.00053573357    -15291.58 
     131   -15291.895 0.00053573357   -15291.895 
     132   -15292.192 0.00053573357   -15292.192 
     133   -15292.472 0.00053573357   -15292.472 
     134   -15292.733 0.00053573357   -15292.733 
     135   -15292.976 0.00053573357   -15292.976 
     136     -15293.2 0.00053573357     -15293.2 
     137   -15293.405 0.00053573357   -15293.405 
     138   -15293.591 0.00053573357   -15293.591 
     139   -15293.757 0.00053573357   -15293.757 
     140   -15293.902 0.00053573357   -15293.902 
     141   -15294.027 0.00053573357   -15294.027 
     142    -15294.13 0.00053573357    -15294.13 
     143   -15294.212 0.00053573357   -15294.212 
     144   -15294.271 0.00053573357   -15294.271 
     145   -15294.307 0.00053573357   -15294.307 
     146    -15294.32 0.00053573357    -15294.32 
     147    -15294.31 0.00053573357    -15294.31 
     148   -15294.275 0.00053573357   -15294.275 
     149   -15294.217 0.00053573357   -15294.217 
     150   -15294.133 0.00053573357   -15294.133 
     151   -15294.025 0.00053573357   -15294.025 
     152    -15293.89 0.00053573357    -15293.89 
     153    -15293.73 0.00053573357    -15293.73 
     154   -15293.544 0.00053573357   -15293.544 
     155   -15293.331 0.00053573357   -15293.331 
     156    -15293.09 0.00053573357    -15293.09 
     157   -15292.822 0.00053573357   -15292.822 
     158   -15292.525 0.00053573357   -15292.525 
     159   -15292.199 0.00053573357   -15292.199 
     160   -15291.845 0.00053573357   -15291.845 
     161   -15291.461 0.00053573357   -15291.461 
     162   -15291.048 0.00053573357   -15291.048 
     163   -15290.604 0.00053573357   -15290.604 
     164   -15290.131 0.00053573357   -15290.131 
     165   -15289.627 0.00053573357   -15289.627 
     166   -15289.092 0.00053573357   -15289.092 
     167   -15288.525 0.00053573357   -15288.525 
     168   -15287.926 0.00053573357   -15287.926 
     169   -15287.294 0.00053573357   -15287.294 
     170    -15286.63 0.00053573357    -15286.63 
     171   -15285.932 0.00053573357   -15285.932 
     172     -15285.2 0.00053573357     -15285.2 
     173   -15284.433 0.00053573357   -15284.433 
     174   -15283.631 0.00053573357   -15283.631 
     175   -15282.793 0.00053573357   -15282.793 
     176   -15281.918 0.00053573357   -15281.918 
     177   -15281.007 0.00053573357   -15281.007 
     178   -15280.058 0.00053573357   -15280.058 
     179    -15279.07 0.00053573357    -15279.07 
     180   -15278.044 0.00053573357   -15278.044 
     181   -15276.978 0.00053573357   -15276.978 
     182   -15275.873 0.00053573357   -15275.873 
     183   -15274.726 0.00053573357   -15274.726 
     184   -15273.538 0.00053573357   -15273.538 
     185   -15272.309 0.00053573357   -15272.309 
     186   -15271.037 0.00053573357   -15271.037 
     187   -15269.723 0.00053573357   -15269.723 
     188   -15268.367 0.00053573357   -15268.367 
     189   -15266.968 0.00053573357   -15266.968 
     190   -15265.527 0.00053573357   -15265.527 
     191   -15264.044 0.00053573357   -15264.044 
     192   -15262.521 0.00053573357   -15262.521 
     193   -15260.957 0.00053573357   -15260.957 
     194   -15259.355 0.00053573357   -15259.355 
     195   -15257.716 0.00053573357   -15257.716 
     196   -15256.043 0.00053573357   -15256.043 
     197   -15254.338 0.00053573357   -15254.338 
     198   -15252.604 0.00053573357   -15252.604 
     199   -15250.841 0.00053573357   -15250.841 
     200   -15249.048 0.00053573357   -15249.048 
     201   -15247.226 0.00053573357   -15247.226 
     202   -15245.379 0.00053573357   -15245.379 
     203   -15243.509 0.00053573357   -15243.509 
     204   -15241.621 0.00053573357   -15241.621 
     205   -15239.713 0.00053573357   -15239.713 
     206    -15237.79 0.00053573357    -15237.79 
     207   -15235.854 0.00053573357   -15235.854 
     208   -15233.908 0.00053573357   -15233.908 
     209    -15231.95 0.00053573357    -15231.95 
     210   -15229.982 0.00053573357   -15229.982 
     211       -15228 0.00053573357       -15228 
     212   -15226.004 0.00053573357   -15226.004 
     213   -15223.991 0.00053573357   -15223.991 
     214   -15221.958 0.00053573357   -15221.958 
     215   -15219.905 0.00053573357   -15219.905 
     216   -15217.831 0.00053573357   -15217.831 
     217   -15215.736 0.00053573357   -15215.736 
     218   -15213.623 0.00053573357   -15213.623 
     219   -15211.491 0.00053573357   -15211.491 
     220    -15209.34 0.00053573357    -15209.34 
     221   -15207.172 0.00053573357   -15207.172 
     222   -15204.988 0.00053573357   -15204.988 
     223   -15202.789 0.00053573357   -15202.789 
     224   -15200.577 0.00053573357   -15200.577 
     225   -15198.351 0.00053573357   -15198.351 
     226   -15196.115 0.00053573357   -15196.115 
     227   -15193.868 0.00053573357   -15193.868 
     228   -15191.613 0.00053573357   -15191.613 
     229   -15189.352 0.00053573357   -15189.352 
     230   -15187.084 0.00053573357   -15187.084 
     231   -15184.813 0.00053573357   -15184.813 
     232    -15182.54 0.00053573357    -15182.54 
     233   -15180.265 0.00053573357   -15180.265 
     234   -15177.991 0.00053573357   -15177.991 
     235    -15175.72 0.00053573357    -15175.72 
     236   -15173.453 0.00053573357   -15173.453 
     237   -15171.192 0.00053573357   -15171.192 
     238   -15168.938 0.00053573357   -15168.938 
     239   -15166.694 0.00053573357   -15166.694 
     240    -15164.46 0.00053573357    -15164.46 
     241   -15162.239 0.00053573357   -15162.239 
     242   -15160.032 0.00053573357   -15160.032 
     243   -15157.841 0.00053573357   -15157.841 
     244   -15155.668 0.00053573357   -15155.668 
     245   -15153.514 0.00053573357   -15153.514 
     246   -15151.381 0.00053573357   -15151.381 
     247    -15149.27 0.00053573357    -15149.27 
     248   -15147.183 0.00053573357   -15147.183 
     249   -15145.122 0.00053573357   -15145.122 
     250   -15143.087 0.00053573357   -15143.087 
     251   -15141.081 0.00053573357   -15141.081 
     252   -15139.104 0.00053573357   -15139.104 
     253   -15137.159 0.00053573357   -15137.159 
     254   -15135.246 0.00053573357   -15135.246 
     255   -15133.366 0.00053573357   -15133.366 
     256   -15131.521 0.00053573357   -15131.521 
     257   -15129.712 0.00053573357   -15129.712 
     258   -15127.939 0.00053573357   -15127.939 
     259   -15126.203 0.00053573357   -15126.203 
     260   -15124.506 0.00053573357   -15124.506 
     261   -15122.848 0.00053573357   -15122.848 
     262    -15121.23 0.00053573357    -15121.23 
     263   -15119.653 0.00053573357   -15119.653 
     264   -15118.116 0.00053573357   -15118.116 
     265   -15116.622 0.00053573357   -15116.622 
     266    -15115.17 0.00053573357    -15115.17 
     267   -15113.762 0.00053573357   -15113.762 
     268   -15112.399 0.00053573357   -15112.399 
     269   -15111.081 0.00053573357   -15111.081 
     270   -15109.809 0.00053573357   -15109.809 
     271   -15108.584 0.00053573357   -15108.584 
     272   -15107.408 0.00053573357   -15107.408 
     273    -15106.28 0.00053573357    -15106.28 
     274   -15105.201 0.00053573357   -15105.201 
     275   -15104.173 0.00053573357   -15104.173 
     276   -15103.196 0.00053573357   -15103.196 
     277    -15102.27 0.00053573357    -15102.27 
     278   -15101.397 0.00053573357   -15101.397 
     279   -15100.578 0.00053573357   -15100.578 
     280   -15099.812 0.00053573357   -15099.812 
     281   -15099.101 0.00053573357   -15099.101 
     282   -15098.444 0.00053573357   -15098.444 
     283   -15097.843 0.00053573357   -15097.843 
     284   -15097.299 0.00053573357   -15097.299 
     285    -15096.81 0.00053573357    -15096.81 
     286   -15096.378 0.00053573357   -15096.378 
     287   -15096.004 0.00053573357   -15096.004 
     288   -15095.687 0.00053573357   -15095.687 
     289   -15095.427 0.00053573357   -15095.427 
     290   -15095.226 0.00053573357   -15095.226 
     291   -15095.082 0.00053573357   -15095.082 
     292   -15094.997 0.00053573357   -15094.997 
     293   -15094.971 0.00053573357   -15094.971 
     294   -15095.002 0.00053573357   -15095.002 
     295   -15095.092 0.00053573357   -15095.092 
     296    -15095.24 0.00053573357    -15095.24 
     297   -15095.447 0.00053573357   -15095.447 
     298   -15095.712 0.00053573357   -15095.712 
     299   -15096.034 0.00053573357   -15096.034 
     300   -15096.414 0.00053573357   -15096.414 
     301   -15096.852 0.00053573357   -15096.852 
     302   -15097.347 0.00053573357   -15097.347 
     303   -15097.898 0.00053573357   -15097.898 
     304   -15098.506 0.00053573357   -15098.506 
     305    -15099.17 0.00053573357    -15099.17 
     306    -15099.89 0.00053573357    -15099.89 
     307   -15100.664 0.00053573357   -15100.664 
     308   -15101.493 0.00053573357   -15101.493 
     309   -15102.375 0.00053573357   -15102.375 
     310    -15103.31 0.00053573357    -15103.31 
     311   -15104.297 0.00053573357   -15104.297 
     312   -15105.336 0.00053573357   -15105.336 
     313   -15106.426 0.00053573357   -15106.426 
     314   -15107.565 0.00053573357   -15107.565 
     315   -15108.754 0.00053573357   -15108.754 
     316    -15109.99 0.00053573357    -15109.99 
     317   -15111.275 0.00053573357   -15111.275 
     318   -15112.605 0.00053573357   -15112.605 
     319   -15113.981 0.00053573357   -15113.981 
     320   -15115.402 0.00053573357   -15115.402 
     321   -15116.866 0.00053573357   -15116.866 
     322   -15118.372 0.00053573357   -15118.372 
     323    -15119.92 0.00053573357    -15119.92 
     324    -15121.51 0.00053573357    -15121.51 
     325   -15123.139 0.00053573357   -15123.139 
     326   -15124.807 0.00053573357   -15124.807 
     327   -15126.514 0.00053573357   -15126.514 
     328   -15128.257 0.00053573357   -15128.257 
     329   -15130.036 0.00053573357   -15130.036 
     330   -15131.849 0.00053573357   -15131.849 
     331   -15133.697 0.00053573357   -15133.697 
     332   -15135.577 0.00053573357   -15135.577 
     333   -15137.489 0.00053573357   -15137.489 
     334    -15139.43 0.00053573357    -15139.43 
     335     -15141.4 0.00053573357     -15141.4 
     336   -15143.398 0.00053573357   -15143.398 
     337   -15145.422 0.00053573357   -15145.422 
     338    -15147.47 0.00053573357    -15147.47 
     339   -15149.541 0.00053573357   -15149.541 
     340   -15151.634 0.00053573357   -15151.634 
     341   -15153.747 0.00053573357   -15153.747 
     342    -15155.88 0.00053573357    -15155.88 
     343    -15158.03 0.00053573357    -15158.03 
     344   -15160.196 0.00053573357   -15160.196 
     345   -15162.376 0.00053573357   -15162.376 
     346   -15164.569 0.00053573357   -15164.569 
     347   -15166.774 0.00053573357   -15166.774 
     348   -15168.989 0.00053573357   -15168.989 
     349   -15171.213 0.00053573357   -15171.213 
     350   -15173.443 0.00053573357   -15173.443 
     351   -15175.679 0.00053573357   -15175.679 
     352   -15177.918 0.00053573357   -15177.918 
     353   -15180.161 0.00053573357   -15180.161 
     354   -15182.404 0.00053573357   -15182.404 
     355   -15184.646 0.00053573357   -15184.646 
     356   -15186.887 0.00053573357   -15186.887 
     357   -15189.124 0.00053573357   -15189.124 
     358   -15191.357 0.00053573357   -15191.357 
     359   -15193.584 0.00053573357   -15193.584 
     360   -15195.803 0.00053573357   -15195.803 
     361   -15198.013 0.00053573357   -15198.013 
     362   -15200.213 0.00053573357   -15200.213 
     363   -15202.402 0.00053573357   -15202.402 
     364   -15204.578 0.00053573357   -15204.578 
     365    -15206.74 0.00053573357    -15206.74 
     366   -15208.887 0.00053573357   -15208.887 
     367   -15211.019 0.00053573357   -15211.019 
     368   -15213.133 0.00053573357   -15213.133 
     369   -15215.231 0.00053573357   -15215.231 
     370   -15217.313 0.00053573357   -15217.313 
     371    -15219.38 0.00053573357    -15219.38 
     372   -15221.435 0.00053573357   -15221.435 
     373   -15223.479 0.00053573357   -15223.479 
     374   -15225.509 0.00053573357   -15225.509 
     375   -15227.522 0.00053573357   -15227.522 
     376   -15229.519 0.00053573357   -15229.519 
     377   -15231.502 0.00053573357   -15231.502 
     378    -15233.47 0.00053573357    -15233.47 
     379    -15235.42 0.00053573357    -15235.42 
     380   -15237.351 0.00053573357   -15237.351 
     381    -15239.26 0.00053573357    -15239.26 
     382   -15241.146 0.00053573357   -15241.146 
     383   -15243.009 0.00053573357   -15243.009 
     384   -15244.849 0.00053573357   -15244.849 
     385   -15246.665 0.00053573357   -15246.665 
     386   -15248.456 0.00053573357   -15248.456 
     387   -15250.221 0.00053573357   -15250.221 
     388   -15251.957 0.00053573357   -15251.957 
     389   -15253.665 0.00053573357   -15253.665 
     390    -15255.34 0.00053573357    -15255.34 
     391   -15256.983 0.00053573357   -15256.983 
     392   -15258.591 0.00053573357   -15258.591 
     393   -15260.163 0.00053573357   -15260.163 
     394   -15261.698 0.00053573357   -15261.698 
     395   -15263.194 0.00053573357   -15263.194 
     396    -15264.65 0.00053573357    -15264.65 
     397   -15266.067 0.00053573357   -15266.067 
     398   -15267.444 0.00053573357   -15267.444 
     399    -15268.78 0.00053573357    -15268.78 
     400   -15270.076 0.00053573357   -15270.076 
     401   -15271.332 0.00053573357   -15271.332 
     402   -15272.547 0.00053573357   -15272.547 
     403   -15273.723 0.00053573357   -15273.723 
     404   -15274.859 0.00053573357   -15274.859 
     405   -15275.957 0.00053573357   -15275.957 
     406   -15277.016 0.00053573357   -15277.016 
     407   -15278.038 0.00053573357   -15278.038 
     408   -15279.022 0.00053573357   -15279.022 
     409   -15279.969 0.00053573357   -15279.969 
     410    -15280.88 0.00053573357    -15280.88 
     411   -15281.755 0.00053573357   -15281.755 
     412   -15282.595 0.00053573357   -15282.595 
     413   -15283.401 0.00053573357   -15283.401 
     414   -15284.172 0.00053573357   -15284.172 
     415   -15284.909 0.00053573357   -15284.909 
     416   -15285.613 0.00053573357   -15285.613 
     417   -15286.284 0.00053573357   -15286.284 
     418   -15286.922 0.00053573357   -15286.922 
     419   -15287.529 0.00053573357   -15287.529 
     420   -15288.105 0.00053573357   -15288.105 
     421   -15288.649 0.00053573357   -15288.649 
     422   -15289.163 0.00053573357   -15289.163 
     423   -15289.647 0.00053573357   -15289.647 
     424     -15290.1 0.00053573357     -15290.1 
     425   -15290.525 0.00053573357   -15290.525 
     426    -15290.92 0.00053573357    -15290.92 
     427   -15291.286 0.00053573357   -15291.286 
     428   -15291.624 0.00053573357   -15291.624 
     429   -15291.934 0.00053573357   -15291.934 
     430   -15292.217 0.00053573357   -15292.217 
     431   -15292.472 0.00053573357   -15292.472 
     432     -15292.7 0.00053573357     -15292.7 
     433   -15292.901 0.00053573357   -15292.901 
     434   -15293.077 0.00053573357   -15293.077 
     435   -15293.226 0.00053573357   -15293.226 
     436    -15293.35 0.00053573357    -15293.35 
     437   -15293.449 0.00053573357   -15293.449 
     438   -15293.523 0.00053573357   -15293.523 
     439   -15293.572 0.00053573357   -15293.572 
     440   -15293.598 0.00053573357   -15293.598 
     441     -15293.6 0.00053573357     -15293.6 
     442    -15293.58 0.00053573357    -15293.58 
     443   -15293.537 0.00053573357   -15293.537 
     444   -15293.471 0.00053573357   -15293.471 
     445   -15293.384 0.00053573357   -15293.384 
     446   -15293.276 0.00053573357   -15293.276 
     447   -15293.147 0.00053573357   -15293.147 
     448   -15292.998 0.00053573357   -15292.998 
     449   -15292.829 0.00053573357   -15292.829 
     450    -15292.64 0.00053573357    -15292.64 
     451   -15292.433 0.00053573357   -15292.433 
     452   -15292.207 0.00053573357   -15292.207 
     453   -15291.963 0.00053573357   -15291.963 
     454   -15291.701 0.00053573357   -15291.701 
     455   -15291.423 0.00053573357   -15291.423 
     456   -15291.127 0.00053573357   -15291.127 
     457   -15290.815 0.00053573357   -15290.815 
     458   -15290.487 0.00053573357   -15290.487 
     459   -15290.143 0.00053573357   -15290.143 
     460   -15289.784 0.00053573357   -15289.784 
     461   -15289.409 0.00053573357   -15289.409 
     462   -15289.019 0.00053573357   -15289.019 
     463   -15288.615 0.00053573357   -15288.615 
     464   -15288.196 0.00053573357   -15288.196 
     465   -15287.763 0.00053573357   -15287.763 
     466   -15287.316 0.00053573357   -15287.316 
     467   -15286.855 0.00053573357   -15286.855 
     468   -15286.381 0.00053573357   -15286.381 
     469   -15285.894 0.00053573357   -15285.894 
     470   -15285.394 0.00053573357   -15285.394 
     471   -15284.881 0.00053573357   -15284.881 
     472   -15284.357 0.00053573357   -15284.357 
     473   -15283.822 0.00053573357   -15283.822 
     474   -15283.277 0.00053573357   -15283.277 
     475   -15282.722 0.00053573357   -15282.722 
     476   -15282.158 0.00053573357   -15282.158 
     477   -15281.588 0.00053573357   -15281.588 
     478   -15281.013 0.00053573357   -15281.013 
     479   -15280.434 0.00053573357   -15280.434 
     480   -15279.853 0.00053573357   -15279.853 
     481   -15279.273 0.00053573357   -15279.273 
     482   -15278.696 0.00053573357   -15278.696 
     483   -15278.125 0.00053573357   -15278.125 
     484    -15277.56 0.00053573357    -15277.56 
     485   -15277.006 0.00053573357   -15277.006 
     486   -15276.463 0.00053573357   -15276.463 
     487   -15275.932 0.00053573357   -15275.932 
     488   -15275.413 0.00053573357   -15275.413 
     489   -15274.906 0.00053573357   -15274.906 
     490   -15274.415 0.00053573357   -15274.415 
     491   -15273.936 0.00053573357   -15273.936 
     492   -15273.472 0.00053573357   -15273.472 
     493    -15273.02 0.00053573357    -15273.02 
     494   -15272.583 0.00053573357   -15272.583 
     495   -15272.159 0.00053573357   -15272.159 
     496   -15271.749 0.00053573357   -15271.749 
     497   -15271.354 0.00053573357   -15271.354 
     498   -15270.975 0.00053573357   -15270.975 
     499   -15270.612 0.00053573357   -15270.612 
     500   -15270.267 0.00053573357   -15270.267 
Loop time of 35.9617 on 1 procs for 500 steps with 3600 atoms

Performance: 1201.279 ns/day, 0.020 hours/ns, 13.904 timesteps/s
99.9% CPU use with 1 MPI tasks x 1 OpenMP threads

MPI task timing breakdown:
Section |  min time  |  avg time  |  max time  |%varavg| %total
---------------------------------------------------------------
Pair    | 35.853     | 35.853     | 35.853     |   0.0 | 99.70
Neigh   | 0.049445   | 0.049445   | 0.049445   |   0.0 |  0.14
Comm    | 0.010279   | 0.010279   | 0.010279   |   0.0 |  0.03
Output  | 0.027249   | 0.027249   | 0.027249   |   0.0 |  0.08
Modify  | 0.014177   | 0.014177   | 0.014177   |   0.0 |  0.04
Other   |            | 0.007233   |            |       |  0.02

Nlocal:        3600.00 ave        3600 max        3600 min
Histogram: 1 0 0 0 0 0 0 0 0 0
Nghost:        3610.00 ave        3610 max        3610 min
Histogram: 1 0 0 0 0 0 0 0 0 0
Neighs:        146836.0 ave      146836 max      146836 min
Histogram: 1 0 0 0 0 0 0 0 0 0
FullNghs:      293672.0 ave      293672 max      293672 min
Histogram: 1 0 0 0 0 0 0 0 0 0

Total # of neighbors = 293672
Ave neighs/atom = 81.575556
Neighbor list builds = 4
Dangerous builds = 0

Total wall time: 0:00:59
