LAMMPS (29 Sep 2021)
OMP_NUM_THREADS environment is not set. Defaulting to 1 thread. (src/comm.cpp:98)
  using 1 OpenMP thread(s) per MPI task
# Input file for Stack Fault Energy surface of Nickel
# Richard Glaze, 2014
# --------------------- INITIALIZAITION ---------------------
clear
OMP_NUM_THREADS environment is not set. Defaulting to 1 thread. (src/comm.cpp:98)
  using 1 OpenMP thread(s) per MPI task
units		metal
dimension	3
boundary	p p s
atom_style	atomic

read_data 	../data111_use3.dat
Reading data file ...
  orthogonal box = (0.0000000 0.0000000 -0.0037381121) to (44.054073 25.434631 35.308130)
  1 by 1 by 1 MPI processor grid
  reading atoms ...
  3600 atoms
  read_data CPU = 0.010 seconds
#variable x_displace equal -1*(${latparam1}/sqrt(6))
variable zcut equal 17.4363
variable xdim equal 43.5152
variable ydim equal 25.1235

# --------------------- ATOM DEFINITION ---------------------

region		1 block -.001 INF -.001 INF -.001 ${zcut} units box
region		1 block -.001 INF -.001 INF -.001 17.4363 units box
region 	2 block -.001 INF -.001 INF ${zcut} INF units box
region 	2 block -.001 INF -.001 INF 17.4363 INF units box

region		whole block INF INF INF INF INF INF units box


# --------------------- FORCE FIELDS ---------------------
pair_style meam/c
pair_coeff	* * ../library.meam Co Ni Cr Fe Mn ../CoNiCrFeMn.meam Mn Cr Co Fe Ni

# --------------------- SETTINGS ---------------------

compute peratom all pe/atom
compute eatoms all reduce sum c_peratom
compute csym all centro/atom fcc

min_style cg
minimize 1e-10 1e-10 10000 100000
WARNING: Using 'neigh_modify every 1 delay 0 check yes' setting during minimization (src/min.cpp:188)
Neighbor list info ...
  update every 1 steps, delay 0 steps, check yes
  max neighbors/atom: 2000, page size: 100000
  master list distance cutoff = 6.5
  ghost atom cutoff = 6.5
  binsize = 3.25, bins = 14 8 11
  3 neighbor lists, perpetual/occasional/extra = 2 1 0
  (1) pair meam/c, perpetual
      attributes: full, newton on
      pair build: full/bin/atomonly
      stencil: full/bin/3d
      bin: standard
  (2) pair meam/c, perpetual, half/full from (1)
      attributes: half, newton on
      pair build: halffull/newton
      stencil: none
      bin: none
  (3) compute centro/atom, occasional, copy from (1)
      attributes: full, newton on
      pair build: copy
      stencil: none
      bin: none
Per MPI rank memory allocation (min/avg/max) = 15.41 | 15.41 | 15.41 Mbytes
Step Temp E_pair E_mol TotEng Press Volume 
       0            0   -15256.812            0   -15256.812   -63630.554    39566.452 
      86            0   -15293.295            0   -15293.295   -25300.597    39566.452 
Loop time of 18.4039 on 1 procs for 86 steps with 3600 atoms

100.0% CPU use with 1 MPI tasks x 1 OpenMP threads

Minimization stats:
  Stopping criterion = energy tolerance
  Energy initial, next-to-last, final = 
     -15256.8124285241  -15293.2948487759  -15293.2948492018
  Force two-norm initial, final = 19.236403 0.030884468
  Force max component initial, final = 0.95655237 0.013312858
  Final line search alpha, max atom move = 1.0000000 0.013312858
  Iterations, force evaluations = 86 267

MPI task timing breakdown:
Section |  min time  |  avg time  |  max time  |%varavg| %total
---------------------------------------------------------------
Pair    | 18.387     | 18.387     | 18.387     |   0.0 | 99.91
Neigh   | 0          | 0          | 0          |   0.0 |  0.00
Comm    | 0.00418    | 0.00418    | 0.00418    |   0.0 |  0.02
Output  | 0          | 0          | 0          |   0.0 |  0.00
Modify  | 0          | 0          | 0          |   0.0 |  0.00
Other   |            | 0.01301    |            |       |  0.07

Nlocal:        3600.00 ave        3600 max        3600 min
Histogram: 1 0 0 0 0 0 0 0 0 0
Nghost:        3558.00 ave        3558 max        3558 min
Histogram: 1 0 0 0 0 0 0 0 0 0
Neighs:        145200.0 ave      145200 max      145200 min
Histogram: 1 0 0 0 0 0 0 0 0 0
FullNghs:      290400.0 ave      290400 max      290400 min
Histogram: 1 0 0 0 0 0 0 0 0 0

Total # of neighbors = 290400
Ave neighs/atom = 80.666667
Neighbor list builds = 0
Dangerous builds = 0

thermo 1
thermo_style custom step pe c_eatoms
#dump 1 all custom 1 dump.relax id type xs ys zs c_peratom c_csym
run 0
WARNING: No fixes defined, atoms won't move (src/verlet.cpp:55)
Per MPI rank memory allocation (min/avg/max) = 14.29 | 14.29 | 14.29 Mbytes
Step PotEng c_eatoms 
      86   -15293.295   -15293.295 
Loop time of 1.08e-06 on 1 procs for 0 steps with 3600 atoms

185.2% CPU use with 1 MPI tasks x 1 OpenMP threads

MPI task timing breakdown:
Section |  min time  |  avg time  |  max time  |%varavg| %total
---------------------------------------------------------------
Pair    | 0          | 0          | 0          |   0.0 |  0.00
Neigh   | 0          | 0          | 0          |   0.0 |  0.00
Comm    | 0          | 0          | 0          |   0.0 |  0.00
Output  | 0          | 0          | 0          |   0.0 |  0.00
Modify  | 0          | 0          | 0          |   0.0 |  0.00
Other   |            | 1.08e-06   |            |       |100.00

Nlocal:        3600.00 ave        3600 max        3600 min
Histogram: 1 0 0 0 0 0 0 0 0 0
Nghost:        3558.00 ave        3558 max        3558 min
Histogram: 1 0 0 0 0 0 0 0 0 0
Neighs:        145254.0 ave      145254 max      145254 min
Histogram: 1 0 0 0 0 0 0 0 0 0
FullNghs:      290508.0 ave      290508 max      290508 min
Histogram: 1 0 0 0 0 0 0 0 0 0

Total # of neighbors = 290508
Ave neighs/atom = 80.696667
Neighbor list builds = 0
Dangerous builds = 0

#this command creates a model of the script before the displacement and minimization occur


variable E equal "c_eatoms"
variable Eo equal $E
variable Eo equal -15293.2948492017

#undump 1

#variable E equal "c_eatoms" computes the initial energy of the model before any sliding is done
#E is necessary to store the initial energy in Eo

group bot region 1
1800 atoms in group bot
group top region 2
1800 atoms in group top


reset_timestep 0
timestep 1

fix 1 top move linear -0.01 0.0 0.0 units box

#dump 2 all custom 1 dump2.relax id type xs ys zs c_peratom c_csym

#displace_atoms top move ${x_displace} 0.0 0.0 units box
#displace_atoms is the command neccessary to move atoms into the next stacking arrangement (ie: A -> B)

#fix 2 all setforce 0 0 NULL


thermo 1
thermo_style custom step pe ke c_eatoms

run 500
Per MPI rank memory allocation (min/avg/max) = 14.79 | 14.79 | 14.79 Mbytes
Step PotEng KinEng c_eatoms 
       0   -15293.295            0   -15293.295 
       1   -15293.284 0.00053591646   -15293.284 
       2    -15293.25 0.00053591646    -15293.25 
       3   -15293.194 0.00053591646   -15293.194 
       4   -15293.116 0.00053591646   -15293.116 
       5   -15293.016 0.00053591646   -15293.016 
       6   -15292.897 0.00053591646   -15292.897 
       7   -15292.757 0.00053591646   -15292.757 
       8   -15292.597 0.00053591646   -15292.597 
       9   -15292.418 0.00053591646   -15292.418 
      10    -15292.22 0.00053591646    -15292.22 
      11   -15292.004 0.00053591646   -15292.004 
      12   -15291.769 0.00053591646   -15291.769 
      13   -15291.516 0.00053591646   -15291.516 
      14   -15291.246 0.00053591646   -15291.246 
      15   -15290.958 0.00053591646   -15290.958 
      16   -15290.653 0.00053591646   -15290.653 
      17    -15290.33 0.00053591646    -15290.33 
      18    -15289.99 0.00053591646    -15289.99 
      19   -15289.632 0.00053591646   -15289.632 
      20   -15289.257 0.00053591646   -15289.257 
      21   -15288.864 0.00053591646   -15288.864 
      22   -15288.452 0.00053591646   -15288.452 
      23   -15288.022 0.00053591646   -15288.022 
      24   -15287.574 0.00053591646   -15287.574 
      25   -15287.106 0.00053591646   -15287.106 
      26   -15286.619 0.00053591646   -15286.619 
      27   -15286.113 0.00053591646   -15286.113 
      28   -15285.587 0.00053591646   -15285.587 
      29   -15285.042 0.00053591646   -15285.042 
      30   -15284.478 0.00053591646   -15284.478 
      31   -15283.896 0.00053591646   -15283.896 
      32   -15283.297 0.00053591646   -15283.297 
      33   -15282.683 0.00053591646   -15282.683 
      34   -15282.056 0.00053591646   -15282.056 
      35   -15281.419 0.00053591646   -15281.419 
      36   -15280.774 0.00053591646   -15280.774 
      37   -15280.124 0.00053591646   -15280.124 
      38   -15279.474 0.00053591646   -15279.474 
      39   -15278.826 0.00053591646   -15278.826 
      40   -15278.184 0.00053591646   -15278.184 
      41    -15277.55 0.00053591646    -15277.55 
      42   -15276.927 0.00053591646   -15276.927 
      43   -15276.316 0.00053591646   -15276.316 
      44   -15275.716 0.00053591646   -15275.716 
      45    -15275.13 0.00053591646    -15275.13 
      46   -15274.558 0.00053591646   -15274.558 
      47   -15274.003 0.00053591646   -15274.003 
      48   -15273.465 0.00053591646   -15273.465 
      49   -15272.946 0.00053591646   -15272.946 
      50   -15272.447 0.00053591646   -15272.447 
      51   -15271.971 0.00053591646   -15271.971 
      52   -15271.518 0.00053591646   -15271.518 
      53   -15271.089 0.00053591646   -15271.089 
      54   -15270.685 0.00053591646   -15270.685 
      55   -15270.302 0.00053591646   -15270.302 
      56   -15269.939 0.00053591646   -15269.939 
      57   -15269.597 0.00053591646   -15269.597 
      58   -15269.275 0.00053591646   -15269.275 
      59   -15268.971 0.00053591646   -15268.971 
      60   -15268.685 0.00053591646   -15268.685 
      61   -15268.419 0.00053591646   -15268.419 
      62   -15268.171 0.00053591646   -15268.171 
      63   -15267.943 0.00053591646   -15267.943 
      64   -15267.736 0.00053591646   -15267.736 
      65    -15267.55 0.00053591646    -15267.55 
      66   -15267.385 0.00053591646   -15267.385 
      67   -15267.243 0.00053591646   -15267.243 
      68   -15267.123 0.00053591646   -15267.123 
      69   -15267.026 0.00053591646   -15267.026 
      70   -15266.953 0.00053591646   -15266.953 
      71   -15266.903 0.00053591646   -15266.903 
      72   -15266.877 0.00053591646   -15266.877 
      73   -15266.875 0.00053591646   -15266.875 
      74   -15266.897 0.00053591646   -15266.897 
      75   -15266.943 0.00053591646   -15266.943 
      76   -15267.013 0.00053591646   -15267.013 
      77   -15267.107 0.00053591646   -15267.107 
      78   -15267.224 0.00053591646   -15267.224 
      79   -15267.364 0.00053591646   -15267.364 
      80   -15267.527 0.00053591646   -15267.527 
      81   -15267.713 0.00053591646   -15267.713 
      82   -15267.921 0.00053591646   -15267.921 
      83   -15268.149 0.00053591646   -15268.149 
      84   -15268.399 0.00053591646   -15268.399 
      85   -15268.669 0.00053591646   -15268.669 
      86   -15268.958 0.00053591646   -15268.958 
      87   -15269.266 0.00053591646   -15269.266 
      88   -15269.591 0.00053591646   -15269.591 
      89   -15269.934 0.00053591646   -15269.934 
      90   -15270.294 0.00053591646   -15270.294 
      91   -15270.671 0.00053591646   -15270.671 
      92   -15271.067 0.00053591646   -15271.067 
      93   -15271.481 0.00053591646   -15271.481 
      94   -15271.916 0.00053591646   -15271.916 
      95   -15272.369 0.00053591646   -15272.369 
      96   -15272.842 0.00053591646   -15272.842 
      97   -15273.334 0.00053591646   -15273.334 
      98   -15273.844 0.00053591646   -15273.844 
      99    -15274.37 0.00053591646    -15274.37 
     100    -15274.91 0.00053591646    -15274.91 
     101   -15275.463 0.00053591646   -15275.463 
     102   -15276.027 0.00053591646   -15276.027 
     103   -15276.601 0.00053591646   -15276.601 
     104   -15277.186 0.00053591646   -15277.186 
     105   -15277.781 0.00053591646   -15277.781 
     106   -15278.385 0.00053591646   -15278.385 
     107   -15278.994 0.00053591646   -15278.994 
     108   -15279.607 0.00053591646   -15279.607 
     109   -15280.221 0.00053591646   -15280.221 
     110   -15280.833 0.00053591646   -15280.833 
     111   -15281.441 0.00053591646   -15281.441 
     112   -15282.043 0.00053591646   -15282.043 
     113   -15282.636 0.00053591646   -15282.636 
     114   -15283.219 0.00053591646   -15283.219 
     115    -15283.79 0.00053591646    -15283.79 
     116   -15284.347 0.00053591646   -15284.347 
     117    -15284.89 0.00053591646    -15284.89 
     118   -15285.418 0.00053591646   -15285.418 
     119   -15285.931 0.00053591646   -15285.931 
     120   -15286.427 0.00053591646   -15286.427 
     121   -15286.907 0.00053591646   -15286.907 
     122   -15287.371 0.00053591646   -15287.371 
     123   -15287.818 0.00053591646   -15287.818 
     124   -15288.248 0.00053591646   -15288.248 
     125   -15288.662 0.00053591646   -15288.662 
     126   -15289.059 0.00053591646   -15289.059 
     127   -15289.439 0.00053591646   -15289.439 
     128   -15289.802 0.00053591646   -15289.802 
     129   -15290.149 0.00053591646   -15290.149 
     130    -15290.48 0.00053591646    -15290.48 
     131   -15290.793 0.00053591646   -15290.793 
     132   -15291.089 0.00053591646   -15291.089 
     133   -15291.369 0.00053591646   -15291.369 
     134    -15291.63 0.00053591646    -15291.63 
     135   -15291.874 0.00053591646   -15291.874 
     136   -15292.099 0.00053591646   -15292.099 
     137   -15292.306 0.00053591646   -15292.306 
     138   -15292.494 0.00053591646   -15292.494 
     139   -15292.661 0.00053591646   -15292.661 
     140   -15292.808 0.00053591646   -15292.808 
     141   -15292.935 0.00053591646   -15292.935 
     142   -15293.042 0.00053591646   -15293.042 
     143   -15293.127 0.00053591646   -15293.127 
     144   -15293.191 0.00053591646   -15293.191 
     145   -15293.234 0.00053591646   -15293.234 
     146   -15293.254 0.00053591646   -15293.254 
     147   -15293.251 0.00053591646   -15293.251 
     148   -15293.225 0.00053591646   -15293.225 
     149   -15293.176 0.00053591646   -15293.176 
     150   -15293.103 0.00053591646   -15293.103 
     151   -15293.005 0.00053591646   -15293.005 
     152   -15292.883 0.00053591646   -15292.883 
     153   -15292.735 0.00053591646   -15292.735 
     154   -15292.562 0.00053591646   -15292.562 
     155   -15292.363 0.00053591646   -15292.363 
     156   -15292.137 0.00053591646   -15292.137 
     157   -15291.885 0.00053591646   -15291.885 
     158   -15291.606 0.00053591646   -15291.606 
     159   -15291.299 0.00053591646   -15291.299 
     160   -15290.965 0.00053591646   -15290.965 
     161   -15290.602 0.00053591646   -15290.602 
     162   -15290.211 0.00053591646   -15290.211 
     163    -15289.79 0.00053591646    -15289.79 
     164    -15289.34 0.00053591646    -15289.34 
     165   -15288.859 0.00053591646   -15288.859 
     166   -15288.348 0.00053591646   -15288.348 
     167   -15287.806 0.00053591646   -15287.806 
     168   -15287.232 0.00053591646   -15287.232 
     169   -15286.626 0.00053591646   -15286.626 
     170   -15285.986 0.00053591646   -15285.986 
     171   -15285.312 0.00053591646   -15285.312 
     172   -15284.604 0.00053591646   -15284.604 
     173   -15283.861 0.00053591646   -15283.861 
     174   -15283.082 0.00053591646   -15283.082 
     175   -15282.265 0.00053591646   -15282.265 
     176   -15281.411 0.00053591646   -15281.411 
     177   -15280.519 0.00053591646   -15280.519 
     178   -15279.586 0.00053591646   -15279.586 
     179   -15278.613 0.00053591646   -15278.613 
     180   -15277.599 0.00053591646   -15277.599 
     181   -15276.542 0.00053591646   -15276.542 
     182   -15275.443 0.00053591646   -15275.443 
     183   -15274.299 0.00053591646   -15274.299 
     184    -15273.11 0.00053591646    -15273.11 
     185   -15271.875 0.00053591646   -15271.875 
     186   -15270.595 0.00053591646   -15270.595 
     187   -15269.269 0.00053591646   -15269.269 
     188   -15267.897 0.00053591646   -15267.897 
     189   -15266.479 0.00053591646   -15266.479 
     190   -15265.016 0.00053591646   -15265.016 
     191    -15263.51 0.00053591646    -15263.51 
     192   -15261.962 0.00053591646   -15261.962 
     193   -15260.373 0.00053591646   -15260.373 
     194   -15258.748 0.00053591646   -15258.748 
     195   -15257.087 0.00053591646   -15257.087 
     196   -15255.396 0.00053591646   -15255.396 
     197   -15253.676 0.00053591646   -15253.676 
     198   -15251.932 0.00053591646   -15251.932 
     199   -15250.167 0.00053591646   -15250.167 
     200   -15248.385 0.00053591646   -15248.385 
     201   -15246.588 0.00053591646   -15246.588 
     202   -15244.779 0.00053591646   -15244.779 
     203   -15242.958 0.00053591646   -15242.958 
     204   -15241.122 0.00053591646   -15241.122 
     205   -15239.271 0.00053591646   -15239.271 
     206   -15237.408 0.00053591646   -15237.408 
     207   -15235.531 0.00053591646   -15235.531 
     208   -15233.639 0.00053591646   -15233.639 
     209   -15231.736 0.00053591646   -15231.736 
     210   -15229.814 0.00053591646   -15229.814 
     211   -15227.872 0.00053591646   -15227.872 
     212   -15225.909 0.00053591646   -15225.909 
     213   -15223.925 0.00053591646   -15223.925 
     214   -15221.921 0.00053591646   -15221.921 
     215     -15219.9 0.00053591646     -15219.9 
     216    -15217.86 0.00053591646    -15217.86 
     217     -15215.8 0.00053591646     -15215.8 
     218   -15213.722 0.00053591646   -15213.722 
     219   -15211.628 0.00053591646   -15211.628 
     220    -15209.52 0.00053591646    -15209.52 
     221   -15207.397 0.00053591646   -15207.397 
     222   -15205.262 0.00053591646   -15205.262 
     223   -15203.115 0.00053591646   -15203.115 
     224   -15200.958 0.00053591646   -15200.958 
     225    -15198.79 0.00053591646    -15198.79 
     226   -15196.613 0.00053591646   -15196.613 
     227   -15194.429 0.00053591646   -15194.429 
     228   -15192.238 0.00053591646   -15192.238 
     229    -15190.04 0.00053591646    -15190.04 
     230   -15187.837 0.00053591646   -15187.837 
     231   -15185.629 0.00053591646   -15185.629 
     232   -15183.418 0.00053591646   -15183.418 
     233   -15181.206 0.00053591646   -15181.206 
     234   -15178.994 0.00053591646   -15178.994 
     235   -15176.784 0.00053591646   -15176.784 
     236   -15174.578 0.00053591646   -15174.578 
     237   -15172.377 0.00053591646   -15172.377 
     238   -15170.183 0.00053591646   -15170.183 
     239   -15167.997 0.00053591646   -15167.997 
     240   -15165.822 0.00053591646   -15165.822 
     241   -15163.658 0.00053591646   -15163.658 
     242   -15161.508 0.00053591646   -15161.508 
     243   -15159.374 0.00053591646   -15159.374 
     244   -15157.256 0.00053591646   -15157.256 
     245   -15155.156 0.00053591646   -15155.156 
     246   -15153.077 0.00053591646   -15153.077 
     247   -15151.019 0.00053591646   -15151.019 
     248   -15148.984 0.00053591646   -15148.984 
     249   -15146.974 0.00053591646   -15146.974 
     250    -15144.99 0.00053591646    -15144.99 
     251   -15143.033 0.00053591646   -15143.033 
     252   -15141.106 0.00053591646   -15141.106 
     253   -15139.208 0.00053591646   -15139.208 
     254   -15137.342 0.00053591646   -15137.342 
     255   -15135.508 0.00053591646   -15135.508 
     256   -15133.708 0.00053591646   -15133.708 
     257   -15131.943 0.00053591646   -15131.943 
     258   -15130.214 0.00053591646   -15130.214 
     259   -15128.522 0.00053591646   -15128.522 
     260   -15126.867 0.00053591646   -15126.867 
     261   -15125.251 0.00053591646   -15125.251 
     262   -15123.673 0.00053591646   -15123.673 
     263   -15122.133 0.00053591646   -15122.133 
     264   -15120.634 0.00053591646   -15120.634 
     265   -15119.174 0.00053591646   -15119.174 
     266   -15117.756 0.00053591646   -15117.756 
     267   -15116.379 0.00053591646   -15116.379 
     268   -15115.045 0.00053591646   -15115.045 
     269   -15113.755 0.00053591646   -15113.755 
     270   -15112.509 0.00053591646   -15112.509 
     271   -15111.308 0.00053591646   -15111.308 
     272   -15110.154 0.00053591646   -15110.154 
     273   -15109.046 0.00053591646   -15109.046 
     274   -15107.987 0.00053591646   -15107.987 
     275   -15106.976 0.00053591646   -15106.976 
     276   -15106.014 0.00053591646   -15106.014 
     277   -15105.103 0.00053591646   -15105.103 
     278   -15104.242 0.00053591646   -15104.242 
     279   -15103.433 0.00053591646   -15103.433 
     280   -15102.675 0.00053591646   -15102.675 
     281    -15101.97 0.00053591646    -15101.97 
     282   -15101.318 0.00053591646   -15101.318 
     283   -15100.719 0.00053591646   -15100.719 
     284   -15100.174 0.00053591646   -15100.174 
     285   -15099.684 0.00053591646   -15099.684 
     286   -15099.247 0.00053591646   -15099.247 
     287   -15098.866 0.00053591646   -15098.866 
     288    -15098.54 0.00053591646    -15098.54 
     289   -15098.269 0.00053591646   -15098.269 
     290   -15098.053 0.00053591646   -15098.053 
     291   -15097.893 0.00053591646   -15097.893 
     292   -15097.788 0.00053591646   -15097.788 
     293   -15097.739 0.00053591646   -15097.739 
     294   -15097.746 0.00053591646   -15097.746 
     295   -15097.808 0.00053591646   -15097.808 
     296   -15097.926 0.00053591646   -15097.926 
     297   -15098.099 0.00053591646   -15098.099 
     298   -15098.328 0.00053591646   -15098.328 
     299   -15098.612 0.00053591646   -15098.612 
     300    -15098.95 0.00053591646    -15098.95 
     301   -15099.344 0.00053591646   -15099.344 
     302   -15099.791 0.00053591646   -15099.791 
     303   -15100.293 0.00053591646   -15100.293 
     304   -15100.849 0.00053591646   -15100.849 
     305   -15101.457 0.00053591646   -15101.457 
     306   -15102.119 0.00053591646   -15102.119 
     307   -15102.832 0.00053591646   -15102.832 
     308   -15103.598 0.00053591646   -15103.598 
     309   -15104.415 0.00053591646   -15104.415 
     310   -15105.282 0.00053591646   -15105.282 
     311   -15106.199 0.00053591646   -15106.199 
     312   -15107.166 0.00053591646   -15107.166 
     313   -15108.181 0.00053591646   -15108.181 
     314   -15109.244 0.00053591646   -15109.244 
     315   -15110.354 0.00053591646   -15110.354 
     316    -15111.51 0.00053591646    -15111.51 
     317   -15112.712 0.00053591646   -15112.712 
     318   -15113.958 0.00053591646   -15113.958 
     319   -15115.248 0.00053591646   -15115.248 
     320   -15116.581 0.00053591646   -15116.581 
     321   -15117.957 0.00053591646   -15117.957 
     322   -15119.373 0.00053591646   -15119.373 
     323   -15120.831 0.00053591646   -15120.831 
     324   -15122.329 0.00053591646   -15122.329 
     325   -15123.865 0.00053591646   -15123.865 
     326    -15125.44 0.00053591646    -15125.44 
     327   -15127.053 0.00053591646   -15127.053 
     328   -15128.703 0.00053591646   -15128.703 
     329    -15130.39 0.00053591646    -15130.39 
     330   -15132.111 0.00053591646   -15132.111 
     331   -15133.867 0.00053591646   -15133.867 
     332   -15135.657 0.00053591646   -15135.657 
     333   -15137.478 0.00053591646   -15137.478 
     334    -15139.33 0.00053591646    -15139.33 
     335   -15141.212 0.00053591646   -15141.212 
     336   -15143.122 0.00053591646   -15143.122 
     337    -15145.06 0.00053591646    -15145.06 
     338   -15147.023 0.00053591646   -15147.023 
     339   -15149.012 0.00053591646   -15149.012 
     340   -15151.023 0.00053591646   -15151.023 
     341   -15153.057 0.00053591646   -15153.057 
     342   -15155.111 0.00053591646   -15155.111 
     343   -15157.184 0.00053591646   -15157.184 
     344   -15159.274 0.00053591646   -15159.274 
     345   -15161.381 0.00053591646   -15161.381 
     346   -15163.502 0.00053591646   -15163.502 
     347   -15165.636 0.00053591646   -15165.636 
     348   -15167.782 0.00053591646   -15167.782 
     349   -15169.937 0.00053591646   -15169.937 
     350   -15172.101 0.00053591646   -15172.101 
     351   -15174.271 0.00053591646   -15174.271 
     352   -15176.447 0.00053591646   -15176.447 
     353   -15178.626 0.00053591646   -15178.626 
     354   -15180.807 0.00053591646   -15180.807 
     355   -15182.989 0.00053591646   -15182.989 
     356   -15185.169 0.00053591646   -15185.169 
     357   -15187.347 0.00053591646   -15187.347 
     358    -15189.52 0.00053591646    -15189.52 
     359   -15191.689 0.00053591646   -15191.689 
     360    -15193.85 0.00053591646    -15193.85 
     361   -15196.002 0.00053591646   -15196.002 
     362   -15198.145 0.00053591646   -15198.145 
     363   -15200.277 0.00053591646   -15200.277 
     364   -15202.396 0.00053591646   -15202.396 
     365   -15204.502 0.00053591646   -15204.502 
     366   -15206.592 0.00053591646   -15206.592 
     367   -15208.667 0.00053591646   -15208.667 
     368   -15210.725 0.00053591646   -15210.725 
     369   -15212.765 0.00053591646   -15212.765 
     370   -15214.791 0.00053591646   -15214.791 
     371   -15216.807 0.00053591646   -15216.807 
     372   -15218.814 0.00053591646   -15218.814 
     373   -15220.812 0.00053591646   -15220.812 
     374     -15222.8 0.00053591646     -15222.8 
     375   -15224.776 0.00053591646   -15224.776 
     376   -15226.739 0.00053591646   -15226.739 
     377   -15228.691 0.00053591646   -15228.691 
     378   -15230.633 0.00053591646   -15230.633 
     379   -15232.566 0.00053591646   -15232.566 
     380    -15234.49 0.00053591646    -15234.49 
     381   -15236.407 0.00053591646   -15236.407 
     382   -15238.313 0.00053591646   -15238.313 
     383   -15240.206 0.00053591646   -15240.206 
     384   -15242.081 0.00053591646   -15242.081 
     385   -15243.939 0.00053591646   -15243.939 
     386    -15245.78 0.00053591646    -15245.78 
     387   -15247.599 0.00053591646   -15247.599 
     388   -15249.396 0.00053591646   -15249.396 
     389   -15251.168 0.00053591646   -15251.168 
     390   -15252.911 0.00053591646   -15252.911 
     391   -15254.623 0.00053591646   -15254.623 
     392   -15256.302 0.00053591646   -15256.302 
     393   -15257.947 0.00053591646   -15257.947 
     394   -15259.554 0.00053591646   -15259.554 
     395   -15261.121 0.00053591646   -15261.121 
     396   -15262.648 0.00053591646   -15262.648 
     397   -15264.132 0.00053591646   -15264.132 
     398   -15265.572 0.00053591646   -15265.572 
     399   -15266.968 0.00053591646   -15266.968 
     400    -15268.32 0.00053591646    -15268.32 
     401   -15269.626 0.00053591646   -15269.626 
     402   -15270.888 0.00053591646   -15270.888 
     403   -15272.105 0.00053591646   -15272.105 
     404   -15273.278 0.00053591646   -15273.278 
     405   -15274.407 0.00053591646   -15274.407 
     406   -15275.494 0.00053591646   -15275.494 
     407   -15276.538 0.00053591646   -15276.538 
     408   -15277.541 0.00053591646   -15277.541 
     409   -15278.504 0.00053591646   -15278.504 
     410   -15279.428 0.00053591646   -15279.428 
     411   -15280.312 0.00053591646   -15280.312 
     412   -15281.159 0.00053591646   -15281.159 
     413   -15281.969 0.00053591646   -15281.969 
     414   -15282.743 0.00053591646   -15282.743 
     415   -15283.481 0.00053591646   -15283.481 
     416   -15284.185 0.00053591646   -15284.185 
     417   -15284.855 0.00053591646   -15284.855 
     418   -15285.491 0.00053591646   -15285.491 
     419   -15286.095 0.00053591646   -15286.095 
     420   -15286.667 0.00053591646   -15286.667 
     421   -15287.208 0.00053591646   -15287.208 
     422   -15287.718 0.00053591646   -15287.718 
     423   -15288.197 0.00053591646   -15288.197 
     424   -15288.647 0.00053591646   -15288.647 
     425   -15289.067 0.00053591646   -15289.067 
     426   -15289.459 0.00053591646   -15289.459 
     427   -15289.822 0.00053591646   -15289.822 
     428   -15290.157 0.00053591646   -15290.157 
     429   -15290.465 0.00053591646   -15290.465 
     430   -15290.746 0.00053591646   -15290.746 
     431   -15290.999 0.00053591646   -15290.999 
     432   -15291.227 0.00053591646   -15291.227 
     433   -15291.428 0.00053591646   -15291.428 
     434   -15291.604 0.00053591646   -15291.604 
     435   -15291.755 0.00053591646   -15291.755 
     436    -15291.88 0.00053591646    -15291.88 
     437   -15291.982 0.00053591646   -15291.982 
     438   -15292.059 0.00053591646   -15292.059 
     439   -15292.113 0.00053591646   -15292.113 
     440   -15292.143 0.00053591646   -15292.143 
     441   -15292.151 0.00053591646   -15292.151 
     442   -15292.136 0.00053591646   -15292.136 
     443   -15292.099 0.00053591646   -15292.099 
     444   -15292.041 0.00053591646   -15292.041 
     445   -15291.962 0.00053591646   -15291.962 
     446   -15291.862 0.00053591646   -15291.862 
     447   -15291.742 0.00053591646   -15291.742 
     448   -15291.603 0.00053591646   -15291.603 
     449   -15291.443 0.00053591646   -15291.443 
     450   -15291.266 0.00053591646   -15291.266 
     451   -15291.069 0.00053591646   -15291.069 
     452   -15290.855 0.00053591646   -15290.855 
     453   -15290.623 0.00053591646   -15290.623 
     454   -15290.374 0.00053591646   -15290.374 
     455   -15290.109 0.00053591646   -15290.109 
     456   -15289.826 0.00053591646   -15289.826 
     457   -15289.528 0.00053591646   -15289.528 
     458   -15289.213 0.00053591646   -15289.213 
     459   -15288.882 0.00053591646   -15288.882 
     460   -15288.535 0.00053591646   -15288.535 
     461   -15288.172 0.00053591646   -15288.172 
     462   -15287.794 0.00053591646   -15287.794 
     463   -15287.399 0.00053591646   -15287.399 
     464   -15286.988 0.00053591646   -15286.988 
     465   -15286.562 0.00053591646   -15286.562 
     466   -15286.119 0.00053591646   -15286.119 
     467   -15285.661 0.00053591646   -15285.661 
     468   -15285.186 0.00053591646   -15285.186 
     469   -15284.696 0.00053591646   -15284.696 
     470    -15284.19 0.00053591646    -15284.19 
     471   -15283.668 0.00053591646   -15283.668 
     472   -15283.132 0.00053591646   -15283.132 
     473   -15282.583 0.00053591646   -15282.583 
     474   -15282.021 0.00053591646   -15282.021 
     475   -15281.449 0.00053591646   -15281.449 
     476   -15280.868 0.00053591646   -15280.868 
     477   -15280.281 0.00053591646   -15280.281 
     478   -15279.689 0.00053591646   -15279.689 
     479   -15279.096 0.00053591646   -15279.096 
     480   -15278.504 0.00053591646   -15278.504 
     481   -15277.915 0.00053591646   -15277.915 
     482   -15277.332 0.00053591646   -15277.332 
     483   -15276.756 0.00053591646   -15276.756 
     484    -15276.19 0.00053591646    -15276.19 
     485   -15275.635 0.00053591646   -15275.635 
     486   -15275.091 0.00053591646   -15275.091 
     487    -15274.56 0.00053591646    -15274.56 
     488   -15274.042 0.00053591646   -15274.042 
     489   -15273.539 0.00053591646   -15273.539 
     490    -15273.05 0.00053591646    -15273.05 
     491   -15272.576 0.00053591646   -15272.576 
     492   -15272.118 0.00053591646   -15272.118 
     493   -15271.674 0.00053591646   -15271.674 
     494   -15271.247 0.00053591646   -15271.247 
     495   -15270.837 0.00053591646   -15270.837 
     496   -15270.445 0.00053591646   -15270.445 
     497   -15270.072 0.00053591646   -15270.072 
     498   -15269.718 0.00053591646   -15269.718 
     499   -15269.383 0.00053591646   -15269.383 
     500   -15269.069 0.00053591646   -15269.069 
Loop time of 34.5428 on 1 procs for 500 steps with 3600 atoms

Performance: 1250.623 ns/day, 0.019 hours/ns, 14.475 timesteps/s
100.0% CPU use with 1 MPI tasks x 1 OpenMP threads

MPI task timing breakdown:
Section |  min time  |  avg time  |  max time  |%varavg| %total
---------------------------------------------------------------
Pair    | 34.442     | 34.442     | 34.442     |   0.0 | 99.71
Neigh   | 0.047773   | 0.047773   | 0.047773   |   0.0 |  0.14
Comm    | 0.0082674  | 0.0082674  | 0.0082674  |   0.0 |  0.02
Output  | 0.02506    | 0.02506    | 0.02506    |   0.0 |  0.07
Modify  | 0.013242   | 0.013242   | 0.013242   |   0.0 |  0.04
Other   |            | 0.006555   |            |       |  0.02

Nlocal:        3600.00 ave        3600 max        3600 min
Histogram: 1 0 0 0 0 0 0 0 0 0
Nghost:        3606.00 ave        3606 max        3606 min
Histogram: 1 0 0 0 0 0 0 0 0 0
Neighs:        146815.0 ave      146815 max      146815 min
Histogram: 1 0 0 0 0 0 0 0 0 0
FullNghs:      293630.0 ave      293630 max      293630 min
Histogram: 1 0 0 0 0 0 0 0 0 0

Total # of neighbors = 293630
Ave neighs/atom = 81.563889
Neighbor list builds = 4
Dangerous builds = 0

Total wall time: 0:00:53
