LAMMPS data file via write_data version 30 Jul 2021 timestep = 0
4000 atoms
5 atom types
0 35.97 xlo xhi
0 35.97 ylo yhi
0 35.97 zlo zhi
0.0 0.0 0.0 xy xz yz
 
Masses
 
1 1.0
2 2.0
3 3.0
4 4.0
5 5.0
 
Atoms  # atomic
 
770 1 28.776 16.1865 8.9925 0 0 0
3992 1 0.0 34.1715 19.7835 0 0 0
1469 1 21.582 3.597 25.179 0 0 0
1302 1 25.179 26.9775 19.7835 0 0 0
732 1 26.9775 12.5895 7.194 0 0 0
673 1 28.776 3.597 28.776 0 0 0
1443 1 19.7835 3.597 1.7985 0 0 0
1700 1 19.7835 26.9775 14.388 0 0 0
2966 1 10.791 34.1715 5.3955 0 0 0
628 1 26.9775 1.7985 21.582 0 0 0
2154 1 17.985 30.5745 30.5745 0 0 0
1018 1 25.179 1.7985 16.1865 0 0 0
1466 1 21.582 5.3955 23.3805 0 0 0
506 1 32.373 26.9775 23.3805 0 0 0
2941 1 10.791 28.776 17.985 0 0 0
476 1 30.5745 23.3805 28.776 0 0 0
3580 1 1.7985 16.1865 14.388 0 0 0
3477 1 3.597 3.597 32.373 0 0 0
619 1 26.9775 0.0 16.1865 0 0 0
2811 1 8.9925 17.985 8.9925 0 0 0
1149 1 25.179 10.791 25.179 0 0 0
2815 1 8.9925 17.985 12.5895 0 0 0
3442 1 3.597 5.3955 1.7985 0 0 0
2504 1 12.5895 26.9775 17.985 0 0 0
3248 1 5.3955 23.3805 3.597 0 0 0
2558 1 14.388 30.5745 34.1715 0 0 0
1807 1 16.1865 0.0 5.3955 0 0 0
2655 1 8.9925 3.597 12.5895 0 0 0
2454 1 14.388 23.3805 12.5895 0 0 0
177 1 34.1715 28.776 30.5745 0 0 0
2276 1 12.5895 5.3955 28.776 0 0 0
30 1 34.1715 5.3955 14.388 0 0 0
2968 1 8.9925 34.1715 3.597 0 0 0
2541 1 14.388 28.776 17.985 0 0 0
2378 1 14.388 16.1865 16.1865 0 0 0
1651 1 19.7835 21.582 8.9925 0 0 0
3961 1 0.0 28.776 0.0 0 0 0
892 1 26.9775 26.9775 7.194 0 0 0
3376 1 5.3955 34.1715 10.791 0 0 0
2317 1 14.388 7.194 32.373 0 0 0
1739 1 19.7835 28.776 16.1865 0 0 0
1804 1 16.1865 1.7985 0.0 0 0 0
1891 1 16.1865 7.194 8.9925 0 0 0
3619 1 1.7985 17.985 16.1865 0 0 0
94 1 34.1715 16.1865 21.582 0 0 0
2577 1 14.388 32.373 14.388 0 0 0
1696 1 19.7835 26.9775 10.791 0 0 0
1793 1 21.582 32.373 28.776 0 0 0
3749 1 3.597 28.776 25.179 0 0 0
334 1 32.373 12.5895 12.5895 0 0 0
2267 1 12.5895 3.597 23.3805 0 0 0
2121 1 17.985 28.776 0.0 0 0 0
2435 1 12.5895 17.985 30.5745 0 0 0
2752 1 8.9925 12.5895 25.179 0 0 0
472 1 30.5745 23.3805 25.179 0 0 0
3435 1 1.7985 0.0 30.5745 0 0 0
575 1 30.5745 32.373 12.5895 0 0 0
222 1 32.373 1.7985 19.7835 0 0 0
1009 1 25.179 0.0 7.194 0 0 0
1786 1 21.582 34.1715 23.3805 0 0 0
2767 1 8.9925 14.388 5.3955 0 0 0
1772 1 19.7835 34.1715 7.194 0 0 0
3486 1 3.597 8.9925 5.3955 0 0 0
1528 1 19.7835 12.5895 3.597 0 0 0
2632 1 8.9925 1.7985 25.179 0 0 0
3871 1 0.0 10.791 17.985 0 0 0
716 1 26.9775 8.9925 28.776 0 0 0
2341 1 14.388 10.791 17.985 0 0 0
1664 1 19.7835 23.3805 17.985 0 0 0
3370 1 7.194 34.1715 8.9925 0 0 0
558 1 32.373 30.5745 34.1715 0 0 0
1325 1 25.179 28.776 3.597 0 0 0
3942 1 0.0 26.9775 1.7985 0 0 0
2689 1 10.791 7.194 7.194 0 0 0
3208 1 5.3955 19.7835 3.597 0 0 0
1473 1 21.582 3.597 28.776 0 0 0
2610 1 10.791 1.7985 8.9925 0 0 0
3596 1 1.7985 16.1865 28.776 0 0 0
3502 1 3.597 8.9925 19.7835 0 0 0
1738 1 21.582 30.5745 16.1865 0 0 0
2760 1 8.9925 12.5895 32.373 0 0 0
1951 1 16.1865 10.791 26.9775 0 0 0
1305 1 25.179 25.179 21.582 0 0 0
3889 1 0.0 14.388 14.388 0 0 0
2874 1 10.791 23.3805 30.5745 0 0 0
2439 1 12.5895 17.985 34.1715 0 0 0
1029 1 25.179 0.0 25.179 0 0 0
2274 1 14.388 5.3955 30.5745 0 0 0
169 1 34.1715 28.776 16.1865 0 0 0
3573 1 3.597 14.388 10.791 0 0 0
2294 1 14.388 8.9925 12.5895 0 0 0
1789 1 21.582 32.373 25.179 0 0 0
3473 1 3.597 3.597 28.776 0 0 0
3454 1 3.597 5.3955 12.5895 0 0 0
1699 1 19.7835 25.179 16.1865 0 0 0
39 1 34.1715 3.597 34.1715 0 0 0
2586 1 14.388 34.1715 23.3805 0 0 0
2411 1 12.5895 17.985 8.9925 0 0 0
2122 1 17.985 30.5745 1.7985 0 0 0
2183 1 16.1865 32.373 19.7835 0 0 0
1371 1 23.3805 32.373 8.9925 0 0 0
2802 1 10.791 19.7835 1.7985 0 0 0
60 1 34.1715 8.9925 32.373 0 0 0
3008 1 5.3955 1.7985 3.597 0 0 0
745 1 28.776 10.791 21.582 0 0 0
484 1 30.5745 26.9775 0.0 0 0 0
2166 1 17.985 34.1715 5.3955 0 0 0
2932 1 8.9925 30.5745 7.194 0 0 0
1624 1 19.7835 19.7835 17.985 0 0 0
2891 1 8.9925 25.179 8.9925 0 0 0
3437 1 3.597 0.0 32.373 0 0 0
3003 1 5.3955 0.0 1.7985 0 0 0
3791 1 1.7985 32.373 26.9775 0 0 0
838 1 28.776 19.7835 34.1715 0 0 0
3484 1 1.7985 8.9925 0.0 0 0 0
3441 1 3.597 3.597 0.0 0 0 0
142 1 34.1715 26.9775 0.0 0 0 0
1140 1 23.3805 12.5895 14.388 0 0 0
2288 1 12.5895 8.9925 3.597 0 0 0
3438 1 3.597 1.7985 34.1715 0 0 0
3707 1 1.7985 25.179 23.3805 0 0 0
1122 1 25.179 12.5895 1.7985 0 0 0
2728 1 8.9925 12.5895 3.597 0 0 0
206 1 32.373 1.7985 5.3955 0 0 0
494 1 32.373 26.9775 12.5895 0 0 0
3893 1 0.0 14.388 21.582 0 0 0
226 1 32.373 1.7985 23.3805 0 0 0
125 1 34.1715 21.582 8.9925 0 0 0
1272 1 23.3805 23.3805 25.179 0 0 0
3966 1 0.0 30.5745 8.9925 0 0 0
2637 1 10.791 0.0 32.373 0 0 0
1355 1 23.3805 28.776 30.5745 0 0 0
3846 1 0.0 8.9925 8.9925 0 0 0
557 1 32.373 28.776 32.373 0 0 0
505 1 32.373 25.179 21.582 0 0 0
2566 1 14.388 34.1715 5.3955 0 0 0
2471 1 12.5895 21.582 26.9775 0 0 0
68 1 34.1715 12.5895 10.791 0 0 0
426 1 32.373 19.7835 23.3805 0 0 0
527 1 30.5745 28.776 5.3955 0 0 0
164 1 34.1715 30.5745 3.597 0 0 0
1011 1 23.3805 0.0 8.9925 0 0 0
1245 1 25.179 21.582 3.597 0 0 0
2056 1 16.1865 23.3805 10.791 0 0 0
3394 1 7.194 34.1715 30.5745 0 0 0
799 1 26.9775 14.388 34.1715 0 0 0
2706 1 10.791 8.9925 23.3805 0 0 0
495 1 30.5745 25.179 12.5895 0 0 0
523 1 30.5745 28.776 1.7985 0 0 0
2936 1 8.9925 30.5745 10.791 0 0 0
1203 1 23.3805 17.985 1.7985 0 0 0
3187 1 5.3955 14.388 23.3805 0 0 0
2931 1 8.9925 28.776 8.9925 0 0 0
592 1 30.5745 34.1715 25.179 0 0 0
3924 1 0.0 23.3805 5.3955 0 0 0
1306 1 25.179 26.9775 23.3805 0 0 0
2691 1 8.9925 7.194 8.9925 0 0 0
3045 1 7.194 3.597 3.597 0 0 0
2141 1 17.985 28.776 17.985 0 0 0
3766 1 3.597 34.1715 5.3955 0 0 0
3620 1 1.7985 19.7835 14.388 0 0 0
1078 1 25.179 5.3955 34.1715 0 0 0
719 1 26.9775 7.194 34.1715 0 0 0
3017 1 7.194 0.0 14.388 0 0 0
1595 1 19.7835 14.388 30.5745 0 0 0
3236 1 5.3955 19.7835 28.776 0 0 0
3288 1 5.3955 26.9775 3.597 0 0 0
2886 1 10.791 26.9775 5.3955 0 0 0
2112 1 16.1865 26.9775 25.179 0 0 0
1826 1 17.985 1.7985 23.3805 0 0 0
1535 1 19.7835 10.791 12.5895 0 0 0
2525 1 14.388 28.776 3.597 0 0 0
3110 1 7.194 8.9925 26.9775 0 0 0
1918 1 17.985 8.9925 34.1715 0 0 0
2523 1 12.5895 28.776 1.7985 0 0 0
360 1 30.5745 12.5895 32.373 0 0 0
2184 1 16.1865 34.1715 17.985 0 0 0
1246 1 25.179 23.3805 5.3955 0 0 0
3753 1 3.597 28.776 28.776 0 0 0
3514 1 3.597 8.9925 30.5745 0 0 0
147 1 34.1715 25.179 12.5895 0 0 0
1736 1 19.7835 30.5745 10.791 0 0 0
1824 1 16.1865 1.7985 17.985 0 0 0
2248 1 12.5895 5.3955 3.597 0 0 0
564 1 30.5745 34.1715 0.0 0 0 0
1936 1 16.1865 12.5895 10.791 0 0 0
3988 1 0.0 34.1715 12.5895 0 0 0
2639 1 8.9925 0.0 34.1715 0 0 0
964 1 26.9775 34.1715 0.0 0 0 0
1363 1 23.3805 32.373 1.7985 0 0 0
2905 1 10.791 25.179 21.582 0 0 0
508 1 30.5745 26.9775 21.582 0 0 0
2129 1 17.985 28.776 7.194 0 0 0
2130 1 17.985 30.5745 8.9925 0 0 0
2870 1 10.791 23.3805 26.9775 0 0 0
3227 1 5.3955 17.985 23.3805 0 0 0
2690 1 10.791 8.9925 8.9925 0 0 0
1750 1 21.582 30.5745 26.9775 0 0 0
1529 1 21.582 10.791 7.194 0 0 0
1919 1 16.1865 7.194 34.1715 0 0 0
577 1 32.373 32.373 14.388 0 0 0
2132 1 16.1865 30.5745 7.194 0 0 0
949 1 28.776 28.776 25.179 0 0 0
3575 1 1.7985 14.388 12.5895 0 0 0
2846 1 10.791 23.3805 5.3955 0 0 0
174 1 34.1715 30.5745 21.582 0 0 0
987 1 26.9775 32.373 23.3805 0 0 0
2005 1 17.985 17.985 3.597 0 0 0
1846 1 17.985 5.3955 5.3955 0 0 0
3578 1 3.597 16.1865 16.1865 0 0 0
1364 1 23.3805 34.1715 0.0 0 0 0
3882 1 0.0 16.1865 1.7985 0 0 0
3998 1 0.0 34.1715 30.5745 0 0 0
204 1 30.5745 1.7985 0.0 0 0 0
405 1 32.373 17.985 3.597 0 0 0
1030 1 25.179 1.7985 26.9775 0 0 0
730 1 28.776 12.5895 8.9925 0 0 0
2442 1 14.388 23.3805 1.7985 0 0 0
3337 1 7.194 28.776 14.388 0 0 0
1123 1 23.3805 10.791 1.7985 0 0 0
796 1 26.9775 16.1865 28.776 0 0 0
1809 1 17.985 0.0 7.194 0 0 0
829 1 28.776 17.985 25.179 0 0 0
3862 1 0.0 12.5895 1.7985 0 0 0
1996 1 16.1865 16.1865 28.776 0 0 0
2429 1 14.388 17.985 25.179 0 0 0
1022 1 25.179 1.7985 19.7835 0 0 0
2795 1 8.9925 14.388 30.5745 0 0 0
517 1 32.373 25.179 32.373 0 0 0
3266 1 7.194 23.3805 23.3805 0 0 0
2962 1 10.791 34.1715 1.7985 0 0 0
156 1 34.1715 26.9775 25.179 0 0 0
74 1 34.1715 12.5895 21.582 0 0 0
259 1 30.5745 3.597 16.1865 0 0 0
2877 1 10.791 21.582 32.373 0 0 0
2839 1 8.9925 17.985 34.1715 0 0 0
1715 1 19.7835 25.179 30.5745 0 0 0
1925 1 17.985 10.791 3.597 0 0 0
3824 1 0.0 5.3955 5.3955 0 0 0
1434 1 21.582 1.7985 30.5745 0 0 0
185 1 34.1715 32.373 8.9925 0 0 0
1603 1 19.7835 17.985 1.7985 0 0 0
1939 1 16.1865 10.791 16.1865 0 0 0
3164 1 5.3955 16.1865 0.0 0 0 0
704 1 26.9775 8.9925 17.985 0 0 0
3213 1 7.194 17.985 10.791 0 0 0
2842 1 10.791 23.3805 1.7985 0 0 0
4000 1 0.0 34.1715 34.1715 0 0 0
2453 1 14.388 21.582 10.791 0 0 0
134 1 34.1715 23.3805 21.582 0 0 0
1728 1 19.7835 30.5745 3.597 0 0 0
2319 1 12.5895 7.194 34.1715 0 0 0
3004 1 5.3955 1.7985 0.0 0 0 0
1629 1 21.582 17.985 25.179 0 0 0
1167 1 23.3805 14.388 5.3955 0 0 0
1905 1 17.985 7.194 21.582 0 0 0
1505 1 21.582 7.194 21.582 0 0 0
1847 1 16.1865 3.597 5.3955 0 0 0
85 1 34.1715 14.388 8.9925 0 0 0
3548 1 1.7985 12.5895 21.582 0 0 0
3672 1 1.7985 23.3805 25.179 0 0 0
406 1 32.373 19.7835 5.3955 0 0 0
2937 1 10.791 28.776 14.388 0 0 0
801 1 28.776 17.985 0.0 0 0 0
2110 1 17.985 26.9775 26.9775 0 0 0
652 1 26.9775 5.3955 7.194 0 0 0
3167 1 5.3955 14.388 5.3955 0 0 0
2449 1 14.388 21.582 7.194 0 0 0
1653 1 21.582 21.582 10.791 0 0 0
2856 1 8.9925 23.3805 10.791 0 0 0
2967 1 8.9925 32.373 5.3955 0 0 0
3186 1 7.194 16.1865 23.3805 0 0 0
3543 1 1.7985 10.791 19.7835 0 0 0
3241 1 7.194 21.582 0.0 0 0 0
1707 1 19.7835 25.179 23.3805 0 0 0
3606 1 3.597 19.7835 5.3955 0 0 0
127 1 34.1715 21.582 12.5895 0 0 0
2993 1 10.791 32.373 28.776 0 0 0
190 1 34.1715 34.1715 14.388 0 0 0
1509 1 21.582 7.194 25.179 0 0 0
1352 1 23.3805 30.5745 25.179 0 0 0
3856 1 0.0 8.9925 26.9775 0 0 0
1652 1 19.7835 23.3805 7.194 0 0 0
2781 1 10.791 14.388 17.985 0 0 0
2749 1 10.791 10.791 25.179 0 0 0
908 1 26.9775 26.9775 21.582 0 0 0
2823 1 8.9925 17.985 19.7835 0 0 0
1189 1 25.179 14.388 25.179 0 0 0
3123 1 5.3955 10.791 1.7985 0 0 0
2986 1 10.791 34.1715 23.3805 0 0 0
1512 1 19.7835 8.9925 25.179 0 0 0
141 1 34.1715 25.179 1.7985 0 0 0
2679 1 8.9925 3.597 34.1715 0 0 0
1004 1 23.3805 1.7985 0.0 0 0 0
267 1 30.5745 3.597 23.3805 0 0 0
2671 1 8.9925 3.597 26.9775 0 0 0
2012 1 16.1865 19.7835 7.194 0 0 0
189 1 34.1715 32.373 16.1865 0 0 0
3033 1 7.194 0.0 28.776 0 0 0
3450 1 3.597 5.3955 8.9925 0 0 0
2019 1 16.1865 17.985 16.1865 0 0 0
1666 1 21.582 23.3805 23.3805 0 0 0
220 1 30.5745 1.7985 14.388 0 0 0
1970 1 17.985 16.1865 8.9925 0 0 0
3418 1 3.597 1.7985 16.1865 0 0 0
1083 1 23.3805 7.194 1.7985 0 0 0
3947 1 0.0 25.179 10.791 0 0 0
2444 1 12.5895 23.3805 0.0 0 0 0
1681 1 21.582 25.179 0.0 0 0 0
1061 1 25.179 3.597 17.985 0 0 0
2647 1 8.9925 3.597 5.3955 0 0 0
585 1 32.373 32.373 21.582 0 0 0
1431 1 19.7835 0.0 26.9775 0 0 0
2501 1 14.388 25.179 17.985 0 0 0
705 1 28.776 7.194 21.582 0 0 0
2496 1 12.5895 26.9775 10.791 0 0 0
2349 1 14.388 10.791 25.179 0 0 0
1968 1 16.1865 16.1865 3.597 0 0 0
2405 1 14.388 17.985 3.597 0 0 0
1730 1 21.582 30.5745 8.9925 0 0 0
3983 1 0.0 32.373 3.597 0 0 0
675 1 26.9775 3.597 30.5745 0 0 0
1056 1 23.3805 5.3955 10.791 0 0 0
3692 1 1.7985 26.9775 7.194 0 0 0
2058 1 17.985 23.3805 16.1865 0 0 0
3611 1 1.7985 17.985 8.9925 0 0 0
2279 1 12.5895 3.597 34.1715 0 0 0
83 1 34.1715 14.388 5.3955 0 0 0
2140 1 16.1865 30.5745 14.388 0 0 0
2989 1 10.791 32.373 25.179 0 0 0
1252 1 23.3805 23.3805 7.194 0 0 0
218 1 32.373 1.7985 16.1865 0 0 0
378 1 32.373 16.1865 16.1865 0 0 0
2210 1 14.388 1.7985 8.9925 0 0 0
1726 1 21.582 30.5745 5.3955 0 0 0
1090 1 25.179 8.9925 8.9925 0 0 0
609 1 28.776 0.0 7.194 0 0 0
1531 1 19.7835 10.791 8.9925 0 0 0
345 1 32.373 10.791 21.582 0 0 0
2664 1 8.9925 5.3955 17.985 0 0 0
3271 1 5.3955 21.582 26.9775 0 0 0
3588 1 1.7985 16.1865 21.582 0 0 0
67 1 34.1715 10.791 12.5895 0 0 0
1136 1 23.3805 12.5895 10.791 0 0 0
3458 1 3.597 5.3955 16.1865 0 0 0
93 1 34.1715 14.388 23.3805 0 0 0
3607 1 1.7985 17.985 5.3955 0 0 0
3638 1 3.597 19.7835 34.1715 0 0 0
2282 1 14.388 8.9925 1.7985 0 0 0
1162 1 25.179 16.1865 1.7985 0 0 0
915 1 26.9775 25.179 30.5745 0 0 0
2367 1 12.5895 14.388 5.3955 0 0 0
2477 1 14.388 21.582 32.373 0 0 0
3980 1 0.0 30.5745 34.1715 0 0 0
2565 1 14.388 32.373 3.597 0 0 0
3444 1 1.7985 5.3955 0.0 0 0 0
2850 1 10.791 23.3805 8.9925 0 0 0
1659 1 19.7835 21.582 16.1865 0 0 0
1391 1 23.3805 32.373 26.9775 0 0 0
602 1 28.776 1.7985 1.7985 0 0 0
264 1 30.5745 5.3955 17.985 0 0 0
1556 1 19.7835 12.5895 28.776 0 0 0
1142 1 25.179 12.5895 19.7835 0 0 0
868 1 26.9775 23.3805 21.582 0 0 0
1883 1 16.1865 7.194 1.7985 0 0 0
3830 1 0.0 5.3955 16.1865 0 0 0
779 1 26.9775 14.388 16.1865 0 0 0
3128 1 5.3955 12.5895 3.597 0 0 0
1656 1 19.7835 23.3805 10.791 0 0 0
3328 1 5.3955 30.5745 3.597 0 0 0
2903 1 8.9925 25.179 19.7835 0 0 0
1041 1 25.179 3.597 0.0 0 0 0
3222 1 7.194 19.7835 19.7835 0 0 0
3750 1 3.597 30.5745 26.9775 0 0 0
1956 1 16.1865 12.5895 28.776 0 0 0
3056 1 5.3955 5.3955 10.791 0 0 0
3039 1 5.3955 0.0 34.1715 0 0 0
3876 1 0.0 12.5895 26.9775 0 0 0
979 1 26.9775 32.373 16.1865 0 0 0
600 1 30.5745 34.1715 32.373 0 0 0
2625 1 10.791 0.0 21.582 0 0 0
3510 1 3.597 8.9925 26.9775 0 0 0
1410 1 21.582 1.7985 8.9925 0 0 0
1356 1 23.3805 30.5745 28.776 0 0 0
605 1 28.776 0.0 3.597 0 0 0
2950 1 10.791 30.5745 26.9775 0 0 0
1486 1 21.582 8.9925 5.3955 0 0 0
1508 1 19.7835 8.9925 21.582 0 0 0
955 1 26.9775 28.776 30.5745 0 0 0
2801 1 10.791 17.985 0.0 0 0 0
2974 1 10.791 34.1715 12.5895 0 0 0
1340 1 23.3805 30.5745 14.388 0 0 0
552 1 30.5745 30.5745 25.179 0 0 0
469 1 32.373 21.582 25.179 0 0 0
2450 1 14.388 23.3805 8.9925 0 0 0
3154 1 7.194 12.5895 30.5745 0 0 0
1530 1 21.582 12.5895 8.9925 0 0 0
3661 1 3.597 21.582 17.985 0 0 0
1915 1 16.1865 7.194 30.5745 0 0 0
121 1 34.1715 21.582 1.7985 0 0 0
966 1 28.776 34.1715 5.3955 0 0 0
1719 1 19.7835 25.179 34.1715 0 0 0
2001 1 17.985 17.985 0.0 0 0 0
723 1 26.9775 10.791 1.7985 0 0 0
69 1 34.1715 10.791 16.1865 0 0 0
1831 1 16.1865 0.0 26.9775 0 0 0
951 1 26.9775 28.776 26.9775 0 0 0
2734 1 10.791 12.5895 12.5895 0 0 0
1496 1 19.7835 8.9925 10.791 0 0 0
277 1 32.373 3.597 32.373 0 0 0
1812 1 16.1865 1.7985 7.194 0 0 0
2897 1 10.791 25.179 14.388 0 0 0
2073 1 17.985 21.582 28.776 0 0 0
1510 1 21.582 8.9925 26.9775 0 0 0
746 1 28.776 12.5895 23.3805 0 0 0
1097 1 25.179 7.194 14.388 0 0 0
658 1 28.776 5.3955 16.1865 0 0 0
2729 1 10.791 10.791 7.194 0 0 0
1225 1 25.179 17.985 21.582 0 0 0
2350 1 14.388 12.5895 26.9775 0 0 0
3326 1 7.194 30.5745 5.3955 0 0 0
1094 1 25.179 8.9925 12.5895 0 0 0
1874 1 17.985 5.3955 30.5745 0 0 0
1146 1 25.179 12.5895 23.3805 0 0 0
1527 1 19.7835 10.791 5.3955 0 0 0
1270 1 25.179 23.3805 26.9775 0 0 0
202 1 32.373 1.7985 1.7985 0 0 0
1134 1 25.179 12.5895 12.5895 0 0 0
1115 1 23.3805 7.194 30.5745 0 0 0
2432 1 12.5895 19.7835 25.179 0 0 0
920 1 26.9775 26.9775 32.373 0 0 0
1215 1 23.3805 17.985 12.5895 0 0 0
1972 1 16.1865 16.1865 7.194 0 0 0
1930 1 17.985 12.5895 8.9925 0 0 0
341 1 32.373 10.791 17.985 0 0 0
23 1 34.1715 3.597 5.3955 0 0 0
356 1 30.5745 12.5895 28.776 0 0 0
1825 1 17.985 0.0 21.582 0 0 0
867 1 26.9775 21.582 23.3805 0 0 0
3744 1 1.7985 30.5745 17.985 0 0 0
3945 1 0.0 25.179 7.194 0 0 0
1324 1 23.3805 30.5745 0.0 0 0 0
205 1 32.373 0.0 3.597 0 0 0
1994 1 17.985 16.1865 30.5745 0 0 0
3431 1 1.7985 0.0 26.9775 0 0 0
3105 1 7.194 7.194 21.582 0 0 0
2026 1 17.985 19.7835 23.3805 0 0 0
1911 1 16.1865 7.194 26.9775 0 0 0
1013 1 25.179 0.0 10.791 0 0 0
1155 1 23.3805 10.791 30.5745 0 0 0
755 1 26.9775 10.791 30.5745 0 0 0
2887 1 8.9925 25.179 5.3955 0 0 0
3122 1 7.194 12.5895 1.7985 0 0 0
856 1 26.9775 23.3805 10.791 0 0 0
3357 1 7.194 28.776 32.373 0 0 0
2143 1 16.1865 28.776 19.7835 0 0 0
1987 1 16.1865 14.388 23.3805 0 0 0
2045 1 17.985 21.582 3.597 0 0 0
546 1 32.373 30.5745 23.3805 0 0 0
2261 1 14.388 3.597 17.985 0 0 0
1756 1 19.7835 30.5745 28.776 0 0 0
163 1 34.1715 28.776 5.3955 0 0 0
768 1 26.9775 16.1865 3.597 0 0 0
834 1 28.776 19.7835 30.5745 0 0 0
797 1 28.776 14.388 32.373 0 0 0
3492 1 1.7985 8.9925 7.194 0 0 0
2695 1 8.9925 7.194 12.5895 0 0 0
1821 1 17.985 0.0 17.985 0 0 0
1924 1 16.1865 12.5895 0.0 0 0 0
2742 1 10.791 12.5895 19.7835 0 0 0
1564 1 19.7835 16.1865 0.0 0 0 0
2304 1 12.5895 8.9925 17.985 0 0 0
358 1 32.373 12.5895 34.1715 0 0 0
629 1 28.776 0.0 25.179 0 0 0
3329 1 7.194 28.776 7.194 0 0 0
383 1 30.5745 14.388 19.7835 0 0 0
2587 1 12.5895 32.373 23.3805 0 0 0
635 1 26.9775 0.0 30.5745 0 0 0
3153 1 7.194 10.791 28.776 0 0 0
623 1 26.9775 0.0 19.7835 0 0 0
45 1 34.1715 7.194 8.9925 0 0 0
1219 1 23.3805 17.985 16.1865 0 0 0
2589 1 14.388 32.373 25.179 0 0 0
348 1 30.5745 12.5895 21.582 0 0 0
3615 1 1.7985 17.985 12.5895 0 0 0
70 1 34.1715 12.5895 14.388 0 0 0
1573 1 21.582 14.388 10.791 0 0 0
2254 1 14.388 5.3955 12.5895 0 0 0
1991 1 16.1865 14.388 26.9775 0 0 0
1228 1 23.3805 19.7835 21.582 0 0 0
3178 1 7.194 16.1865 16.1865 0 0 0
3896 1 0.0 16.1865 26.9775 0 0 0
3530 1 3.597 12.5895 8.9925 0 0 0
2598 1 14.388 34.1715 34.1715 0 0 0
2620 1 8.9925 1.7985 14.388 0 0 0
852 1 26.9775 23.3805 7.194 0 0 0
2766 1 10.791 16.1865 5.3955 0 0 0
2981 1 10.791 32.373 17.985 0 0 0
2401 1 14.388 17.985 0.0 0 0 0
1585 1 21.582 14.388 21.582 0 0 0
841 1 28.776 21.582 0.0 0 0 0
3235 1 5.3955 17.985 30.5745 0 0 0
1087 1 23.3805 7.194 5.3955 0 0 0
3399 1 5.3955 32.373 34.1715 0 0 0
3191 1 5.3955 14.388 26.9775 0 0 0
2983 1 8.9925 32.373 19.7835 0 0 0
3333 1 7.194 28.776 10.791 0 0 0
685 1 28.776 7.194 3.597 0 0 0
120 1 34.1715 19.7835 32.373 0 0 0
182 1 34.1715 34.1715 0.0 0 0 0
324 1 30.5745 12.5895 0.0 0 0 0
1634 1 21.582 19.7835 30.5745 0 0 0
1692 1 19.7835 26.9775 7.194 0 0 0
3534 1 3.597 12.5895 12.5895 0 0 0
1181 1 25.179 14.388 17.985 0 0 0
2552 1 12.5895 30.5745 25.179 0 0 0
50 1 34.1715 8.9925 14.388 0 0 0
1829 1 17.985 0.0 25.179 0 0 0
2555 1 12.5895 28.776 30.5745 0 0 0
1200 1 23.3805 16.1865 32.373 0 0 0
3323 1 5.3955 28.776 1.7985 0 0 0
1971 1 16.1865 14.388 8.9925 0 0 0
1384 1 23.3805 34.1715 17.985 0 0 0
901 1 28.776 25.179 17.985 0 0 0
1893 1 17.985 7.194 10.791 0 0 0
452 1 30.5745 23.3805 7.194 0 0 0
1174 1 25.179 16.1865 12.5895 0 0 0
137 1 34.1715 21.582 30.5745 0 0 0
974 1 28.776 34.1715 12.5895 0 0 0
3989 1 0.0 32.373 14.388 0 0 0
2889 1 10.791 25.179 7.194 0 0 0
1043 1 23.3805 3.597 1.7985 0 0 0
155 1 34.1715 25.179 26.9775 0 0 0
3855 1 0.0 7.194 25.179 0 0 0
3599 1 1.7985 14.388 34.1715 0 0 0
1960 1 16.1865 12.5895 32.373 0 0 0
82 1 34.1715 16.1865 0.0 0 0 0
2034 1 17.985 19.7835 30.5745 0 0 0
2750 1 10.791 12.5895 26.9775 0 0 0
298 1 32.373 8.9925 16.1865 0 0 0
3439 1 1.7985 0.0 34.1715 0 0 0
1886 1 17.985 8.9925 5.3955 0 0 0
2266 1 14.388 5.3955 23.3805 0 0 0
1468 1 19.7835 5.3955 21.582 0 0 0
2876 1 8.9925 23.3805 28.776 0 0 0
3501 1 3.597 7.194 17.985 0 0 0
1298 1 25.179 26.9775 16.1865 0 0 0
1385 1 25.179 32.373 21.582 0 0 0
2615 1 8.9925 0.0 12.5895 0 0 0
1186 1 25.179 16.1865 23.3805 0 0 0
1260 1 23.3805 23.3805 14.388 0 0 0
3800 1 1.7985 34.1715 32.373 0 0 0
2617 1 10.791 0.0 14.388 0 0 0
882 1 28.776 26.9775 1.7985 0 0 0
1621 1 21.582 17.985 17.985 0 0 0
188 1 34.1715 34.1715 10.791 0 0 0
3757 1 3.597 28.776 32.373 0 0 0
2928 1 8.9925 30.5745 3.597 0 0 0
1183 1 23.3805 14.388 19.7835 0 0 0
1156 1 23.3805 12.5895 28.776 0 0 0
1898 1 17.985 8.9925 16.1865 0 0 0
2834 1 10.791 19.7835 30.5745 0 0 0
836 1 26.9775 19.7835 28.776 0 0 0
891 1 26.9775 25.179 8.9925 0 0 0
3658 1 3.597 23.3805 16.1865 0 0 0
2193 1 17.985 32.373 28.776 0 0 0
1567 1 19.7835 14.388 5.3955 0 0 0
811 1 26.9775 17.985 8.9925 0 0 0
1008 1 23.3805 1.7985 3.597 0 0 0
814 1 28.776 19.7835 12.5895 0 0 0
1644 1 19.7835 23.3805 0.0 0 0 0
416 1 30.5745 19.7835 10.791 0 0 0
215 1 30.5745 0.0 12.5895 0 0 0
1185 1 25.179 14.388 21.582 0 0 0
3378 1 7.194 34.1715 16.1865 0 0 0
608 1 26.9775 1.7985 3.597 0 0 0
2769 1 10.791 14.388 7.194 0 0 0
2564 1 12.5895 34.1715 0.0 0 0 0
3172 1 5.3955 16.1865 7.194 0 0 0
3256 1 5.3955 23.3805 10.791 0 0 0
1144 1 23.3805 12.5895 17.985 0 0 0
1172 1 23.3805 16.1865 7.194 0 0 0
3511 1 1.7985 7.194 26.9775 0 0 0
2506 1 14.388 26.9775 23.3805 0 0 0
1876 1 16.1865 5.3955 28.776 0 0 0
2308 1 12.5895 8.9925 21.582 0 0 0
3636 1 1.7985 19.7835 28.776 0 0 0
3381 1 7.194 32.373 17.985 0 0 0
2295 1 12.5895 7.194 12.5895 0 0 0
3183 1 5.3955 14.388 19.7835 0 0 0
2033 1 17.985 17.985 28.776 0 0 0
2204 1 12.5895 1.7985 0.0 0 0 0
3310 1 7.194 26.9775 26.9775 0 0 0
837 1 28.776 17.985 32.373 0 0 0
2419 1 12.5895 17.985 16.1865 0 0 0
2872 1 8.9925 23.3805 25.179 0 0 0
1721 1 21.582 28.776 0.0 0 0 0
3279 1 5.3955 21.582 34.1715 0 0 0
3185 1 7.194 14.388 21.582 0 0 0
2878 1 10.791 23.3805 34.1715 0 0 0
3987 1 0.0 32.373 10.791 0 0 0
2997 1 10.791 32.373 32.373 0 0 0
3184 1 5.3955 16.1865 17.985 0 0 0
3939 1 0.0 21.582 32.373 0 0 0
2159 1 16.1865 28.776 34.1715 0 0 0
2871 1 8.9925 21.582 26.9775 0 0 0
2635 1 8.9925 0.0 30.5745 0 0 0
3079 1 5.3955 3.597 34.1715 0 0 0
2648 1 8.9925 5.3955 3.597 0 0 0
363 1 30.5745 14.388 1.7985 0 0 0
889 1 28.776 25.179 7.194 0 0 0
1631 1 19.7835 17.985 26.9775 0 0 0
49 1 34.1715 7.194 16.1865 0 0 0
1981 1 17.985 14.388 17.985 0 0 0
3964 1 0.0 30.5745 5.3955 0 0 0
109 1 34.1715 17.985 16.1865 0 0 0
145 1 34.1715 25.179 8.9925 0 0 0
208 1 30.5745 1.7985 3.597 0 0 0
773 1 28.776 14.388 10.791 0 0 0
2215 1 12.5895 0.0 12.5895 0 0 0
888 1 26.9775 26.9775 3.597 0 0 0
586 1 32.373 34.1715 23.3805 0 0 0
3276 1 5.3955 23.3805 28.776 0 0 0
1401 1 21.582 0.0 0.0 0 0 0
353 1 32.373 10.791 28.776 0 0 0
706 1 28.776 8.9925 23.3805 0 0 0
912 1 26.9775 26.9775 25.179 0 0 0
2640 1 8.9925 1.7985 32.373 0 0 0
3584 1 1.7985 16.1865 17.985 0 0 0
3601 1 3.597 17.985 0.0 0 0 0
2697 1 10.791 7.194 14.388 0 0 0
404 1 30.5745 19.7835 0.0 0 0 0
1065 1 25.179 3.597 21.582 0 0 0
842 1 28.776 23.3805 1.7985 0 0 0
791 1 26.9775 14.388 26.9775 0 0 0
2799 1 8.9925 14.388 34.1715 0 0 0
2359 1 12.5895 10.791 34.1715 0 0 0
2649 1 10.791 3.597 7.194 0 0 0
690 1 28.776 8.9925 8.9925 0 0 0
1853 1 17.985 3.597 10.791 0 0 0
1605 1 21.582 17.985 3.597 0 0 0
821 1 28.776 17.985 17.985 0 0 0
61 1 34.1715 10.791 1.7985 0 0 0
795 1 26.9775 14.388 30.5745 0 0 0
513 1 32.373 25.179 28.776 0 0 0
1724 1 19.7835 30.5745 0.0 0 0 0
1492 1 19.7835 8.9925 7.194 0 0 0
532 1 30.5745 30.5745 7.194 0 0 0
2987 1 8.9925 32.373 23.3805 0 0 0
407 1 30.5745 17.985 5.3955 0 0 0
473 1 32.373 21.582 28.776 0 0 0
2483 1 12.5895 25.179 1.7985 0 0 0
1438 1 21.582 1.7985 34.1715 0 0 0
2860 1 8.9925 23.3805 14.388 0 0 0
1980 1 16.1865 16.1865 14.388 0 0 0
3532 1 1.7985 12.5895 7.194 0 0 0
3832 1 0.0 5.3955 19.7835 0 0 0
3878 1 0.0 12.5895 30.5745 0 0 0
649 1 28.776 3.597 7.194 0 0 0
2164 1 16.1865 34.1715 0.0 0 0 0
423 1 30.5745 17.985 19.7835 0 0 0
1283 1 23.3805 25.179 1.7985 0 0 0
3938 1 0.0 23.3805 30.5745 0 0 0
3361 1 7.194 32.373 0.0 0 0 0
3163 1 5.3955 14.388 1.7985 0 0 0
370 1 32.373 16.1865 8.9925 0 0 0
3434 1 3.597 1.7985 30.5745 0 0 0
3771 1 1.7985 32.373 8.9925 0 0 0
3283 1 5.3955 25.179 1.7985 0 0 0
461 1 32.373 21.582 17.985 0 0 0
2142 1 17.985 30.5745 19.7835 0 0 0
2434 1 14.388 19.7835 30.5745 0 0 0
2180 1 16.1865 34.1715 14.388 0 0 0
198 1 34.1715 34.1715 28.776 0 0 0
3014 1 7.194 1.7985 12.5895 0 0 0
2626 1 10.791 1.7985 23.3805 0 0 0
2836 1 8.9925 19.7835 28.776 0 0 0
1297 1 25.179 25.179 14.388 0 0 0
785 1 28.776 14.388 21.582 0 0 0
2982 1 10.791 34.1715 19.7835 0 0 0
2482 1 14.388 26.9775 1.7985 0 0 0
2152 1 16.1865 30.5745 25.179 0 0 0
1374 1 25.179 34.1715 12.5895 0 0 0
998 1 28.776 34.1715 34.1715 0 0 0
3384 1 5.3955 34.1715 17.985 0 0 0
3538 1 3.597 12.5895 16.1865 0 0 0
1870 1 17.985 5.3955 26.9775 0 0 0
1899 1 16.1865 7.194 16.1865 0 0 0
2461 1 14.388 21.582 17.985 0 0 0
2869 1 10.791 21.582 25.179 0 0 0
3052 1 5.3955 5.3955 7.194 0 0 0
3546 1 3.597 12.5895 23.3805 0 0 0
1316 1 23.3805 26.9775 28.776 0 0 0
917 1 28.776 25.179 32.373 0 0 0
1053 1 25.179 3.597 10.791 0 0 0
2641 1 10.791 3.597 0.0 0 0 0
1038 1 25.179 1.7985 34.1715 0 0 0
1758 1 21.582 30.5745 34.1715 0 0 0
3919 1 0.0 17.985 32.373 0 0 0
1407 1 19.7835 0.0 5.3955 0 0 0
1958 1 17.985 12.5895 34.1715 0 0 0
3657 1 3.597 21.582 14.388 0 0 0
2923 1 8.9925 28.776 1.7985 0 0 0
3211 1 5.3955 17.985 8.9925 0 0 0
2791 1 8.9925 14.388 26.9775 0 0 0
489 1 32.373 25.179 7.194 0 0 0
2814 1 10.791 19.7835 12.5895 0 0 0
666 1 28.776 5.3955 23.3805 0 0 0
830 1 28.776 19.7835 26.9775 0 0 0
1194 1 25.179 16.1865 30.5745 0 0 0
2374 1 14.388 16.1865 12.5895 0 0 0
3977 1 0.0 28.776 28.776 0 0 0
1426 1 21.582 1.7985 23.3805 0 0 0
3298 1 7.194 26.9775 16.1865 0 0 0
3840 1 0.0 5.3955 34.1715 0 0 0
526 1 32.373 30.5745 5.3955 0 0 0
816 1 26.9775 19.7835 10.791 0 0 0
2830 1 10.791 19.7835 26.9775 0 0 0
2861 1 10.791 21.582 17.985 0 0 0
399 1 30.5745 14.388 34.1715 0 0 0
3811 1 0.0 0.0 17.985 0 0 0
620 1 26.9775 1.7985 14.388 0 0 0
3817 1 0.0 0.0 28.776 0 0 0
468 1 30.5745 23.3805 21.582 0 0 0
3420 1 1.7985 1.7985 14.388 0 0 0
3571 1 1.7985 14.388 8.9925 0 0 0
2901 1 10.791 25.179 17.985 0 0 0
1330 1 25.179 30.5745 8.9925 0 0 0
3341 1 7.194 28.776 17.985 0 0 0
176 1 34.1715 30.5745 25.179 0 0 0
2322 1 14.388 12.5895 1.7985 0 0 0
3702 1 3.597 26.9775 19.7835 0 0 0
361 1 32.373 14.388 0.0 0 0 0
1952 1 16.1865 12.5895 25.179 0 0 0
168 1 34.1715 30.5745 10.791 0 0 0
1973 1 17.985 14.388 10.791 0 0 0
114 1 34.1715 19.7835 21.582 0 0 0
588 1 30.5745 34.1715 21.582 0 0 0
2666 1 10.791 5.3955 23.3805 0 0 0
3020 1 5.3955 1.7985 14.388 0 0 0
2530 1 14.388 30.5745 8.9925 0 0 0
3981 1 0.0 32.373 0.0 0 0 0
104 1 34.1715 19.7835 3.597 0 0 0
3367 1 5.3955 32.373 5.3955 0 0 0
2819 1 8.9925 17.985 16.1865 0 0 0
3075 1 5.3955 3.597 30.5745 0 0 0
2217 1 14.388 0.0 14.388 0 0 0
2249 1 14.388 3.597 7.194 0 0 0
1169 1 25.179 14.388 7.194 0 0 0
2097 1 17.985 25.179 14.388 0 0 0
1995 1 16.1865 14.388 30.5745 0 0 0
3610 1 3.597 19.7835 8.9925 0 0 0
3944 1 0.0 26.9775 5.3955 0 0 0
1494 1 21.582 8.9925 12.5895 0 0 0
2684 1 8.9925 8.9925 0.0 0 0 0
3748 1 1.7985 30.5745 21.582 0 0 0
2778 1 10.791 16.1865 16.1865 0 0 0
2560 1 12.5895 30.5745 32.373 0 0 0
2394 1 14.388 16.1865 30.5745 0 0 0
2911 1 8.9925 25.179 26.9775 0 0 0
2898 1 10.791 26.9775 16.1865 0 0 0
576 1 30.5745 34.1715 10.791 0 0 0
536 1 30.5745 30.5745 10.791 0 0 0
1795 1 19.7835 32.373 30.5745 0 0 0
2536 1 12.5895 30.5745 10.791 0 0 0
603 1 26.9775 0.0 1.7985 0 0 0
2757 1 10.791 10.791 32.373 0 0 0
1139 1 23.3805 10.791 16.1865 0 0 0
3524 1 1.7985 12.5895 0.0 0 0 0
1327 1 23.3805 28.776 5.3955 0 0 0
1014 1 25.179 1.7985 12.5895 0 0 0
3843 1 0.0 7.194 3.597 0 0 0
1722 1 21.582 30.5745 1.7985 0 0 0
1799 1 19.7835 32.373 34.1715 0 0 0
499 1 30.5745 25.179 16.1865 0 0 0
3954 1 0.0 26.9775 23.3805 0 0 0
2446 1 14.388 23.3805 5.3955 0 0 0
3043 1 5.3955 3.597 1.7985 0 0 0
1871 1 16.1865 3.597 26.9775 0 0 0
2895 1 8.9925 25.179 12.5895 0 0 0
2259 1 12.5895 3.597 16.1865 0 0 0
3311 1 5.3955 25.179 26.9775 0 0 0
3018 1 7.194 1.7985 16.1865 0 0 0
1051 1 23.3805 3.597 8.9925 0 0 0
151 1 34.1715 25.179 19.7835 0 0 0
3129 1 7.194 10.791 7.194 0 0 0
3301 1 7.194 25.179 17.985 0 0 0
2629 1 10.791 0.0 25.179 0 0 0
1549 1 21.582 10.791 25.179 0 0 0
2406 1 14.388 19.7835 5.3955 0 0 0
2608 1 8.9925 1.7985 3.597 0 0 0
853 1 28.776 21.582 10.791 0 0 0
3385 1 7.194 32.373 21.582 0 0 0
1718 1 21.582 26.9775 34.1715 0 0 0
3274 1 7.194 23.3805 30.5745 0 0 0
664 1 26.9775 5.3955 17.985 0 0 0
2258 1 14.388 5.3955 16.1865 0 0 0
2768 1 8.9925 16.1865 3.597 0 0 0
2172 1 16.1865 34.1715 7.194 0 0 0
2251 1 12.5895 3.597 8.9925 0 0 0
3603 1 1.7985 17.985 1.7985 0 0 0
2882 1 10.791 26.9775 1.7985 0 0 0
1335 1 23.3805 28.776 12.5895 0 0 0
1507 1 19.7835 7.194 23.3805 0 0 0
355 1 30.5745 10.791 30.5745 0 0 0
377 1 32.373 14.388 14.388 0 0 0
1488 1 19.7835 8.9925 3.597 0 0 0
2139 1 16.1865 28.776 16.1865 0 0 0
3068 1 5.3955 5.3955 21.582 0 0 0
3427 1 1.7985 0.0 23.3805 0 0 0
3593 1 3.597 14.388 28.776 0 0 0
3608 1 1.7985 19.7835 3.597 0 0 0
2230 1 14.388 1.7985 26.9775 0 0 0
1620 1 19.7835 19.7835 14.388 0 0 0
3925 1 0.0 21.582 7.194 0 0 0
1247 1 23.3805 21.582 5.3955 0 0 0
2423 1 12.5895 17.985 19.7835 0 0 0
1732 1 19.7835 30.5745 7.194 0 0 0
3321 1 7.194 28.776 0.0 0 0 0
2094 1 17.985 26.9775 12.5895 0 0 0
1560 1 19.7835 12.5895 32.373 0 0 0
1645 1 21.582 21.582 3.597 0 0 0
331 1 30.5745 10.791 8.9925 0 0 0
3594 1 3.597 16.1865 30.5745 0 0 0
2093 1 17.985 25.179 10.791 0 0 0
1822 1 17.985 1.7985 19.7835 0 0 0
1241 1 25.179 21.582 0.0 0 0 0
1639 1 19.7835 17.985 34.1715 0 0 0
3625 1 3.597 17.985 21.582 0 0 0
1307 1 23.3805 25.179 23.3805 0 0 0
671 1 26.9775 3.597 26.9775 0 0 0
1867 1 16.1865 3.597 23.3805 0 0 0
2028 1 16.1865 19.7835 21.582 0 0 0
874 1 28.776 23.3805 30.5745 0 0 0
1865 1 17.985 3.597 21.582 0 0 0
3160 1 5.3955 12.5895 32.373 0 0 0
870 1 28.776 23.3805 26.9775 0 0 0
1110 1 25.179 8.9925 26.9775 0 0 0
2581 1 14.388 32.373 17.985 0 0 0
1062 1 25.179 5.3955 19.7835 0 0 0
2395 1 12.5895 14.388 30.5745 0 0 0
2030 1 17.985 19.7835 26.9775 0 0 0
1705 1 21.582 25.179 21.582 0 0 0
3080 1 5.3955 5.3955 32.373 0 0 0
3296 1 5.3955 26.9775 10.791 0 0 0
2712 1 8.9925 8.9925 25.179 0 0 0
9 1 34.1715 0.0 16.1865 0 0 0
2408 1 12.5895 19.7835 3.597 0 0 0
3948 1 0.0 26.9775 12.5895 0 0 0
3320 2 5.3955 26.9775 32.373 0 0 0
656 2 26.9775 5.3955 10.791 0 0 0
1947 2 16.1865 10.791 23.3805 0 0 0
1414 2 21.582 1.7985 12.5895 0 0 0
1967 2 16.1865 14.388 5.3955 0 0 0
2272 2 12.5895 5.3955 25.179 0 0 0
3895 2 0.0 14.388 25.179 0 0 0
2662 2 10.791 5.3955 19.7835 0 0 0
3724 2 1.7985 30.5745 0.0 0 0 0
3239 2 5.3955 17.985 34.1715 0 0 0
1615 2 19.7835 17.985 12.5895 0 0 0
1180 2 23.3805 16.1865 14.388 0 0 0
3046 2 7.194 5.3955 5.3955 0 0 0
1249 2 25.179 21.582 7.194 0 0 0
3421 2 3.597 0.0 17.985 0 0 0
3111 2 5.3955 7.194 26.9775 0 0 0
3505 2 3.597 7.194 21.582 0 0 0
3957 2 0.0 25.179 28.776 0 0 0
3007 2 5.3955 0.0 5.3955 0 0 0
1258 2 25.179 23.3805 16.1865 0 0 0
1005 2 25.179 0.0 3.597 0 0 0
3086 2 7.194 8.9925 5.3955 0 0 0
3568 2 1.7985 16.1865 3.597 0 0 0
3549 2 3.597 10.791 25.179 0 0 0
2318 2 14.388 8.9925 34.1715 0 0 0
1232 2 23.3805 19.7835 25.179 0 0 0
2513 2 14.388 25.179 28.776 0 0 0
86 2 34.1715 16.1865 7.194 0 0 0
1944 2 16.1865 12.5895 17.985 0 0 0
1282 2 25.179 26.9775 1.7985 0 0 0
3993 2 0.0 32.373 21.582 0 0 0
1563 2 19.7835 14.388 1.7985 0 0 0
2527 2 12.5895 28.776 5.3955 0 0 0
3472 2 1.7985 5.3955 25.179 0 0 0
3197 2 7.194 14.388 32.373 0 0 0
3453 2 3.597 3.597 10.791 0 0 0
3389 2 7.194 32.373 25.179 0 0 0
1419 2 19.7835 0.0 16.1865 0 0 0
2053 2 17.985 21.582 10.791 0 0 0
932 2 26.9775 30.5745 7.194 0 0 0
1542 2 21.582 12.5895 19.7835 0 0 0
3632 2 1.7985 19.7835 25.179 0 0 0
1834 2 17.985 1.7985 30.5745 0 0 0
1581 2 21.582 14.388 17.985 0 0 0
1221 2 25.179 17.985 17.985 0 0 0
321 2 32.373 10.791 0.0 0 0 0
822 2 28.776 19.7835 19.7835 0 0 0
1882 2 17.985 8.9925 1.7985 0 0 0
444 2 30.5745 23.3805 0.0 0 0 0
487 2 30.5745 25.179 5.3955 0 0 0
3109 2 7.194 7.194 25.179 0 0 0
306 2 32.373 8.9925 23.3805 0 0 0
2688 2 8.9925 8.9925 3.597 0 0 0
2252 2 12.5895 5.3955 7.194 0 0 0
549 2 32.373 28.776 25.179 0 0 0
16 2 34.1715 1.7985 25.179 0 0 0
1304 2 23.3805 26.9775 17.985 0 0 0
1869 2 17.985 3.597 25.179 0 0 0
3985 2 0.0 32.373 7.194 0 0 0
53 2 34.1715 7.194 23.3805 0 0 0
2314 2 14.388 8.9925 30.5745 0 0 0
2529 2 14.388 28.776 7.194 0 0 0
1427 2 19.7835 0.0 23.3805 0 0 0
996 2 26.9775 34.1715 28.776 0 0 0
200 2 34.1715 34.1715 32.373 0 0 0
1028 2 23.3805 1.7985 21.582 0 0 0
2786 2 10.791 16.1865 23.3805 0 0 0
632 2 26.9775 1.7985 25.179 0 0 0
2570 2 14.388 34.1715 8.9925 0 0 0
1386 2 25.179 34.1715 23.3805 0 0 0
601 2 28.776 0.0 0.0 0 0 0
1071 2 23.3805 3.597 26.9775 0 0 0
432 2 30.5745 19.7835 25.179 0 0 0
2563 2 12.5895 32.373 1.7985 0 0 0
234 2 32.373 1.7985 30.5745 0 0 0
1264 2 23.3805 23.3805 17.985 0 0 0
1218 2 25.179 19.7835 16.1865 0 0 0
1359 2 23.3805 28.776 34.1715 0 0 0
1588 2 19.7835 16.1865 21.582 0 0 0
733 2 28.776 10.791 10.791 0 0 0
1618 2 21.582 19.7835 16.1865 0 0 0
258 2 32.373 5.3955 16.1865 0 0 0
2486 2 14.388 26.9775 5.3955 0 0 0
2881 2 10.791 25.179 0.0 0 0 0
462 2 32.373 23.3805 19.7835 0 0 0
1729 2 21.582 28.776 7.194 0 0 0
415 2 30.5745 17.985 12.5895 0 0 0
3976 2 0.0 30.5745 26.9775 0 0 0
3371 2 5.3955 32.373 8.9925 0 0 0
2929 2 10.791 28.776 7.194 0 0 0
3057 2 7.194 3.597 14.388 0 0 0
1457 2 21.582 3.597 14.388 0 0 0
1673 2 21.582 21.582 28.776 0 0 0
328 2 30.5745 12.5895 3.597 0 0 0
2961 2 10.791 32.373 0.0 0 0 0
2866 2 10.791 23.3805 23.3805 0 0 0
776 2 26.9775 16.1865 10.791 0 0 0
2050 2 17.985 23.3805 8.9925 0 0 0
2685 2 10.791 7.194 3.597 0 0 0
3013 2 7.194 0.0 10.791 0 0 0
2040 2 16.1865 19.7835 32.373 0 0 0
1988 2 16.1865 16.1865 21.582 0 0 0
3388 2 5.3955 34.1715 21.582 0 0 0
1428 2 19.7835 1.7985 21.582 0 0 0
877 2 28.776 21.582 32.373 0 0 0
3149 2 7.194 10.791 25.179 0 0 0
890 2 28.776 26.9775 8.9925 0 0 0
943 2 26.9775 28.776 19.7835 0 0 0
1513 2 21.582 7.194 28.776 0 0 0
3959 2 0.0 25.179 32.373 0 0 0
2659 2 8.9925 3.597 16.1865 0 0 0
1558 2 21.582 12.5895 34.1715 0 0 0
3630 2 3.597 19.7835 26.9775 0 0 0
20 2 34.1715 1.7985 32.373 0 0 0
3978 2 0.0 30.5745 30.5745 0 0 0
2035 2 16.1865 17.985 30.5745 0 0 0
2753 2 10.791 10.791 28.776 0 0 0
840 2 26.9775 19.7835 32.373 0 0 0
2343 2 12.5895 10.791 19.7835 0 0 0
2458 2 14.388 23.3805 16.1865 0 0 0
634 2 28.776 1.7985 30.5745 0 0 0
810 2 28.776 19.7835 8.9925 0 0 0
1124 2 23.3805 12.5895 0.0 0 0 0
2413 2 14.388 17.985 10.791 0 0 0
2601 2 10.791 0.0 0.0 0 0 0
2996 2 8.9925 34.1715 28.776 0 0 0
2817 2 10.791 17.985 14.388 0 0 0
143 2 34.1715 25.179 5.3955 0 0 0
3783 2 1.7985 32.373 19.7835 0 0 0
3735 2 1.7985 28.776 12.5895 0 0 0
3858 2 0.0 8.9925 30.5745 0 0 0
1562 2 21.582 16.1865 1.7985 0 0 0
848 2 26.9775 23.3805 3.597 0 0 0
1314 2 25.179 26.9775 30.5745 0 0 0
2789 2 10.791 14.388 25.179 0 0 0
2893 2 10.791 25.179 10.791 0 0 0
2245 2 14.388 3.597 3.597 0 0 0
1025 2 25.179 0.0 21.582 0 0 0
2865 2 10.791 21.582 21.582 0 0 0
3579 2 1.7985 14.388 16.1865 0 0 0
1957 2 17.985 10.791 32.373 0 0 0
2782 2 10.791 16.1865 19.7835 0 0 0
1092 2 23.3805 8.9925 7.194 0 0 0
1150 2 25.179 12.5895 26.9775 0 0 0
22 2 34.1715 5.3955 0.0 0 0 0
1503 2 19.7835 7.194 19.7835 0 0 0
284 2 30.5745 8.9925 0.0 0 0 0
364 2 30.5745 16.1865 0.0 0 0 0
2426 2 14.388 19.7835 23.3805 0 0 0
2407 2 12.5895 17.985 5.3955 0 0 0
251 2 30.5745 3.597 8.9925 0 0 0
2054 2 17.985 23.3805 12.5895 0 0 0
3354 2 7.194 30.5745 30.5745 0 0 0
1959 2 16.1865 10.791 34.1715 0 0 0
1650 2 21.582 23.3805 8.9925 0 0 0
3640 2 1.7985 19.7835 32.373 0 0 0
2244 2 12.5895 5.3955 0.0 0 0 0
3770 2 3.597 34.1715 8.9925 0 0 0
3252 2 5.3955 23.3805 7.194 0 0 0
229 2 32.373 0.0 25.179 0 0 0
11 2 34.1715 0.0 19.7835 0 0 0
3645 2 3.597 21.582 3.597 0 0 0
492 2 30.5745 26.9775 7.194 0 0 0
2776 2 8.9925 16.1865 10.791 0 0 0
981 2 28.776 32.373 17.985 0 0 0
3131 2 5.3955 10.791 8.9925 0 0 0
962 2 28.776 34.1715 1.7985 0 0 0
989 2 28.776 32.373 25.179 0 0 0
3240 2 5.3955 19.7835 32.373 0 0 0
3930 2 0.0 23.3805 16.1865 0 0 0
3474 2 3.597 5.3955 30.5745 0 0 0
3428 2 1.7985 1.7985 21.582 0 0 0
1248 2 23.3805 23.3805 3.597 0 0 0
2475 2 12.5895 21.582 30.5745 0 0 0
1727 2 19.7835 28.776 5.3955 0 0 0
2344 2 12.5895 12.5895 17.985 0 0 0
1449 2 21.582 3.597 7.194 0 0 0
1231 2 23.3805 17.985 26.9775 0 0 0
2107 2 16.1865 25.179 23.3805 0 0 0
2761 2 10.791 14.388 0.0 0 0 0
28 2 34.1715 5.3955 10.791 0 0 0
144 2 34.1715 26.9775 3.597 0 0 0
1 2 34.1715 0.0 1.7985 0 0 0
2492 2 12.5895 26.9775 7.194 0 0 0
984 2 26.9775 34.1715 17.985 0 0 0
1576 2 19.7835 16.1865 10.791 0 0 0
2124 2 16.1865 30.5745 0.0 0 0 0
692 2 26.9775 8.9925 7.194 0 0 0
1114 2 25.179 8.9925 30.5745 0 0 0
3001 2 7.194 0.0 0.0 0 0 0
1478 2 21.582 5.3955 34.1715 0 0 0
3995 2 0.0 32.373 25.179 0 0 0
741 2 28.776 10.791 17.985 0 0 0
2246 2 14.388 5.3955 5.3955 0 0 0
2892 2 8.9925 26.9775 7.194 0 0 0
41 2 34.1715 7.194 1.7985 0 0 0
2269 2 14.388 3.597 25.179 0 0 0
615 2 26.9775 0.0 12.5895 0 0 0
1375 2 23.3805 32.373 12.5895 0 0 0
1637 2 21.582 17.985 32.373 0 0 0
294 2 32.373 8.9925 12.5895 0 0 0
1979 2 16.1865 14.388 16.1865 0 0 0
3148 2 5.3955 12.5895 21.582 0 0 0
3201 2 7.194 17.985 0.0 0 0 0
1589 2 21.582 14.388 25.179 0 0 0
2657 2 10.791 3.597 14.388 0 0 0
1378 2 25.179 34.1715 16.1865 0 0 0
740 2 26.9775 12.5895 14.388 0 0 0
3025 2 7.194 0.0 21.582 0 0 0
1596 2 19.7835 16.1865 28.776 0 0 0
894 2 28.776 26.9775 12.5895 0 0 0
898 2 28.776 26.9775 16.1865 0 0 0
3813 2 0.0 0.0 21.582 0 0 0
2138 2 17.985 30.5745 16.1865 0 0 0
2493 2 14.388 25.179 10.791 0 0 0
3704 2 1.7985 26.9775 17.985 0 0 0
1742 2 21.582 30.5745 19.7835 0 0 0
3137 2 7.194 10.791 14.388 0 0 0
2721 2 10.791 10.791 0.0 0 0 0
3951 2 0.0 25.179 17.985 0 0 0
101 2 34.1715 17.985 1.7985 0 0 0
2021 2 17.985 17.985 17.985 0 0 0
3246 2 7.194 23.3805 5.3955 0 0 0
3106 2 7.194 8.9925 23.3805 0 0 0
2333 2 14.388 10.791 10.791 0 0 0
2853 2 10.791 21.582 10.791 0 0 0
1785 2 21.582 32.373 21.582 0 0 0
2653 2 10.791 3.597 10.791 0 0 0
2703 2 8.9925 7.194 19.7835 0 0 0
1158 2 25.179 12.5895 34.1715 0 0 0
1838 2 17.985 1.7985 34.1715 0 0 0
3831 2 0.0 3.597 17.985 0 0 0
2579 2 12.5895 32.373 16.1865 0 0 0
1658 2 21.582 23.3805 16.1865 0 0 0
72 2 34.1715 12.5895 17.985 0 0 0
3238 2 7.194 19.7835 34.1715 0 0 0
3688 2 1.7985 26.9775 3.597 0 0 0
534 2 32.373 30.5745 12.5895 0 0 0
680 2 26.9775 5.3955 32.373 0 0 0
3572 2 1.7985 16.1865 7.194 0 0 0
3936 2 0.0 23.3805 26.9775 0 0 0
3552 2 1.7985 12.5895 25.179 0 0 0
718 2 28.776 8.9925 34.1715 0 0 0
3654 2 3.597 23.3805 12.5895 0 0 0
2549 2 14.388 28.776 25.179 0 0 0
2741 2 10.791 10.791 17.985 0 0 0
166 2 34.1715 30.5745 7.194 0 0 0
3219 2 5.3955 17.985 16.1865 0 0 0
2470 2 14.388 23.3805 26.9775 0 0 0
417 2 32.373 17.985 14.388 0 0 0
2071 2 16.1865 21.582 26.9775 0 0 0
2948 2 8.9925 30.5745 21.582 0 0 0
1073 2 25.179 3.597 28.776 0 0 0
2736 2 8.9925 12.5895 10.791 0 0 0
2643 2 8.9925 3.597 1.7985 0 0 0
668 2 26.9775 5.3955 21.582 0 0 0
3058 2 7.194 5.3955 16.1865 0 0 0
765 2 28.776 14.388 3.597 0 0 0
571 2 30.5745 32.373 8.9925 0 0 0
1229 2 25.179 17.985 25.179 0 0 0
3158 2 7.194 12.5895 34.1715 0 0 0
87 2 34.1715 14.388 12.5895 0 0 0
3681 2 3.597 25.179 0.0 0 0 0
3690 2 3.597 26.9775 8.9925 0 0 0
637 2 28.776 0.0 32.373 0 0 0
1206 2 25.179 19.7835 5.3955 0 0 0
2281 2 14.388 7.194 0.0 0 0 0
2788 2 8.9925 16.1865 21.582 0 0 0
657 2 28.776 3.597 14.388 0 0 0
1776 2 19.7835 34.1715 10.791 0 0 0
410 2 32.373 19.7835 8.9925 0 0 0
1475 2 19.7835 3.597 30.5745 0 0 0
3694 2 3.597 26.9775 12.5895 0 0 0
1934 2 17.985 12.5895 12.5895 0 0 0
1491 2 19.7835 7.194 8.9925 0 0 0
696 2 26.9775 8.9925 10.791 0 0 0
1574 2 21.582 16.1865 12.5895 0 0 0
1269 2 25.179 21.582 25.179 0 0 0
2008 2 16.1865 19.7835 3.597 0 0 0
1343 2 23.3805 28.776 19.7835 0 0 0
3913 2 0.0 17.985 21.582 0 0 0
688 2 26.9775 8.9925 3.597 0 0 0
2515 2 12.5895 25.179 30.5745 0 0 0
3304 2 5.3955 26.9775 17.985 0 0 0
661 2 28.776 3.597 17.985 0 0 0
3805 2 0.0 0.0 7.194 0 0 0
3712 2 1.7985 26.9775 25.179 0 0 0
2385 2 14.388 14.388 21.582 0 0 0
248 2 30.5745 5.3955 3.597 0 0 0
694 2 28.776 8.9925 12.5895 0 0 0
2096 2 16.1865 26.9775 10.791 0 0 0
850 2 28.776 23.3805 8.9925 0 0 0
864 2 26.9775 23.3805 17.985 0 0 0
3848 2 0.0 8.9925 12.5895 0 0 0
3820 2 0.0 1.7985 34.1715 0 0 0
2829 2 10.791 17.985 25.179 0 0 0
213 2 32.373 0.0 10.791 0 0 0
421 2 32.373 17.985 17.985 0 0 0
3888 2 0.0 16.1865 12.5895 0 0 0
3456 2 1.7985 5.3955 10.791 0 0 0
1012 2 23.3805 1.7985 7.194 0 0 0
2708 2 8.9925 8.9925 21.582 0 0 0
1888 2 16.1865 8.9925 3.597 0 0 0
242 2 32.373 5.3955 1.7985 0 0 0
3539 2 1.7985 10.791 16.1865 0 0 0
2015 2 16.1865 17.985 12.5895 0 0 0
922 2 28.776 30.5745 1.7985 0 0 0
747 2 26.9775 10.791 23.3805 0 0 0
1671 2 19.7835 21.582 26.9775 0 0 0
309 2 32.373 7.194 25.179 0 0 0
3202 2 7.194 19.7835 1.7985 0 0 0
25 2 34.1715 3.597 8.9925 0 0 0
464 2 30.5745 23.3805 17.985 0 0 0
2459 2 12.5895 21.582 16.1865 0 0 0
3566 2 3.597 16.1865 5.3955 0 0 0
2485 2 14.388 25.179 3.597 0 0 0
3490 2 3.597 8.9925 8.9925 0 0 0
2692 2 8.9925 8.9925 7.194 0 0 0
1066 2 25.179 5.3955 23.3805 0 0 0
3334 2 7.194 30.5745 12.5895 0 0 0
119 2 34.1715 17.985 34.1715 0 0 0
2273 2 14.388 3.597 28.776 0 0 0
1402 3 21.582 1.7985 1.7985 0 0 0
991 3 26.9775 32.373 26.9775 0 0 0
3710 3 3.597 26.9775 26.9775 0 0 0
3718 3 3.597 26.9775 34.1715 0 0 0
3268 3 5.3955 23.3805 21.582 0 0 0
2268 3 12.5895 5.3955 21.582 0 0 0
1929 3 17.985 10.791 7.194 0 0 0
135 3 34.1715 21.582 26.9775 0 0 0
2713 3 10.791 7.194 28.776 0 0 0
2920 3 8.9925 26.9775 32.373 0 0 0
3012 3 5.3955 1.7985 7.194 0 0 0
748 3 26.9775 12.5895 21.582 0 0 0
1737 3 21.582 28.776 14.388 0 0 0
1111 3 23.3805 7.194 26.9775 0 0 0
3631 3 1.7985 17.985 26.9775 0 0 0
160 3 34.1715 26.9775 32.373 0 0 0
1046 3 25.179 5.3955 5.3955 0 0 0
2790 3 10.791 16.1865 26.9775 0 0 0
3644 3 1.7985 23.3805 0.0 0 0 0
2373 3 14.388 14.388 10.791 0 0 0
1768 3 19.7835 34.1715 3.597 0 0 0
3747 3 1.7985 28.776 23.3805 0 0 0
3175 3 5.3955 14.388 12.5895 0 0 0
3108 3 5.3955 8.9925 21.582 0 0 0
3740 3 1.7985 30.5745 14.388 0 0 0
1460 3 19.7835 5.3955 14.388 0 0 0
1178 3 25.179 16.1865 16.1865 0 0 0
3285 3 7.194 25.179 3.597 0 0 0
485 3 32.373 25.179 3.597 0 0 0
2973 3 10.791 32.373 10.791 0 0 0
1594 3 21.582 16.1865 30.5745 0 0 0
17 3 34.1715 0.0 30.5745 0 0 0
1734 3 21.582 30.5745 12.5895 0 0 0
1647 3 19.7835 21.582 5.3955 0 0 0
1864 3 16.1865 5.3955 17.985 0 0 0
1520 3 19.7835 8.9925 32.373 0 0 0
366 3 32.373 16.1865 5.3955 0 0 0
1277 3 25.179 21.582 32.373 0 0 0
219 3 30.5745 0.0 16.1865 0 0 0
1103 3 23.3805 7.194 19.7835 0 0 0
944 3 26.9775 30.5745 17.985 0 0 0
3513 3 3.597 7.194 28.776 0 0 0
3558 3 3.597 12.5895 34.1715 0 0 0
1903 3 16.1865 7.194 19.7835 0 0 0
1023 3 23.3805 0.0 19.7835 0 0 0
3699 3 1.7985 25.179 16.1865 0 0 0
2731 3 8.9925 10.791 8.9925 0 0 0
2904 3 8.9925 26.9775 17.985 0 0 0
335 3 30.5745 10.791 12.5895 0 0 0
3445 3 3.597 3.597 3.597 0 0 0
2466 3 14.388 23.3805 23.3805 0 0 0
268 3 30.5745 5.3955 21.582 0 0 0
3647 3 1.7985 21.582 5.3955 0 0 0
2533 3 14.388 28.776 10.791 0 0 0
1703 3 19.7835 25.179 19.7835 0 0 0
54 3 34.1715 8.9925 21.582 0 0 0
429 3 32.373 17.985 25.179 0 0 0
2291 3 12.5895 7.194 8.9925 0 0 0
2203 3 12.5895 0.0 1.7985 0 0 0
88 3 34.1715 16.1865 10.791 0 0 0
2956 3 8.9925 30.5745 28.776 0 0 0
1212 3 23.3805 19.7835 7.194 0 0 0
2036 3 16.1865 19.7835 28.776 0 0 0
333 3 32.373 10.791 10.791 0 0 0
736 3 26.9775 12.5895 10.791 0 0 0
578 3 32.373 34.1715 16.1865 0 0 0
3155 3 5.3955 10.791 30.5745 0 0 0
3850 3 0.0 8.9925 16.1865 0 0 0
2716 3 8.9925 8.9925 28.776 0 0 0
3395 3 5.3955 32.373 30.5745 0 0 0
3101 3 7.194 7.194 17.985 0 0 0
344 3 30.5745 12.5895 17.985 0 0 0
1794 3 21.582 34.1715 30.5745 0 0 0
574 3 32.373 34.1715 12.5895 0 0 0
3251 3 5.3955 21.582 8.9925 0 0 0
199 3 34.1715 32.373 34.1715 0 0 0
42 3 34.1715 8.9925 0.0 0 0 0
1518 3 21.582 8.9925 34.1715 0 0 0
3869 3 0.0 10.791 14.388 0 0 0
2585 3 14.388 32.373 21.582 0 0 0
1309 3 25.179 25.179 25.179 0 0 0
2361 3 14.388 14.388 0.0 0 0 0
2793 3 10.791 14.388 28.776 0 0 0
502 3 32.373 26.9775 19.7835 0 0 0
2491 3 12.5895 25.179 8.9925 0 0 0
2176 3 16.1865 34.1715 10.791 0 0 0
3665 3 3.597 21.582 21.582 0 0 0
2687 3 8.9925 7.194 5.3955 0 0 0
2425 3 14.388 17.985 21.582 0 0 0
2312 3 12.5895 8.9925 25.179 0 0 0
1533 3 21.582 10.791 10.791 0 0 0
3097 3 7.194 7.194 14.388 0 0 0
2820 3 8.9925 19.7835 14.388 0 0 0
3914 3 0.0 19.7835 23.3805 0 0 0
3398 3 7.194 34.1715 34.1715 0 0 0
3254 3 7.194 23.3805 12.5895 0 0 0
2505 3 14.388 25.179 21.582 0 0 0
2963 3 8.9925 32.373 1.7985 0 0 0
2145 3 17.985 28.776 21.582 0 0 0
698 3 28.776 8.9925 16.1865 0 0 0
2388 3 12.5895 16.1865 21.582 0 0 0
3488 3 1.7985 8.9925 3.597 0 0 0
2995 3 8.9925 32.373 30.5745 0 0 0
1889 3 17.985 7.194 7.194 0 0 0
682 3 28.776 8.9925 1.7985 0 0 0
1711 3 19.7835 25.179 26.9775 0 0 0
710 3 28.776 8.9925 26.9775 0 0 0
3861 3 0.0 10.791 0.0 0 0 0
1844 3 16.1865 5.3955 0.0 0 0 0
115 3 34.1715 17.985 26.9775 0 0 0
1569 3 21.582 14.388 7.194 0 0 0
187 3 34.1715 32.373 12.5895 0 0 0
3751 3 1.7985 28.776 26.9775 0 0 0
3975 3 0.0 28.776 25.179 0 0 0
1642 3 21.582 23.3805 1.7985 0 0 0
2888 3 8.9925 26.9775 3.597 0 0 0
1553 3 21.582 10.791 28.776 0 0 0
300 3 30.5745 8.9925 14.388 0 0 0
1607 3 19.7835 17.985 5.3955 0 0 0
3635 3 1.7985 17.985 30.5745 0 0 0
3917 3 0.0 17.985 28.776 0 0 0
540 3 30.5745 30.5745 14.388 0 0 0
3174 3 7.194 16.1865 12.5895 0 0 0
3696 3 1.7985 26.9775 10.791 0 0 0
2719 3 8.9925 7.194 34.1715 0 0 0
2219 3 12.5895 0.0 16.1865 0 0 0
1597 3 21.582 14.388 32.373 0 0 0
662 3 28.776 5.3955 19.7835 0 0 0
2810 3 10.791 19.7835 8.9925 0 0 0
3085 3 7.194 7.194 3.597 0 0 0
2792 3 8.9925 16.1865 25.179 0 0 0
3937 3 0.0 21.582 28.776 0 0 0
3814 3 0.0 1.7985 23.3805 0 0 0
1835 3 16.1865 0.0 30.5745 0 0 0
118 3 34.1715 19.7835 28.776 0 0 0
1716 3 19.7835 26.9775 28.776 0 0 0
1878 3 17.985 5.3955 34.1715 0 0 0
1894 3 17.985 8.9925 12.5895 0 0 0
1593 3 21.582 14.388 28.776 0 0 0
3973 3 0.0 28.776 21.582 0 0 0
1349 3 25.179 28.776 25.179 0 0 0
1926 3 17.985 12.5895 5.3955 0 0 0
3049 3 7.194 3.597 7.194 0 0 0
2010 3 17.985 19.7835 8.9925 0 0 0
1405 3 21.582 0.0 3.597 0 0 0
3161 3 7.194 14.388 0.0 0 0 0
2854 3 10.791 23.3805 12.5895 0 0 0
207 3 30.5745 0.0 5.3955 0 0 0
237 3 32.373 0.0 32.373 0 0 0
1669 3 21.582 21.582 25.179 0 0 0
3496 3 1.7985 8.9925 10.791 0 0 0
2447 3 12.5895 21.582 5.3955 0 0 0
1487 3 19.7835 7.194 5.3955 0 0 0
3215 3 5.3955 17.985 12.5895 0 0 0
2604 3 8.9925 1.7985 0.0 0 0 0
879 3 26.9775 21.582 34.1715 0 0 0
551 3 30.5745 28.776 26.9775 0 0 0
3617 3 3.597 17.985 14.388 0 0 0
136 3 34.1715 23.3805 25.179 0 0 0
2670 3 10.791 5.3955 26.9775 0 0 0
1800 3 19.7835 34.1715 32.373 0 0 0
1661 3 21.582 21.582 17.985 0 0 0
3190 3 7.194 16.1865 26.9775 0 0 0
1266 3 25.179 23.3805 23.3805 0 0 0
2667 3 8.9925 3.597 23.3805 0 0 0
2041 3 17.985 21.582 0.0 0 0 0
754 3 28.776 12.5895 30.5745 0 0 0
1351 3 23.3805 28.776 26.9775 0 0 0
556 3 30.5745 30.5745 28.776 0 0 0
1050 3 25.179 5.3955 8.9925 0 0 0
1773 3 21.582 32.373 10.791 0 0 0
1993 3 17.985 14.388 28.776 0 0 0
1211 3 23.3805 17.985 8.9925 0 0 0
3776 3 1.7985 34.1715 10.791 0 0 0
3181 3 7.194 14.388 17.985 0 0 0
589 3 32.373 32.373 25.179 0 0 0
2046 3 17.985 23.3805 5.3955 0 0 0
2794 3 10.791 16.1865 30.5745 0 0 0
2452 3 12.5895 23.3805 7.194 0 0 0
1912 3 16.1865 8.9925 25.179 0 0 0
315 3 30.5745 7.194 30.5745 0 0 0
2356 3 12.5895 12.5895 28.776 0 0 0
1116 3 23.3805 8.9925 28.776 0 0 0
3315 3 5.3955 25.179 30.5745 0 0 0
3143 3 5.3955 10.791 19.7835 0 0 0
3113 3 7.194 7.194 28.776 0 0 0
1880 3 16.1865 5.3955 32.373 0 0 0
2013 3 17.985 17.985 10.791 0 0 0
767 3 26.9775 14.388 5.3955 0 0 0
2372 3 12.5895 16.1865 7.194 0 0 0
1464 3 19.7835 5.3955 17.985 0 0 0
3414 3 3.597 1.7985 12.5895 0 0 0
1497 3 21.582 7.194 14.388 0 0 0
1655 3 19.7835 21.582 12.5895 0 0 0
2192 3 16.1865 34.1715 25.179 0 0 0
1668 3 19.7835 23.3805 21.582 0 0 0
2678 3 10.791 5.3955 34.1715 0 0 0
927 3 26.9775 28.776 5.3955 0 0 0
2065 3 17.985 21.582 21.582 0 0 0
1863 3 16.1865 3.597 19.7835 0 0 0
3305 3 7.194 25.179 21.582 0 0 0
3916 3 0.0 19.7835 26.9775 0 0 0
2964 3 8.9925 34.1715 0.0 0 0 0
3446 3 3.597 5.3955 5.3955 0 0 0
1565 3 21.582 14.388 3.597 0 0 0
1962 3 17.985 16.1865 1.7985 0 0 0
3302 3 7.194 26.9775 19.7835 0 0 0
650 3 28.776 5.3955 8.9925 0 0 0
929 3 28.776 28.776 7.194 0 0 0
1950 3 17.985 12.5895 26.9775 0 0 0
3819 3 0.0 0.0 32.373 0 0 0
3205 3 7.194 17.985 3.597 0 0 0
1080 3 23.3805 5.3955 32.373 0 0 0
396 3 30.5745 16.1865 28.776 0 0 0
3482 3 3.597 8.9925 1.7985 0 0 0
3146 3 7.194 12.5895 23.3805 0 0 0
3156 3 5.3955 12.5895 28.776 0 0 0
1735 3 19.7835 28.776 12.5895 0 0 0
2310 3 14.388 8.9925 26.9775 0 0 0
2084 3 16.1865 26.9775 0.0 0 0 0
645 3 28.776 3.597 3.597 0 0 0
2818 3 10.791 19.7835 16.1865 0 0 0
2240 3 12.5895 1.7985 32.373 0 0 0
443 3 30.5745 21.582 1.7985 0 0 0
729 3 28.776 10.791 7.194 0 0 0
1572 3 19.7835 16.1865 7.194 0 0 0
3787 3 1.7985 32.373 23.3805 0 0 0
2509 3 14.388 25.179 25.179 0 0 0
2298 3 14.388 8.9925 16.1865 0 0 0
1085 3 25.179 7.194 3.597 0 0 0
3168 3 5.3955 16.1865 3.597 0 0 0
522 3 32.373 30.5745 1.7985 0 0 0
512 3 30.5745 26.9775 25.179 0 0 0
1490 3 21.582 8.9925 8.9925 0 0 0
976 3 26.9775 34.1715 10.791 0 0 0
3906 3 0.0 19.7835 8.9925 0 0 0
3426 3 3.597 1.7985 23.3805 0 0 0
1921 3 17.985 10.791 0.0 0 0 0
1376 3 23.3805 34.1715 10.791 0 0 0
3678 3 3.597 23.3805 34.1715 0 0 0
2773 3 10.791 14.388 10.791 0 0 0
2228 3 12.5895 1.7985 21.582 0 0 0
699 3 26.9775 7.194 16.1865 0 0 0
2364 3 12.5895 16.1865 0.0 0 0 0
584 3 30.5745 34.1715 17.985 0 0 0
3984 3 0.0 34.1715 5.3955 0 0 0
466 3 32.373 23.3805 23.3805 0 0 0
2873 3 10.791 21.582 28.776 0 0 0
3230 3 7.194 19.7835 26.9775 0 0 0
2705 3 10.791 7.194 21.582 0 0 0
3574 3 3.597 16.1865 12.5895 0 0 0
2233 3 14.388 0.0 28.776 0 0 0
2173 3 17.985 32.373 10.791 0 0 0
3522 3 3.597 12.5895 1.7985 0 0 0
835 3 26.9775 17.985 30.5745 0 0 0
184 3 34.1715 34.1715 3.597 0 0 0
2299 3 12.5895 7.194 16.1865 0 0 0
3669 3 3.597 21.582 25.179 0 0 0
1763 3 19.7835 32.373 1.7985 0 0 0
2546 3 14.388 30.5745 23.3805 0 0 0
921 3 28.776 28.776 0.0 0 0 0
691 3 26.9775 7.194 8.9925 0 0 0
2201 3 14.388 0.0 0.0 0 0 0
861 3 28.776 21.582 17.985 0 0 0
3627 3 1.7985 17.985 23.3805 0 0 0
3875 3 0.0 10.791 25.179 0 0 0
3462 3 3.597 5.3955 19.7835 0 0 0
3815 3 0.0 0.0 25.179 0 0 0
3590 3 3.597 16.1865 26.9775 0 0 0
1442 3 21.582 5.3955 1.7985 0 0 0
1745 3 21.582 28.776 21.582 0 0 0
2125 3 17.985 28.776 3.597 0 0 0
2235 3 12.5895 0.0 30.5745 0 0 0
2735 3 8.9925 10.791 12.5895 0 0 0
2885 3 10.791 25.179 3.597 0 0 0
3278 3 7.194 23.3805 34.1715 0 0 0
2759 3 8.9925 10.791 34.1715 0 0 0
1244 3 23.3805 23.3805 0.0 0 0 0
1743 3 19.7835 28.776 19.7835 0 0 0
1243 3 23.3805 21.582 1.7985 0 0 0
3189 3 7.194 14.388 25.179 0 0 0
2221 3 14.388 0.0 17.985 0 0 0
3260 3 5.3955 23.3805 14.388 0 0 0
1435 3 19.7835 0.0 30.5745 0 0 0
1177 3 25.179 14.388 14.388 0 0 0
1534 3 21.582 12.5895 12.5895 0 0 0
3218 3 7.194 19.7835 16.1865 0 0 0
1458 3 21.582 5.3955 16.1865 0 0 0
1640 3 19.7835 19.7835 32.373 0 0 0
1649 3 21.582 21.582 7.194 0 0 0
62 3 34.1715 12.5895 0.0 0 0 0
2155 3 16.1865 28.776 30.5745 0 0 0
978 3 28.776 34.1715 16.1865 0 0 0
1106 3 25.179 8.9925 23.3805 0 0 0
3903 3 0.0 17.985 3.597 0 0 0
3887 3 0.0 14.388 10.791 0 0 0
524 3 30.5745 30.5745 0.0 0 0 0
3405 3 3.597 0.0 3.597 0 0 0
2907 3 8.9925 25.179 23.3805 0 0 0
2502 3 14.388 26.9775 19.7835 0 0 0
2090 3 17.985 26.9775 8.9925 0 0 0
1063 3 23.3805 3.597 19.7835 0 0 0
445 3 32.373 21.582 3.597 0 0 0
528 3 30.5745 30.5745 3.597 0 0 0
893 3 28.776 25.179 10.791 0 0 0
3592 3 1.7985 16.1865 25.179 0 0 0
2212 3 12.5895 1.7985 7.194 0 0 0
2908 3 8.9925 26.9775 21.582 0 0 0
734 3 28.776 12.5895 12.5895 0 0 0
3243 3 5.3955 21.582 1.7985 0 0 0
286 3 32.373 8.9925 5.3955 0 0 0
548 3 30.5745 30.5745 21.582 0 0 0
266 3 32.373 5.3955 23.3805 0 0 0
2813 3 10.791 17.985 10.791 0 0 0
1606 3 21.582 19.7835 5.3955 0 0 0
789 3 28.776 14.388 25.179 0 0 0
2144 3 16.1865 30.5745 17.985 0 0 0
937 3 28.776 28.776 14.388 0 0 0
243 3 30.5745 3.597 1.7985 0 0 0
1723 3 19.7835 28.776 1.7985 0 0 0
117 3 34.1715 17.985 30.5745 0 0 0
1759 3 19.7835 28.776 34.1715 0 0 0
775 3 26.9775 14.388 12.5895 0 0 0
1075 3 23.3805 3.597 30.5745 0 0 0
196 3 34.1715 34.1715 25.179 0 0 0
1810 3 17.985 1.7985 8.9925 0 0 0
3847 3 0.0 7.194 10.791 0 0 0
1429 3 21.582 0.0 25.179 0 0 0
305 3 32.373 7.194 21.582 0 0 0
3962 3 0.0 30.5745 1.7985 0 0 0
253 3 32.373 3.597 10.791 0 0 0
2390 3 14.388 16.1865 26.9775 0 0 0
479 3 30.5745 21.582 34.1715 0 0 0
261 3 32.373 3.597 17.985 0 0 0
2468 3 12.5895 23.3805 21.582 0 0 0
245 3 32.373 3.597 3.597 0 0 0
111 3 34.1715 17.985 19.7835 0 0 0
3124 3 5.3955 12.5895 0.0 0 0 0
544 3 30.5745 30.5745 17.985 0 0 0
831 3 26.9775 17.985 26.9775 0 0 0
388 3 30.5745 16.1865 21.582 0 0 0
346 3 32.373 12.5895 23.3805 0 0 0
857 3 28.776 21.582 14.388 0 0 0
3494 3 3.597 8.9925 12.5895 0 0 0
1931 3 16.1865 10.791 8.9925 0 0 0
1020 3 23.3805 1.7985 14.388 0 0 0
1779 3 19.7835 32.373 16.1865 0 0 0
436 3 30.5745 19.7835 28.776 0 0 0
3953 3 0.0 25.179 21.582 0 0 0
1660 3 19.7835 23.3805 14.388 0 0 0
412 3 30.5745 19.7835 7.194 0 0 0
3719 3 1.7985 25.179 34.1715 0 0 0
1551 3 19.7835 10.791 26.9775 0 0 0
3970 3 0.0 30.5745 16.1865 0 0 0
3432 3 1.7985 1.7985 25.179 0 0 0
1057 3 25.179 3.597 14.388 0 0 0
743 3 26.9775 10.791 19.7835 0 0 0
3159 3 5.3955 10.791 34.1715 0 0 0
2835 3 8.9925 17.985 30.5745 0 0 0
2902 3 10.791 26.9775 19.7835 0 0 0
2156 3 16.1865 30.5745 28.776 0 0 0
308 3 30.5745 8.9925 21.582 0 0 0
1047 3 23.3805 3.597 5.3955 0 0 0
3687 3 1.7985 25.179 5.3955 0 0 0
582 3 32.373 34.1715 19.7835 0 0 0
66 3 34.1715 12.5895 7.194 0 0 0
1373 3 25.179 32.373 10.791 0 0 0
1493 3 21.582 7.194 10.791 0 0 0
3102 3 7.194 8.9925 19.7835 0 0 0
48 3 34.1715 8.9925 10.791 0 0 0
172 3 34.1715 30.5745 17.985 0 0 0
379 3 30.5745 14.388 16.1865 0 0 0
1599 3 19.7835 14.388 34.1715 0 0 0
2890 3 10.791 26.9775 8.9925 0 0 0
2437 3 14.388 17.985 32.373 0 0 0
3971 3 0.0 28.776 17.985 0 0 0
1522 3 21.582 12.5895 1.7985 0 0 0
3868 3 0.0 12.5895 12.5895 0 0 0
3902 3 0.0 19.7835 1.7985 0 0 0
1701 3 21.582 25.179 17.985 0 0 0
2324 3 12.5895 12.5895 0.0 0 0 0
1276 3 23.3805 23.3805 28.776 0 0 0
274 3 32.373 5.3955 30.5745 0 0 0
3854 3 0.0 8.9925 23.3805 0 0 0
210 3 32.373 1.7985 8.9925 0 0 0
1504 3 19.7835 8.9925 17.985 0 0 0
2396 3 12.5895 16.1865 28.776 0 0 0
1765 3 21.582 32.373 3.597 0 0 0
92 3 34.1715 16.1865 17.985 0 0 0
3801 3 0.0 0.0 0.0 0 0 0
3833 3 0.0 3.597 21.582 0 0 0
533 3 32.373 28.776 10.791 0 0 0
2445 3 14.388 21.582 3.597 0 0 0
1415 3 19.7835 0.0 12.5895 0 0 0
1217 3 25.179 17.985 14.388 0 0 0
1579 3 19.7835 14.388 16.1865 0 0 0
474 3 32.373 23.3805 30.5745 0 0 0
1713 3 21.582 25.179 28.776 0 0 0
639 3 26.9775 0.0 34.1715 0 0 0
175 3 34.1715 28.776 26.9775 0 0 0
2209 3 14.388 0.0 7.194 0 0 0
3322 3 7.194 30.5745 1.7985 0 0 0
2548 3 12.5895 30.5745 21.582 0 0 0
3666 3 3.597 23.3805 23.3805 0 0 0
105 3 34.1715 17.985 8.9925 0 0 0
579 3 30.5745 32.373 16.1865 0 0 0
802 3 28.776 19.7835 1.7985 0 0 0
1616 3 19.7835 19.7835 10.791 0 0 0
3788 3 1.7985 34.1715 21.582 0 0 0
3340 3 5.3955 30.5745 14.388 0 0 0
1561 3 21.582 14.388 0.0 0 0 0
3796 3 1.7985 34.1715 28.776 0 0 0
456 3 30.5745 23.3805 10.791 0 0 0
1937 3 17.985 10.791 14.388 0 0 0
1273 3 25.179 21.582 28.776 0 0 0
1811 3 16.1865 0.0 8.9925 0 0 0
566 3 32.373 34.1715 5.3955 0 0 0
1592 3 19.7835 16.1865 25.179 0 0 0
862 3 28.776 23.3805 19.7835 0 0 0
3176 3 5.3955 16.1865 10.791 0 0 0
2910 3 10.791 26.9775 26.9775 0 0 0
813 3 28.776 17.985 10.791 0 0 0
36 3 34.1715 5.3955 25.179 0 0 0
3554 3 3.597 12.5895 30.5745 0 0 0
1319 3 23.3805 25.179 34.1715 0 0 0
1234 3 25.179 19.7835 30.5745 0 0 0
40 3 34.1715 5.3955 32.373 0 0 0
1832 3 16.1865 1.7985 25.179 0 0 0
3852 3 0.0 8.9925 19.7835 0 0 0
1255 3 23.3805 21.582 12.5895 0 0 0
1609 3 21.582 17.985 7.194 0 0 0
3746 3 3.597 30.5745 23.3805 0 0 0
493 3 32.373 25.179 10.791 0 0 0
1712 3 19.7835 26.9775 25.179 0 0 0
3736 3 1.7985 30.5745 10.791 0 0 0
1333 3 25.179 28.776 10.791 0 0 0
3827 3 0.0 3.597 10.791 0 0 0
648 3 26.9775 5.3955 3.597 0 0 0
555 3 30.5745 28.776 30.5745 0 0 0
1017 3 25.179 0.0 14.388 0 0 0
1138 3 25.179 12.5895 16.1865 0 0 0
351 3 30.5745 10.791 26.9775 0 0 0
636 3 26.9775 1.7985 28.776 0 0 0
1760 3 19.7835 30.5745 32.373 0 0 0
900 3 26.9775 26.9775 14.388 0 0 0
1855 3 16.1865 3.597 12.5895 0 0 0
2938 3 10.791 30.5745 16.1865 0 0 0
1628 3 19.7835 19.7835 21.582 0 0 0
3641 3 3.597 21.582 0.0 0 0 0
2494 3 14.388 26.9775 12.5895 0 0 0
823 3 26.9775 17.985 19.7835 0 0 0
3825 3 0.0 3.597 7.194 0 0 0
2044 3 16.1865 23.3805 0.0 0 0 0
2528 3 12.5895 30.5745 3.597 0 0 0
1665 3 21.582 21.582 21.582 0 0 0
2542 3 14.388 30.5745 19.7835 0 0 0
897 3 28.776 25.179 14.388 0 0 0
2957 3 10.791 28.776 32.373 0 0 0
2320 3 12.5895 8.9925 32.373 0 0 0
3099 3 5.3955 7.194 16.1865 0 0 0
1456 3 19.7835 5.3955 10.791 0 0 0
1132 3 23.3805 12.5895 7.194 0 0 0
1294 3 25.179 26.9775 12.5895 0 0 0
419 3 30.5745 17.985 16.1865 0 0 0
1377 3 25.179 32.373 14.388 0 0 0
1253 3 25.179 21.582 10.791 0 0 0
975 3 26.9775 32.373 12.5895 0 0 0
676 3 26.9775 5.3955 28.776 0 0 0
3267 3 5.3955 21.582 23.3805 0 0 0
971 3 26.9775 32.373 8.9925 0 0 0
2135 3 16.1865 28.776 12.5895 0 0 0
3622 3 3.597 19.7835 19.7835 0 0 0
3449 3 3.597 3.597 7.194 0 0 0
2580 3 12.5895 34.1715 14.388 0 0 0
3373 3 7.194 32.373 10.791 0 0 0
1675 3 19.7835 21.582 30.5745 0 0 0
3425 3 3.597 0.0 21.582 0 0 0
1275 3 23.3805 21.582 30.5745 0 0 0
1143 3 23.3805 10.791 19.7835 0 0 0
3096 3 5.3955 8.9925 10.791 0 0 0
1630 3 21.582 19.7835 26.9775 0 0 0
393 3 32.373 14.388 28.776 0 0 0
2402 3 14.388 19.7835 1.7985 0 0 0
518 3 32.373 26.9775 34.1715 0 0 0
367 3 30.5745 14.388 5.3955 0 0 0
2539 3 12.5895 28.776 16.1865 0 0 0
2980 3 8.9925 34.1715 14.388 0 0 0
129 3 34.1715 21.582 16.1865 0 0 0
1358 3 25.179 30.5745 34.1715 0 0 0
2128 3 16.1865 30.5745 3.597 0 0 0
3116 3 5.3955 8.9925 28.776 0 0 0
1379 3 23.3805 32.373 16.1865 0 0 0
2724 3 8.9925 12.5895 0.0 0 0 0
181 3 34.1715 32.373 1.7985 0 0 0
3547 3 1.7985 10.791 23.3805 0 0 0
2328 3 12.5895 12.5895 3.597 0 0 0
3520 3 1.7985 8.9925 32.373 0 0 0
437 3 32.373 17.985 32.373 0 0 0
2311 3 12.5895 7.194 26.9775 0 0 0
2803 3 8.9925 17.985 1.7985 0 0 0
3264 3 5.3955 23.3805 17.985 0 0 0
3779 3 1.7985 32.373 16.1865 0 0 0
2605 3 10.791 0.0 3.597 0 0 0
3760 3 1.7985 30.5745 32.373 0 0 0
24 3 34.1715 5.3955 3.597 0 0 0
1815 3 16.1865 0.0 12.5895 0 0 0
3463 3 1.7985 3.597 19.7835 0 0 0
1823 3 16.1865 0.0 19.7835 0 0 0
1285 3 25.179 25.179 3.597 0 0 0
3689 3 3.597 25.179 7.194 0 0 0
238 3 32.373 1.7985 34.1715 0 0 0
1740 3 19.7835 30.5745 14.388 0 0 0
3614 3 3.597 19.7835 12.5895 0 0 0
481 3 32.373 25.179 0.0 0 0 0
362 3 32.373 16.1865 1.7985 0 0 0
2120 3 16.1865 26.9775 32.373 0 0 0
1682 3 21.582 26.9775 1.7985 0 0 0
3476 3 1.7985 5.3955 28.776 0 0 0
1580 3 19.7835 16.1865 14.388 0 0 0
3963 3 0.0 28.776 3.597 0 0 0
2944 3 8.9925 30.5745 17.985 0 0 0
167 3 34.1715 28.776 12.5895 0 0 0
2099 3 16.1865 25.179 16.1865 0 0 0
2845 3 10.791 21.582 3.597 0 0 0
1108 3 23.3805 8.9925 21.582 0 0 0
3892 3 0.0 16.1865 19.7835 0 0 0
439 3 30.5745 17.985 34.1715 0 0 0
1752 3 19.7835 30.5745 25.179 0 0 0
1067 3 23.3805 3.597 23.3805 0 0 0
223 3 30.5745 0.0 19.7835 0 0 0
260 3 30.5745 5.3955 14.388 0 0 0
904 3 26.9775 26.9775 17.985 0 0 0
288 3 30.5745 8.9925 3.597 0 0 0
3464 3 1.7985 5.3955 17.985 0 0 0
2160 3 16.1865 30.5745 32.373 0 0 0
1021 3 25.179 0.0 17.985 0 0 0
2665 3 10.791 3.597 21.582 0 0 0
1236 3 23.3805 19.7835 28.776 0 0 0
3701 3 3.597 25.179 17.985 0 0 0
3873 3 0.0 10.791 21.582 0 0 0
2652 3 8.9925 5.3955 7.194 0 0 0
3409 3 3.597 0.0 7.194 0 0 0
2313 3 14.388 7.194 28.776 0 0 0
1714 3 21.582 26.9775 30.5745 0 0 0
65 3 34.1715 10.791 8.9925 0 0 0
569 3 32.373 32.373 7.194 0 0 0
895 3 26.9775 25.179 12.5895 0 0 0
150 3 34.1715 26.9775 14.388 0 0 0
804 3 26.9775 19.7835 0.0 0 0 0
2214 3 14.388 1.7985 12.5895 0 0 0
1843 3 16.1865 3.597 1.7985 0 0 0
425 3 32.373 17.985 21.582 0 0 0
1511 3 19.7835 7.194 26.9775 0 0 0
1179 3 23.3805 14.388 16.1865 0 0 0
1635 3 19.7835 17.985 30.5745 0 0 0
1547 3 19.7835 10.791 23.3805 0 0 0
470 3 32.373 23.3805 26.9775 0 0 0
3679 3 1.7985 21.582 34.1715 0 0 0
3693 3 3.597 25.179 10.791 0 0 0
758 3 28.776 12.5895 34.1715 0 0 0
3545 3 3.597 10.791 21.582 0 0 0
1290 3 25.179 26.9775 8.9925 0 0 0
3649 3 3.597 21.582 7.194 0 0 0
3890 3 0.0 16.1865 16.1865 0 0 0
2526 3 14.388 30.5745 5.3955 0 0 0
2519 3 12.5895 25.179 34.1715 0 0 0
3652 3 1.7985 23.3805 7.194 0 0 0
2619 3 8.9925 0.0 16.1865 0 0 0
918 3 28.776 26.9775 34.1715 0 0 0
1454 3 21.582 5.3955 12.5895 0 0 0
3038 3 7.194 1.7985 34.1715 0 0 0
340 3 30.5745 12.5895 14.388 0 0 0
126 3 34.1715 23.3805 7.194 0 0 0
110 3 34.1715 19.7835 14.388 0 0 0
1251 3 23.3805 21.582 8.9925 0 0 0
2824 3 8.9925 19.7835 17.985 0 0 0
3495 3 1.7985 7.194 12.5895 0 0 0
782 3 28.776 16.1865 19.7835 0 0 0
1781 3 21.582 32.373 17.985 0 0 0
3521 3 3.597 10.791 0.0 0 0 0
2704 3 8.9925 8.9925 17.985 0 0 0
2701 3 10.791 7.194 17.985 0 0 0
3318 3 7.194 26.9775 34.1715 0 0 0
1516 3 19.7835 8.9925 28.776 0 0 0
2123 3 16.1865 28.776 1.7985 0 0 0
1060 3 23.3805 5.3955 14.388 0 0 0
1117 3 25.179 7.194 32.373 0 0 0
1524 3 19.7835 12.5895 0.0 0 0 0
1360 3 23.3805 30.5745 32.373 0 0 0
2186 3 17.985 34.1715 23.3805 0 0 0
2224 3 12.5895 1.7985 17.985 0 0 0
391 3 30.5745 14.388 26.9775 0 0 0
289 3 32.373 7.194 7.194 0 0 0
1858 3 17.985 5.3955 16.1865 0 0 0
2603 3 8.9925 0.0 1.7985 0 0 0
1499 3 19.7835 7.194 16.1865 0 0 0
3752 3 1.7985 30.5745 25.179 0 0 0
1953 3 17.985 10.791 28.776 0 0 0
3077 3 7.194 3.597 32.373 0 0 0
2158 3 17.985 30.5745 34.1715 0 0 0
1790 3 21.582 34.1715 26.9775 0 0 0
3040 3 5.3955 1.7985 32.373 0 0 0
2832 3 8.9925 19.7835 25.179 0 0 0
225 3 32.373 0.0 21.582 0 0 0
446 3 32.373 23.3805 5.3955 0 0 0
1938 3 17.985 12.5895 16.1865 0 0 0
2634 3 10.791 1.7985 30.5745 0 0 0
2150 3 17.985 30.5745 26.9775 0 0 0
1095 3 23.3805 7.194 12.5895 0 0 0
1423 3 19.7835 0.0 19.7835 0 0 0
2380 3 12.5895 16.1865 14.388 0 0 0
3253 3 7.194 21.582 10.791 0 0 0
581 3 32.373 32.373 17.985 0 0 0
880 3 26.9775 23.3805 32.373 0 0 0
2098 3 17.985 26.9775 16.1865 0 0 0
98 3 34.1715 16.1865 28.776 0 0 0
1130 3 25.179 12.5895 8.9925 0 0 0
707 3 26.9775 7.194 23.3805 0 0 0
2557 3 14.388 28.776 32.373 0 0 0
3006 3 7.194 1.7985 5.3955 0 0 0
986 3 28.776 34.1715 23.3805 0 0 0
2409 3 14.388 17.985 7.194 0 0 0
655 3 26.9775 3.597 12.5895 0 0 0
1455 3 19.7835 3.597 12.5895 0 0 0
2278 3 14.388 5.3955 34.1715 0 0 0
2756 3 8.9925 12.5895 28.776 0 0 0
2216 3 12.5895 1.7985 10.791 0 0 0
3366 3 7.194 34.1715 5.3955 0 0 0
171 3 34.1715 28.776 19.7835 0 0 0
2960 3 8.9925 30.5745 32.373 0 0 0
2430 3 14.388 19.7835 26.9775 0 0 0
541 3 32.373 28.776 17.985 0 0 0
384 3 30.5745 16.1865 17.985 0 0 0
2554 3 14.388 30.5745 30.5745 0 0 0
2377 3 14.388 14.388 14.388 0 0 0
2800 3 8.9925 16.1865 32.373 0 0 0
3965 3 0.0 28.776 7.194 0 0 0
1210 3 25.179 19.7835 8.9925 0 0 0
1049 3 25.179 3.597 7.194 0 0 0
394 3 32.373 16.1865 30.5745 0 0 0
2306 3 14.388 8.9925 23.3805 0 0 0
359 3 30.5745 10.791 34.1715 0 0 0
2562 3 14.388 34.1715 1.7985 0 0 0
2725 3 10.791 10.791 3.597 0 0 0
2971 3 8.9925 32.373 8.9925 0 0 0
1875 3 16.1865 3.597 30.5745 0 0 0
3118 3 7.194 8.9925 34.1715 0 0 0
948 3 26.9775 30.5745 21.582 0 0 0
3133 3 7.194 10.791 10.791 0 0 0
77 3 34.1715 10.791 30.5745 0 0 0
931 3 26.9775 28.776 8.9925 0 0 0
3816 3 0.0 1.7985 26.9775 0 0 0
1907 3 16.1865 7.194 23.3805 0 0 0
809 3 28.776 17.985 7.194 0 0 0
568 3 30.5745 34.1715 3.597 0 0 0
1404 3 19.7835 1.7985 0.0 0 0 0
1396 3 23.3805 34.1715 28.776 0 0 0
1059 3 23.3805 3.597 16.1865 0 0 0
1453 3 21.582 3.597 10.791 0 0 0
3047 3 5.3955 3.597 5.3955 0 0 0
3863 3 0.0 10.791 3.597 0 0 0
751 3 26.9775 10.791 26.9775 0 0 0
3586 3 3.597 16.1865 23.3805 0 0 0
108 3 34.1715 19.7835 10.791 0 0 0
1761 3 21.582 32.373 0.0 0 0 0
3382 3 7.194 34.1715 19.7835 0 0 0
1992 3 16.1865 16.1865 25.179 0 0 0
2970 3 10.791 34.1715 8.9925 0 0 0
3103 3 5.3955 7.194 19.7835 0 0 0
2940 3 8.9925 30.5745 14.388 0 0 0
276 3 30.5745 5.3955 28.776 0 0 0
2673 3 10.791 3.597 28.776 0 0 0
3535 3 1.7985 10.791 12.5895 0 0 0
1312 3 23.3805 26.9775 25.179 0 0 0
386 3 32.373 16.1865 23.3805 0 0 0
3662 3 3.597 23.3805 19.7835 0 0 0
2707 3 8.9925 7.194 23.3805 0 0 0
2476 3 12.5895 23.3805 28.776 0 0 0
2300 3 12.5895 8.9925 14.388 0 0 0
3400 3 5.3955 34.1715 32.373 0 0 0
2334 3 14.388 12.5895 12.5895 0 0 0
1554 3 21.582 12.5895 30.5745 0 0 0
3233 3 7.194 17.985 28.776 0 0 0
3455 3 1.7985 3.597 12.5895 0 0 0
521 3 32.373 28.776 0.0 0 0 0
759 3 26.9775 10.791 34.1715 0 0 0
3609 3 3.597 17.985 7.194 0 0 0
1357 3 25.179 28.776 32.373 0 0 0
1222 3 25.179 19.7835 19.7835 0 0 0
1913 3 17.985 7.194 28.776 0 0 0
942 3 28.776 30.5745 19.7835 0 0 0
3956 3 0.0 26.9775 26.9775 0 0 0
562 3 32.373 34.1715 1.7985 0 0 0
626 3 28.776 1.7985 23.3805 0 0 0
1000 3 26.9775 34.1715 32.373 0 0 0
1916 3 16.1865 8.9925 28.776 0 0 0
3289 3 7.194 25.179 7.194 0 0 0
1610 3 21.582 19.7835 8.9925 0 0 0
2551 3 12.5895 28.776 26.9775 0 0 0
1928 3 16.1865 12.5895 3.597 0 0 0
1265 3 25.179 21.582 21.582 0 0 0
3982 3 0.0 34.1715 1.7985 0 0 0
80 3 34.1715 12.5895 32.373 0 0 0
3555 3 1.7985 10.791 30.5745 0 0 0
778 3 28.776 16.1865 16.1865 0 0 0
1897 3 17.985 7.194 14.388 0 0 0
2933 3 10.791 28.776 10.791 0 0 0
1948 3 16.1865 12.5895 21.582 0 0 0
780 3 26.9775 16.1865 14.388 0 0 0
3700 3 1.7985 26.9775 14.388 0 0 0
2370 3 14.388 16.1865 8.9925 0 0 0
630 3 28.776 1.7985 26.9775 0 0 0
1481 3 21.582 7.194 0.0 0 0 0
965 3 28.776 32.373 3.597 0 0 0
1901 3 17.985 7.194 17.985 0 0 0
1412 3 19.7835 1.7985 7.194 0 0 0
3911 3 0.0 17.985 17.985 0 0 0
1093 3 25.179 7.194 10.791 0 0 0
2584 3 12.5895 34.1715 17.985 0 0 0
547 3 30.5745 28.776 23.3805 0 0 0
535 3 30.5745 28.776 12.5895 0 0 0
2978 3 10.791 34.1715 16.1865 0 0 0
1879 3 16.1865 3.597 34.1715 0 0 0
3115 3 5.3955 7.194 30.5745 0 0 0
44 3 34.1715 8.9925 3.597 0 0 0
3468 3 1.7985 5.3955 21.582 0 0 0
914 3 28.776 26.9775 30.5745 0 0 0
138 3 34.1715 23.3805 28.776 0 0 0
1380 3 23.3805 34.1715 14.388 0 0 0
607 3 26.9775 0.0 5.3955 0 0 0
916 3 26.9775 26.9775 28.776 0 0 0
58 3 34.1715 8.9925 28.776 0 0 0
2157 3 17.985 28.776 32.373 0 0 0
179 3 34.1715 28.776 34.1715 0 0 0
457 3 32.373 21.582 14.388 0 0 0
1689 3 21.582 25.179 7.194 0 0 0
3551 3 1.7985 10.791 26.9775 0 0 0
3126 3 7.194 12.5895 5.3955 0 0 0
703 3 26.9775 7.194 19.7835 0 0 0
727 3 26.9775 10.791 5.3955 0 0 0
1969 3 17.985 14.388 7.194 0 0 0
2715 3 8.9925 7.194 30.5745 0 0 0
1989 3 17.985 14.388 25.179 0 0 0
2600 3 12.5895 34.1715 32.373 0 0 0
1141 3 25.179 10.791 17.985 0 0 0
572 3 30.5745 34.1715 7.194 0 0 0
3379 3 5.3955 32.373 16.1865 0 0 0
858 3 28.776 23.3805 16.1865 0 0 0
2875 3 8.9925 21.582 30.5745 0 0 0
3171 3 5.3955 14.388 8.9925 0 0 0
896 3 26.9775 26.9775 10.791 0 0 0
1885 3 17.985 7.194 3.597 0 0 0
1755 3 19.7835 28.776 30.5745 0 0 0
84 3 34.1715 16.1865 3.597 0 0 0
2417 3 14.388 17.985 14.388 0 0 0
1256 3 23.3805 23.3805 10.791 0 0 0
980 3 26.9775 34.1715 14.388 0 0 0
3048 3 5.3955 5.3955 3.597 0 0 0
287 3 30.5745 7.194 5.3955 0 0 0
2522 3 14.388 30.5745 1.7985 0 0 0
1860 3 16.1865 5.3955 14.388 0 0 0
2510 3 14.388 26.9775 26.9775 0 0 0
3359 3 5.3955 28.776 34.1715 0 0 0
2438 3 14.388 19.7835 34.1715 0 0 0
3104 3 5.3955 8.9925 17.985 0 0 0
3081 3 7.194 7.194 0.0 0 0 0
1667 3 19.7835 21.582 23.3805 0 0 0
2946 3 10.791 30.5745 23.3805 0 0 0
3910 3 0.0 19.7835 16.1865 0 0 0
21 3 34.1715 3.597 1.7985 0 0 0
1125 3 25.179 10.791 3.597 0 0 0
618 3 28.776 1.7985 16.1865 0 0 0
1430 3 21.582 1.7985 26.9775 0 0 0
2108 3 16.1865 26.9775 21.582 0 0 0
3797 3 3.597 32.373 32.373 0 0 0
2080 3 16.1865 23.3805 32.373 0 0 0
3879 3 0.0 10.791 32.373 0 0 0
1827 3 16.1865 0.0 23.3805 0 0 0
2925 3 10.791 28.776 3.597 0 0 0
735 3 26.9775 10.791 12.5895 0 0 0
1550 3 21.582 12.5895 26.9775 0 0 0
1900 3 16.1865 8.9925 14.388 0 0 0
1997 3 17.985 14.388 32.373 0 0 0
3138 3 7.194 12.5895 16.1865 0 0 0
2038 3 17.985 19.7835 34.1715 0 0 0
565 3 32.373 32.373 3.597 0 0 0
157 3 34.1715 25.179 30.5745 0 0 0
500 3 30.5745 26.9775 14.388 0 0 0
1801 3 17.985 0.0 0.0 0 0 0
3470 3 3.597 5.3955 26.9775 0 0 0
3247 3 5.3955 21.582 5.3955 0 0 0
3416 3 1.7985 1.7985 10.791 0 0 0
381 3 32.373 14.388 17.985 0 0 0
3293 3 7.194 25.179 10.791 0 0 0
2175 3 16.1865 32.373 12.5895 0 0 0
945 3 28.776 28.776 21.582 0 0 0
371 3 30.5745 14.388 8.9925 0 0 0
2609 3 10.791 0.0 7.194 0 0 0
709 3 28.776 7.194 25.179 0 0 0
1145 3 25.179 10.791 21.582 0 0 0
1818 3 17.985 1.7985 16.1865 0 0 0
946 3 28.776 30.5745 23.3805 0 0 0
3082 3 7.194 8.9925 1.7985 0 0 0
3577 3 3.597 14.388 14.388 0 0 0
3237 3 7.194 17.985 32.373 0 0 0
956 3 26.9775 30.5745 28.776 0 0 0
430 3 32.373 19.7835 26.9775 0 0 0
3406 3 3.597 1.7985 5.3955 0 0 0
3799 3 1.7985 32.373 34.1715 0 0 0
744 3 26.9775 12.5895 17.985 0 0 0
2827 3 8.9925 17.985 23.3805 0 0 0
1069 3 25.179 3.597 25.179 0 0 0
2744 3 8.9925 12.5895 17.985 0 0 0
3498 3 3.597 8.9925 16.1865 0 0 0
3433 3 3.597 0.0 28.776 0 0 0
1890 3 17.985 8.9925 8.9925 0 0 0
3203 3 5.3955 17.985 1.7985 0 0 0
3745 3 3.597 28.776 21.582 0 0 0
498 3 32.373 26.9775 16.1865 0 0 0
1104 3 23.3805 8.9925 17.985 0 0 0
2495 3 12.5895 25.179 12.5895 0 0 0
1207 3 23.3805 17.985 5.3955 0 0 0
606 3 28.776 1.7985 5.3955 0 0 0
812 3 26.9775 19.7835 7.194 0 0 0
1523 3 19.7835 10.791 1.7985 0 0 0
52 3 34.1715 8.9925 17.985 0 0 0
1101 3 25.179 7.194 17.985 0 0 0
3648 3 1.7985 23.3805 3.597 0 0 0
2353 3 14.388 10.791 28.776 0 0 0
3010 3 7.194 1.7985 8.9925 0 0 0
325 3 32.373 10.791 3.597 0 0 0
1687 3 19.7835 25.179 5.3955 0 0 0
3565 3 3.597 14.388 3.597 0 0 0
2488 3 12.5895 26.9775 3.597 0 0 0
1706 3 21.582 26.9775 23.3805 0 0 0
2534 3 14.388 30.5745 12.5895 0 0 0
1338 3 25.179 30.5745 16.1865 0 0 0
2633 3 10.791 0.0 28.776 0 0 0
2606 3 10.791 1.7985 5.3955 0 0 0
3715 3 1.7985 25.179 30.5745 0 0 0
925 3 28.776 28.776 3.597 0 0 0
1112 3 23.3805 8.9925 25.179 0 0 0
246 3 32.373 5.3955 5.3955 0 0 0
1796 3 19.7835 34.1715 28.776 0 0 0
1954 3 17.985 12.5895 30.5745 0 0 0
2840 3 8.9925 19.7835 32.373 0 0 0
2561 3 14.388 32.373 0.0 0 0 0
653 3 28.776 3.597 10.791 0 0 0
1557 3 21.582 10.791 32.373 0 0 0
1690 3 21.582 26.9775 8.9925 0 0 0
1039 3 23.3805 0.0 34.1715 0 0 0
1299 3 23.3805 25.179 16.1865 0 0 0
1100 3 23.3805 8.9925 14.388 0 0 0
299 3 30.5745 7.194 16.1865 0 0 0
2387 3 12.5895 14.388 23.3805 0 0 0
610 3 28.776 1.7985 8.9925 0 0 0
3818 3 0.0 1.7985 30.5745 0 0 0
1857 3 17.985 3.597 14.388 0 0 0
2421 3 14.388 17.985 17.985 0 0 0
1749 3 21.582 28.776 25.179 0 0 0
365 3 32.373 14.388 3.597 0 0 0
2088 3 16.1865 26.9775 3.597 0 0 0
3287 3 5.3955 25.179 5.3955 0 0 0
3969 3 0.0 28.776 14.388 0 0 0
783 3 26.9775 14.388 19.7835 0 0 0
1906 3 17.985 8.9925 23.3805 0 0 0
2972 3 8.9925 34.1715 7.194 0 0 0
64 3 34.1715 12.5895 3.597 0 0 0
307 3 30.5745 7.194 23.3805 0 0 0
2540 3 12.5895 30.5745 14.388 0 0 0
2573 3 14.388 32.373 10.791 0 0 0
3933 3 0.0 21.582 21.582 0 0 0
3927 3 0.0 21.582 10.791 0 0 0
1126 3 25.179 12.5895 5.3955 0 0 0
1862 3 17.985 5.3955 19.7835 0 0 0
1230 3 25.179 19.7835 26.9775 0 0 0
1422 3 21.582 1.7985 19.7835 0 0 0
1441 3 21.582 3.597 0.0 0 0 0
3355 3 5.3955 28.776 30.5745 0 0 0
165 3 34.1715 28.776 8.9925 0 0 0
2079 3 16.1865 21.582 34.1715 0 0 0
1769 3 21.582 32.373 7.194 0 0 0
2369 3 14.388 14.388 7.194 0 0 0
2174 3 17.985 34.1715 12.5895 0 0 0
3562 3 3.597 16.1865 1.7985 0 0 0
1257 3 25.179 21.582 14.388 0 0 0
1598 3 21.582 16.1865 34.1715 0 0 0
2309 3 14.388 7.194 25.179 0 0 0
3087 3 5.3955 7.194 5.3955 0 0 0
3487 3 1.7985 7.194 5.3955 0 0 0
490 3 32.373 26.9775 8.9925 0 0 0
2607 3 8.9925 0.0 5.3955 0 0 0
3918 3 0.0 19.7835 30.5745 0 0 0
2837 3 10.791 17.985 32.373 0 0 0
3245 3 7.194 21.582 3.597 0 0 0
1757 3 21.582 28.776 32.373 0 0 0
3564 3 1.7985 16.1865 0.0 0 0 0
3570 3 3.597 16.1865 8.9925 0 0 0
543 3 30.5745 28.776 19.7835 0 0 0
3621 3 3.597 17.985 17.985 0 0 0
947 3 26.9775 28.776 23.3805 0 0 0
211 3 30.5745 0.0 8.9925 0 0 0
1828 3 16.1865 1.7985 21.582 0 0 0
1007 3 23.3805 0.0 5.3955 0 0 0
1483 3 19.7835 7.194 1.7985 0 0 0
1238 3 25.179 19.7835 34.1715 0 0 0
3242 3 7.194 23.3805 1.7985 0 0 0
936 3 26.9775 30.5745 10.791 0 0 0
3589 3 3.597 14.388 25.179 0 0 0
926 3 28.776 30.5745 5.3955 0 0 0
3353 3 7.194 28.776 28.776 0 0 0
1501 3 21.582 7.194 17.985 0 0 0
483 3 30.5745 25.179 1.7985 0 0 0
990 3 28.776 34.1715 26.9775 0 0 0
433 3 32.373 17.985 28.776 0 0 0
2675 3 8.9925 3.597 30.5745 0 0 0
193 3 34.1715 32.373 23.3805 0 0 0
3517 3 3.597 7.194 32.373 0 0 0
2275 3 12.5895 3.597 30.5745 0 0 0
2597 3 14.388 32.373 32.373 0 0 0
3132 3 5.3955 12.5895 7.194 0 0 0
1242 3 25.179 23.3805 1.7985 0 0 0
999 3 26.9775 32.373 34.1715 0 0 0
486 3 32.373 26.9775 5.3955 0 0 0
3838 3 0.0 5.3955 30.5745 0 0 0
2222 3 14.388 1.7985 19.7835 0 0 0
235 3 30.5745 0.0 30.5745 0 0 0
441 3 32.373 21.582 0.0 0 0 0
2280 3 12.5895 5.3955 32.373 0 0 0
701 3 28.776 7.194 17.985 0 0 0
2060 3 16.1865 23.3805 14.388 0 0 0
2988 3 8.9925 34.1715 21.582 0 0 0
2556 3 12.5895 30.5745 28.776 0 0 0
3509 3 3.597 7.194 25.179 0 0 0
3324 3 5.3955 30.5745 0.0 0 0 0
1571 3 19.7835 14.388 8.9925 0 0 0
2368 3 12.5895 16.1865 3.597 0 0 0
2188 3 16.1865 34.1715 21.582 0 0 0
677 3 28.776 3.597 32.373 0 0 0
2613 3 10.791 0.0 10.791 0 0 0
146 3 34.1715 26.9775 7.194 0 0 0
3523 3 1.7985 10.791 1.7985 0 0 0
2825 3 10.791 17.985 21.582 0 0 0
985 3 28.776 32.373 21.582 0 0 0
3327 3 5.3955 28.776 5.3955 0 0 0
3009 3 7.194 0.0 7.194 0 0 0
3059 3 5.3955 3.597 16.1865 0 0 0
1157 3 25.179 10.791 32.373 0 0 0
1685 3 21.582 25.179 3.597 0 0 0
587 3 30.5745 32.373 23.3805 0 0 0
3723 3 1.7985 28.776 1.7985 0 0 0
403 3 30.5745 17.985 1.7985 0 0 0
1480 3 19.7835 5.3955 32.373 0 0 0
771 3 26.9775 14.388 8.9925 0 0 0
3281 3 7.194 25.179 0.0 0 0 0
2362 3 14.388 16.1865 1.7985 0 0 0
1171 3 23.3805 14.388 8.9925 0 0 0
3015 3 5.3955 0.0 12.5895 0 0 0
1190 3 25.179 16.1865 26.9775 0 0 0
2146 3 17.985 30.5745 23.3805 0 0 0
352 3 30.5745 12.5895 25.179 0 0 0
2916 3 8.9925 26.9775 28.776 0 0 0
3489 3 3.597 7.194 7.194 0 0 0
3451 3 1.7985 3.597 8.9925 0 0 0
3598 3 3.597 16.1865 34.1715 0 0 0
2638 3 10.791 1.7985 34.1715 0 0 0
3150 3 7.194 12.5895 26.9775 0 0 0
2952 3 8.9925 30.5745 25.179 0 0 0
1495 3 19.7835 7.194 12.5895 0 0 0
2161 3 17.985 32.373 0.0 0 0 0
2896 3 8.9925 26.9775 10.791 0 0 0
3294 3 7.194 26.9775 12.5895 0 0 0
3188 3 5.3955 16.1865 21.582 0 0 0
3698 3 3.597 26.9775 16.1865 0 0 0
1568 3 19.7835 16.1865 3.597 0 0 0
3958 3 0.0 26.9775 30.5745 0 0 0
2167 3 16.1865 32.373 5.3955 0 0 0
3030 3 7.194 1.7985 26.9775 0 0 0
1163 3 23.3805 14.388 1.7985 0 0 0
2682 3 10.791 8.9925 1.7985 0 0 0
3220 3 5.3955 19.7835 14.388 0 0 0
1310 3 25.179 26.9775 26.9775 0 0 0
2784 3 8.9925 16.1865 17.985 0 0 0
1662 3 21.582 23.3805 19.7835 0 0 0
3576 3 1.7985 16.1865 10.791 0 0 0
1362 3 25.179 34.1715 1.7985 0 0 0
728 3 26.9775 12.5895 3.597 0 0 0
1341 3 25.179 28.776 17.985 0 0 0
659 3 26.9775 3.597 16.1865 0 0 0
3561 3 3.597 14.388 0.0 0 0 0
3844 3 0.0 8.9925 5.3955 0 0 0
1600 3 19.7835 16.1865 32.373 0 0 0
2628 3 8.9925 1.7985 21.582 0 0 0
3407 3 1.7985 0.0 5.3955 0 0 0
3790 3 3.597 34.1715 26.9775 0 0 0
3650 3 3.597 23.3805 8.9925 0 0 0
672 3 26.9775 5.3955 25.179 0 0 0
2052 3 16.1865 23.3805 7.194 0 0 0
3144 3 5.3955 12.5895 17.985 0 0 0
3653 3 3.597 21.582 10.791 0 0 0
766 3 28.776 16.1865 5.3955 0 0 0
1546 3 21.582 12.5895 23.3805 0 0 0
3142 3 7.194 12.5895 19.7835 0 0 0
3829 3 0.0 3.597 14.388 0 0 0
2906 3 10.791 26.9775 23.3805 0 0 0
3508 3 1.7985 8.9925 21.582 0 0 0
928 3 26.9775 30.5745 3.597 0 0 0
612 3 26.9775 1.7985 7.194 0 0 0
240 3 30.5745 1.7985 32.373 0 0 0
559 3 30.5745 28.776 34.1715 0 0 0
764 3 26.9775 16.1865 0.0 0 0 0
1710 3 21.582 26.9775 26.9775 0 0 0
2389 3 14.388 14.388 25.179 0 0 0
2746 3 10.791 12.5895 23.3805 0 0 0
3563 3 1.7985 14.388 1.7985 0 0 0
3330 3 7.194 30.5745 8.9925 0 0 0
2780 3 8.9925 16.1865 14.388 0 0 0
3952 3 0.0 26.9775 19.7835 0 0 0
2292 3 12.5895 8.9925 7.194 0 0 0
3786 3 3.597 34.1715 23.3805 0 0 0
3891 3 0.0 14.388 17.985 0 0 0
1575 3 19.7835 14.388 12.5895 0 0 0
1450 3 21.582 5.3955 8.9925 0 0 0
2465 3 14.388 21.582 21.582 0 0 0
875 3 26.9775 21.582 30.5745 0 0 0
3317 3 7.194 25.179 32.373 0 0 0
3325 3 7.194 28.776 3.597 0 0 0
762 3 28.776 16.1865 1.7985 0 0 0
2630 3 10.791 1.7985 26.9775 0 0 0
1467 3 19.7835 3.597 23.3805 0 0 0
2822 3 10.791 19.7835 19.7835 0 0 0
3739 3 1.7985 28.776 16.1865 0 0 0
1986 3 17.985 16.1865 23.3805 0 0 0
939 3 26.9775 28.776 16.1865 0 0 0
1657 3 21.582 21.582 14.388 0 0 0
2474 3 14.388 23.3805 30.5745 0 0 0
865 3 28.776 21.582 21.582 0 0 0
228 3 30.5745 1.7985 21.582 0 0 0
29 3 34.1715 3.597 16.1865 0 0 0
2247 3 12.5895 3.597 5.3955 0 0 0
387 3 30.5745 14.388 23.3805 0 0 0
995 3 26.9775 32.373 30.5745 0 0 0
2575 3 12.5895 32.373 12.5895 0 0 0
257 3 32.373 3.597 14.388 0 0 0
1999 3 16.1865 14.388 34.1715 0 0 0
1287 3 23.3805 25.179 5.3955 0 0 0
2043 3 16.1865 21.582 1.7985 0 0 0
8 3 34.1715 1.7985 10.791 0 0 0
2360 3 12.5895 12.5895 32.373 0 0 0
1836 3 16.1865 1.7985 28.776 0 0 0
3569 3 3.597 14.388 7.194 0 0 0
3130 3 7.194 12.5895 8.9925 0 0 0
249 3 32.373 3.597 7.194 0 0 0
3741 3 3.597 28.776 17.985 0 0 0
1470 3 21.582 5.3955 26.9775 0 0 0
1311 3 23.3805 25.179 26.9775 0 0 0
327 3 30.5745 10.791 5.3955 0 0 0
2623 3 8.9925 0.0 19.7835 0 0 0
3886 3 0.0 16.1865 8.9925 0 0 0
878 3 28.776 23.3805 34.1715 0 0 0
1803 3 16.1865 0.0 1.7985 0 0 0
420 3 30.5745 19.7835 14.388 0 0 0
2301 3 14.388 7.194 17.985 0 0 0
1741 3 21.582 28.776 17.985 0 0 0
3949 3 0.0 25.179 14.388 0 0 0
397 3 32.373 14.388 32.373 0 0 0
968 3 26.9775 34.1715 3.597 0 0 0
2303 3 12.5895 7.194 19.7835 0 0 0
663 3 26.9775 3.597 19.7835 0 0 0
3169 3 7.194 14.388 7.194 0 0 0
3900 3 0.0 16.1865 34.1715 0 0 0
988 3 26.9775 34.1715 21.582 0 0 0
3269 3 7.194 21.582 25.179 0 0 0
3066 3 7.194 5.3955 23.3805 0 0 0
2743 3 8.9925 10.791 19.7835 0 0 0
2178 3 17.985 34.1715 16.1865 0 0 0
3112 3 5.3955 8.9925 25.179 0 0 0
3991 3 0.0 32.373 17.985 0 0 0
33 3 34.1715 3.597 23.3805 0 0 0
3500 3 1.7985 8.9925 14.388 0 0 0
1315 3 23.3805 25.179 30.5745 0 0 0
497 3 32.373 25.179 14.388 0 0 0
2101 3 17.985 25.179 17.985 0 0 0
3516 3 1.7985 8.9925 28.776 0 0 0
529 3 32.373 28.776 7.194 0 0 0
1587 3 19.7835 14.388 23.3805 0 0 0
3067 3 5.3955 3.597 23.3805 0 0 0
102 3 34.1715 19.7835 0.0 0 0 0
1850 3 17.985 5.3955 8.9925 0 0 0
282 3 32.373 8.9925 1.7985 0 0 0
2954 3 10.791 30.5745 30.5745 0 0 0
2460 3 12.5895 23.3805 14.388 0 0 0
1672 3 19.7835 23.3805 25.179 0 0 0
2559 3 12.5895 28.776 34.1715 0 0 0
826 3 28.776 19.7835 23.3805 0 0 0
2631 3 8.9925 0.0 26.9775 0 0 0
75 3 34.1715 10.791 26.9775 0 0 0
2069 3 17.985 21.582 25.179 0 0 0
1291 3 23.3805 25.179 8.9925 0 0 0
63 3 34.1715 10.791 5.3955 0 0 0
1498 3 21.582 8.9925 16.1865 0 0 0
1731 3 19.7835 28.776 8.9925 0 0 0
1336 3 23.3805 30.5745 10.791 0 0 0
3628 3 1.7985 19.7835 21.582 0 0 0
1955 3 16.1865 10.791 30.5745 0 0 0
3990 3 0.0 34.1715 16.1865 0 0 0
1536 3 19.7835 12.5895 10.791 0 0 0
2062 3 17.985 23.3805 19.7835 0 0 0
2841 3 10.791 21.582 0.0 0 0 0
2855 3 8.9925 21.582 12.5895 0 0 0
2177 3 17.985 32.373 14.388 0 0 0
3413 3 3.597 0.0 10.791 0 0 0
1383 3 23.3805 32.373 19.7835 0 0 0
239 3 30.5745 0.0 34.1715 0 0 0
1345 3 25.179 28.776 21.582 0 0 0
739 3 26.9775 10.791 16.1865 0 0 0
1301 3 25.179 25.179 17.985 0 0 0
336 3 30.5745 12.5895 10.791 0 0 0
2535 3 12.5895 28.776 12.5895 0 0 0
1859 3 16.1865 3.597 16.1865 0 0 0
2104 3 16.1865 26.9775 17.985 0 0 0
47 3 34.1715 7.194 12.5895 0 0 0
3349 3 7.194 28.776 25.179 0 0 0
1195 3 23.3805 14.388 30.5745 0 0 0
123 3 34.1715 21.582 5.3955 0 0 0
3955 3 0.0 25.179 25.179 0 0 0
103 3 34.1715 17.985 5.3955 0 0 0
1485 3 21.582 7.194 3.597 0 0 0
124 3 34.1715 23.3805 3.597 0 0 0
27 3 34.1715 3.597 12.5895 0 0 0
2078 3 17.985 23.3805 34.1715 0 0 0
1868 3 16.1865 5.3955 21.582 0 0 0
3042 3 7.194 5.3955 1.7985 0 0 0
2200 3 16.1865 34.1715 32.373 0 0 0
1205 3 25.179 17.985 3.597 0 0 0
869 3 28.776 21.582 25.179 0 0 0
1819 3 16.1865 0.0 16.1865 0 0 0
3436 3 1.7985 1.7985 28.776 0 0 0
724 3 26.9775 12.5895 0.0 0 0 0
1403 3 19.7835 0.0 1.7985 0 0 0
149 3 34.1715 25.179 16.1865 0 0 0
2091 3 16.1865 25.179 8.9925 0 0 0
3705 3 3.597 25.179 21.582 0 0 0
2086 3 17.985 26.9775 5.3955 0 0 0
640 3 26.9775 1.7985 32.373 0 0 0
2400 3 12.5895 16.1865 32.373 0 0 0
451 3 30.5745 21.582 8.9925 0 0 0
2727 3 8.9925 10.791 5.3955 0 0 0
1168 3 23.3805 16.1865 3.597 0 0 0
2567 3 12.5895 32.373 5.3955 0 0 0
2518 3 14.388 26.9775 34.1715 0 0 0
2316 3 12.5895 8.9925 28.776 0 0 0
1817 3 17.985 0.0 14.388 0 0 0
3507 3 1.7985 7.194 23.3805 0 0 0
777 3 28.776 14.388 14.388 0 0 0
3157 3 7.194 10.791 32.373 0 0 0
480 3 30.5745 23.3805 32.373 0 0 0
3342 3 7.194 30.5745 19.7835 0 0 0
3778 3 3.597 34.1715 16.1865 0 0 0
2951 3 8.9925 28.776 26.9775 0 0 0
1074 3 25.179 5.3955 30.5745 0 0 0
1263 3 23.3805 21.582 19.7835 0 0 0
1852 3 16.1865 5.3955 7.194 0 0 0
2116 4 16.1865 26.9775 28.776 0 0 0
3221 4 7.194 17.985 17.985 0 0 0
290 4 32.373 8.9925 8.9925 0 0 0
296 4 30.5745 8.9925 10.791 0 0 0
973 4 28.776 32.373 10.791 0 0 0
2243 4 12.5895 3.597 1.7985 0 0 0
3709 4 3.597 25.179 25.179 0 0 0
881 4 28.776 25.179 0.0 0 0 0
846 4 28.776 23.3805 5.3955 0 0 0
3249 4 7.194 21.582 7.194 0 0 0
3338 4 7.194 30.5745 16.1865 0 0 0
3542 4 3.597 12.5895 19.7835 0 0 0
2545 4 14.388 28.776 21.582 0 0 0
3272 4 5.3955 23.3805 25.179 0 0 0
3467 4 1.7985 3.597 23.3805 0 0 0
959 4 26.9775 28.776 34.1715 0 0 0
695 4 26.9775 7.194 12.5895 0 0 0
2168 4 16.1865 34.1715 3.597 0 0 0
2571 4 12.5895 32.373 8.9925 0 0 0
2844 4 8.9925 23.3805 0.0 0 0 0
3633 4 3.597 17.985 28.776 0 0 0
3660 4 1.7985 23.3805 14.388 0 0 0
3828 4 0.0 5.3955 12.5895 0 0 0
1044 4 23.3805 5.3955 0.0 0 0 0
2196 4 16.1865 34.1715 28.776 0 0 0
781 4 28.776 14.388 17.985 0 0 0
3602 4 3.597 19.7835 1.7985 0 0 0
2480 4 12.5895 23.3805 32.373 0 0 0
1474 4 21.582 5.3955 30.5745 0 0 0
3803 4 0.0 0.0 3.597 0 0 0
354 4 32.373 12.5895 30.5745 0 0 0
338 4 32.373 12.5895 16.1865 0 0 0
339 4 30.5745 10.791 16.1865 0 0 0
3073 4 7.194 3.597 28.776 0 0 0
1070 4 25.179 5.3955 26.9775 0 0 0
941 4 28.776 28.776 17.985 0 0 0
2777 4 10.791 14.388 14.388 0 0 0
790 4 28.776 16.1865 26.9775 0 0 0
827 4 26.9775 17.985 23.3805 0 0 0
580 4 30.5745 34.1715 14.388 0 0 0
1224 4 23.3805 19.7835 17.985 0 0 0
3674 4 3.597 23.3805 30.5745 0 0 0
2231 4 12.5895 0.0 26.9775 0 0 0
3870 4 0.0 12.5895 16.1865 0 0 0
255 4 30.5745 3.597 12.5895 0 0 0
511 4 30.5745 25.179 26.9775 0 0 0
3775 4 1.7985 32.373 12.5895 0 0 0
153 4 34.1715 25.179 23.3805 0 0 0
3290 4 7.194 26.9775 8.9925 0 0 0
806 4 28.776 19.7835 5.3955 0 0 0
3050 4 7.194 5.3955 8.9925 0 0 0
1274 4 25.179 23.3805 30.5745 0 0 0
131 4 34.1715 21.582 19.7835 0 0 0
2503 4 12.5895 25.179 19.7835 0 0 0
183 4 34.1715 32.373 5.3955 0 0 0
2934 4 10.791 30.5745 12.5895 0 0 0
1031 4 23.3805 0.0 26.9775 0 0 0
2327 4 12.5895 10.791 5.3955 0 0 0
711 4 26.9775 7.194 26.9775 0 0 0
3374 4 7.194 34.1715 12.5895 0 0 0
2463 4 12.5895 21.582 19.7835 0 0 0
3703 4 1.7985 25.179 19.7835 0 0 0
1798 4 21.582 34.1715 34.1715 0 0 0
2489 4 14.388 25.179 7.194 0 0 0
318 4 32.373 8.9925 34.1715 0 0 0
2022 4 17.985 19.7835 19.7835 0 0 0
1147 4 23.3805 10.791 23.3805 0 0 0
3258 4 7.194 23.3805 16.1865 0 0 0
560 4 30.5745 30.5745 32.373 0 0 0
1292 4 23.3805 26.9775 7.194 0 0 0
1445 4 21.582 3.597 3.597 0 0 0
993 4 28.776 32.373 28.776 0 0 0
647 4 26.9775 3.597 5.3955 0 0 0
3557 4 3.597 10.791 32.373 0 0 0
1035 4 23.3805 0.0 30.5745 0 0 0
3616 4 1.7985 19.7835 10.791 0 0 0
2339 4 12.5895 10.791 16.1865 0 0 0
460 4 30.5745 23.3805 14.388 0 0 0
2092 4 16.1865 26.9775 7.194 0 0 0
2351 4 12.5895 10.791 26.9775 0 0 0
35 4 34.1715 3.597 26.9775 0 0 0
2315 4 12.5895 7.194 30.5745 0 0 0
2067 4 16.1865 21.582 23.3805 0 0 0
3044 4 5.3955 5.3955 0.0 0 0 0
2808 4 8.9925 19.7835 3.597 0 0 0
1418 4 21.582 1.7985 16.1865 0 0 0
6 4 34.1715 1.7985 7.194 0 0 0
2939 4 8.9925 28.776 16.1865 0 0 0
3064 4 5.3955 5.3955 17.985 0 0 0
983 4 26.9775 32.373 19.7835 0 0 0
1654 4 21.582 23.3805 12.5895 0 0 0
2805 4 10.791 17.985 3.597 0 0 0
4 4 34.1715 1.7985 3.597 0 0 0
1076 4 23.3805 5.3955 28.776 0 0 0
191 4 34.1715 32.373 19.7835 0 0 0
2473 4 14.388 21.582 28.776 0 0 0
2119 4 16.1865 25.179 34.1715 0 0 0
2283 4 12.5895 7.194 1.7985 0 0 0
3941 4 0.0 25.179 0.0 0 0 0
3351 4 5.3955 28.776 26.9775 0 0 0
3931 4 0.0 21.582 17.985 0 0 0
3335 4 5.3955 28.776 12.5895 0 0 0
3277 4 7.194 21.582 32.373 0 0 0
1081 4 25.179 7.194 0.0 0 0 0
1118 4 25.179 8.9925 34.1715 0 0 0
2242 4 14.388 5.3955 1.7985 0 0 0
1787 4 19.7835 32.373 23.3805 0 0 0
1131 4 23.3805 10.791 8.9925 0 0 0
414 4 32.373 19.7835 12.5895 0 0 0
26 4 34.1715 5.3955 7.194 0 0 0
3225 4 7.194 17.985 21.582 0 0 0
593 4 32.373 32.373 28.776 0 0 0
312 4 30.5745 8.9925 25.179 0 0 0
1602 4 21.582 19.7835 1.7985 0 0 0
297 4 32.373 7.194 14.388 0 0 0
2345 4 14.388 10.791 21.582 0 0 0
1281 4 25.179 25.179 0.0 0 0 0
1390 4 25.179 34.1715 26.9775 0 0 0
3117 4 7.194 7.194 32.373 0 0 0
2714 4 10.791 8.9925 30.5745 0 0 0
1197 4 25.179 14.388 32.373 0 0 0
434 4 32.373 19.7835 30.5745 0 0 0
2225 4 14.388 0.0 21.582 0 0 0
2136 4 16.1865 30.5745 10.791 0 0 0
3347 4 5.3955 28.776 23.3805 0 0 0
2859 4 8.9925 21.582 16.1865 0 0 0
2113 4 17.985 25.179 28.776 0 0 0
482 4 32.373 26.9775 1.7985 0 0 0
3352 4 5.3955 30.5745 25.179 0 0 0
934 4 28.776 30.5745 12.5895 0 0 0
910 4 28.776 26.9775 26.9775 0 0 0
3979 4 0.0 28.776 32.373 0 0 0
1271 4 23.3805 21.582 26.9775 0 0 0
1945 4 17.985 10.791 21.582 0 0 0
450 4 32.373 23.3805 8.9925 0 0 0
2371 4 12.5895 14.388 8.9925 0 0 0
3685 4 3.597 25.179 3.597 0 0 0
651 4 26.9775 3.597 8.9925 0 0 0
1477 4 21.582 3.597 32.373 0 0 0
2681 4 10.791 7.194 0.0 0 0 0
275 4 30.5745 3.597 30.5745 0 0 0
722 4 28.776 12.5895 1.7985 0 0 0
2762 4 10.791 16.1865 1.7985 0 0 0
1072 4 23.3805 5.3955 25.179 0 0 0
2677 4 10.791 3.597 32.373 0 0 0
2622 4 10.791 1.7985 19.7835 0 0 0
2596 4 12.5895 34.1715 28.776 0 0 0
902 4 28.776 26.9775 19.7835 0 0 0
3319 4 5.3955 25.179 34.1715 0 0 0
3331 4 5.3955 28.776 8.9925 0 0 0
1432 4 19.7835 1.7985 25.179 0 0 0
2055 4 16.1865 21.582 12.5895 0 0 0
1636 4 19.7835 19.7835 28.776 0 0 0
2544 4 12.5895 30.5745 17.985 0 0 0
2076 4 16.1865 23.3805 28.776 0 0 0
843 4 26.9775 21.582 1.7985 0 0 0
972 4 26.9775 34.1715 7.194 0 0 0
1240 4 23.3805 19.7835 32.373 0 0 0
411 4 30.5745 17.985 8.9925 0 0 0
2220 4 12.5895 1.7985 14.388 0 0 0
1679 4 19.7835 21.582 34.1715 0 0 0
2165 4 17.985 32.373 3.597 0 0 0
2487 4 12.5895 25.179 5.3955 0 0 0
3528 4 1.7985 12.5895 3.597 0 0 0
3784 4 1.7985 34.1715 17.985 0 0 0
2578 4 14.388 34.1715 16.1865 0 0 0
2208 4 12.5895 1.7985 3.597 0 0 0
3667 4 1.7985 21.582 23.3805 0 0 0
3506 4 3.597 8.9925 23.3805 0 0 0
1153 4 25.179 10.791 28.776 0 0 0
3229 4 7.194 17.985 25.179 0 0 0
604 4 26.9775 1.7985 0.0 0 0 0
7 4 34.1715 0.0 12.5895 0 0 0
611 4 26.9775 0.0 8.9925 0 0 0
554 4 32.373 30.5745 30.5745 0 0 0
3597 4 3.597 14.388 32.373 0 0 0
3028 4 5.3955 1.7985 21.582 0 0 0
1611 4 19.7835 17.985 8.9925 0 0 0
1048 4 23.3805 5.3955 3.597 0 0 0
2508 4 12.5895 26.9775 21.582 0 0 0
2137 4 17.985 28.776 14.388 0 0 0
2106 4 17.985 26.9775 23.3805 0 0 0
3002 4 7.194 1.7985 1.7985 0 0 0
1797 4 21.582 32.373 32.373 0 0 0
2599 4 12.5895 32.373 34.1715 0 0 0
752 4 26.9775 12.5895 25.179 0 0 0
1286 4 25.179 26.9775 5.3955 0 0 0
2153 4 17.985 28.776 28.776 0 0 0
2066 4 17.985 23.3805 23.3805 0 0 0
1137 4 25.179 10.791 14.388 0 0 0
1002 4 25.179 1.7985 1.7985 0 0 0
1288 4 23.3805 26.9775 3.597 0 0 0
1278 4 25.179 23.3805 34.1715 0 0 0
1814 4 17.985 1.7985 12.5895 0 0 0
2959 4 8.9925 28.776 34.1715 0 0 0
907 4 26.9775 25.179 23.3805 0 0 0
3974 4 0.0 30.5745 23.3805 0 0 0
3297 4 7.194 25.179 14.388 0 0 0
2457 4 14.388 21.582 14.388 0 0 0
3729 4 3.597 28.776 7.194 0 0 0
1849 4 17.985 3.597 7.194 0 0 0
1908 4 16.1865 8.9925 21.582 0 0 0
3447 4 1.7985 3.597 5.3955 0 0 0
1034 4 25.179 1.7985 30.5745 0 0 0
847 4 26.9775 21.582 5.3955 0 0 0
3166 4 7.194 16.1865 5.3955 0 0 0
475 4 30.5745 21.582 30.5745 0 0 0
1751 4 19.7835 28.776 26.9775 0 0 0
2894 4 10.791 26.9775 12.5895 0 0 0
491 4 30.5745 25.179 8.9925 0 0 0
851 4 26.9775 21.582 8.9925 0 0 0
1559 4 19.7835 10.791 34.1715 0 0 0
1417 4 21.582 0.0 14.388 0 0 0
507 4 30.5745 25.179 23.3805 0 0 0
2422 4 14.388 19.7835 19.7835 0 0 0
3675 4 1.7985 21.582 30.5745 0 0 0
1204 4 23.3805 19.7835 0.0 0 0 0
3466 4 3.597 5.3955 23.3805 0 0 0
1089 4 25.179 7.194 7.194 0 0 0
1184 4 23.3805 16.1865 17.985 0 0 0
3480 4 1.7985 5.3955 32.373 0 0 0
3457 4 3.597 3.597 14.388 0 0 0
488 4 30.5745 26.9775 3.597 0 0 0
1159 4 23.3805 10.791 34.1715 0 0 0
3781 4 3.597 32.373 17.985 0 0 0
91 4 34.1715 14.388 19.7835 0 0 0
950 4 28.776 30.5745 26.9775 0 0 0
3821 4 0.0 3.597 0.0 0 0 0
2397 4 14.388 14.388 32.373 0 0 0
1199 4 23.3805 14.388 34.1715 0 0 0
737 4 28.776 10.791 14.388 0 0 0
1347 4 23.3805 28.776 23.3805 0 0 0
3581 4 3.597 14.388 17.985 0 0 0
3093 4 7.194 7.194 10.791 0 0 0
3839 4 0.0 3.597 32.373 0 0 0
2915 4 8.9925 25.179 30.5745 0 0 0
465 4 32.373 21.582 21.582 0 0 0
1394 4 25.179 34.1715 30.5745 0 0 0
3207 4 5.3955 17.985 5.3955 0 0 0
3084 4 5.3955 8.9925 0.0 0 0 0
3634 4 3.597 19.7835 30.5745 0 0 0
3284 4 5.3955 26.9775 0.0 0 0 0
3386 4 7.194 34.1715 23.3805 0 0 0
1526 4 21.582 12.5895 5.3955 0 0 0
3299 4 5.3955 25.179 16.1865 0 0 0
3721 4 3.597 28.776 0.0 0 0 0
866 4 28.776 23.3805 23.3805 0 0 0
2386 4 14.388 16.1865 23.3805 0 0 0
994 4 28.776 34.1715 30.5745 0 0 0
317 4 32.373 7.194 32.373 0 0 0
1303 4 23.3805 25.179 19.7835 0 0 0
2771 4 8.9925 14.388 8.9925 0 0 0
3841 4 0.0 7.194 0.0 0 0 0
2969 4 10.791 32.373 7.194 0 0 0
997 4 28.776 32.373 32.373 0 0 0
232 4 30.5745 1.7985 25.179 0 0 0
3016 4 5.3955 1.7985 10.791 0 0 0
1284 4 23.3805 26.9775 0.0 0 0 0
2185 4 17.985 32.373 21.582 0 0 0
2229 4 14.388 0.0 25.179 0 0 0
525 4 32.373 28.776 3.597 0 0 0
2592 4 12.5895 34.1715 25.179 0 0 0
3529 4 3.597 10.791 7.194 0 0 0
2656 4 8.9925 5.3955 10.791 0 0 0
2642 4 10.791 5.3955 1.7985 0 0 0
2576 4 12.5895 34.1715 10.791 0 0 0
1128 4 23.3805 12.5895 3.597 0 0 0
2469 4 14.388 21.582 25.179 0 0 0
281 4 32.373 7.194 0.0 0 0 0
372 4 30.5745 16.1865 7.194 0 0 0
2783 4 8.9925 14.388 19.7835 0 0 0
3587 4 1.7985 14.388 23.3805 0 0 0
2722 4 10.791 12.5895 1.7985 0 0 0
285 4 32.373 7.194 3.597 0 0 0
702 4 28.776 8.9925 19.7835 0 0 0
542 4 32.373 30.5745 19.7835 0 0 0
3731 4 1.7985 28.776 8.9925 0 0 0
2011 4 16.1865 17.985 8.9925 0 0 0
1154 4 25.179 12.5895 30.5745 0 0 0
3060 4 5.3955 5.3955 14.388 0 0 0
1337 4 25.179 28.776 14.388 0 0 0
1102 4 25.179 8.9925 19.7835 0 0 0
2651 4 8.9925 3.597 8.9925 0 0 0
2774 4 10.791 16.1865 12.5895 0 0 0
1691 4 19.7835 25.179 8.9925 0 0 0
1079 4 23.3805 3.597 34.1715 0 0 0
731 4 26.9775 10.791 8.9925 0 0 0
1961 4 17.985 14.388 0.0 0 0 0
665 4 28.776 3.597 21.582 0 0 0
933 4 28.776 28.776 10.791 0 0 0
717 4 28.776 7.194 32.373 0 0 0
1280 4 23.3805 23.3805 32.373 0 0 0
885 4 28.776 25.179 3.597 0 0 0
2650 4 10.791 5.3955 8.9925 0 0 0
55 4 34.1715 7.194 26.9775 0 0 0
2114 4 17.985 26.9775 30.5745 0 0 0
408 4 30.5745 19.7835 3.597 0 0 0
963 4 26.9775 32.373 1.7985 0 0 0
3054 4 7.194 5.3955 12.5895 0 0 0
621 4 28.776 0.0 17.985 0 0 0
195 4 34.1715 32.373 26.9775 0 0 0
1833 4 17.985 0.0 28.776 0 0 0
2029 4 17.985 17.985 25.179 0 0 0
2077 4 17.985 21.582 32.373 0 0 0
2399 4 12.5895 14.388 34.1715 0 0 0
3387 4 5.3955 32.373 23.3805 0 0 0
2498 4 14.388 26.9775 16.1865 0 0 0
1036 4 23.3805 1.7985 28.776 0 0 0
2674 4 10.791 5.3955 30.5745 0 0 0
1331 4 23.3805 28.776 8.9925 0 0 0
161 4 34.1715 28.776 1.7985 0 0 0
3232 4 5.3955 19.7835 25.179 0 0 0
3759 4 1.7985 28.776 34.1715 0 0 0
3716 4 1.7985 26.9775 28.776 0 0 0
1019 4 23.3805 0.0 16.1865 0 0 0
1367 4 23.3805 32.373 5.3955 0 0 0
3673 4 3.597 21.582 28.776 0 0 0
1321 4 25.179 28.776 0.0 0 0 0
2514 4 14.388 26.9775 30.5745 0 0 0
3363 4 5.3955 32.373 1.7985 0 0 0
819 4 26.9775 17.985 16.1865 0 0 0
2709 4 10.791 7.194 25.179 0 0 0
1350 4 25.179 30.5745 26.9775 0 0 0
3127 4 5.3955 10.791 5.3955 0 0 0
15 4 34.1715 0.0 26.9775 0 0 0
1127 4 23.3805 10.791 5.3955 0 0 0
2232 4 12.5895 1.7985 25.179 0 0 0
2568 4 12.5895 34.1715 3.597 0 0 0
919 4 26.9775 25.179 34.1715 0 0 0
3613 4 3.597 17.985 10.791 0 0 0
3345 4 7.194 28.776 21.582 0 0 0
3021 4 7.194 0.0 17.985 0 0 0
2668 4 8.9925 5.3955 21.582 0 0 0
807 4 26.9775 17.985 5.3955 0 0 0
3934 4 0.0 23.3805 23.3805 0 0 0
1704 4 19.7835 26.9775 17.985 0 0 0
598 4 32.373 34.1715 34.1715 0 0 0
3834 4 0.0 5.3955 23.3805 0 0 0
3533 4 3.597 10.791 10.791 0 0 0
2241 4 14.388 3.597 0.0 0 0 0
2998 4 10.791 34.1715 34.1715 0 0 0
720 4 26.9775 8.9925 32.373 0 0 0
2582 4 14.388 34.1715 19.7835 0 0 0
1683 4 19.7835 25.179 1.7985 0 0 0
2355 4 12.5895 10.791 30.5745 0 0 0
1977 4 17.985 14.388 14.388 0 0 0
236 4 30.5745 1.7985 28.776 0 0 0
3179 4 5.3955 14.388 16.1865 0 0 0
2772 4 8.9925 16.1865 7.194 0 0 0
1213 4 25.179 17.985 10.791 0 0 0
3005 4 7.194 0.0 3.597 0 0 0
1583 4 19.7835 14.388 19.7835 0 0 0
3026 4 7.194 1.7985 23.3805 0 0 0
828 4 26.9775 19.7835 21.582 0 0 0
726 4 28.776 12.5895 5.3955 0 0 0
515 4 30.5745 25.179 30.5745 0 0 0
38 4 34.1715 5.3955 28.776 0 0 0
3071 4 5.3955 3.597 26.9775 0 0 0
537 4 32.373 28.776 14.388 0 0 0
1963 4 16.1865 14.388 1.7985 0 0 0
122 4 34.1715 23.3805 0.0 0 0 0
3072 4 5.3955 5.3955 25.179 0 0 0
855 4 26.9775 21.582 12.5895 0 0 0
2524 4 12.5895 30.5745 0.0 0 0 0
1121 4 25.179 10.791 0.0 0 0 0
197 4 34.1715 32.373 30.5745 0 0 0
1332 4 23.3805 30.5745 7.194 0 0 0
3214 4 7.194 19.7835 12.5895 0 0 0
1413 4 21.582 0.0 10.791 0 0 0
3078 4 7.194 5.3955 34.1715 0 0 0
2004 4 16.1865 19.7835 0.0 0 0 0
402 4 32.373 19.7835 1.7985 0 0 0
1892 4 16.1865 8.9925 7.194 0 0 0
1500 4 19.7835 8.9925 14.388 0 0 0
3165 4 7.194 14.388 3.597 0 0 0
1552 4 19.7835 12.5895 25.179 0 0 0
1439 4 19.7835 0.0 34.1715 0 0 0
2627 4 8.9925 0.0 23.3805 0 0 0
148 4 34.1715 26.9775 10.791 0 0 0
1676 4 19.7835 23.3805 28.776 0 0 0
2669 4 10.791 3.597 25.179 0 0 0
2257 4 14.388 3.597 14.388 0 0 0
3088 4 5.3955 8.9925 3.597 0 0 0
2532 4 12.5895 30.5745 7.194 0 0 0
3845 4 0.0 7.194 7.194 0 0 0
2880 4 8.9925 23.3805 32.373 0 0 0
3623 4 1.7985 17.985 19.7835 0 0 0
3835 4 0.0 3.597 25.179 0 0 0
2521 4 14.388 28.776 0.0 0 0 0
967 4 26.9775 32.373 5.3955 0 0 0
643 4 26.9775 3.597 1.7985 0 0 0
3336 4 5.3955 30.5745 10.791 0 0 0
1845 4 17.985 3.597 3.597 0 0 0
3823 4 0.0 3.597 3.597 0 0 0
1976 4 16.1865 16.1865 10.791 0 0 0
1152 4 23.3805 12.5895 25.179 0 0 0
310 4 32.373 8.9925 26.9775 0 0 0
1964 4 16.1865 16.1865 0.0 0 0 0
1318 4 25.179 26.9775 34.1715 0 0 0
1767 4 19.7835 32.373 5.3955 0 0 0
2039 4 16.1865 17.985 34.1715 0 0 0
3643 4 1.7985 21.582 1.7985 0 0 0
977 4 28.776 32.373 14.388 0 0 0
1861 4 17.985 3.597 17.985 0 0 0
2213 4 14.388 0.0 10.791 0 0 0
99 4 34.1715 14.388 34.1715 0 0 0
2017 4 17.985 17.985 14.388 0 0 0
3098 4 7.194 8.9925 16.1865 0 0 0
3798 4 3.597 34.1715 34.1715 0 0 0
2342 4 14.388 12.5895 19.7835 0 0 0
2852 4 8.9925 23.3805 7.194 0 0 0
2199 4 16.1865 32.373 34.1715 0 0 0
2332 4 12.5895 12.5895 7.194 0 0 0
3782 4 3.597 34.1715 19.7835 0 0 0
3518 4 3.597 8.9925 34.1715 0 0 0
646 4 28.776 5.3955 5.3955 0 0 0
1784 4 19.7835 34.1715 17.985 0 0 0
3051 4 5.3955 3.597 8.9925 0 0 0
2226 4 14.388 1.7985 23.3805 0 0 0
3684 4 1.7985 26.9775 0.0 0 0 0
1842 4 17.985 5.3955 1.7985 0 0 0
2234 4 14.388 1.7985 30.5745 0 0 0
2520 4 12.5895 26.9775 32.373 0 0 0
1978 4 17.985 16.1865 16.1865 0 0 0
519 4 30.5745 25.179 34.1715 0 0 0
1235 4 23.3805 17.985 30.5745 0 0 0
1368 4 23.3805 34.1715 3.597 0 0 0
2618 4 10.791 1.7985 16.1865 0 0 0
940 4 26.9775 30.5745 14.388 0 0 0
2072 4 16.1865 23.3805 25.179 0 0 0
1086 4 25.179 8.9925 5.3955 0 0 0
597 4 32.373 32.373 32.373 0 0 0
2849 4 10.791 21.582 7.194 0 0 0
2755 4 8.9925 10.791 30.5745 0 0 0
2899 4 8.9925 25.179 16.1865 0 0 0
1766 4 21.582 34.1715 5.3955 0 0 0
3483 4 1.7985 7.194 1.7985 0 0 0
31 4 34.1715 3.597 19.7835 0 0 0
3152 4 5.3955 12.5895 25.179 0 0 0
2775 4 8.9925 14.388 12.5895 0 0 0
1091 4 23.3805 7.194 8.9925 0 0 0
3479 4 1.7985 3.597 34.1715 0 0 0
1746 4 21.582 30.5745 23.3805 0 0 0
1678 4 21.582 23.3805 34.1715 0 0 0
531 4 30.5745 28.776 8.9925 0 0 0
2293 4 14.388 7.194 10.791 0 0 0
3076 4 5.3955 5.3955 28.776 0 0 0
2661 4 10.791 3.597 17.985 0 0 0
2798 4 10.791 16.1865 34.1715 0 0 0
2900 4 8.9925 26.9775 14.388 0 0 0
1775 4 19.7835 32.373 12.5895 0 0 0
3034 4 7.194 1.7985 30.5745 0 0 0
2863 4 8.9925 21.582 19.7835 0 0 0
596 4 30.5745 34.1715 28.776 0 0 0
477 4 32.373 21.582 32.373 0 0 0
2499 4 12.5895 25.179 16.1865 0 0 0
2992 4 8.9925 34.1715 25.179 0 0 0
2260 4 12.5895 5.3955 14.388 0 0 0
1670 4 21.582 23.3805 26.9775 0 0 0
693 4 28.776 7.194 10.791 0 0 0
1540 4 19.7835 12.5895 14.388 0 0 0
3646 4 3.597 23.3805 5.3955 0 0 0
2733 4 10.791 10.791 10.791 0 0 0
3761 4 3.597 32.373 0.0 0 0 0
2478 4 14.388 23.3805 34.1715 0 0 0
3292 4 5.3955 26.9775 7.194 0 0 0
1570 4 21.582 16.1865 8.9925 0 0 0
1884 4 16.1865 8.9925 0.0 0 0 0
3810 4 0.0 1.7985 16.1865 0 0 0
3393 4 7.194 32.373 28.776 0 0 0
250 4 32.373 5.3955 8.9925 0 0 0
1753 4 21.582 28.776 28.776 0 0 0
2658 4 10.791 5.3955 16.1865 0 0 0
3475 4 1.7985 3.597 30.5745 0 0 0
1133 4 25.179 10.791 10.791 0 0 0
3402 4 3.597 1.7985 1.7985 0 0 0
2202 4 14.388 1.7985 1.7985 0 0 0
400 4 30.5745 16.1865 32.373 0 0 0
800 4 26.9775 16.1865 32.373 0 0 0
3774 4 3.597 34.1715 12.5895 0 0 0
2000 4 16.1865 16.1865 32.373 0 0 0
2127 4 16.1865 28.776 5.3955 0 0 0
3195 4 5.3955 14.388 30.5745 0 0 0
1998 4 17.985 16.1865 34.1715 0 0 0
1856 4 16.1865 5.3955 10.791 0 0 0
3950 4 0.0 26.9775 16.1865 0 0 0
2999 4 8.9925 32.373 34.1715 0 0 0
1917 4 17.985 7.194 32.373 0 0 0
1201 4 25.179 17.985 0.0 0 0 0
1471 4 19.7835 3.597 26.9775 0 0 0
886 4 28.776 26.9775 5.3955 0 0 0
2588 4 12.5895 34.1715 21.582 0 0 0
516 4 30.5745 26.9775 28.776 0 0 0
2958 4 10.791 30.5745 34.1715 0 0 0
3837 4 0.0 3.597 28.776 0 0 0
3390 4 7.194 34.1715 26.9775 0 0 0
2975 4 8.9925 32.373 12.5895 0 0 0
553 4 32.373 28.776 28.776 0 0 0
390 4 32.373 16.1865 26.9775 0 0 0
815 4 26.9775 17.985 12.5895 0 0 0
2594 4 14.388 34.1715 30.5745 0 0 0
2979 4 8.9925 32.373 16.1865 0 0 0
2024 4 16.1865 19.7835 17.985 0 0 0
252 4 30.5745 5.3955 7.194 0 0 0
3867 4 0.0 10.791 10.791 0 0 0
81 4 34.1715 14.388 1.7985 0 0 0
1119 4 23.3805 7.194 34.1715 0 0 0
263 4 30.5745 3.597 19.7835 0 0 0
2711 4 8.9925 7.194 26.9775 0 0 0
614 4 28.776 1.7985 12.5895 0 0 0
2002 4 17.985 19.7835 1.7985 0 0 0
2611 4 8.9925 0.0 8.9925 0 0 0
2003 4 16.1865 17.985 1.7985 0 0 0
3275 4 5.3955 21.582 30.5745 0 0 0
3141 4 7.194 10.791 17.985 0 0 0
2037 4 17.985 17.985 32.373 0 0 0
1109 4 25.179 7.194 25.179 0 0 0
3967 4 0.0 28.776 10.791 0 0 0
3898 4 0.0 16.1865 30.5745 0 0 0
2764 4 8.9925 16.1865 0.0 0 0 0
1584 4 19.7835 16.1865 17.985 0 0 0
3063 4 5.3955 3.597 19.7835 0 0 0
2418 4 14.388 19.7835 16.1865 0 0 0
1904 4 16.1865 8.9925 17.985 0 0 0
2297 4 14.388 7.194 14.388 0 0 0
686 4 28.776 8.9925 5.3955 0 0 0
2467 4 12.5895 21.582 23.3805 0 0 0
51 4 34.1715 7.194 19.7835 0 0 0
3136 4 5.3955 12.5895 10.791 0 0 0
3877 4 0.0 10.791 28.776 0 0 0
1881 4 17.985 7.194 0.0 0 0 0
1409 4 21.582 0.0 7.194 0 0 0
3730 4 3.597 30.5745 8.9925 0 0 0
3706 4 3.597 26.9775 23.3805 0 0 0
2111 4 16.1865 25.179 26.9775 0 0 0
3162 4 7.194 16.1865 1.7985 0 0 0
3732 4 1.7985 30.5745 7.194 0 0 0
3255 4 5.3955 21.582 12.5895 0 0 0
3842 4 0.0 8.9925 1.7985 0 0 0
10 4 34.1715 1.7985 14.388 0 0 0
1887 4 16.1865 7.194 5.3955 0 0 0
1646 4 21.582 23.3805 5.3955 0 0 0
2862 4 10.791 23.3805 19.7835 0 0 0
1896 4 16.1865 8.9925 10.791 0 0 0
2366 4 14.388 16.1865 5.3955 0 0 0
3713 4 3.597 25.179 28.776 0 0 0
538 4 32.373 30.5745 16.1865 0 0 0
1170 4 25.179 16.1865 8.9925 0 0 0
1983 4 16.1865 14.388 19.7835 0 0 0
3430 4 3.597 1.7985 26.9775 0 0 0
3100 4 5.3955 8.9925 14.388 0 0 0
46 4 34.1715 8.9925 7.194 0 0 0
1042 4 25.179 5.3955 1.7985 0 0 0
3090 4 7.194 8.9925 8.9925 0 0 0
3932 4 0.0 23.3805 19.7835 0 0 0
1446 4 21.582 5.3955 5.3955 0 0 0
1517 4 21.582 7.194 32.373 0 0 0
2006 4 17.985 19.7835 5.3955 0 0 0
2914 4 10.791 26.9775 30.5745 0 0 0
844 4 26.9775 23.3805 0.0 0 0 0
431 4 30.5745 17.985 26.9775 0 0 0
2590 4 14.388 34.1715 26.9775 0 0 0
2624 4 8.9925 1.7985 17.985 0 0 0
3926 4 0.0 23.3805 8.9925 0 0 0
3429 4 3.597 0.0 25.179 0 0 0
2828 4 8.9925 19.7835 21.582 0 0 0
2105 4 17.985 25.179 21.582 0 0 0
1625 4 21.582 17.985 21.582 0 0 0
530 4 32.373 30.5745 8.9925 0 0 0
1369 4 25.179 32.373 7.194 0 0 0
162 4 34.1715 30.5745 0.0 0 0 0
3206 4 7.194 19.7835 5.3955 0 0 0
3826 4 0.0 5.3955 8.9925 0 0 0
2182 4 17.985 34.1715 19.7835 0 0 0
34 4 34.1715 5.3955 21.582 0 0 0
2660 4 8.9925 5.3955 14.388 0 0 0
2537 4 14.388 28.776 14.388 0 0 0
2645 4 10.791 3.597 3.597 0 0 0
3307 4 5.3955 25.179 23.3805 0 0 0
3422 4 3.597 1.7985 19.7835 0 0 0
2285 4 14.388 7.194 3.597 0 0 0
1300 4 23.3805 26.9775 14.388 0 0 0
2917 4 10.791 25.179 32.373 0 0 0
757 4 28.776 10.791 32.373 0 0 0
1461 4 21.582 3.597 17.985 0 0 0
721 4 28.776 10.791 0.0 0 0 0
1365 4 25.179 32.373 3.597 0 0 0
2348 4 12.5895 12.5895 21.582 0 0 0
2726 4 10.791 12.5895 5.3955 0 0 0
1003 4 23.3805 0.0 1.7985 0 0 0
2977 4 10.791 32.373 14.388 0 0 0
95 4 34.1715 14.388 26.9775 0 0 0
2354 4 14.388 12.5895 30.5745 0 0 0
278 4 32.373 5.3955 34.1715 0 0 0
2574 4 14.388 34.1715 12.5895 0 0 0
2516 4 12.5895 26.9775 28.776 0 0 0
1353 4 25.179 28.776 28.776 0 0 0
1601 4 21.582 17.985 0.0 0 0 0
3899 4 0.0 14.388 32.373 0 0 0
3997 4 0.0 32.373 28.776 0 0 0
1182 4 25.179 16.1865 19.7835 0 0 0
1463 4 19.7835 3.597 19.7835 0 0 0
2593 4 14.388 32.373 28.776 0 0 0
3655 4 1.7985 21.582 12.5895 0 0 0
398 4 32.373 16.1865 34.1715 0 0 0
1519 4 19.7835 7.194 34.1715 0 0 0
3440 4 1.7985 1.7985 32.373 0 0 0
1910 4 17.985 8.9925 26.9775 0 0 0
323 4 30.5745 10.791 1.7985 0 0 0
2237 4 14.388 0.0 32.373 0 0 0
385 4 32.373 14.388 21.582 0 0 0
591 4 30.5745 32.373 26.9775 0 0 0
2162 4 17.985 34.1715 1.7985 0 0 0
3062 4 7.194 5.3955 19.7835 0 0 0
1024 4 23.3805 1.7985 17.985 0 0 0
3424 4 1.7985 1.7985 17.985 0 0 0
1747 4 19.7835 28.776 23.3805 0 0 0
1054 4 25.179 5.3955 12.5895 0 0 0
3754 4 3.597 30.5745 30.5745 0 0 0
1806 4 17.985 1.7985 5.3955 0 0 0
19 4 34.1715 0.0 34.1715 0 0 0
2048 4 16.1865 23.3805 3.597 0 0 0
1614 4 21.582 19.7835 12.5895 0 0 0
1633 4 21.582 17.985 28.776 0 0 0
2919 4 8.9925 25.179 34.1715 0 0 0
106 4 34.1715 19.7835 7.194 0 0 0
2428 4 12.5895 19.7835 21.582 0 0 0
3383 4 5.3955 32.373 19.7835 0 0 0
725 4 28.776 10.791 3.597 0 0 0
2027 4 16.1865 17.985 23.3805 0 0 0
3946 4 0.0 26.9775 8.9925 0 0 0
322 4 32.373 12.5895 1.7985 0 0 0
2095 4 16.1865 25.179 12.5895 0 0 0
2335 4 12.5895 10.791 12.5895 0 0 0
3920 4 0.0 19.7835 34.1715 0 0 0
1037 4 25.179 0.0 32.373 0 0 0
884 4 26.9775 26.9775 0.0 0 0 0
689 4 28.776 7.194 7.194 0 0 0
2994 4 10.791 34.1715 30.5745 0 0 0
715 4 26.9775 7.194 30.5745 0 0 0
2462 4 14.388 23.3805 19.7835 0 0 0
2512 4 12.5895 26.9775 25.179 0 0 0
3525 4 3.597 10.791 3.597 0 0 0
3714 4 3.597 26.9775 30.5745 0 0 0
3780 4 1.7985 34.1715 14.388 0 0 0
2064 4 16.1865 23.3805 17.985 0 0 0
3380 4 5.3955 34.1715 14.388 0 0 0
1744 4 19.7835 30.5745 17.985 0 0 0
700 4 26.9775 8.9925 14.388 0 0 0
708 4 26.9775 8.9925 21.582 0 0 0
2287 4 12.5895 7.194 5.3955 0 0 0
2063 4 16.1865 21.582 19.7835 0 0 0
2738 4 10.791 12.5895 16.1865 0 0 0
1555 4 19.7835 10.791 30.5745 0 0 0
1543 4 19.7835 10.791 19.7835 0 0 0
2500 4 12.5895 26.9775 14.388 0 0 0
2205 4 14.388 0.0 3.597 0 0 0
3727 4 1.7985 28.776 5.3955 0 0 0
2927 4 8.9925 28.776 5.3955 0 0 0
3618 4 3.597 19.7835 16.1865 0 0 0
3265 4 7.194 21.582 21.582 0 0 0
873 4 28.776 21.582 28.776 0 0 0
3344 4 5.3955 30.5745 17.985 0 0 0
3151 4 5.3955 10.791 26.9775 0 0 0
2553 4 14.388 28.776 28.776 0 0 0
2020 4 16.1865 19.7835 14.388 0 0 0
2702 4 10.791 8.9925 19.7835 0 0 0
1465 4 21.582 3.597 21.582 0 0 0
3807 4 0.0 0.0 10.791 0 0 0
3140 4 5.3955 12.5895 14.388 0 0 0
1381 4 25.179 32.373 17.985 0 0 0
3769 4 3.597 32.373 7.194 0 0 0
3884 4 0.0 16.1865 5.3955 0 0 0
503 4 30.5745 25.179 19.7835 0 0 0
1623 4 19.7835 17.985 19.7835 0 0 0
3443 4 1.7985 3.597 1.7985 0 0 0
687 4 26.9775 7.194 5.3955 0 0 0
859 4 26.9775 21.582 16.1865 0 0 0
1693 4 21.582 25.179 10.791 0 0 0
2023 4 16.1865 17.985 19.7835 0 0 0
1420 4 19.7835 1.7985 14.388 0 0 0
792 4 26.9775 16.1865 25.179 0 0 0
2807 4 8.9925 17.985 5.3955 0 0 0
992 4 26.9775 34.1715 25.179 0 0 0
2636 4 8.9925 1.7985 28.776 0 0 0
3664 4 1.7985 23.3805 17.985 0 0 0
2484 4 12.5895 26.9775 0.0 0 0 0
982 4 28.776 34.1715 19.7835 0 0 0
954 4 28.776 30.5745 30.5745 0 0 0
3396 4 5.3955 34.1715 28.776 0 0 0
1411 4 19.7835 0.0 8.9925 0 0 0
2296 4 12.5895 8.9925 10.791 0 0 0
1459 4 19.7835 3.597 16.1865 0 0 0
1873 4 17.985 3.597 28.776 0 0 0
2990 4 10.791 34.1715 26.9775 0 0 0
1135 4 23.3805 10.791 12.5895 0 0 0
154 4 34.1715 26.9775 21.582 0 0 0
1612 4 19.7835 19.7835 7.194 0 0 0
1295 4 23.3805 25.179 12.5895 0 0 0
2770 4 10.791 16.1865 8.9925 0 0 0
392 4 30.5745 16.1865 25.179 0 0 0
1406 4 21.582 1.7985 5.3955 0 0 0
116 4 34.1715 19.7835 25.179 0 0 0
247 4 30.5745 3.597 5.3955 0 0 0
3915 4 0.0 17.985 25.179 0 0 0
173 4 34.1715 28.776 23.3805 0 0 0
283 4 30.5745 7.194 1.7985 0 0 0
2796 4 8.9925 16.1865 28.776 0 0 0
1452 4 19.7835 5.3955 7.194 0 0 0
96 4 34.1715 16.1865 25.179 0 0 0
2448 4 12.5895 23.3805 3.597 0 0 0
1462 4 21.582 5.3955 19.7835 0 0 0
3035 4 5.3955 0.0 30.5745 0 0 0
212 4 30.5745 1.7985 7.194 0 0 0
2420 4 12.5895 19.7835 14.388 0 0 0
279 4 30.5745 3.597 34.1715 0 0 0
3348 4 5.3955 30.5745 21.582 0 0 0
2290 4 14.388 8.9925 8.9925 0 0 0
911 4 26.9775 25.179 26.9775 0 0 0
1591 4 19.7835 14.388 26.9775 0 0 0
1502 4 21.582 8.9925 19.7835 0 0 0
458 4 32.373 23.3805 16.1865 0 0 0
2913 4 10.791 25.179 28.776 0 0 0
3415 4 1.7985 0.0 12.5895 0 0 0
1416 4 19.7835 1.7985 10.791 0 0 0
293 4 32.373 7.194 10.791 0 0 0
876 4 26.9775 23.3805 28.776 0 0 0
561 4 32.373 32.373 0.0 0 0 0
3375 4 5.3955 32.373 12.5895 0 0 0
1361 4 25.179 32.373 0.0 0 0 0
3170 4 7.194 16.1865 8.9925 0 0 0
1322 4 25.179 30.5745 1.7985 0 0 0
1451 4 19.7835 3.597 8.9925 0 0 0
2239 4 12.5895 0.0 34.1715 0 0 0
2436 4 12.5895 19.7835 28.776 0 0 0
2718 4 10.791 8.9925 34.1715 0 0 0
594 4 32.373 34.1715 30.5745 0 0 0
769 4 28.776 14.388 7.194 0 0 0
2358 4 14.388 12.5895 34.1715 0 0 0
313 4 32.373 7.194 28.776 0 0 0
1082 4 25.179 8.9925 1.7985 0 0 0
2330 4 14.388 12.5895 8.9925 0 0 0
37 4 34.1715 3.597 30.5745 0 0 0
1268 4 23.3805 23.3805 21.582 0 0 0
3504 4 1.7985 8.9925 17.985 0 0 0
1346 4 25.179 30.5745 23.3805 0 0 0
2797 4 10.791 14.388 32.373 0 0 0
3531 4 1.7985 10.791 8.9925 0 0 0
337 4 32.373 10.791 14.388 0 0 0
2305 4 14.388 7.194 21.582 0 0 0
1566 4 21.582 16.1865 5.3955 0 0 0
1227 4 23.3805 17.985 23.3805 0 0 0
1472 4 19.7835 5.3955 25.179 0 0 0
2307 4 12.5895 7.194 23.3805 0 0 0
772 4 26.9775 16.1865 7.194 0 0 0
905 4 28.776 25.179 21.582 0 0 0
1192 4 23.3805 16.1865 25.179 0 0 0
1680 4 19.7835 23.3805 32.373 0 0 0
3200 4 5.3955 16.1865 32.373 0 0 0
1151 4 23.3805 10.791 26.9775 0 0 0
3789 4 3.597 32.373 25.179 0 0 0
670 4 28.776 5.3955 26.9775 0 0 0
3515 4 1.7985 7.194 30.5745 0 0 0
311 4 30.5745 7.194 26.9775 0 0 0
2431 4 12.5895 17.985 26.9775 0 0 0
3372 4 5.3955 34.1715 7.194 0 0 0
1632 4 19.7835 19.7835 25.179 0 0 0
641 4 28.776 3.597 0.0 0 0 0
1877 4 17.985 3.597 32.373 0 0 0
1389 4 25.179 32.373 25.179 0 0 0
3360 4 5.3955 30.5745 32.373 0 0 0
833 4 28.776 17.985 28.776 0 0 0
3083 4 5.3955 7.194 1.7985 0 0 0
316 4 30.5745 8.9925 28.776 0 0 0
349 4 32.373 10.791 25.179 0 0 0
3773 4 3.597 32.373 10.791 0 0 0
3053 4 7.194 3.597 10.791 0 0 0
1166 4 25.179 16.1865 5.3955 0 0 0
2 5 34.1715 1.7985 0.0 0 0 0
3 5 34.1715 0.0 5.3955 0 0 0
5 5 34.1715 0.0 8.9925 0 0 0
12 5 34.1715 1.7985 17.985 0 0 0
13 5 34.1715 0.0 23.3805 0 0 0
14 5 34.1715 1.7985 21.582 0 0 0
18 5 34.1715 1.7985 28.776 0 0 0
32 5 34.1715 5.3955 17.985 0 0 0
43 5 34.1715 7.194 5.3955 0 0 0
56 5 34.1715 8.9925 25.179 0 0 0
57 5 34.1715 7.194 30.5745 0 0 0
59 5 34.1715 7.194 34.1715 0 0 0
71 5 34.1715 10.791 19.7835 0 0 0
73 5 34.1715 10.791 23.3805 0 0 0
76 5 34.1715 12.5895 25.179 0 0 0
78 5 34.1715 12.5895 28.776 0 0 0
79 5 34.1715 10.791 34.1715 0 0 0
89 5 34.1715 14.388 16.1865 0 0 0
90 5 34.1715 16.1865 14.388 0 0 0
97 5 34.1715 14.388 30.5745 0 0 0
100 5 34.1715 16.1865 32.373 0 0 0
107 5 34.1715 17.985 12.5895 0 0 0
112 5 34.1715 19.7835 17.985 0 0 0
113 5 34.1715 17.985 23.3805 0 0 0
128 5 34.1715 23.3805 10.791 0 0 0
130 5 34.1715 23.3805 14.388 0 0 0
132 5 34.1715 23.3805 17.985 0 0 0
133 5 34.1715 21.582 23.3805 0 0 0
139 5 34.1715 21.582 34.1715 0 0 0
140 5 34.1715 23.3805 32.373 0 0 0
152 5 34.1715 26.9775 17.985 0 0 0
158 5 34.1715 26.9775 28.776 0 0 0
159 5 34.1715 25.179 34.1715 0 0 0
170 5 34.1715 30.5745 14.388 0 0 0
178 5 34.1715 30.5745 28.776 0 0 0
180 5 34.1715 30.5745 32.373 0 0 0
186 5 34.1715 34.1715 7.194 0 0 0
192 5 34.1715 34.1715 17.985 0 0 0
194 5 34.1715 34.1715 21.582 0 0 0
201 5 32.373 0.0 0.0 0 0 0
203 5 30.5745 0.0 1.7985 0 0 0
209 5 32.373 0.0 7.194 0 0 0
214 5 32.373 1.7985 12.5895 0 0 0
216 5 30.5745 1.7985 10.791 0 0 0
217 5 32.373 0.0 14.388 0 0 0
221 5 32.373 0.0 17.985 0 0 0
224 5 30.5745 1.7985 17.985 0 0 0
227 5 30.5745 0.0 23.3805 0 0 0
230 5 32.373 1.7985 26.9775 0 0 0
231 5 30.5745 0.0 26.9775 0 0 0
233 5 32.373 0.0 28.776 0 0 0
241 5 32.373 3.597 0.0 0 0 0
244 5 30.5745 5.3955 0.0 0 0 0
254 5 32.373 5.3955 12.5895 0 0 0
256 5 30.5745 5.3955 10.791 0 0 0
262 5 32.373 5.3955 19.7835 0 0 0
265 5 32.373 3.597 21.582 0 0 0
269 5 32.373 3.597 25.179 0 0 0
270 5 32.373 5.3955 26.9775 0 0 0
271 5 30.5745 3.597 26.9775 0 0 0
272 5 30.5745 5.3955 25.179 0 0 0
273 5 32.373 3.597 28.776 0 0 0
280 5 30.5745 5.3955 32.373 0 0 0
291 5 30.5745 7.194 8.9925 0 0 0
292 5 30.5745 8.9925 7.194 0 0 0
295 5 30.5745 7.194 12.5895 0 0 0
301 5 32.373 7.194 17.985 0 0 0
302 5 32.373 8.9925 19.7835 0 0 0
303 5 30.5745 7.194 19.7835 0 0 0
304 5 30.5745 8.9925 17.985 0 0 0
314 5 32.373 8.9925 30.5745 0 0 0
319 5 30.5745 7.194 34.1715 0 0 0
320 5 30.5745 8.9925 32.373 0 0 0
326 5 32.373 12.5895 5.3955 0 0 0
329 5 32.373 10.791 7.194 0 0 0
330 5 32.373 12.5895 8.9925 0 0 0
332 5 30.5745 12.5895 7.194 0 0 0
342 5 32.373 12.5895 19.7835 0 0 0
343 5 30.5745 10.791 19.7835 0 0 0
347 5 30.5745 10.791 23.3805 0 0 0
350 5 32.373 12.5895 26.9775 0 0 0
357 5 32.373 10.791 32.373 0 0 0
368 5 30.5745 16.1865 3.597 0 0 0
369 5 32.373 14.388 7.194 0 0 0
373 5 32.373 14.388 10.791 0 0 0
374 5 32.373 16.1865 12.5895 0 0 0
375 5 30.5745 14.388 12.5895 0 0 0
376 5 30.5745 16.1865 10.791 0 0 0
380 5 30.5745 16.1865 14.388 0 0 0
382 5 32.373 16.1865 19.7835 0 0 0
389 5 32.373 14.388 25.179 0 0 0
395 5 30.5745 14.388 30.5745 0 0 0
401 5 32.373 17.985 0.0 0 0 0
409 5 32.373 17.985 7.194 0 0 0
413 5 32.373 17.985 10.791 0 0 0
418 5 32.373 19.7835 16.1865 0 0 0
422 5 32.373 19.7835 19.7835 0 0 0
424 5 30.5745 19.7835 17.985 0 0 0
427 5 30.5745 17.985 23.3805 0 0 0
428 5 30.5745 19.7835 21.582 0 0 0
435 5 30.5745 17.985 30.5745 0 0 0
438 5 32.373 19.7835 34.1715 0 0 0
440 5 30.5745 19.7835 32.373 0 0 0
442 5 32.373 23.3805 1.7985 0 0 0
447 5 30.5745 21.582 5.3955 0 0 0
448 5 30.5745 23.3805 3.597 0 0 0
449 5 32.373 21.582 7.194 0 0 0
453 5 32.373 21.582 10.791 0 0 0
454 5 32.373 23.3805 12.5895 0 0 0
455 5 30.5745 21.582 12.5895 0 0 0
459 5 30.5745 21.582 16.1865 0 0 0
463 5 30.5745 21.582 19.7835 0 0 0
467 5 30.5745 21.582 23.3805 0 0 0
471 5 30.5745 21.582 26.9775 0 0 0
478 5 32.373 23.3805 34.1715 0 0 0
496 5 30.5745 26.9775 10.791 0 0 0
501 5 32.373 25.179 17.985 0 0 0
504 5 30.5745 26.9775 17.985 0 0 0
509 5 32.373 25.179 25.179 0 0 0
510 5 32.373 26.9775 26.9775 0 0 0
514 5 32.373 26.9775 30.5745 0 0 0
520 5 30.5745 26.9775 32.373 0 0 0
539 5 30.5745 28.776 16.1865 0 0 0
545 5 32.373 28.776 21.582 0 0 0
550 5 32.373 30.5745 26.9775 0 0 0
563 5 30.5745 32.373 1.7985 0 0 0
567 5 30.5745 32.373 5.3955 0 0 0
570 5 32.373 34.1715 8.9925 0 0 0
573 5 32.373 32.373 10.791 0 0 0
583 5 30.5745 32.373 19.7835 0 0 0
590 5 32.373 34.1715 26.9775 0 0 0
595 5 30.5745 32.373 30.5745 0 0 0
599 5 30.5745 32.373 34.1715 0 0 0
613 5 28.776 0.0 10.791 0 0 0
616 5 26.9775 1.7985 10.791 0 0 0
617 5 28.776 0.0 14.388 0 0 0
622 5 28.776 1.7985 19.7835 0 0 0
624 5 26.9775 1.7985 17.985 0 0 0
625 5 28.776 0.0 21.582 0 0 0
627 5 26.9775 0.0 23.3805 0 0 0
631 5 26.9775 0.0 26.9775 0 0 0
633 5 28.776 0.0 28.776 0 0 0
638 5 28.776 1.7985 34.1715 0 0 0
642 5 28.776 5.3955 1.7985 0 0 0
644 5 26.9775 5.3955 0.0 0 0 0
654 5 28.776 5.3955 12.5895 0 0 0
660 5 26.9775 5.3955 14.388 0 0 0
667 5 26.9775 3.597 23.3805 0 0 0
669 5 28.776 3.597 25.179 0 0 0
674 5 28.776 5.3955 30.5745 0 0 0
678 5 28.776 5.3955 34.1715 0 0 0
679 5 26.9775 3.597 34.1715 0 0 0
681 5 28.776 7.194 0.0 0 0 0
683 5 26.9775 7.194 1.7985 0 0 0
684 5 26.9775 8.9925 0.0 0 0 0
697 5 28.776 7.194 14.388 0 0 0
712 5 26.9775 8.9925 25.179 0 0 0
713 5 28.776 7.194 28.776 0 0 0
714 5 28.776 8.9925 30.5745 0 0 0
738 5 28.776 12.5895 16.1865 0 0 0
742 5 28.776 12.5895 19.7835 0 0 0
749 5 28.776 10.791 25.179 0 0 0
750 5 28.776 12.5895 26.9775 0 0 0
753 5 28.776 10.791 28.776 0 0 0
756 5 26.9775 12.5895 28.776 0 0 0
760 5 26.9775 12.5895 32.373 0 0 0
761 5 28.776 14.388 0.0 0 0 0
763 5 26.9775 14.388 1.7985 0 0 0
774 5 28.776 16.1865 12.5895 0 0 0
784 5 26.9775 16.1865 17.985 0 0 0
786 5 28.776 16.1865 23.3805 0 0 0
787 5 26.9775 14.388 23.3805 0 0 0
788 5 26.9775 16.1865 21.582 0 0 0
793 5 28.776 14.388 28.776 0 0 0
794 5 28.776 16.1865 30.5745 0 0 0
798 5 28.776 16.1865 34.1715 0 0 0
803 5 26.9775 17.985 1.7985 0 0 0
805 5 28.776 17.985 3.597 0 0 0
808 5 26.9775 19.7835 3.597 0 0 0
817 5 28.776 17.985 14.388 0 0 0
818 5 28.776 19.7835 16.1865 0 0 0
820 5 26.9775 19.7835 14.388 0 0 0
824 5 26.9775 19.7835 17.985 0 0 0
825 5 28.776 17.985 21.582 0 0 0
832 5 26.9775 19.7835 25.179 0 0 0
839 5 26.9775 17.985 34.1715 0 0 0
845 5 28.776 21.582 3.597 0 0 0
849 5 28.776 21.582 7.194 0 0 0
854 5 28.776 23.3805 12.5895 0 0 0
860 5 26.9775 23.3805 14.388 0 0 0
863 5 26.9775 21.582 19.7835 0 0 0
871 5 26.9775 21.582 26.9775 0 0 0
872 5 26.9775 23.3805 25.179 0 0 0
883 5 26.9775 25.179 1.7985 0 0 0
887 5 26.9775 25.179 5.3955 0 0 0
899 5 26.9775 25.179 16.1865 0 0 0
903 5 26.9775 25.179 19.7835 0 0 0
906 5 28.776 26.9775 23.3805 0 0 0
909 5 28.776 25.179 25.179 0 0 0
913 5 28.776 25.179 28.776 0 0 0
923 5 26.9775 28.776 1.7985 0 0 0
924 5 26.9775 30.5745 0.0 0 0 0
930 5 28.776 30.5745 8.9925 0 0 0
935 5 26.9775 28.776 12.5895 0 0 0
938 5 28.776 30.5745 16.1865 0 0 0
952 5 26.9775 30.5745 25.179 0 0 0
953 5 28.776 28.776 28.776 0 0 0
957 5 28.776 28.776 32.373 0 0 0
958 5 28.776 30.5745 34.1715 0 0 0
960 5 26.9775 30.5745 32.373 0 0 0
961 5 28.776 32.373 0.0 0 0 0
969 5 28.776 32.373 7.194 0 0 0
970 5 28.776 34.1715 8.9925 0 0 0
1001 5 25.179 0.0 0.0 0 0 0
1006 5 25.179 1.7985 5.3955 0 0 0
1010 5 25.179 1.7985 8.9925 0 0 0
1015 5 23.3805 0.0 12.5895 0 0 0
1016 5 23.3805 1.7985 10.791 0 0 0
1026 5 25.179 1.7985 23.3805 0 0 0
1027 5 23.3805 0.0 23.3805 0 0 0
1032 5 23.3805 1.7985 25.179 0 0 0
1033 5 25.179 0.0 28.776 0 0 0
1040 5 23.3805 1.7985 32.373 0 0 0
1045 5 25.179 3.597 3.597 0 0 0
1052 5 23.3805 5.3955 7.194 0 0 0
1055 5 23.3805 3.597 12.5895 0 0 0
1058 5 25.179 5.3955 16.1865 0 0 0
1064 5 23.3805 5.3955 17.985 0 0 0
1068 5 23.3805 5.3955 21.582 0 0 0
1077 5 25.179 3.597 32.373 0 0 0
1084 5 23.3805 8.9925 0.0 0 0 0
1088 5 23.3805 8.9925 3.597 0 0 0
1096 5 23.3805 8.9925 10.791 0 0 0
1098 5 25.179 8.9925 16.1865 0 0 0
1099 5 23.3805 7.194 16.1865 0 0 0
1105 5 25.179 7.194 21.582 0 0 0
1107 5 23.3805 7.194 23.3805 0 0 0
1113 5 25.179 7.194 28.776 0 0 0
1120 5 23.3805 8.9925 32.373 0 0 0
1129 5 25.179 10.791 7.194 0 0 0
1148 5 23.3805 12.5895 21.582 0 0 0
1160 5 23.3805 12.5895 32.373 0 0 0
1161 5 25.179 14.388 0.0 0 0 0
1164 5 23.3805 16.1865 0.0 0 0 0
1165 5 25.179 14.388 3.597 0 0 0
1173 5 25.179 14.388 10.791 0 0 0
1175 5 23.3805 14.388 12.5895 0 0 0
1176 5 23.3805 16.1865 10.791 0 0 0
1187 5 23.3805 14.388 23.3805 0 0 0
1188 5 23.3805 16.1865 21.582 0 0 0
1191 5 23.3805 14.388 26.9775 0 0 0
1193 5 25.179 14.388 28.776 0 0 0
1196 5 23.3805 16.1865 28.776 0 0 0
1198 5 25.179 16.1865 34.1715 0 0 0
1202 5 25.179 19.7835 1.7985 0 0 0
1208 5 23.3805 19.7835 3.597 0 0 0
1209 5 25.179 17.985 7.194 0 0 0
1214 5 25.179 19.7835 12.5895 0 0 0
1216 5 23.3805 19.7835 10.791 0 0 0
1220 5 23.3805 19.7835 14.388 0 0 0
1223 5 23.3805 17.985 19.7835 0 0 0
1226 5 25.179 19.7835 23.3805 0 0 0
1233 5 25.179 17.985 28.776 0 0 0
1237 5 25.179 17.985 32.373 0 0 0
1239 5 23.3805 17.985 34.1715 0 0 0
1250 5 25.179 23.3805 8.9925 0 0 0
1254 5 25.179 23.3805 12.5895 0 0 0
1259 5 23.3805 21.582 16.1865 0 0 0
1261 5 25.179 21.582 17.985 0 0 0
1262 5 25.179 23.3805 19.7835 0 0 0
1267 5 23.3805 21.582 23.3805 0 0 0
1279 5 23.3805 21.582 34.1715 0 0 0
1289 5 25.179 25.179 7.194 0 0 0
1293 5 25.179 25.179 10.791 0 0 0
1296 5 23.3805 26.9775 10.791 0 0 0
1308 5 23.3805 26.9775 21.582 0 0 0
1313 5 25.179 25.179 28.776 0 0 0
1317 5 25.179 25.179 32.373 0 0 0
1320 5 23.3805 26.9775 32.373 0 0 0
1323 5 23.3805 28.776 1.7985 0 0 0
1326 5 25.179 30.5745 5.3955 0 0 0
1328 5 23.3805 30.5745 3.597 0 0 0
1329 5 25.179 28.776 7.194 0 0 0
1334 5 25.179 30.5745 12.5895 0 0 0
1339 5 23.3805 28.776 16.1865 0 0 0
1342 5 25.179 30.5745 19.7835 0 0 0
1344 5 23.3805 30.5745 17.985 0 0 0
1348 5 23.3805 30.5745 21.582 0 0 0
1354 5 25.179 30.5745 30.5745 0 0 0
1366 5 25.179 34.1715 5.3955 0 0 0
1370 5 25.179 34.1715 8.9925 0 0 0
1372 5 23.3805 34.1715 7.194 0 0 0
1382 5 25.179 34.1715 19.7835 0 0 0
1387 5 23.3805 32.373 23.3805 0 0 0
1388 5 23.3805 34.1715 21.582 0 0 0
1392 5 23.3805 34.1715 25.179 0 0 0
1393 5 25.179 32.373 28.776 0 0 0
1395 5 23.3805 32.373 30.5745 0 0 0
1397 5 25.179 32.373 32.373 0 0 0
1398 5 25.179 34.1715 34.1715 0 0 0
1399 5 23.3805 32.373 34.1715 0 0 0
1400 5 23.3805 34.1715 32.373 0 0 0
1408 5 19.7835 1.7985 3.597 0 0 0
1421 5 21.582 0.0 17.985 0 0 0
1424 5 19.7835 1.7985 17.985 0 0 0
1425 5 21.582 0.0 21.582 0 0 0
1433 5 21.582 0.0 28.776 0 0 0
1436 5 19.7835 1.7985 28.776 0 0 0
1437 5 21.582 0.0 32.373 0 0 0
1440 5 19.7835 1.7985 32.373 0 0 0
1444 5 19.7835 5.3955 0.0 0 0 0
1447 5 19.7835 3.597 5.3955 0 0 0
1448 5 19.7835 5.3955 3.597 0 0 0
1476 5 19.7835 5.3955 28.776 0 0 0
1479 5 19.7835 3.597 34.1715 0 0 0
1482 5 21.582 8.9925 1.7985 0 0 0
1484 5 19.7835 8.9925 0.0 0 0 0
1489 5 21.582 7.194 7.194 0 0 0
1506 5 21.582 8.9925 23.3805 0 0 0
1514 5 21.582 8.9925 30.5745 0 0 0
1515 5 19.7835 7.194 30.5745 0 0 0
1521 5 21.582 10.791 0.0 0 0 0
1525 5 21.582 10.791 3.597 0 0 0
1532 5 19.7835 12.5895 7.194 0 0 0
1537 5 21.582 10.791 14.388 0 0 0
1538 5 21.582 12.5895 16.1865 0 0 0
1539 5 19.7835 10.791 16.1865 0 0 0
1541 5 21.582 10.791 17.985 0 0 0
1544 5 19.7835 12.5895 17.985 0 0 0
1545 5 21.582 10.791 21.582 0 0 0
1548 5 19.7835 12.5895 21.582 0 0 0
1577 5 21.582 14.388 14.388 0 0 0
1578 5 21.582 16.1865 16.1865 0 0 0
1582 5 21.582 16.1865 19.7835 0 0 0
1586 5 21.582 16.1865 23.3805 0 0 0
1590 5 21.582 16.1865 26.9775 0 0 0
1604 5 19.7835 19.7835 0.0 0 0 0
1608 5 19.7835 19.7835 3.597 0 0 0
1613 5 21.582 17.985 10.791 0 0 0
1617 5 21.582 17.985 14.388 0 0 0
1619 5 19.7835 17.985 16.1865 0 0 0
1622 5 21.582 19.7835 19.7835 0 0 0
1626 5 21.582 19.7835 23.3805 0 0 0
1627 5 19.7835 17.985 23.3805 0 0 0
1638 5 21.582 19.7835 34.1715 0 0 0
1641 5 21.582 21.582 0.0 0 0 0
1643 5 19.7835 21.582 1.7985 0 0 0
1648 5 19.7835 23.3805 3.597 0 0 0
1663 5 19.7835 21.582 19.7835 0 0 0
1674 5 21.582 23.3805 30.5745 0 0 0
1677 5 21.582 21.582 32.373 0 0 0
1684 5 19.7835 26.9775 0.0 0 0 0
1686 5 21.582 26.9775 5.3955 0 0 0
1688 5 19.7835 26.9775 3.597 0 0 0
1694 5 21.582 26.9775 12.5895 0 0 0
1695 5 19.7835 25.179 12.5895 0 0 0
1697 5 21.582 25.179 14.388 0 0 0
1698 5 21.582 26.9775 16.1865 0 0 0
1702 5 21.582 26.9775 19.7835 0 0 0
1708 5 19.7835 26.9775 21.582 0 0 0
1709 5 21.582 25.179 25.179 0 0 0
1717 5 21.582 25.179 32.373 0 0 0
1720 5 19.7835 26.9775 32.373 0 0 0
1725 5 21.582 28.776 3.597 0 0 0
1733 5 21.582 28.776 10.791 0 0 0
1748 5 19.7835 30.5745 21.582 0 0 0
1754 5 21.582 30.5745 30.5745 0 0 0
1762 5 21.582 34.1715 1.7985 0 0 0
1764 5 19.7835 34.1715 0.0 0 0 0
1770 5 21.582 34.1715 8.9925 0 0 0
1771 5 19.7835 32.373 8.9925 0 0 0
1774 5 21.582 34.1715 12.5895 0 0 0
1777 5 21.582 32.373 14.388 0 0 0
1778 5 21.582 34.1715 16.1865 0 0 0
1780 5 19.7835 34.1715 14.388 0 0 0
1782 5 21.582 34.1715 19.7835 0 0 0
1783 5 19.7835 32.373 19.7835 0 0 0
1788 5 19.7835 34.1715 21.582 0 0 0
1791 5 19.7835 32.373 26.9775 0 0 0
1792 5 19.7835 34.1715 25.179 0 0 0
1802 5 17.985 1.7985 1.7985 0 0 0
1805 5 17.985 0.0 3.597 0 0 0
1808 5 16.1865 1.7985 3.597 0 0 0
1813 5 17.985 0.0 10.791 0 0 0
1816 5 16.1865 1.7985 10.791 0 0 0
1820 5 16.1865 1.7985 14.388 0 0 0
1830 5 17.985 1.7985 26.9775 0 0 0
1837 5 17.985 0.0 32.373 0 0 0
1839 5 16.1865 0.0 34.1715 0 0 0
1840 5 16.1865 1.7985 32.373 0 0 0
1841 5 17.985 3.597 0.0 0 0 0
1848 5 16.1865 5.3955 3.597 0 0 0
1851 5 16.1865 3.597 8.9925 0 0 0
1854 5 17.985 5.3955 12.5895 0 0 0
1866 5 17.985 5.3955 23.3805 0 0 0
1872 5 16.1865 5.3955 25.179 0 0 0
1895 5 16.1865 7.194 12.5895 0 0 0
1902 5 17.985 8.9925 19.7835 0 0 0
1909 5 17.985 7.194 25.179 0 0 0
1914 5 17.985 8.9925 30.5745 0 0 0
1920 5 16.1865 8.9925 32.373 0 0 0
1922 5 17.985 12.5895 1.7985 0 0 0
1923 5 16.1865 10.791 1.7985 0 0 0
1927 5 16.1865 10.791 5.3955 0 0 0
1932 5 16.1865 12.5895 7.194 0 0 0
1933 5 17.985 10.791 10.791 0 0 0
1935 5 16.1865 10.791 12.5895 0 0 0
1940 5 16.1865 12.5895 14.388 0 0 0
1941 5 17.985 10.791 17.985 0 0 0
1942 5 17.985 12.5895 19.7835 0 0 0
1943 5 16.1865 10.791 19.7835 0 0 0
1946 5 17.985 12.5895 23.3805 0 0 0
1949 5 17.985 10.791 25.179 0 0 0
1965 5 17.985 14.388 3.597 0 0 0
1966 5 17.985 16.1865 5.3955 0 0 0
1974 5 17.985 16.1865 12.5895 0 0 0
1975 5 16.1865 14.388 12.5895 0 0 0
1982 5 17.985 16.1865 19.7835 0 0 0
1984 5 16.1865 16.1865 17.985 0 0 0
1985 5 17.985 14.388 21.582 0 0 0
1990 5 17.985 16.1865 26.9775 0 0 0
2007 5 16.1865 17.985 5.3955 0 0 0
2009 5 17.985 17.985 7.194 0 0 0
2014 5 17.985 19.7835 12.5895 0 0 0
2016 5 16.1865 19.7835 10.791 0 0 0
2018 5 17.985 19.7835 16.1865 0 0 0
2025 5 17.985 17.985 21.582 0 0 0
2031 5 16.1865 17.985 26.9775 0 0 0
2032 5 16.1865 19.7835 25.179 0 0 0
2042 5 17.985 23.3805 1.7985 0 0 0
2047 5 16.1865 21.582 5.3955 0 0 0
2049 5 17.985 21.582 7.194 0 0 0
2051 5 16.1865 21.582 8.9925 0 0 0
2057 5 17.985 21.582 14.388 0 0 0
2059 5 16.1865 21.582 16.1865 0 0 0
2061 5 17.985 21.582 17.985 0 0 0
2068 5 16.1865 23.3805 21.582 0 0 0
2070 5 17.985 23.3805 26.9775 0 0 0
2074 5 17.985 23.3805 30.5745 0 0 0
2075 5 16.1865 21.582 30.5745 0 0 0
2081 5 17.985 25.179 0.0 0 0 0
2082 5 17.985 26.9775 1.7985 0 0 0
2083 5 16.1865 25.179 1.7985 0 0 0
2085 5 17.985 25.179 3.597 0 0 0
2087 5 16.1865 25.179 5.3955 0 0 0
2089 5 17.985 25.179 7.194 0 0 0
2100 5 16.1865 26.9775 14.388 0 0 0
2102 5 17.985 26.9775 19.7835 0 0 0
2103 5 16.1865 25.179 19.7835 0 0 0
2109 5 17.985 25.179 25.179 0 0 0
2115 5 16.1865 25.179 30.5745 0 0 0
2117 5 17.985 25.179 32.373 0 0 0
2118 5 17.985 26.9775 34.1715 0 0 0
2126 5 17.985 30.5745 5.3955 0 0 0
2131 5 16.1865 28.776 8.9925 0 0 0
2133 5 17.985 28.776 10.791 0 0 0
2134 5 17.985 30.5745 12.5895 0 0 0
2147 5 16.1865 28.776 23.3805 0 0 0
2148 5 16.1865 30.5745 21.582 0 0 0
2149 5 17.985 28.776 25.179 0 0 0
2151 5 16.1865 28.776 26.9775 0 0 0
2163 5 16.1865 32.373 1.7985 0 0 0
2169 5 17.985 32.373 7.194 0 0 0
2170 5 17.985 34.1715 8.9925 0 0 0
2171 5 16.1865 32.373 8.9925 0 0 0
2179 5 16.1865 32.373 16.1865 0 0 0
2181 5 17.985 32.373 17.985 0 0 0
2187 5 16.1865 32.373 23.3805 0 0 0
2189 5 17.985 32.373 25.179 0 0 0
2190 5 17.985 34.1715 26.9775 0 0 0
2191 5 16.1865 32.373 26.9775 0 0 0
2194 5 17.985 34.1715 30.5745 0 0 0
2195 5 16.1865 32.373 30.5745 0 0 0
2197 5 17.985 32.373 32.373 0 0 0
2198 5 17.985 34.1715 34.1715 0 0 0
2206 5 14.388 1.7985 5.3955 0 0 0
2207 5 12.5895 0.0 5.3955 0 0 0
2211 5 12.5895 0.0 8.9925 0 0 0
2218 5 14.388 1.7985 16.1865 0 0 0
2223 5 12.5895 0.0 19.7835 0 0 0
2227 5 12.5895 0.0 23.3805 0 0 0
2236 5 12.5895 1.7985 28.776 0 0 0
2238 5 14.388 1.7985 34.1715 0 0 0
2250 5 14.388 5.3955 8.9925 0 0 0
2253 5 14.388 3.597 10.791 0 0 0
2255 5 12.5895 3.597 12.5895 0 0 0
2256 5 12.5895 5.3955 10.791 0 0 0
2262 5 14.388 5.3955 19.7835 0 0 0
2263 5 12.5895 3.597 19.7835 0 0 0
2264 5 12.5895 5.3955 17.985 0 0 0
2265 5 14.388 3.597 21.582 0 0 0
2270 5 14.388 5.3955 26.9775 0 0 0
2271 5 12.5895 3.597 26.9775 0 0 0
2277 5 14.388 3.597 32.373 0 0 0
2284 5 12.5895 8.9925 0.0 0 0 0
2286 5 14.388 8.9925 5.3955 0 0 0
2289 5 14.388 7.194 7.194 0 0 0
2302 5 14.388 8.9925 19.7835 0 0 0
2321 5 14.388 10.791 0.0 0 0 0
2323 5 12.5895 10.791 1.7985 0 0 0
2325 5 14.388 10.791 3.597 0 0 0
2326 5 14.388 12.5895 5.3955 0 0 0
2329 5 14.388 10.791 7.194 0 0 0
2331 5 12.5895 10.791 8.9925 0 0 0
2336 5 12.5895 12.5895 10.791 0 0 0
2337 5 14.388 10.791 14.388 0 0 0
2338 5 14.388 12.5895 16.1865 0 0 0
2340 5 12.5895 12.5895 14.388 0 0 0
2346 5 14.388 12.5895 23.3805 0 0 0
2347 5 12.5895 10.791 23.3805 0 0 0
2352 5 12.5895 12.5895 25.179 0 0 0
2357 5 14.388 10.791 32.373 0 0 0
2363 5 12.5895 14.388 1.7985 0 0 0
2365 5 14.388 14.388 3.597 0 0 0
2375 5 12.5895 14.388 12.5895 0 0 0
2376 5 12.5895 16.1865 10.791 0 0 0
2379 5 12.5895 14.388 16.1865 0 0 0
2381 5 14.388 14.388 17.985 0 0 0
2382 5 14.388 16.1865 19.7835 0 0 0
2383 5 12.5895 14.388 19.7835 0 0 0
2384 5 12.5895 16.1865 17.985 0 0 0
2391 5 12.5895 14.388 26.9775 0 0 0
2392 5 12.5895 16.1865 25.179 0 0 0
2393 5 14.388 14.388 28.776 0 0 0
2398 5 14.388 16.1865 34.1715 0 0 0
2403 5 12.5895 17.985 1.7985 0 0 0
2404 5 12.5895 19.7835 0.0 0 0 0
2410 5 14.388 19.7835 8.9925 0 0 0
2412 5 12.5895 19.7835 7.194 0 0 0
2414 5 14.388 19.7835 12.5895 0 0 0
2415 5 12.5895 17.985 12.5895 0 0 0
2416 5 12.5895 19.7835 10.791 0 0 0
2424 5 12.5895 19.7835 17.985 0 0 0
2427 5 12.5895 17.985 23.3805 0 0 0
2433 5 14.388 17.985 28.776 0 0 0
2440 5 12.5895 19.7835 32.373 0 0 0
2441 5 14.388 21.582 0.0 0 0 0
2443 5 12.5895 21.582 1.7985 0 0 0
2451 5 12.5895 21.582 8.9925 0 0 0
2455 5 12.5895 21.582 12.5895 0 0 0
2456 5 12.5895 23.3805 10.791 0 0 0
2464 5 12.5895 23.3805 17.985 0 0 0
2472 5 12.5895 23.3805 25.179 0 0 0
2479 5 12.5895 21.582 34.1715 0 0 0
2481 5 14.388 25.179 0.0 0 0 0
2490 5 14.388 26.9775 8.9925 0 0 0
2497 5 14.388 25.179 14.388 0 0 0
2507 5 12.5895 25.179 23.3805 0 0 0
2511 5 12.5895 25.179 26.9775 0 0 0
2517 5 14.388 25.179 32.373 0 0 0
2531 5 12.5895 28.776 8.9925 0 0 0
2538 5 14.388 30.5745 16.1865 0 0 0
2543 5 12.5895 28.776 19.7835 0 0 0
2547 5 12.5895 28.776 23.3805 0 0 0
2550 5 14.388 30.5745 26.9775 0 0 0
2569 5 14.388 32.373 7.194 0 0 0
2572 5 12.5895 34.1715 7.194 0 0 0
2583 5 12.5895 32.373 19.7835 0 0 0
2591 5 12.5895 32.373 26.9775 0 0 0
2595 5 12.5895 32.373 30.5745 0 0 0
2602 5 10.791 1.7985 1.7985 0 0 0
2612 5 8.9925 1.7985 7.194 0 0 0
2614 5 10.791 1.7985 12.5895 0 0 0
2616 5 8.9925 1.7985 10.791 0 0 0
2621 5 10.791 0.0 17.985 0 0 0
2644 5 8.9925 5.3955 0.0 0 0 0
2646 5 10.791 5.3955 5.3955 0 0 0
2654 5 10.791 5.3955 12.5895 0 0 0
2663 5 8.9925 3.597 19.7835 0 0 0
2672 5 8.9925 5.3955 25.179 0 0 0
2676 5 8.9925 5.3955 28.776 0 0 0
2680 5 8.9925 5.3955 32.373 0 0 0
2683 5 8.9925 7.194 1.7985 0 0 0
2686 5 10.791 8.9925 5.3955 0 0 0
2693 5 10.791 7.194 10.791 0 0 0
2694 5 10.791 8.9925 12.5895 0 0 0
2696 5 8.9925 8.9925 10.791 0 0 0
2698 5 10.791 8.9925 16.1865 0 0 0
2699 5 8.9925 7.194 16.1865 0 0 0
2700 5 8.9925 8.9925 14.388 0 0 0
2710 5 10.791 8.9925 26.9775 0 0 0
2717 5 10.791 7.194 32.373 0 0 0
2720 5 8.9925 8.9925 32.373 0 0 0
2723 5 8.9925 10.791 1.7985 0 0 0
2730 5 10.791 12.5895 8.9925 0 0 0
2732 5 8.9925 12.5895 7.194 0 0 0
2737 5 10.791 10.791 14.388 0 0 0
2739 5 8.9925 10.791 16.1865 0 0 0
2740 5 8.9925 12.5895 14.388 0 0 0
2745 5 10.791 10.791 21.582 0 0 0
2747 5 8.9925 10.791 23.3805 0 0 0
2748 5 8.9925 12.5895 21.582 0 0 0
2751 5 8.9925 10.791 26.9775 0 0 0
2754 5 10.791 12.5895 30.5745 0 0 0
2758 5 10.791 12.5895 34.1715 0 0 0
2763 5 8.9925 14.388 1.7985 0 0 0
2765 5 10.791 14.388 3.597 0 0 0
2779 5 8.9925 14.388 16.1865 0 0 0
2785 5 10.791 14.388 21.582 0 0 0
2787 5 8.9925 14.388 23.3805 0 0 0
2804 5 8.9925 19.7835 0.0 0 0 0
2806 5 10.791 19.7835 5.3955 0 0 0
2809 5 10.791 17.985 7.194 0 0 0
2812 5 8.9925 19.7835 7.194 0 0 0
2816 5 8.9925 19.7835 10.791 0 0 0
2821 5 10.791 17.985 17.985 0 0 0
2826 5 10.791 19.7835 23.3805 0 0 0
2831 5 8.9925 17.985 26.9775 0 0 0
2833 5 10.791 17.985 28.776 0 0 0
2838 5 10.791 19.7835 34.1715 0 0 0
2843 5 8.9925 21.582 1.7985 0 0 0
2847 5 8.9925 21.582 5.3955 0 0 0
2848 5 8.9925 23.3805 3.597 0 0 0
2851 5 8.9925 21.582 8.9925 0 0 0
2857 5 10.791 21.582 14.388 0 0 0
2858 5 10.791 23.3805 16.1865 0 0 0
2864 5 8.9925 23.3805 17.985 0 0 0
2867 5 8.9925 21.582 23.3805 0 0 0
2868 5 8.9925 23.3805 21.582 0 0 0
2879 5 8.9925 21.582 34.1715 0 0 0
2883 5 8.9925 25.179 1.7985 0 0 0
2884 5 8.9925 26.9775 0.0 0 0 0
2909 5 10.791 25.179 25.179 0 0 0
2912 5 8.9925 26.9775 25.179 0 0 0
2918 5 10.791 26.9775 34.1715 0 0 0
2921 5 10.791 28.776 0.0 0 0 0
2922 5 10.791 30.5745 1.7985 0 0 0
2924 5 8.9925 30.5745 0.0 0 0 0
2926 5 10.791 30.5745 5.3955 0 0 0
2930 5 10.791 30.5745 8.9925 0 0 0
2935 5 8.9925 28.776 12.5895 0 0 0
2942 5 10.791 30.5745 19.7835 0 0 0
2943 5 8.9925 28.776 19.7835 0 0 0
2945 5 10.791 28.776 21.582 0 0 0
2947 5 8.9925 28.776 23.3805 0 0 0
2949 5 10.791 28.776 25.179 0 0 0
2953 5 10.791 28.776 28.776 0 0 0
2955 5 8.9925 28.776 30.5745 0 0 0
2965 5 10.791 32.373 3.597 0 0 0
2976 5 8.9925 34.1715 10.791 0 0 0
2984 5 8.9925 34.1715 17.985 0 0 0
2985 5 10.791 32.373 21.582 0 0 0
2991 5 8.9925 32.373 26.9775 0 0 0
3000 5 8.9925 34.1715 32.373 0 0 0
3011 5 5.3955 0.0 8.9925 0 0 0
3019 5 5.3955 0.0 16.1865 0 0 0
3022 5 7.194 1.7985 19.7835 0 0 0
3023 5 5.3955 0.0 19.7835 0 0 0
3024 5 5.3955 1.7985 17.985 0 0 0
3027 5 5.3955 0.0 23.3805 0 0 0
3029 5 7.194 0.0 25.179 0 0 0
3031 5 5.3955 0.0 26.9775 0 0 0
3032 5 5.3955 1.7985 25.179 0 0 0
3036 5 5.3955 1.7985 28.776 0 0 0
3037 5 7.194 0.0 32.373 0 0 0
3041 5 7.194 3.597 0.0 0 0 0
3055 5 5.3955 3.597 12.5895 0 0 0
3061 5 7.194 3.597 17.985 0 0 0
3065 5 7.194 3.597 21.582 0 0 0
3069 5 7.194 3.597 25.179 0 0 0
3070 5 7.194 5.3955 26.9775 0 0 0
3074 5 7.194 5.3955 30.5745 0 0 0
3089 5 7.194 7.194 7.194 0 0 0
3091 5 5.3955 7.194 8.9925 0 0 0
3092 5 5.3955 8.9925 7.194 0 0 0
3094 5 7.194 8.9925 12.5895 0 0 0
3095 5 5.3955 7.194 12.5895 0 0 0
3107 5 5.3955 7.194 23.3805 0 0 0
3114 5 7.194 8.9925 30.5745 0 0 0
3119 5 5.3955 7.194 34.1715 0 0 0
3120 5 5.3955 8.9925 32.373 0 0 0
3121 5 7.194 10.791 0.0 0 0 0
3125 5 7.194 10.791 3.597 0 0 0
3134 5 7.194 12.5895 12.5895 0 0 0
3135 5 5.3955 10.791 12.5895 0 0 0
3139 5 5.3955 10.791 16.1865 0 0 0
3145 5 7.194 10.791 21.582 0 0 0
3147 5 5.3955 10.791 23.3805 0 0 0
3173 5 7.194 14.388 10.791 0 0 0
3177 5 7.194 14.388 14.388 0 0 0
3180 5 5.3955 16.1865 14.388 0 0 0
3182 5 7.194 16.1865 19.7835 0 0 0
3192 5 5.3955 16.1865 25.179 0 0 0
3193 5 7.194 14.388 28.776 0 0 0
3194 5 7.194 16.1865 30.5745 0 0 0
3196 5 5.3955 16.1865 28.776 0 0 0
3198 5 7.194 16.1865 34.1715 0 0 0
3199 5 5.3955 14.388 34.1715 0 0 0
3204 5 5.3955 19.7835 0.0 0 0 0
3209 5 7.194 17.985 7.194 0 0 0
3210 5 7.194 19.7835 8.9925 0 0 0
3212 5 5.3955 19.7835 7.194 0 0 0
3216 5 5.3955 19.7835 10.791 0 0 0
3217 5 7.194 17.985 14.388 0 0 0
3223 5 5.3955 17.985 19.7835 0 0 0
3224 5 5.3955 19.7835 17.985 0 0 0
3226 5 7.194 19.7835 23.3805 0 0 0
3228 5 5.3955 19.7835 21.582 0 0 0
3231 5 5.3955 17.985 26.9775 0 0 0
3234 5 7.194 19.7835 30.5745 0 0 0
3244 5 5.3955 23.3805 0.0 0 0 0
3250 5 7.194 23.3805 8.9925 0 0 0
3257 5 7.194 21.582 14.388 0 0 0
3259 5 5.3955 21.582 16.1865 0 0 0
3261 5 7.194 21.582 17.985 0 0 0
3262 5 7.194 23.3805 19.7835 0 0 0
3263 5 5.3955 21.582 19.7835 0 0 0
3270 5 7.194 23.3805 26.9775 0 0 0
3273 5 7.194 21.582 28.776 0 0 0
3280 5 5.3955 23.3805 32.373 0 0 0
3282 5 7.194 26.9775 1.7985 0 0 0
3286 5 7.194 26.9775 5.3955 0 0 0
3291 5 5.3955 25.179 8.9925 0 0 0
3295 5 5.3955 25.179 12.5895 0 0 0
3300 5 5.3955 26.9775 14.388 0 0 0
3303 5 5.3955 25.179 19.7835 0 0 0
3306 5 7.194 26.9775 23.3805 0 0 0
3308 5 5.3955 26.9775 21.582 0 0 0
3309 5 7.194 25.179 25.179 0 0 0
3312 5 5.3955 26.9775 25.179 0 0 0
3313 5 7.194 25.179 28.776 0 0 0
3314 5 7.194 26.9775 30.5745 0 0 0
3316 5 5.3955 26.9775 28.776 0 0 0
3332 5 5.3955 30.5745 7.194 0 0 0
3339 5 5.3955 28.776 16.1865 0 0 0
3343 5 5.3955 28.776 19.7835 0 0 0
3346 5 7.194 30.5745 23.3805 0 0 0
3350 5 7.194 30.5745 26.9775 0 0 0
3356 5 5.3955 30.5745 28.776 0 0 0
3358 5 7.194 30.5745 34.1715 0 0 0
3362 5 7.194 34.1715 1.7985 0 0 0
3364 5 5.3955 34.1715 0.0 0 0 0
3365 5 7.194 32.373 3.597 0 0 0
3368 5 5.3955 34.1715 3.597 0 0 0
3369 5 7.194 32.373 7.194 0 0 0
3377 5 7.194 32.373 14.388 0 0 0
3391 5 5.3955 32.373 26.9775 0 0 0
3392 5 5.3955 34.1715 25.179 0 0 0
3397 5 7.194 32.373 32.373 0 0 0
3401 5 3.597 0.0 0.0 0 0 0
3403 5 1.7985 0.0 1.7985 0 0 0
3404 5 1.7985 1.7985 0.0 0 0 0
3408 5 1.7985 1.7985 3.597 0 0 0
3410 5 3.597 1.7985 8.9925 0 0 0
3411 5 1.7985 0.0 8.9925 0 0 0
3412 5 1.7985 1.7985 7.194 0 0 0
3417 5 3.597 0.0 14.388 0 0 0
3419 5 1.7985 0.0 16.1865 0 0 0
3423 5 1.7985 0.0 19.7835 0 0 0
3448 5 1.7985 5.3955 3.597 0 0 0
3452 5 1.7985 5.3955 7.194 0 0 0
3459 5 1.7985 3.597 16.1865 0 0 0
3460 5 1.7985 5.3955 14.388 0 0 0
3461 5 3.597 3.597 17.985 0 0 0
3465 5 3.597 3.597 21.582 0 0 0
3469 5 3.597 3.597 25.179 0 0 0
3471 5 1.7985 3.597 26.9775 0 0 0
3478 5 3.597 5.3955 34.1715 0 0 0
3481 5 3.597 7.194 0.0 0 0 0
3485 5 3.597 7.194 3.597 0 0 0
3491 5 1.7985 7.194 8.9925 0 0 0
3493 5 3.597 7.194 10.791 0 0 0
3497 5 3.597 7.194 14.388 0 0 0
3499 5 1.7985 7.194 16.1865 0 0 0
3503 5 1.7985 7.194 19.7835 0 0 0
3512 5 1.7985 8.9925 25.179 0 0 0
3519 5 1.7985 7.194 34.1715 0 0 0
3526 5 3.597 12.5895 5.3955 0 0 0
3527 5 1.7985 10.791 5.3955 0 0 0
3536 5 1.7985 12.5895 10.791 0 0 0
3537 5 3.597 10.791 14.388 0 0 0
3540 5 1.7985 12.5895 14.388 0 0 0
3541 5 3.597 10.791 17.985 0 0 0
3544 5 1.7985 12.5895 17.985 0 0 0
3550 5 3.597 12.5895 26.9775 0 0 0
3553 5 3.597 10.791 28.776 0 0 0
3556 5 1.7985 12.5895 28.776 0 0 0
3559 5 1.7985 10.791 34.1715 0 0 0
3560 5 1.7985 12.5895 32.373 0 0 0
3567 5 1.7985 14.388 5.3955 0 0 0
3582 5 3.597 16.1865 19.7835 0 0 0
3583 5 1.7985 14.388 19.7835 0 0 0
3585 5 3.597 14.388 21.582 0 0 0
3591 5 1.7985 14.388 26.9775 0 0 0
3595 5 1.7985 14.388 30.5745 0 0 0
3600 5 1.7985 16.1865 32.373 0 0 0
3604 5 1.7985 19.7835 0.0 0 0 0
3605 5 3.597 17.985 3.597 0 0 0
3612 5 1.7985 19.7835 7.194 0 0 0
3624 5 1.7985 19.7835 17.985 0 0 0
3626 5 3.597 19.7835 23.3805 0 0 0
3629 5 3.597 17.985 25.179 0 0 0
3637 5 3.597 17.985 32.373 0 0 0
3639 5 1.7985 17.985 34.1715 0 0 0
3642 5 3.597 23.3805 1.7985 0 0 0
3651 5 1.7985 21.582 8.9925 0 0 0
3656 5 1.7985 23.3805 10.791 0 0 0
3659 5 1.7985 21.582 16.1865 0 0 0
3663 5 1.7985 21.582 19.7835 0 0 0
3668 5 1.7985 23.3805 21.582 0 0 0
3670 5 3.597 23.3805 26.9775 0 0 0
3671 5 1.7985 21.582 26.9775 0 0 0
3676 5 1.7985 23.3805 28.776 0 0 0
3677 5 3.597 21.582 32.373 0 0 0
3680 5 1.7985 23.3805 32.373 0 0 0
3682 5 3.597 26.9775 1.7985 0 0 0
3683 5 1.7985 25.179 1.7985 0 0 0
3686 5 3.597 26.9775 5.3955 0 0 0
3691 5 1.7985 25.179 8.9925 0 0 0
3695 5 1.7985 25.179 12.5895 0 0 0
3697 5 3.597 25.179 14.388 0 0 0
3708 5 1.7985 26.9775 21.582 0 0 0
3711 5 1.7985 25.179 26.9775 0 0 0
3717 5 3.597 25.179 32.373 0 0 0
3720 5 1.7985 26.9775 32.373 0 0 0
3722 5 3.597 30.5745 1.7985 0 0 0
3725 5 3.597 28.776 3.597 0 0 0
3726 5 3.597 30.5745 5.3955 0 0 0
3728 5 1.7985 30.5745 3.597 0 0 0
3733 5 3.597 28.776 10.791 0 0 0
3734 5 3.597 30.5745 12.5895 0 0 0
3737 5 3.597 28.776 14.388 0 0 0
3738 5 3.597 30.5745 16.1865 0 0 0
3742 5 3.597 30.5745 19.7835 0 0 0
3743 5 1.7985 28.776 19.7835 0 0 0
3755 5 1.7985 28.776 30.5745 0 0 0
3756 5 1.7985 30.5745 28.776 0 0 0
3758 5 3.597 30.5745 34.1715 0 0 0
3762 5 3.597 34.1715 1.7985 0 0 0
3763 5 1.7985 32.373 1.7985 0 0 0
3764 5 1.7985 34.1715 0.0 0 0 0
3765 5 3.597 32.373 3.597 0 0 0
3767 5 1.7985 32.373 5.3955 0 0 0
3768 5 1.7985 34.1715 3.597 0 0 0
3772 5 1.7985 34.1715 7.194 0 0 0
3777 5 3.597 32.373 14.388 0 0 0
3785 5 3.597 32.373 21.582 0 0 0
3792 5 1.7985 34.1715 25.179 0 0 0
3793 5 3.597 32.373 28.776 0 0 0
3794 5 3.597 34.1715 30.5745 0 0 0
3795 5 1.7985 32.373 30.5745 0 0 0
3802 5 0.0 1.7985 1.7985 0 0 0
3804 5 0.0 1.7985 5.3955 0 0 0
3806 5 0.0 1.7985 8.9925 0 0 0
3808 5 0.0 1.7985 12.5895 0 0 0
3809 5 0.0 0.0 14.388 0 0 0
3812 5 0.0 1.7985 19.7835 0 0 0
3822 5 0.0 5.3955 1.7985 0 0 0
3836 5 0.0 5.3955 26.9775 0 0 0
3849 5 0.0 7.194 14.388 0 0 0
3851 5 0.0 7.194 17.985 0 0 0
3853 5 0.0 7.194 21.582 0 0 0
3857 5 0.0 7.194 28.776 0 0 0
3859 5 0.0 7.194 32.373 0 0 0
3860 5 0.0 8.9925 34.1715 0 0 0
3864 5 0.0 12.5895 5.3955 0 0 0
3865 5 0.0 10.791 7.194 0 0 0
3866 5 0.0 12.5895 8.9925 0 0 0
3872 5 0.0 12.5895 19.7835 0 0 0
3874 5 0.0 12.5895 23.3805 0 0 0
3880 5 0.0 12.5895 34.1715 0 0 0
3881 5 0.0 14.388 0.0 0 0 0
3883 5 0.0 14.388 3.597 0 0 0
3885 5 0.0 14.388 7.194 0 0 0
3894 5 0.0 16.1865 23.3805 0 0 0
3897 5 0.0 14.388 28.776 0 0 0
3901 5 0.0 17.985 0.0 0 0 0
3904 5 0.0 19.7835 5.3955 0 0 0
3905 5 0.0 17.985 7.194 0 0 0
3907 5 0.0 17.985 10.791 0 0 0
3908 5 0.0 19.7835 12.5895 0 0 0
3909 5 0.0 17.985 14.388 0 0 0
3912 5 0.0 19.7835 19.7835 0 0 0
3921 5 0.0 21.582 0.0 0 0 0
3922 5 0.0 23.3805 1.7985 0 0 0
3923 5 0.0 21.582 3.597 0 0 0
3928 5 0.0 23.3805 12.5895 0 0 0
3929 5 0.0 21.582 14.388 0 0 0
3935 5 0.0 21.582 25.179 0 0 0
3940 5 0.0 23.3805 34.1715 0 0 0
3943 5 0.0 25.179 3.597 0 0 0
3960 5 0.0 26.9775 34.1715 0 0 0
3968 5 0.0 30.5745 12.5895 0 0 0
3972 5 0.0 30.5745 19.7835 0 0 0
3986 5 0.0 34.1715 8.9925 0 0 0
3994 5 0.0 34.1715 23.3805 0 0 0
3996 5 0.0 34.1715 26.9775 0 0 0
3999 5 0.0 32.373 32.373 0 0 0
