LAMMPS data file via write_data version 30 Jul 2021 timestep = 0
4000 atoms
5 atom types
0 35.97 xlo xhi
0 35.97 ylo yhi
0 35.97 zlo zhi
0.0 0.0 0.0 xy xz yz
 
Masses
 
1 1.0
2 2.0
3 3.0
4 4.0
5 5.0
 
Atoms  # atomic
 
3934 1 0.0 23.3805 23.3805 0 0 0
3293 1 7.194 25.179 10.791 0 0 0
3201 1 7.194 17.985 0.0 0 0 0
2187 1 16.1865 32.373 23.3805 0 0 0
1640 1 19.7835 19.7835 32.373 0 0 0
771 1 26.9775 14.388 8.9925 0 0 0
262 1 32.373 5.3955 19.7835 0 0 0
1819 1 16.1865 0.0 16.1865 0 0 0
3431 1 1.7985 0.0 26.9775 0 0 0
3213 1 7.194 17.985 10.791 0 0 0
1604 1 19.7835 19.7835 0.0 0 0 0
814 1 28.776 19.7835 12.5895 0 0 0
3523 1 1.7985 10.791 1.7985 0 0 0
3608 1 1.7985 19.7835 3.597 0 0 0
3631 1 1.7985 17.985 26.9775 0 0 0
2211 1 12.5895 0.0 8.9925 0 0 0
340 1 30.5745 12.5895 14.388 0 0 0
6 1 34.1715 1.7985 7.194 0 0 0
498 1 32.373 26.9775 16.1865 0 0 0
3481 1 3.597 7.194 0.0 0 0 0
2650 1 10.791 5.3955 8.9925 0 0 0
134 1 34.1715 23.3805 21.582 0 0 0
318 1 32.373 8.9925 34.1715 0 0 0
2877 1 10.791 21.582 32.373 0 0 0
3327 1 5.3955 28.776 5.3955 0 0 0
3103 1 5.3955 7.194 19.7835 0 0 0
1062 1 25.179 5.3955 19.7835 0 0 0
3506 1 3.597 8.9925 23.3805 0 0 0
812 1 26.9775 19.7835 7.194 0 0 0
3275 1 5.3955 21.582 30.5745 0 0 0
3271 1 5.3955 21.582 26.9775 0 0 0
1481 1 21.582 7.194 0.0 0 0 0
907 1 26.9775 25.179 23.3805 0 0 0
745 1 28.776 10.791 21.582 0 0 0
265 1 32.373 3.597 21.582 0 0 0
3667 1 1.7985 21.582 23.3805 0 0 0
2479 1 12.5895 21.582 34.1715 0 0 0
2838 1 10.791 19.7835 34.1715 0 0 0
3310 1 7.194 26.9775 26.9775 0 0 0
1942 1 17.985 12.5895 19.7835 0 0 0
2669 1 10.791 3.597 25.179 0 0 0
2310 1 14.388 8.9925 26.9775 0 0 0
1889 1 17.985 7.194 7.194 0 0 0
904 1 26.9775 26.9775 17.985 0 0 0
830 1 28.776 19.7835 26.9775 0 0 0
2144 1 16.1865 30.5745 17.985 0 0 0
882 1 28.776 26.9775 1.7985 0 0 0
3708 1 1.7985 26.9775 21.582 0 0 0
3647 1 1.7985 21.582 5.3955 0 0 0
197 1 34.1715 32.373 30.5745 0 0 0
1517 1 21.582 7.194 32.373 0 0 0
3648 1 1.7985 23.3805 3.597 0 0 0
1252 1 23.3805 23.3805 7.194 0 0 0
3839 1 0.0 3.597 32.373 0 0 0
123 1 34.1715 21.582 5.3955 0 0 0
364 1 30.5745 16.1865 0.0 0 0 0
1756 1 19.7835 30.5745 28.776 0 0 0
1959 1 16.1865 10.791 34.1715 0 0 0
1796 1 19.7835 34.1715 28.776 0 0 0
2024 1 16.1865 19.7835 17.985 0 0 0
2394 1 14.388 16.1865 30.5745 0 0 0
908 1 26.9775 26.9775 21.582 0 0 0
269 1 32.373 3.597 25.179 0 0 0
3945 1 0.0 25.179 7.194 0 0 0
3037 1 7.194 0.0 32.373 0 0 0
2115 1 16.1865 25.179 30.5745 0 0 0
31 1 34.1715 3.597 19.7835 0 0 0
3830 1 0.0 5.3955 16.1865 0 0 0
2489 1 14.388 25.179 7.194 0 0 0
3938 1 0.0 23.3805 30.5745 0 0 0
3425 1 3.597 0.0 21.582 0 0 0
1903 1 16.1865 7.194 19.7835 0 0 0
1121 1 25.179 10.791 0.0 0 0 0
2448 1 12.5895 23.3805 3.597 0 0 0
2120 1 16.1865 26.9775 32.373 0 0 0
640 1 26.9775 1.7985 32.373 0 0 0
2739 1 8.9925 10.791 16.1865 0 0 0
2964 1 8.9925 34.1715 0.0 0 0 0
2997 1 10.791 32.373 32.373 0 0 0
3084 1 5.3955 8.9925 0.0 0 0 0
3933 1 0.0 21.582 21.582 0 0 0
1599 1 19.7835 14.388 34.1715 0 0 0
689 1 28.776 7.194 7.194 0 0 0
9 1 34.1715 0.0 16.1865 0 0 0
2524 1 12.5895 30.5745 0.0 0 0 0
245 1 32.373 3.597 3.597 0 0 0
2651 1 8.9925 3.597 8.9925 0 0 0
2754 1 10.791 12.5895 30.5745 0 0 0
2936 1 8.9925 30.5745 10.791 0 0 0
307 1 30.5745 7.194 23.3805 0 0 0
3910 1 0.0 19.7835 16.1865 0 0 0
1992 1 16.1865 16.1865 25.179 0 0 0
2547 1 12.5895 28.776 23.3805 0 0 0
200 1 34.1715 34.1715 32.373 0 0 0
1307 1 23.3805 25.179 23.3805 0 0 0
1755 1 19.7835 28.776 30.5745 0 0 0
1734 1 21.582 30.5745 12.5895 0 0 0
1268 1 23.3805 23.3805 21.582 0 0 0
478 1 32.373 23.3805 34.1715 0 0 0
2554 1 14.388 30.5745 30.5745 0 0 0
552 1 30.5745 30.5745 25.179 0 0 0
97 1 34.1715 14.388 30.5745 0 0 0
2605 1 10.791 0.0 3.597 0 0 0
3227 1 5.3955 17.985 23.3805 0 0 0
57 1 34.1715 7.194 30.5745 0 0 0
2561 1 14.388 32.373 0.0 0 0 0
490 1 32.373 26.9775 8.9925 0 0 0
3117 1 7.194 7.194 32.373 0 0 0
218 1 32.373 1.7985 16.1865 0 0 0
1838 1 17.985 1.7985 34.1715 0 0 0
875 1 26.9775 21.582 30.5745 0 0 0
2991 1 8.9925 32.373 26.9775 0 0 0
2045 1 17.985 21.582 3.597 0 0 0
2580 1 12.5895 34.1715 14.388 0 0 0
3062 1 7.194 5.3955 19.7835 0 0 0
2270 1 14.388 5.3955 26.9775 0 0 0
716 1 26.9775 8.9925 28.776 0 0 0
833 1 28.776 17.985 28.776 0 0 0
1888 1 16.1865 8.9925 3.597 0 0 0
2980 1 8.9925 34.1715 14.388 0 0 0
861 1 28.776 21.582 17.985 0 0 0
1212 1 23.3805 19.7835 7.194 0 0 0
3358 1 7.194 30.5745 34.1715 0 0 0
1041 1 25.179 3.597 0.0 0 0 0
3091 1 5.3955 7.194 8.9925 0 0 0
132 1 34.1715 23.3805 17.985 0 0 0
169 1 34.1715 28.776 16.1865 0 0 0
3060 1 5.3955 5.3955 14.388 0 0 0
77 1 34.1715 10.791 30.5745 0 0 0
320 1 30.5745 8.9925 32.373 0 0 0
3052 1 5.3955 5.3955 7.194 0 0 0
1077 1 25.179 3.597 32.373 0 0 0
2032 1 16.1865 19.7835 25.179 0 0 0
2424 1 12.5895 19.7835 17.985 0 0 0
2502 1 14.388 26.9775 19.7835 0 0 0
3680 1 1.7985 23.3805 32.373 0 0 0
78 1 34.1715 12.5895 28.776 0 0 0
488 1 30.5745 26.9775 3.597 0 0 0
3225 1 7.194 17.985 21.582 0 0 0
378 1 32.373 16.1865 16.1865 0 0 0
486 1 32.373 26.9775 5.3955 0 0 0
1876 1 16.1865 5.3955 28.776 0 0 0
3142 1 7.194 12.5895 19.7835 0 0 0
3780 1 1.7985 34.1715 14.388 0 0 0
729 1 28.776 10.791 7.194 0 0 0
2028 1 16.1865 19.7835 21.582 0 0 0
2696 1 8.9925 8.9925 10.791 0 0 0
2072 1 16.1865 23.3805 25.179 0 0 0
1986 1 17.985 16.1865 23.3805 0 0 0
1227 1 23.3805 17.985 23.3805 0 0 0
839 1 26.9775 17.985 34.1715 0 0 0
211 1 30.5745 0.0 8.9925 0 0 0
2324 1 12.5895 12.5895 0.0 0 0 0
2699 1 8.9925 7.194 16.1865 0 0 0
1535 1 19.7835 10.791 12.5895 0 0 0
1726 1 21.582 30.5745 5.3955 0 0 0
155 1 34.1715 25.179 26.9775 0 0 0
1482 1 21.582 8.9925 1.7985 0 0 0
928 1 26.9775 30.5745 3.597 0 0 0
972 1 26.9775 34.1715 7.194 0 0 0
1214 1 25.179 19.7835 12.5895 0 0 0
1146 1 25.179 12.5895 23.3805 0 0 0
3923 1 0.0 21.582 3.597 0 0 0
2409 1 14.388 17.985 7.194 0 0 0
2381 1 14.388 14.388 17.985 0 0 0
2512 1 12.5895 26.9775 25.179 0 0 0
2700 1 8.9925 8.9925 14.388 0 0 0
3384 1 5.3955 34.1715 17.985 0 0 0
3018 1 7.194 1.7985 16.1865 0 0 0
2212 1 12.5895 1.7985 7.194 0 0 0
2355 1 12.5895 10.791 30.5745 0 0 0
624 1 26.9775 1.7985 17.985 0 0 0
1262 1 25.179 23.3805 19.7835 0 0 0
1691 1 19.7835 25.179 8.9925 0 0 0
2030 1 17.985 19.7835 26.9775 0 0 0
813 1 28.776 17.985 10.791 0 0 0
3111 1 5.3955 7.194 26.9775 0 0 0
2106 1 17.985 26.9775 23.3805 0 0 0
1292 1 23.3805 26.9775 7.194 0 0 0
1829 1 17.985 0.0 25.179 0 0 0
1896 1 16.1865 8.9925 10.791 0 0 0
3247 1 5.3955 21.582 5.3955 0 0 0
3779 1 1.7985 32.373 16.1865 0 0 0
237 1 32.373 0.0 32.373 0 0 0
220 1 30.5745 1.7985 14.388 0 0 0
1113 1 25.179 7.194 28.776 0 0 0
2665 1 10.791 3.597 21.582 0 0 0
1139 1 23.3805 10.791 16.1865 0 0 0
1175 1 23.3805 14.388 12.5895 0 0 0
2847 1 8.9925 21.582 5.3955 0 0 0
3452 1 1.7985 5.3955 7.194 0 0 0
2891 1 8.9925 25.179 8.9925 0 0 0
1474 1 21.582 5.3955 30.5745 0 0 0
1744 1 19.7835 30.5745 17.985 0 0 0
2852 1 8.9925 23.3805 7.194 0 0 0
3268 1 5.3955 23.3805 21.582 0 0 0
1825 1 17.985 0.0 21.582 0 0 0
1998 1 17.985 16.1865 34.1715 0 0 0
2609 1 10.791 0.0 7.194 0 0 0
3799 1 1.7985 32.373 34.1715 0 0 0
1554 1 21.582 12.5895 30.5745 0 0 0
3783 1 1.7985 32.373 19.7835 0 0 0
2203 1 12.5895 0.0 1.7985 0 0 0
779 1 26.9775 14.388 16.1865 0 0 0
3809 1 0.0 0.0 14.388 0 0 0
3173 1 7.194 14.388 10.791 0 0 0
852 1 26.9775 23.3805 7.194 0 0 0
354 1 32.373 12.5895 30.5745 0 0 0
1024 1 23.3805 1.7985 17.985 0 0 0
3480 1 1.7985 5.3955 32.373 0 0 0
3039 1 5.3955 0.0 34.1715 0 0 0
2806 1 10.791 19.7835 5.3955 0 0 0
2683 1 8.9925 7.194 1.7985 0 0 0
1366 1 25.179 34.1715 5.3955 0 0 0
406 1 32.373 19.7835 5.3955 0 0 0
1713 1 21.582 25.179 28.776 0 0 0
1181 1 25.179 14.388 17.985 0 0 0
3922 1 0.0 23.3805 1.7985 0 0 0
2656 1 8.9925 5.3955 10.791 0 0 0
2612 1 8.9925 1.7985 7.194 0 0 0
1345 1 25.179 28.776 21.582 0 0 0
2385 1 14.388 14.388 21.582 0 0 0
3459 1 1.7985 3.597 16.1865 0 0 0
1047 1 23.3805 3.597 5.3955 0 0 0
519 1 30.5745 25.179 34.1715 0 0 0
3879 1 0.0 10.791 32.373 0 0 0
372 1 30.5745 16.1865 7.194 0 0 0
3683 1 1.7985 25.179 1.7985 0 0 0
1817 1 17.985 0.0 14.388 0 0 0
2579 1 12.5895 32.373 16.1865 0 0 0
3389 1 7.194 32.373 25.179 0 0 0
507 1 30.5745 25.179 23.3805 0 0 0
3633 1 3.597 17.985 28.776 0 0 0
1757 1 21.582 28.776 32.373 0 0 0
2379 1 12.5895 14.388 16.1865 0 0 0
244 1 30.5745 5.3955 0.0 0 0 0
366 1 32.373 16.1865 5.3955 0 0 0
666 1 28.776 5.3955 23.3805 0 0 0
335 1 30.5745 10.791 12.5895 0 0 0
1247 1 23.3805 21.582 5.3955 0 0 0
1085 1 25.179 7.194 3.597 0 0 0
2445 1 14.388 21.582 3.597 0 0 0
2347 1 12.5895 10.791 23.3805 0 0 0
13 1 34.1715 0.0 23.3805 0 0 0
1500 1 19.7835 8.9925 14.388 0 0 0
2157 1 17.985 28.776 32.373 0 0 0
3931 1 0.0 21.582 17.985 0 0 0
915 1 26.9775 25.179 30.5745 0 0 0
2507 1 12.5895 25.179 23.3805 0 0 0
2541 1 14.388 28.776 17.985 0 0 0
1026 1 25.179 1.7985 23.3805 0 0 0
503 1 30.5745 25.179 19.7835 0 0 0
3001 1 7.194 0.0 0.0 0 0 0
2496 1 12.5895 26.9775 10.791 0 0 0
2458 1 14.388 23.3805 16.1865 0 0 0
3499 1 1.7985 7.194 16.1865 0 0 0
3199 1 5.3955 14.388 34.1715 0 0 0
266 1 32.373 5.3955 23.3805 0 0 0
2914 1 10.791 26.9775 30.5745 0 0 0
2822 1 10.791 19.7835 19.7835 0 0 0
3342 1 7.194 30.5745 19.7835 0 0 0
1667 1 19.7835 21.582 23.3805 0 0 0
1568 1 19.7835 16.1865 3.597 0 0 0
1420 1 19.7835 1.7985 14.388 0 0 0
1933 1 17.985 10.791 10.791 0 0 0
3642 1 3.597 23.3805 1.7985 0 0 0
3696 1 1.7985 26.9775 10.791 0 0 0
1519 1 19.7835 7.194 34.1715 0 0 0
2993 1 10.791 32.373 28.776 0 0 0
609 1 28.776 0.0 7.194 0 0 0
1999 1 16.1865 14.388 34.1715 0 0 0
3450 1 3.597 5.3955 8.9925 0 0 0
1154 1 25.179 12.5895 30.5745 0 0 0
619 1 26.9775 0.0 16.1865 0 0 0
4 1 34.1715 1.7985 3.597 0 0 0
577 1 32.373 32.373 14.388 0 0 0
3957 1 0.0 25.179 28.776 0 0 0
749 1 28.776 10.791 25.179 0 0 0
1879 1 16.1865 3.597 34.1715 0 0 0
2435 1 12.5895 17.985 30.5745 0 0 0
3826 1 0.0 5.3955 8.9925 0 0 0
2752 1 8.9925 12.5895 25.179 0 0 0
3992 1 0.0 34.1715 19.7835 0 0 0
2682 1 10.791 8.9925 1.7985 0 0 0
3907 1 0.0 17.985 10.791 0 0 0
1251 1 23.3805 21.582 8.9925 0 0 0
3893 1 0.0 14.388 21.582 0 0 0
509 1 32.373 25.179 25.179 0 0 0
3586 1 3.597 16.1865 23.3805 0 0 0
2743 1 8.9925 10.791 19.7835 0 0 0
2094 1 17.985 26.9775 12.5895 0 0 0
1459 1 19.7835 3.597 16.1865 0 0 0
3367 1 5.3955 32.373 5.3955 0 0 0
2648 1 8.9925 5.3955 3.597 0 0 0
2101 1 17.985 25.179 17.985 0 0 0
480 1 30.5745 23.3805 32.373 0 0 0
3600 1 1.7985 16.1865 32.373 0 0 0
403 1 30.5745 17.985 1.7985 0 0 0
1278 1 25.179 23.3805 34.1715 0 0 0
3336 1 5.3955 30.5745 10.791 0 0 0
2567 1 12.5895 32.373 5.3955 0 0 0
1388 1 23.3805 34.1715 21.582 0 0 0
3288 1 5.3955 26.9775 3.597 0 0 0
724 1 26.9775 12.5895 0.0 0 0 0
1427 1 19.7835 0.0 23.3805 0 0 0
3627 1 1.7985 17.985 23.3805 0 0 0
3049 1 7.194 3.597 7.194 0 0 0
3369 1 7.194 32.373 7.194 0 0 0
506 1 32.373 26.9775 23.3805 0 0 0
1324 1 23.3805 30.5745 0.0 0 0 0
127 1 34.1715 21.582 12.5895 0 0 0
2702 1 10.791 8.9925 19.7835 0 0 0
2909 1 10.791 25.179 25.179 0 0 0
561 1 32.373 32.373 0.0 0 0 0
3013 1 7.194 0.0 10.791 0 0 0
3245 1 7.194 21.582 3.597 0 0 0
799 1 26.9775 14.388 34.1715 0 0 0
2382 1 14.388 16.1865 19.7835 0 0 0
3051 1 5.3955 3.597 8.9925 0 0 0
65 1 34.1715 10.791 8.9925 0 0 0
243 1 30.5745 3.597 1.7985 0 0 0
2923 1 8.9925 28.776 1.7985 0 0 0
129 1 34.1715 21.582 16.1865 0 0 0
8 1 34.1715 1.7985 10.791 0 0 0
3137 1 7.194 10.791 14.388 0 0 0
565 1 32.373 32.373 3.597 0 0 0
397 1 32.373 14.388 32.373 0 0 0
3948 1 0.0 26.9775 12.5895 0 0 0
2855 1 8.9925 21.582 12.5895 0 0 0
3686 1 3.597 26.9775 5.3955 0 0 0
1065 1 25.179 3.597 21.582 0 0 0
3869 1 0.0 10.791 14.388 0 0 0
3263 1 5.3955 21.582 19.7835 0 0 0
2168 1 16.1865 34.1715 3.597 0 0 0
2791 1 8.9925 14.388 26.9775 0 0 0
2430 1 14.388 19.7835 26.9775 0 0 0
3340 1 5.3955 30.5745 14.388 0 0 0
3058 1 7.194 5.3955 16.1865 0 0 0
1618 1 21.582 19.7835 16.1865 0 0 0
1909 1 17.985 7.194 25.179 0 0 0
3621 1 3.597 17.985 17.985 0 0 0
2705 1 10.791 7.194 21.582 0 0 0
649 1 28.776 3.597 7.194 0 0 0
1567 1 19.7835 14.388 5.3955 0 0 0
2262 1 14.388 5.3955 19.7835 0 0 0
548 1 30.5745 30.5745 21.582 0 0 0
2434 1 14.388 19.7835 30.5745 0 0 0
1313 1 25.179 25.179 28.776 0 0 0
3045 1 7.194 3.597 3.597 0 0 0
82 1 34.1715 16.1865 0.0 0 0 0
1834 1 17.985 1.7985 30.5745 0 0 0
2025 1 17.985 17.985 21.582 0 0 0
2726 1 10.791 12.5895 5.3955 0 0 0
1705 1 21.582 25.179 21.582 0 0 0
3749 1 3.597 28.776 25.179 0 0 0
823 1 26.9775 17.985 19.7835 0 0 0
418 1 32.373 19.7835 16.1865 0 0 0
1589 1 21.582 14.388 25.179 0 0 0
1300 1 23.3805 26.9775 14.388 0 0 0
2675 1 8.9925 3.597 30.5745 0 0 0
2193 1 17.985 32.373 28.776 0 0 0
3334 1 7.194 30.5745 12.5895 0 0 0
1017 1 25.179 0.0 14.388 0 0 0
2151 1 16.1865 28.776 26.9775 0 0 0
2673 1 10.791 3.597 28.776 0 0 0
253 1 32.373 3.597 10.791 0 0 0
2734 1 10.791 12.5895 12.5895 0 0 0
3776 1 1.7985 34.1715 10.791 0 0 0
1283 1 23.3805 25.179 1.7985 0 0 0
3370 1 7.194 34.1715 8.9925 0 0 0
711 1 26.9775 7.194 26.9775 0 0 0
85 1 34.1715 14.388 8.9925 0 0 0
1887 1 16.1865 7.194 5.3955 0 0 0
3404 1 1.7985 1.7985 0.0 0 0 0
1793 1 21.582 32.373 28.776 0 0 0
3704 1 1.7985 26.9775 17.985 0 0 0
1137 1 25.179 10.791 14.388 0 0 0
3665 1 3.597 21.582 21.582 0 0 0
2504 1 12.5895 26.9775 17.985 0 0 0
1559 1 19.7835 10.791 34.1715 0 0 0
2004 1 16.1865 19.7835 0.0 0 0 0
2792 1 8.9925 16.1865 25.179 0 0 0
3768 1 1.7985 34.1715 3.597 0 0 0
79 1 34.1715 10.791 34.1715 0 0 0
277 1 32.373 3.597 32.373 0 0 0
2335 1 12.5895 10.791 12.5895 0 0 0
3597 1 3.597 14.388 32.373 0 0 0
764 1 26.9775 16.1865 0.0 0 0 0
1255 1 23.3805 21.582 12.5895 0 0 0
2088 1 16.1865 26.9775 3.597 0 0 0
2358 1 14.388 12.5895 34.1715 0 0 0
920 1 26.9775 26.9775 32.373 0 0 0
3461 1 3.597 3.597 17.985 0 0 0
3033 1 7.194 0.0 28.776 0 0 0
2807 1 8.9925 17.985 5.3955 0 0 0
3552 1 1.7985 12.5895 25.179 0 0 0
1673 1 21.582 21.582 28.776 0 0 0
2292 1 12.5895 8.9925 7.194 0 0 0
821 1 28.776 17.985 17.985 0 0 0
1198 1 25.179 16.1865 34.1715 0 0 0
1078 1 25.179 5.3955 34.1715 0 0 0
1440 1 19.7835 1.7985 32.373 0 0 0
2299 1 12.5895 7.194 16.1865 0 0 0
571 1 30.5745 32.373 8.9925 0 0 0
2783 1 8.9925 14.388 19.7835 0 0 0
193 1 34.1715 32.373 23.3805 0 0 0
3518 1 3.597 8.9925 34.1715 0 0 0
1012 1 23.3805 1.7985 7.194 0 0 0
1495 1 19.7835 7.194 12.5895 0 0 0
1622 1 21.582 19.7835 19.7835 0 0 0
704 1 26.9775 8.9925 17.985 0 0 0
15 1 34.1715 0.0 26.9775 0 0 0
1801 1 17.985 0.0 0.0 0 0 0
1881 1 17.985 7.194 0.0 0 0 0
213 1 32.373 0.0 10.791 0 0 0
3955 1 0.0 25.179 25.179 0 0 0
940 1 26.9775 30.5745 14.388 0 0 0
2122 1 17.985 30.5745 1.7985 0 0 0
1441 1 21.582 3.597 0.0 0 0 0
1404 1 19.7835 1.7985 0.0 0 0 0
3487 1 1.7985 7.194 5.3955 0 0 0
464 1 30.5745 23.3805 17.985 0 0 0
3960 1 0.0 26.9775 34.1715 0 0 0
2689 1 10.791 7.194 7.194 0 0 0
2881 1 10.791 25.179 0.0 0 0 0
570 1 32.373 34.1715 8.9925 0 0 0
1220 1 23.3805 19.7835 14.388 0 0 0
3010 1 7.194 1.7985 8.9925 0 0 0
2642 1 10.791 5.3955 1.7985 0 0 0
2959 1 8.9925 28.776 34.1715 0 0 0
1504 1 19.7835 8.9925 17.985 0 0 0
1729 1 21.582 28.776 7.194 0 0 0
2403 1 12.5895 17.985 1.7985 0 0 0
145 1 34.1715 25.179 8.9925 0 0 0
3410 1 3.597 1.7985 8.9925 0 0 0
1912 1 16.1865 8.9925 25.179 0 0 0
3859 1 0.0 7.194 32.373 0 0 0
2859 1 8.9925 21.582 16.1865 0 0 0
3722 1 3.597 30.5745 1.7985 0 0 0
95 1 34.1715 14.388 26.9775 0 0 0
1217 1 25.179 17.985 14.388 0 0 0
832 1 26.9775 19.7835 25.179 0 0 0
966 1 28.776 34.1715 5.3955 0 0 0
557 1 32.373 28.776 32.373 0 0 0
2488 1 12.5895 26.9775 3.597 0 0 0
176 1 34.1715 30.5745 25.179 0 0 0
2065 1 17.985 21.582 21.582 0 0 0
1799 1 19.7835 32.373 34.1715 0 0 0
1647 1 19.7835 21.582 5.3955 0 0 0
330 1 32.373 12.5895 8.9925 0 0 0
2884 1 8.9925 26.9775 0.0 0 0 0
535 1 30.5745 28.776 12.5895 0 0 0
2652 1 8.9925 5.3955 7.194 0 0 0
348 1 30.5745 12.5895 21.582 0 0 0
841 1 28.776 21.582 0.0 0 0 0
620 1 26.9775 1.7985 14.388 0 0 0
2517 1 14.388 25.179 32.373 0 0 0
2015 1 16.1865 17.985 12.5895 0 0 0
2781 1 10.791 14.388 17.985 0 0 0
733 1 28.776 10.791 10.791 0 0 0
2386 1 14.388 16.1865 23.3805 0 0 0
1450 1 21.582 5.3955 8.9925 0 0 0
581 1 32.373 32.373 17.985 0 0 0
2301 1 14.388 7.194 17.985 0 0 0
635 1 26.9775 0.0 30.5745 0 0 0
3936 1 0.0 23.3805 26.9775 0 0 0
2952 1 8.9925 30.5745 25.179 0 0 0
3771 1 1.7985 32.373 8.9925 0 0 0
1710 1 21.582 26.9775 26.9775 0 0 0
3927 1 0.0 21.582 10.791 0 0 0
553 1 32.373 28.776 28.776 0 0 0
3003 1 5.3955 0.0 1.7985 0 0 0
1011 1 23.3805 0.0 8.9925 0 0 0
2050 1 17.985 23.3805 8.9925 0 0 0
1633 1 21.582 17.985 28.776 0 0 0
1016 1 23.3805 1.7985 10.791 0 0 0
1539 1 19.7835 10.791 16.1865 0 0 0
163 1 34.1715 28.776 5.3955 0 0 0
3542 1 3.597 12.5895 19.7835 0 0 0
1961 1 17.985 14.388 0.0 0 0 0
3626 1 3.597 19.7835 23.3805 0 0 0
146 1 34.1715 26.9775 7.194 0 0 0
2110 1 17.985 26.9775 26.9775 0 0 0
2043 1 16.1865 21.582 1.7985 0 0 0
3176 1 5.3955 16.1865 10.791 0 0 0
2437 1 14.388 17.985 32.373 0 0 0
768 1 26.9775 16.1865 3.597 0 0 0
846 1 28.776 23.3805 5.3955 0 0 0
1197 1 25.179 14.388 32.373 0 0 0
3400 1 5.3955 34.1715 32.373 0 0 0
2154 1 17.985 30.5745 30.5745 0 0 0
3928 1 0.0 23.3805 12.5895 0 0 0
3230 1 7.194 19.7835 26.9775 0 0 0
3185 1 7.194 14.388 21.582 0 0 0
1736 1 19.7835 30.5745 10.791 0 0 0
786 1 28.776 16.1865 23.3805 0 0 0
2902 1 10.791 26.9775 19.7835 0 0 0
3458 1 3.597 5.3955 16.1865 0 0 0
998 1 28.776 34.1715 34.1715 0 0 0
3773 1 3.597 32.373 10.791 0 0 0
2336 1 12.5895 12.5895 10.791 0 0 0
30 1 34.1715 5.3955 14.388 0 0 0
1475 1 19.7835 3.597 30.5745 0 0 0
3757 1 3.597 28.776 32.373 0 0 0
3664 1 1.7985 23.3805 17.985 0 0 0
2480 1 12.5895 23.3805 32.373 0 0 0
517 1 32.373 25.179 32.373 0 0 0
1533 1 21.582 10.791 10.791 0 0 0
1298 1 25.179 26.9775 16.1865 0 0 0
157 1 34.1715 25.179 30.5745 0 0 0
3246 1 7.194 23.3805 5.3955 0 0 0
64 1 34.1715 12.5895 3.597 0 0 0
2288 1 12.5895 8.9925 3.597 0 0 0
3298 1 7.194 26.9775 16.1865 0 0 0
3180 1 5.3955 16.1865 14.388 0 0 0
2989 1 10.791 32.373 25.179 0 0 0
2224 1 12.5895 1.7985 17.985 0 0 0
1907 1 16.1865 7.194 23.3805 0 0 0
3492 1 1.7985 8.9925 7.194 0 0 0
1544 1 19.7835 12.5895 17.985 0 0 0
1904 1 16.1865 8.9925 17.985 0 0 0
3605 1 3.597 17.985 3.597 0 0 0
3439 1 1.7985 0.0 34.1715 0 0 0
2589 1 14.388 32.373 25.179 0 0 0
2205 1 14.388 0.0 3.597 0 0 0
2985 1 10.791 32.373 21.582 0 0 0
3407 1 1.7985 0.0 5.3955 0 0 0
3885 1 0.0 14.388 7.194 0 0 0
2746 1 10.791 12.5895 23.3805 0 0 0
2761 1 10.791 14.388 0.0 0 0 0
2559 1 12.5895 28.776 34.1715 0 0 0
3418 1 3.597 1.7985 16.1865 0 0 0
1150 1 25.179 12.5895 26.9775 0 0 0
1037 1 25.179 0.0 32.373 0 0 0
1271 1 23.3805 21.582 26.9775 0 0 0
3088 1 5.3955 8.9925 3.597 0 0 0
432 1 30.5745 19.7835 25.179 0 0 0
3272 1 5.3955 23.3805 25.179 0 0 0
2577 1 14.388 32.373 14.388 0 0 0
71 1 34.1715 10.791 19.7835 0 0 0
3860 1 0.0 8.9925 34.1715 0 0 0
251 1 30.5745 3.597 8.9925 0 0 0
493 1 32.373 25.179 10.791 0 0 0
3778 1 3.597 34.1715 16.1865 0 0 0
1035 2 23.3805 0.0 30.5745 0 0 0
3759 2 1.7985 28.776 34.1715 0 0 0
1821 2 17.985 0.0 17.985 0 0 0
2575 2 12.5895 32.373 12.5895 0 0 0
1086 2 25.179 8.9925 5.3955 0 0 0
3578 2 3.597 16.1865 16.1865 0 0 0
1188 2 23.3805 16.1865 21.582 0 0 0
872 2 26.9775 23.3805 25.179 0 0 0
1914 2 17.985 8.9925 30.5745 0 0 0
1007 2 23.3805 0.0 5.3955 0 0 0
1374 2 25.179 34.1715 12.5895 0 0 0
3313 2 7.194 25.179 28.776 0 0 0
3554 2 3.597 12.5895 30.5745 0 0 0
1608 2 19.7835 19.7835 3.597 0 0 0
1458 2 21.582 5.3955 16.1865 0 0 0
2583 2 12.5895 32.373 19.7835 0 0 0
1669 2 21.582 21.582 25.179 0 0 0
430 2 32.373 19.7835 26.9775 0 0 0
2474 2 14.388 23.3805 30.5745 0 0 0
712 2 26.9775 8.9925 25.179 0 0 0
463 2 30.5745 21.582 19.7835 0 0 0
1367 2 23.3805 32.373 5.3955 0 0 0
2621 2 10.791 0.0 17.985 0 0 0
2442 2 14.388 23.3805 1.7985 0 0 0
2042 2 17.985 23.3805 1.7985 0 0 0
2829 2 10.791 17.985 25.179 0 0 0
1739 2 19.7835 28.776 16.1865 0 0 0
2404 2 12.5895 19.7835 0.0 0 0 0
2083 2 16.1865 25.179 1.7985 0 0 0
1032 2 23.3805 1.7985 25.179 0 0 0
1103 2 23.3805 7.194 19.7835 0 0 0
3154 2 7.194 12.5895 30.5745 0 0 0
1968 2 16.1865 16.1865 3.597 0 0 0
979 2 26.9775 32.373 16.1865 0 0 0
1679 2 19.7835 21.582 34.1715 0 0 0
1617 2 21.582 17.985 14.388 0 0 0
2934 2 10.791 30.5745 12.5895 0 0 0
3974 2 0.0 30.5745 23.3805 0 0 0
3266 2 7.194 23.3805 23.3805 0 0 0
574 2 32.373 34.1715 12.5895 0 0 0
2422 2 14.388 19.7835 19.7835 0 0 0
1456 2 19.7835 5.3955 10.791 0 0 0
672 2 26.9775 5.3955 25.179 0 0 0
2503 2 12.5895 25.179 19.7835 0 0 0
3113 2 7.194 7.194 28.776 0 0 0
2659 2 8.9925 3.597 16.1865 0 0 0
2054 2 17.985 23.3805 12.5895 0 0 0
1092 2 23.3805 8.9925 7.194 0 0 0
3054 2 7.194 5.3955 12.5895 0 0 0
838 2 28.776 19.7835 34.1715 0 0 0
2718 2 10.791 8.9925 34.1715 0 0 0
3517 2 3.597 7.194 32.373 0 0 0
1697 2 21.582 25.179 14.388 0 0 0
3571 2 1.7985 14.388 8.9925 0 0 0
2023 2 16.1865 17.985 19.7835 0 0 0
1524 2 19.7835 12.5895 0.0 0 0 0
3036 2 5.3955 1.7985 28.776 0 0 0
1892 2 16.1865 8.9925 7.194 0 0 0
1913 2 17.985 7.194 28.776 0 0 0
3454 2 3.597 5.3955 12.5895 0 0 0
3190 2 7.194 16.1865 26.9775 0 0 0
1090 2 25.179 8.9925 8.9925 0 0 0
783 2 26.9775 14.388 19.7835 0 0 0
3883 2 0.0 14.388 3.597 0 0 0
3377 2 7.194 32.373 14.388 0 0 0
1001 2 25.179 0.0 0.0 0 0 0
278 2 32.373 5.3955 34.1715 0 0 0
1168 2 23.3805 16.1865 3.597 0 0 0
3409 2 3.597 0.0 7.194 0 0 0
1565 2 21.582 14.388 3.597 0 0 0
3174 2 7.194 16.1865 12.5895 0 0 0
1331 2 23.3805 28.776 8.9925 0 0 0
2440 2 12.5895 19.7835 32.373 0 0 0
156 2 34.1715 26.9775 25.179 0 0 0
2984 2 8.9925 34.1715 17.985 0 0 0
2798 2 10.791 16.1865 34.1715 0 0 0
1377 2 25.179 32.373 14.388 0 0 0
440 2 30.5745 19.7835 32.373 0 0 0
3930 2 0.0 23.3805 16.1865 0 0 0
1543 2 19.7835 10.791 19.7835 0 0 0
3819 2 0.0 0.0 32.373 0 0 0
3732 2 1.7985 30.5745 7.194 0 0 0
599 2 30.5745 32.373 34.1715 0 0 0
1018 2 25.179 1.7985 16.1865 0 0 0
2617 2 10.791 0.0 14.388 0 0 0
935 2 26.9775 28.776 12.5895 0 0 0
2556 2 12.5895 30.5745 28.776 0 0 0
837 2 28.776 17.985 32.373 0 0 0
639 2 26.9775 0.0 34.1715 0 0 0
2581 2 14.388 32.373 17.985 0 0 0
319 2 30.5745 7.194 34.1715 0 0 0
1634 2 21.582 19.7835 30.5745 0 0 0
3706 2 3.597 26.9775 23.3805 0 0 0
3983 2 0.0 32.373 3.597 0 0 0
1132 2 23.3805 12.5895 7.194 0 0 0
3643 2 1.7985 21.582 1.7985 0 0 0
1600 2 19.7835 16.1865 32.373 0 0 0
3769 2 3.597 32.373 7.194 0 0 0
1005 2 25.179 0.0 3.597 0 0 0
423 2 30.5745 17.985 19.7835 0 0 0
2639 2 8.9925 0.0 34.1715 0 0 0
415 2 30.5745 17.985 12.5895 0 0 0
1727 2 19.7835 28.776 5.3955 0 0 0
3385 2 7.194 32.373 21.582 0 0 0
2486 2 14.388 26.9775 5.3955 0 0 0
1279 2 23.3805 21.582 34.1715 0 0 0
2905 2 10.791 25.179 21.582 0 0 0
731 2 26.9775 10.791 8.9925 0 0 0
2611 2 8.9925 0.0 8.9925 0 0 0
2697 2 10.791 7.194 14.388 0 0 0
119 2 34.1715 17.985 34.1715 0 0 0
1587 2 19.7835 14.388 23.3805 0 0 0
3649 2 3.597 21.582 7.194 0 0 0
3507 2 1.7985 7.194 23.3805 0 0 0
3457 2 3.597 3.597 14.388 0 0 0
3891 2 0.0 14.388 17.985 0 0 0
3353 2 7.194 28.776 28.776 0 0 0
3804 2 0.0 1.7985 5.3955 0 0 0
1379 2 23.3805 32.373 16.1865 0 0 0
99 2 34.1715 14.388 34.1715 0 0 0
2939 2 8.9925 28.776 16.1865 0 0 0
777 2 28.776 14.388 14.388 0 0 0
1131 2 23.3805 10.791 8.9925 0 0 0
3253 2 7.194 21.582 10.791 0 0 0
2410 2 14.388 19.7835 8.9925 0 0 0
2551 2 12.5895 28.776 26.9775 0 0 0
3915 2 0.0 17.985 25.179 0 0 0
2198 2 17.985 34.1715 34.1715 0 0 0
445 2 32.373 21.582 3.597 0 0 0
3711 2 1.7985 25.179 26.9775 0 0 0
2956 2 8.9925 30.5745 28.776 0 0 0
1610 2 21.582 19.7835 8.9925 0 0 0
1246 2 25.179 23.3805 5.3955 0 0 0
3553 2 3.597 10.791 28.776 0 0 0
1918 2 17.985 8.9925 34.1715 0 0 0
985 2 28.776 32.373 21.582 0 0 0
147 2 34.1715 25.179 12.5895 0 0 0
2643 2 8.9925 3.597 1.7985 0 0 0
2199 2 16.1865 32.373 34.1715 0 0 0
1974 2 17.985 16.1865 12.5895 0 0 0
3590 2 3.597 16.1865 26.9775 0 0 0
3153 2 7.194 10.791 28.776 0 0 0
1362 2 25.179 34.1715 1.7985 0 0 0
315 2 30.5745 7.194 30.5745 0 0 0
2634 2 10.791 1.7985 30.5745 0 0 0
2186 2 17.985 34.1715 23.3805 0 0 0
3636 2 1.7985 19.7835 28.776 0 0 0
2231 2 12.5895 0.0 26.9775 0 0 0
780 2 26.9775 16.1865 14.388 0 0 0
1934 2 17.985 12.5895 12.5895 0 0 0
3582 2 3.597 16.1865 19.7835 0 0 0
2306 2 14.388 8.9925 23.3805 0 0 0
1724 2 19.7835 30.5745 0.0 0 0 0
3467 2 1.7985 3.597 23.3805 0 0 0
2501 2 14.388 25.179 17.985 0 0 0
363 2 30.5745 14.388 1.7985 0 0 0
501 2 32.373 25.179 17.985 0 0 0
697 2 28.776 7.194 14.388 0 0 0
1786 2 21.582 34.1715 23.3805 0 0 0
2444 2 12.5895 23.3805 0.0 0 0 0
2912 2 8.9925 26.9775 25.179 0 0 0
2638 2 10.791 1.7985 34.1715 0 0 0
1665 2 21.582 21.582 21.582 0 0 0
2419 2 12.5895 17.985 16.1865 0 0 0
612 2 26.9775 1.7985 7.194 0 0 0
410 2 32.373 19.7835 8.9925 0 0 0
83 2 34.1715 14.388 5.3955 0 0 0
3002 2 7.194 1.7985 1.7985 0 0 0
1157 2 25.179 10.791 32.373 0 0 0
226 2 32.373 1.7985 23.3805 0 0 0
3134 2 7.194 12.5895 12.5895 0 0 0
299 2 30.5745 7.194 16.1865 0 0 0
589 2 32.373 32.373 25.179 0 0 0
3987 2 0.0 32.373 10.791 0 0 0
2749 2 10.791 10.791 25.179 0 0 0
148 2 34.1715 26.9775 10.791 0 0 0
26 2 34.1715 5.3955 7.194 0 0 0
1965 2 17.985 14.388 3.597 0 0 0
2625 2 10.791 0.0 21.582 0 0 0
863 2 26.9775 21.582 19.7835 0 0 0
943 2 26.9775 28.776 19.7835 0 0 0
3124 2 5.3955 12.5895 0.0 0 0 0
1400 2 23.3805 34.1715 32.373 0 0 0
2185 2 17.985 32.373 21.582 0 0 0
766 2 28.776 16.1865 5.3955 0 0 0
1477 2 21.582 3.597 32.373 0 0 0
110 2 34.1715 19.7835 14.388 0 0 0
1856 2 16.1865 5.3955 10.791 0 0 0
1396 2 23.3805 34.1715 28.776 0 0 0
1223 2 23.3805 17.985 19.7835 0 0 0
3107 2 5.3955 7.194 23.3805 0 0 0
2149 2 17.985 28.776 25.179 0 0 0
1827 2 16.1865 0.0 23.3805 0 0 0
3207 2 5.3955 17.985 5.3955 0 0 0
24 2 34.1715 5.3955 3.597 0 0 0
2918 2 10.791 26.9775 34.1715 0 0 0
1401 2 21.582 0.0 0.0 0 0 0
214 2 32.373 1.7985 12.5895 0 0 0
3982 2 0.0 34.1715 1.7985 0 0 0
1719 2 19.7835 25.179 34.1715 0 0 0
3032 2 5.3955 1.7985 25.179 0 0 0
2598 2 14.388 34.1715 34.1715 0 0 0
3691 2 1.7985 25.179 8.9925 0 0 0
911 2 26.9775 25.179 26.9775 0 0 0
407 2 30.5745 17.985 5.3955 0 0 0
1545 2 21.582 10.791 21.582 0 0 0
643 2 26.9775 3.597 1.7985 0 0 0
667 2 26.9775 3.597 23.3805 0 0 0
204 2 30.5745 1.7985 0.0 0 0 0
1030 2 25.179 1.7985 26.9775 0 0 0
3805 2 0.0 0.0 7.194 0 0 0
2314 2 14.388 8.9925 30.5745 0 0 0
16 2 34.1715 1.7985 25.179 0 0 0
458 2 32.373 23.3805 16.1865 0 0 0
2667 2 8.9925 3.597 23.3805 0 0 0
2337 2 14.388 10.791 14.388 0 0 0
3975 2 0.0 28.776 25.179 0 0 0
1651 2 19.7835 21.582 8.9925 0 0 0
104 2 34.1715 19.7835 3.597 0 0 0
3076 2 5.3955 5.3955 28.776 0 0 0
2813 2 10.791 17.985 10.791 0 0 0
3843 2 0.0 7.194 3.597 0 0 0
1525 2 21.582 10.791 3.597 0 0 0
2478 2 14.388 23.3805 34.1715 0 0 0
3239 2 5.3955 17.985 34.1715 0 0 0
344 2 30.5745 12.5895 17.985 0 0 0
2163 2 16.1865 32.373 1.7985 0 0 0
3219 2 5.3955 17.985 16.1865 0 0 0
1325 2 25.179 28.776 3.597 0 0 0
3798 2 3.597 34.1715 34.1715 0 0 0
112 2 34.1715 19.7835 17.985 0 0 0
3970 2 0.0 30.5745 16.1865 0 0 0
3302 2 7.194 26.9775 19.7835 0 0 0
1162 2 25.179 16.1865 1.7985 0 0 0
981 2 28.776 32.373 17.985 0 0 0
858 2 28.776 23.3805 16.1865 0 0 0
660 2 26.9775 5.3955 14.388 0 0 0
3617 2 3.597 17.985 14.388 0 0 0
102 2 34.1715 19.7835 0.0 0 0 0
2864 2 8.9925 23.3805 17.985 0 0 0
3255 2 5.3955 21.582 12.5895 0 0 0
3381 2 7.194 32.373 17.985 0 0 0
2329 2 14.388 10.791 7.194 0 0 0
2266 2 14.388 5.3955 23.3805 0 0 0
3674 2 3.597 23.3805 30.5745 0 0 0
3919 2 0.0 17.985 32.373 0 0 0
1653 2 21.582 21.582 10.791 0 0 0
1803 2 16.1865 0.0 1.7985 0 0 0
3790 2 3.597 34.1715 26.9775 0 0 0
3283 2 5.3955 25.179 1.7985 0 0 0
1766 2 21.582 34.1715 5.3955 0 0 0
3421 2 3.597 0.0 17.985 0 0 0
1107 2 23.3805 7.194 23.3805 0 0 0
610 2 28.776 1.7985 8.9925 0 0 0
3331 2 5.3955 28.776 8.9925 0 0 0
3278 2 7.194 23.3805 34.1715 0 0 0
2857 2 10.791 21.582 14.388 0 0 0
1674 2 21.582 23.3805 30.5745 0 0 0
3677 2 3.597 21.582 32.373 0 0 0
3764 2 1.7985 34.1715 0.0 0 0 0
153 2 34.1715 25.179 23.3805 0 0 0
2325 2 14.388 10.791 3.597 0 0 0
3513 2 3.597 7.194 28.776 0 0 0
1551 2 19.7835 10.791 26.9775 0 0 0
1123 2 23.3805 10.791 1.7985 0 0 0
3587 2 1.7985 14.388 23.3805 0 0 0
3055 2 5.3955 3.597 12.5895 0 0 0
1156 2 23.3805 12.5895 28.776 0 0 0
3728 2 1.7985 30.5745 3.597 0 0 0
534 2 32.373 30.5745 12.5895 0 0 0
2835 2 8.9925 17.985 30.5745 0 0 0
35 2 34.1715 3.597 26.9775 0 0 0
3985 2 0.0 32.373 7.194 0 0 0
2041 2 17.985 21.582 0.0 0 0 0
807 2 26.9775 17.985 5.3955 0 0 0
3238 2 7.194 19.7835 34.1715 0 0 0
3170 2 7.194 16.1865 8.9925 0 0 0
797 2 28.776 14.388 32.373 0 0 0
1569 2 21.582 14.388 7.194 0 0 0
2077 2 17.985 21.582 32.373 0 0 0
2451 2 12.5895 21.582 8.9925 0 0 0
441 2 32.373 21.582 0.0 0 0 0
2563 2 12.5895 32.373 1.7985 0 0 0
402 2 32.373 19.7835 1.7985 0 0 0
3603 2 1.7985 17.985 1.7985 0 0 0
1601 2 21.582 17.985 0.0 0 0 0
1054 2 25.179 5.3955 12.5895 0 0 0
473 2 32.373 21.582 28.776 0 0 0
637 2 28.776 0.0 32.373 0 0 0
2052 2 16.1865 23.3805 7.194 0 0 0
3968 2 0.0 30.5745 12.5895 0 0 0
3290 2 7.194 26.9775 8.9925 0 0 0
3572 2 1.7985 16.1865 7.194 0 0 0
150 2 34.1715 26.9775 14.388 0 0 0
3640 2 1.7985 19.7835 32.373 0 0 0
1119 2 23.3805 7.194 34.1715 0 0 0
3534 2 3.597 12.5895 12.5895 0 0 0
3011 2 5.3955 0.0 8.9925 0 0 0
3512 2 1.7985 8.9925 25.179 0 0 0
2414 2 14.388 19.7835 12.5895 0 0 0
1911 2 16.1865 7.194 26.9775 0 0 0
2833 2 10.791 17.985 28.776 0 0 0
1051 2 23.3805 3.597 8.9925 0 0 0
228 2 30.5745 1.7985 21.582 0 0 0
2724 2 8.9925 12.5895 0.0 0 0 0
1875 2 16.1865 3.597 30.5745 0 0 0
343 2 30.5745 10.791 19.7835 0 0 0
956 2 26.9775 30.5745 28.776 0 0 0
3189 2 7.194 14.388 25.179 0 0 0
382 2 32.373 16.1865 19.7835 0 0 0
2209 2 14.388 0.0 7.194 0 0 0
1196 2 23.3805 16.1865 28.776 0 0 0
2143 2 16.1865 28.776 19.7835 0 0 0
978 2 28.776 34.1715 16.1865 0 0 0
2319 2 12.5895 7.194 34.1715 0 0 0
143 2 34.1715 25.179 5.3955 0 0 0
1661 2 21.582 21.582 17.985 0 0 0
1548 2 19.7835 12.5895 21.582 0 0 0
926 2 28.776 30.5745 5.3955 0 0 0
3921 2 0.0 21.582 0.0 0 0 0
2826 2 10.791 19.7835 23.3805 0 0 0
1359 2 23.3805 28.776 34.1715 0 0 0
2949 2 10.791 28.776 25.179 0 0 0
2681 2 10.791 7.194 0.0 0 0 0
2710 2 10.791 8.9925 26.9775 0 0 0
3304 2 5.3955 26.9775 17.985 0 0 0
524 2 30.5745 30.5745 0.0 0 0 0
3118 2 7.194 8.9925 34.1715 0 0 0
3479 2 1.7985 3.597 34.1715 0 0 0
3184 2 5.3955 16.1865 17.985 0 0 0
291 2 30.5745 7.194 8.9925 0 0 0
2788 2 8.9925 16.1865 21.582 0 0 0
3261 2 7.194 21.582 17.985 0 0 0
2427 2 12.5895 17.985 23.3805 0 0 0
2276 2 12.5895 5.3955 28.776 0 0 0
141 2 34.1715 25.179 1.7985 0 0 0
3141 2 7.194 10.791 17.985 0 0 0
3364 2 5.3955 34.1715 0.0 0 0 0
3803 2 0.0 0.0 3.597 0 0 0
470 2 32.373 23.3805 26.9775 0 0 0
238 2 32.373 1.7985 34.1715 0 0 0
1890 2 17.985 8.9925 8.9925 0 0 0
289 2 32.373 7.194 7.194 0 0 0
1341 2 25.179 28.776 17.985 0 0 0
68 2 34.1715 12.5895 10.791 0 0 0
1741 2 21.582 28.776 17.985 0 0 0
752 2 26.9775 12.5895 25.179 0 0 0
2160 2 16.1865 30.5745 32.373 0 0 0
1954 2 17.985 12.5895 30.5745 0 0 0
1127 2 23.3805 10.791 5.3955 0 0 0
489 2 32.373 25.179 7.194 0 0 0
2624 2 8.9925 1.7985 17.985 0 0 0
1675 2 19.7835 21.582 30.5745 0 0 0
3793 2 3.597 32.373 28.776 0 0 0
3583 2 1.7985 14.388 19.7835 0 0 0
2534 2 14.388 30.5745 12.5895 0 0 0
3880 2 0.0 12.5895 34.1715 0 0 0
1058 2 25.179 5.3955 16.1865 0 0 0
3875 2 0.0 10.791 25.179 0 0 0
2645 2 10.791 3.597 3.597 0 0 0
3070 2 7.194 5.3955 26.9775 0 0 0
1754 2 21.582 30.5745 30.5745 0 0 0
3234 2 7.194 19.7835 30.5745 0 0 0
778 2 28.776 16.1865 16.1865 0 0 0
1833 2 17.985 0.0 28.776 0 0 0
3555 2 1.7985 10.791 30.5745 0 0 0
886 2 28.776 26.9775 5.3955 0 0 0
2100 2 16.1865 26.9775 14.388 0 0 0
2933 2 10.791 28.776 10.791 0 0 0
2736 2 8.9925 12.5895 10.791 0 0 0
252 2 30.5745 5.3955 7.194 0 0 0
3505 2 3.597 7.194 21.582 0 0 0
3465 2 3.597 3.597 21.582 0 0 0
770 2 28.776 16.1865 8.9925 0 0 0
1800 2 19.7835 34.1715 32.373 0 0 0
454 2 32.373 23.3805 12.5895 0 0 0
3236 2 5.3955 19.7835 28.776 0 0 0
1143 2 23.3805 10.791 19.7835 0 0 0
2653 2 10.791 3.597 10.791 0 0 0
1514 2 21.582 8.9925 30.5745 0 0 0
678 2 28.776 5.3955 34.1715 0 0 0
665 2 28.776 3.597 21.582 0 0 0
1020 2 23.3805 1.7985 14.388 0 0 0
1748 2 19.7835 30.5745 21.582 0 0 0
2745 2 10.791 10.791 21.582 0 0 0
1048 2 23.3805 5.3955 3.597 0 0 0
3658 2 3.597 23.3805 16.1865 0 0 0
688 2 26.9775 8.9925 3.597 0 0 0
1782 2 21.582 34.1715 19.7835 0 0 0
967 2 26.9775 32.373 5.3955 0 0 0
1266 2 25.179 23.3805 23.3805 0 0 0
2483 2 12.5895 25.179 1.7985 0 0 0
3558 2 3.597 12.5895 34.1715 0 0 0
1927 2 16.1865 10.791 5.3955 0 0 0
3212 2 5.3955 19.7835 7.194 0 0 0
2033 2 17.985 17.985 28.776 0 0 0
3709 2 3.597 25.179 25.179 0 0 0
290 2 32.373 8.9925 8.9925 0 0 0
312 2 30.5745 8.9925 25.179 0 0 0
2670 2 10.791 5.3955 26.9775 0 0 0
2296 2 12.5895 8.9925 10.791 0 0 0
2573 2 14.388 32.373 10.791 0 0 0
2774 2 10.791 16.1865 12.5895 0 0 0
257 2 32.373 3.597 14.388 0 0 0
1945 2 17.985 10.791 21.582 0 0 0
709 2 28.776 7.194 25.179 0 0 0
3624 2 1.7985 19.7835 17.985 0 0 0
906 2 28.776 26.9775 23.3805 0 0 0
529 2 32.373 28.776 7.194 0 0 0
1663 2 19.7835 21.582 19.7835 0 0 0
1003 3 23.3805 0.0 1.7985 0 0 0
1731 3 19.7835 28.776 8.9925 0 0 0
3784 3 1.7985 34.1715 17.985 0 0 0
638 3 28.776 1.7985 34.1715 0 0 0
1203 3 23.3805 17.985 1.7985 0 0 0
3989 3 0.0 32.373 14.388 0 0 0
3833 3 0.0 3.597 21.582 0 0 0
2867 3 8.9925 21.582 23.3805 0 0 0
2014 3 17.985 19.7835 12.5895 0 0 0
2602 3 10.791 1.7985 1.7985 0 0 0
2 3 34.1715 1.7985 0.0 0 0 0
2765 3 10.791 14.388 3.597 0 0 0
1371 3 23.3805 32.373 8.9925 0 0 0
3274 3 7.194 23.3805 30.5745 0 0 0
3440 3 1.7985 1.7985 32.373 0 0 0
205 3 32.373 0.0 3.597 0 0 0
3095 3 5.3955 7.194 12.5895 0 0 0
398 3 32.373 16.1865 34.1715 0 0 0
224 3 30.5745 1.7985 17.985 0 0 0
3397 3 7.194 32.373 32.373 0 0 0
1615 3 19.7835 17.985 12.5895 0 0 0
742 3 28.776 12.5895 19.7835 0 0 0
3147 3 5.3955 10.791 23.3805 0 0 0
1493 3 21.582 7.194 10.791 0 0 0
2082 3 17.985 26.9775 1.7985 0 0 0
2401 3 14.388 17.985 0.0 0 0 0
734 3 28.776 12.5895 12.5895 0 0 0
1349 3 25.179 28.776 25.179 0 0 0
2619 3 8.9925 0.0 16.1865 0 0 0
3289 3 7.194 25.179 7.194 0 0 0
3646 3 3.597 23.3805 5.3955 0 0 0
1650 3 21.582 23.3805 8.9925 0 0 0
1878 3 17.985 5.3955 34.1715 0 0 0
3788 3 1.7985 34.1715 21.582 0 0 0
2251 3 12.5895 3.597 8.9925 0 0 0
3705 3 3.597 25.179 21.582 0 0 0
3671 3 1.7985 21.582 26.9775 0 0 0
3991 3 0.0 32.373 17.985 0 0 0
3595 3 1.7985 14.388 30.5745 0 0 0
2546 3 14.388 30.5745 23.3805 0 0 0
2415 3 12.5895 17.985 12.5895 0 0 0
1937 3 17.985 10.791 14.388 0 0 0
948 3 26.9775 30.5745 21.582 0 0 0
2661 3 10.791 3.597 17.985 0 0 0
3844 3 0.0 8.9925 5.3955 0 0 0
1069 3 25.179 3.597 25.179 0 0 0
72 3 34.1715 12.5895 17.985 0 0 0
3167 3 5.3955 14.388 5.3955 0 0 0
844 3 26.9775 23.3805 0.0 0 0 0
1624 3 19.7835 19.7835 17.985 0 0 0
1969 3 17.985 14.388 7.194 0 0 0
2192 3 16.1865 34.1715 25.179 0 0 0
1681 3 21.582 25.179 0.0 0 0 0
2886 3 10.791 26.9775 5.3955 0 0 0
690 3 28.776 8.9925 8.9925 0 0 0
2089 3 17.985 25.179 7.194 0 0 0
597 3 32.373 32.373 32.373 0 0 0
3217 3 7.194 17.985 14.388 0 0 0
2482 3 14.388 26.9775 1.7985 0 0 0
408 3 30.5745 19.7835 3.597 0 0 0
3395 3 5.3955 32.373 30.5745 0 0 0
3127 3 5.3955 10.791 5.3955 0 0 0
2831 3 8.9925 17.985 26.9775 0 0 0
544 3 30.5745 30.5745 17.985 0 0 0
3717 3 3.597 25.179 32.373 0 0 0
545 3 32.373 28.776 21.582 0 0 0
61 3 34.1715 10.791 1.7985 0 0 0
1249 3 25.179 21.582 7.194 0 0 0
3284 3 5.3955 26.9775 0.0 0 0 0
1830 3 17.985 1.7985 26.9775 0 0 0
1962 3 17.985 16.1865 1.7985 0 0 0
1802 3 17.985 1.7985 1.7985 0 0 0
1649 3 21.582 21.582 7.194 0 0 0
887 3 26.9775 25.179 5.3955 0 0 0
2892 3 8.9925 26.9775 7.194 0 0 0
2756 3 8.9925 12.5895 28.776 0 0 0
3005 3 7.194 0.0 3.597 0 0 0
1436 3 19.7835 1.7985 28.776 0 0 0
144 3 34.1715 26.9775 3.597 0 0 0
184 3 34.1715 34.1715 3.597 0 0 0
3080 3 5.3955 5.3955 32.373 0 0 0
3800 3 1.7985 34.1715 32.373 0 0 0
219 3 30.5745 0.0 16.1865 0 0 0
971 3 26.9775 32.373 8.9925 0 0 0
2737 3 10.791 10.791 14.388 0 0 0
352 3 30.5745 12.5895 25.179 0 0 0
2521 3 14.388 28.776 0.0 0 0 0
1623 3 19.7835 17.985 19.7835 0 0 0
2029 3 17.985 17.985 25.179 0 0 0
446 3 32.373 23.3805 5.3955 0 0 0
3547 3 1.7985 10.791 23.3805 0 0 0
2687 3 8.9925 7.194 5.3955 0 0 0
973 3 28.776 32.373 10.791 0 0 0
417 3 32.373 17.985 14.388 0 0 0
3535 3 1.7985 10.791 12.5895 0 0 0
3753 3 3.597 28.776 28.776 0 0 0
304 3 30.5745 8.9925 17.985 0 0 0
1284 3 23.3805 26.9775 0.0 0 0 0
874 3 28.776 23.3805 30.5745 0 0 0
2390 3 14.388 16.1865 26.9775 0 0 0
2955 3 8.9925 28.776 30.5745 0 0 0
3300 3 5.3955 26.9775 14.388 0 0 0
1592 3 19.7835 16.1865 25.179 0 0 0
2271 3 12.5895 3.597 26.9775 0 0 0
3442 3 3.597 5.3955 1.7985 0 0 0
927 3 26.9775 28.776 5.3955 0 0 0
1096 3 23.3805 8.9925 10.791 0 0 0
3333 3 7.194 28.776 10.791 0 0 0
339 3 30.5745 10.791 16.1865 0 0 0
1074 3 25.179 5.3955 30.5745 0 0 0
223 3 30.5745 0.0 19.7835 0 0 0
910 3 28.776 26.9775 26.9775 0 0 0
1089 3 25.179 7.194 7.194 0 0 0
738 3 28.776 12.5895 16.1865 0 0 0
1412 3 19.7835 1.7985 7.194 0 0 0
1770 3 21.582 34.1715 8.9925 0 0 0
522 3 32.373 30.5745 1.7985 0 0 0
3371 3 5.3955 32.373 8.9925 0 0 0
2311 3 12.5895 7.194 26.9775 0 0 0
1995 3 16.1865 14.388 30.5745 0 0 0
2132 3 16.1865 30.5745 7.194 0 0 0
602 3 28.776 1.7985 1.7985 0 0 0
1036 3 23.3805 1.7985 28.776 0 0 0
3279 3 5.3955 21.582 34.1715 0 0 0
98 3 34.1715 16.1865 28.776 0 0 0
3210 3 7.194 19.7835 8.9925 0 0 0
1442 3 21.582 5.3955 1.7985 0 0 0
1208 3 23.3805 19.7835 3.597 0 0 0
3855 3 0.0 7.194 25.179 0 0 0
3570 3 3.597 16.1865 8.9925 0 0 0
2966 3 10.791 34.1715 5.3955 0 0 0
1288 3 23.3805 26.9775 3.597 0 0 0
1478 3 21.582 5.3955 34.1715 0 0 0
1654 3 21.582 23.3805 12.5895 0 0 0
1818 3 17.985 1.7985 16.1865 0 0 0
2814 3 10.791 19.7835 12.5895 0 0 0
3900 3 0.0 16.1865 34.1715 0 0 0
2828 3 8.9925 19.7835 21.582 0 0 0
3917 3 0.0 17.985 28.776 0 0 0
2022 3 17.985 19.7835 19.7835 0 0 0
2926 3 10.791 30.5745 5.3955 0 0 0
3194 3 7.194 16.1865 30.5745 0 0 0
1977 3 17.985 14.388 14.388 0 0 0
2809 3 10.791 17.985 7.194 0 0 0
2214 3 14.388 1.7985 12.5895 0 0 0
2315 3 12.5895 7.194 30.5745 0 0 0
3072 3 5.3955 5.3955 25.179 0 0 0
3887 3 0.0 14.388 10.791 0 0 0
2843 3 8.9925 21.582 1.7985 0 0 0
1707 3 19.7835 25.179 23.3805 0 0 0
1785 3 21.582 32.373 21.582 0 0 0
3533 3 3.597 10.791 10.791 0 0 0
3082 3 7.194 8.9925 1.7985 0 0 0
2603 3 8.9925 0.0 1.7985 0 0 0
1306 3 25.179 26.9775 23.3805 0 0 0
47 3 34.1715 7.194 12.5895 0 0 0
2459 3 12.5895 21.582 16.1865 0 0 0
3097 3 7.194 7.194 14.388 0 0 0
3355 3 5.3955 28.776 30.5745 0 0 0
3544 3 1.7985 12.5895 17.985 0 0 0
762 3 28.776 16.1865 1.7985 0 0 0
2836 3 8.9925 19.7835 28.776 0 0 0
714 3 28.776 8.9925 30.5745 0 0 0
63 3 34.1715 10.791 5.3955 0 0 0
871 3 26.9775 21.582 26.9775 0 0 0
2620 3 8.9925 1.7985 14.388 0 0 0
3257 3 7.194 21.582 14.388 0 0 0
540 3 30.5745 30.5745 14.388 0 0 0
173 3 34.1715 28.776 23.3805 0 0 0
2913 3 10.791 25.179 28.776 0 0 0
73 3 34.1715 10.791 23.3805 0 0 0
2593 3 14.388 32.373 28.776 0 0 0
2701 3 10.791 7.194 17.985 0 0 0
3136 3 5.3955 12.5895 10.791 0 0 0
351 3 30.5745 10.791 26.9775 0 0 0
93 3 34.1715 14.388 23.3805 0 0 0
1152 3 23.3805 12.5895 25.179 0 0 0
1004 3 23.3805 1.7985 0.0 0 0 0
1386 3 25.179 34.1715 23.3805 0 0 0
753 3 28.776 10.791 28.776 0 0 0
1460 3 19.7835 5.3955 14.388 0 0 0
2238 3 14.388 1.7985 34.1715 0 0 0
1541 3 21.582 10.791 17.985 0 0 0
1418 3 21.582 1.7985 16.1865 0 0 0
3697 3 3.597 25.179 14.388 0 0 0
2654 3 10.791 5.3955 12.5895 0 0 0
2374 3 14.388 16.1865 12.5895 0 0 0
2060 3 16.1865 23.3805 14.388 0 0 0
3807 3 0.0 0.0 10.791 0 0 0
1873 3 17.985 3.597 28.776 0 0 0
3856 3 0.0 8.9925 26.9775 0 0 0
1940 3 16.1865 12.5895 14.388 0 0 0
1862 3 17.985 5.3955 19.7835 0 0 0
3530 3 3.597 12.5895 8.9925 0 0 0
2263 3 12.5895 3.597 19.7835 0 0 0
922 3 28.776 30.5745 1.7985 0 0 0
878 3 28.776 23.3805 34.1715 0 0 0
3873 3 0.0 10.791 21.582 0 0 0
2821 3 10.791 17.985 17.985 0 0 0
951 3 26.9775 28.776 26.9775 0 0 0
357 3 32.373 10.791 32.373 0 0 0
748 3 26.9775 12.5895 21.582 0 0 0
1979 3 16.1865 14.388 16.1865 0 0 0
3460 3 1.7985 5.3955 14.388 0 0 0
2540 3 12.5895 30.5745 14.388 0 0 0
1180 3 23.3805 16.1865 14.388 0 0 0
1186 3 25.179 16.1865 23.3805 0 0 0
584 3 30.5745 34.1715 17.985 0 0 0
3964 3 0.0 30.5745 5.3955 0 0 0
808 3 26.9775 19.7835 3.597 0 0 0
2637 3 10.791 0.0 32.373 0 0 0
2018 3 17.985 19.7835 16.1865 0 0 0
1134 3 25.179 12.5895 12.5895 0 0 0
1645 3 21.582 21.582 3.597 0 0 0
3428 3 1.7985 1.7985 21.582 0 0 0
2782 3 10.791 16.1865 19.7835 0 0 0
2772 3 8.9925 16.1865 7.194 0 0 0
1446 3 21.582 5.3955 5.3955 0 0 0
130 3 34.1715 23.3805 14.388 0 0 0
514 3 32.373 26.9775 30.5745 0 0 0
3372 3 5.3955 34.1715 7.194 0 0 0
2839 3 8.9925 17.985 34.1715 0 0 0
2475 3 12.5895 21.582 30.5745 0 0 0
2062 3 17.985 23.3805 19.7835 0 0 0
3063 3 5.3955 3.597 19.7835 0 0 0
267 3 30.5745 3.597 23.3805 0 0 0
1426 3 21.582 1.7985 23.3805 0 0 0
3808 3 0.0 1.7985 12.5895 0 0 0
3657 3 3.597 21.582 14.388 0 0 0
755 3 26.9775 10.791 30.5745 0 0 0
1581 3 21.582 14.388 17.985 0 0 0
2977 3 10.791 32.373 14.388 0 0 0
3157 3 7.194 10.791 32.373 0 0 0
1763 3 19.7835 32.373 1.7985 0 0 0
3772 3 1.7985 34.1715 7.194 0 0 0
3311 3 5.3955 25.179 26.9775 0 0 0
125 3 34.1715 21.582 8.9925 0 0 0
3694 3 3.597 26.9775 12.5895 0 0 0
2317 3 14.388 7.194 32.373 0 0 0
2244 3 12.5895 5.3955 0.0 0 0 0
1867 3 16.1865 3.597 23.3805 0 0 0
2535 3 12.5895 28.776 12.5895 0 0 0
1488 3 19.7835 8.9925 3.597 0 0 0
1696 3 19.7835 26.9775 10.791 0 0 0
3144 3 5.3955 12.5895 17.985 0 0 0
2594 3 14.388 34.1715 30.5745 0 0 0
2128 3 16.1865 30.5745 3.597 0 0 0
842 3 28.776 23.3805 1.7985 0 0 0
1812 3 16.1865 1.7985 7.194 0 0 0
2529 3 14.388 28.776 7.194 0 0 0
550 3 32.373 30.5745 26.9775 0 0 0
3078 3 7.194 5.3955 34.1715 0 0 0
1870 3 17.985 5.3955 26.9775 0 0 0
2901 3 10.791 25.179 17.985 0 0 0
301 3 32.373 7.194 17.985 0 0 0
1781 3 21.582 32.373 17.985 0 0 0
270 3 32.373 5.3955 26.9775 0 0 0
383 3 30.5745 14.388 19.7835 0 0 0
1556 3 19.7835 12.5895 28.776 0 0 0
296 3 30.5745 8.9925 10.791 0 0 0
3218 3 7.194 19.7835 16.1865 0 0 0
3958 3 0.0 26.9775 30.5745 0 0 0
1621 3 21.582 17.985 17.985 0 0 0
1690 3 21.582 26.9775 8.9925 0 0 0
274 3 32.373 5.3955 30.5745 0 0 0
3328 3 5.3955 30.5745 3.597 0 0 0
3193 3 7.194 14.388 28.776 0 0 0
1860 3 16.1865 5.3955 14.388 0 0 0
2194 3 17.985 34.1715 30.5745 0 0 0
3566 3 3.597 16.1865 5.3955 0 0 0
3366 3 7.194 34.1715 5.3955 0 0 0
2297 3 14.388 7.194 14.388 0 0 0
2353 3 14.388 10.791 28.776 0 0 0
3849 3 0.0 7.194 14.388 0 0 0
3286 3 7.194 26.9775 5.3955 0 0 0
3224 3 5.3955 19.7835 17.985 0 0 0
1257 3 25.179 21.582 14.388 0 0 0
268 3 30.5745 5.3955 21.582 0 0 0
1682 3 21.582 26.9775 1.7985 0 0 0
815 3 26.9775 17.985 12.5895 0 0 0
1323 3 23.3805 28.776 1.7985 0 0 0
1240 3 23.3805 19.7835 32.373 0 0 0
429 3 32.373 17.985 25.179 0 0 0
1421 3 21.582 0.0 17.985 0 0 0
3548 3 1.7985 12.5895 21.582 0 0 0
2704 3 8.9925 8.9925 17.985 0 0 0
421 3 32.373 17.985 17.985 0 0 0
902 3 28.776 26.9775 19.7835 0 0 0
2490 3 14.388 26.9775 8.9925 0 0 0
483 3 30.5745 25.179 1.7985 0 0 0
836 3 26.9775 19.7835 28.776 0 0 0
3351 3 5.3955 28.776 26.9775 0 0 0
2348 3 12.5895 12.5895 21.582 0 0 0
3892 3 0.0 16.1865 19.7835 0 0 0
396 3 30.5745 16.1865 28.776 0 0 0
471 3 30.5745 21.582 26.9775 0 0 0
1155 3 23.3805 10.791 30.5745 0 0 0
2333 3 14.388 10.791 10.791 0 0 0
3666 3 3.597 23.3805 23.3805 0 0 0
3912 3 0.0 19.7835 19.7835 0 0 0
3750 3 3.597 30.5745 26.9775 0 0 0
1443 3 19.7835 3.597 1.7985 0 0 0
393 3 32.373 14.388 28.776 0 0 0
420 3 30.5745 19.7835 14.388 0 0 0
295 3 30.5745 7.194 12.5895 0 0 0
632 3 26.9775 1.7985 25.179 0 0 0
1884 3 16.1865 8.9925 0.0 0 0 0
1315 3 23.3805 25.179 30.5745 0 0 0
2395 3 12.5895 14.388 30.5745 0 0 0
1200 3 23.3805 16.1865 32.373 0 0 0
1351 3 23.3805 28.776 26.9775 0 0 0
3781 3 3.597 32.373 17.985 0 0 0
2059 3 16.1865 21.582 16.1865 0 0 0
3394 3 7.194 34.1715 30.5745 0 0 0
1925 3 17.985 10.791 3.597 0 0 0
736 3 26.9775 12.5895 10.791 0 0 0
3228 3 5.3955 19.7835 21.582 0 0 0
1841 3 17.985 3.597 0.0 0 0 0
3222 3 7.194 19.7835 19.7835 0 0 0
3637 3 3.597 17.985 32.373 0 0 0
1798 3 21.582 34.1715 34.1715 0 0 0
575 3 30.5745 32.373 12.5895 0 0 0
980 3 26.9775 34.1715 14.388 0 0 0
3634 3 3.597 19.7835 30.5745 0 0 0
3000 3 8.9925 34.1715 32.373 0 0 0
2865 3 10.791 21.582 21.582 0 0 0
3344 3 5.3955 30.5745 17.985 0 0 0
2906 3 10.791 26.9775 23.3805 0 0 0
1853 3 17.985 3.597 10.791 0 0 0
491 3 30.5745 25.179 8.9925 0 0 0
2880 3 8.9925 23.3805 32.373 0 0 0
1662 3 21.582 23.3805 19.7835 0 0 0
59 3 34.1715 7.194 34.1715 0 0 0
46 3 34.1715 8.9925 7.194 0 0 0
2254 3 14.388 5.3955 12.5895 0 0 0
53 3 34.1715 7.194 23.3805 0 0 0
1416 3 19.7835 1.7985 10.791 0 0 0
1613 3 21.582 17.985 10.791 0 0 0
1505 3 21.582 7.194 21.582 0 0 0
2992 3 8.9925 34.1715 25.179 0 0 0
1302 3 25.179 26.9775 19.7835 0 0 0
1464 3 19.7835 5.3955 17.985 0 0 0
3568 3 1.7985 16.1865 3.597 0 0 0
92 3 34.1715 16.1865 17.985 0 0 0
1046 3 25.179 5.3955 5.3955 0 0 0
3211 3 5.3955 17.985 8.9925 0 0 0
3997 3 0.0 32.373 28.776 0 0 0
2484 3 12.5895 26.9775 0.0 0 0 0
3775 3 1.7985 32.373 12.5895 0 0 0
2954 3 10.791 30.5745 30.5745 0 0 0
776 3 26.9775 16.1865 10.791 0 0 0
1893 3 17.985 7.194 10.791 0 0 0
3911 3 0.0 17.985 17.985 0 0 0
569 3 32.373 32.373 7.194 0 0 0
1434 3 21.582 1.7985 30.5745 0 0 0
1321 3 25.179 28.776 0.0 0 0 0
151 3 34.1715 25.179 19.7835 0 0 0
2250 3 14.388 5.3955 8.9925 0 0 0
1636 3 19.7835 19.7835 28.776 0 0 0
1224 3 23.3805 19.7835 17.985 0 0 0
3195 3 5.3955 14.388 30.5745 0 0 0
2872 3 8.9925 23.3805 25.179 0 0 0
1437 3 21.582 0.0 32.373 0 0 0
708 3 26.9775 8.9925 21.582 0 0 0
2779 3 8.9925 14.388 16.1865 0 0 0
794 3 28.776 16.1865 30.5745 0 0 0
1409 3 21.582 0.0 7.194 0 0 0
3715 3 1.7985 25.179 30.5745 0 0 0
3378 3 7.194 34.1715 16.1865 0 0 0
3398 3 7.194 34.1715 34.1715 0 0 0
2738 3 10.791 12.5895 16.1865 0 0 0
856 3 26.9775 23.3805 10.791 0 0 0
3087 3 5.3955 7.194 5.3955 0 0 0
1159 3 23.3805 10.791 34.1715 0 0 0
2805 3 10.791 17.985 3.597 0 0 0
1855 3 16.1865 3.597 12.5895 0 0 0
2834 3 10.791 19.7835 30.5745 0 0 0
1730 3 21.582 30.5745 8.9925 0 0 0
3122 3 7.194 12.5895 1.7985 0 0 0
2040 3 16.1865 19.7835 32.373 0 0 0
3243 3 5.3955 21.582 1.7985 0 0 0
182 3 34.1715 34.1715 0.0 0 0 0
3021 3 7.194 0.0 17.985 0 0 0
2342 3 14.388 12.5895 19.7835 0 0 0
3528 3 1.7985 12.5895 3.597 0 0 0
1236 3 23.3805 19.7835 28.776 0 0 0
466 3 32.373 23.3805 23.3805 0 0 0
2036 3 16.1865 19.7835 28.776 0 0 0
2223 3 12.5895 0.0 19.7835 0 0 0
1110 3 25.179 8.9925 26.9775 0 0 0
3105 3 7.194 7.194 21.582 0 0 0
1571 3 19.7835 14.388 8.9925 0 0 0
1222 3 25.179 19.7835 19.7835 0 0 0
3941 3 0.0 25.179 0.0 0 0 0
1929 3 17.985 10.791 7.194 0 0 0
2679 3 8.9925 3.597 34.1715 0 0 0
1614 3 21.582 19.7835 12.5895 0 0 0
392 3 30.5745 16.1865 25.179 0 0 0
2876 3 8.9925 23.3805 28.776 0 0 0
3057 3 7.194 3.597 14.388 0 0 0
2703 3 8.9925 7.194 19.7835 0 0 0
2433 3 14.388 17.985 28.776 0 0 0
1901 3 17.985 7.194 17.985 0 0 0
3043 3 5.3955 3.597 1.7985 0 0 0
1560 3 19.7835 12.5895 32.373 0 0 0
2096 3 16.1865 26.9775 10.791 0 0 0
2189 3 17.985 32.373 25.179 0 0 0
2858 3 10.791 23.3805 16.1865 0 0 0
2184 3 16.1865 34.1715 17.985 0 0 0
726 3 28.776 12.5895 5.3955 0 0 0
3520 3 1.7985 8.9925 32.373 0 0 0
3785 3 3.597 32.373 21.582 0 0 0
1080 3 23.3805 5.3955 32.373 0 0 0
685 3 28.776 7.194 3.597 0 0 0
2087 3 16.1865 25.179 5.3955 0 0 0
3188 3 5.3955 16.1865 21.582 0 0 0
3581 3 3.597 14.388 17.985 0 0 0
3763 3 1.7985 32.373 1.7985 0 0 0
3969 3 0.0 28.776 14.388 0 0 0
1287 3 23.3805 25.179 5.3955 0 0 0
3846 3 0.0 8.9925 8.9925 0 0 0
1216 3 23.3805 19.7835 10.791 0 0 0
868 3 26.9775 23.3805 21.582 0 0 0
2281 3 14.388 7.194 0.0 0 0 0
1842 3 17.985 5.3955 1.7985 0 0 0
1043 3 23.3805 3.597 1.7985 0 0 0
2730 3 10.791 12.5895 8.9925 0 0 0
2632 3 8.9925 1.7985 25.179 0 0 0
1529 3 21.582 10.791 7.194 0 0 0
546 3 32.373 30.5745 23.3805 0 0 0
2056 3 16.1865 23.3805 10.791 0 0 0
3403 3 1.7985 0.0 1.7985 0 0 0
2264 3 12.5895 5.3955 17.985 0 0 0
2053 3 17.985 21.582 10.791 0 0 0
3628 3 1.7985 19.7835 21.582 0 0 0
3926 3 0.0 23.3805 8.9925 0 0 0
3537 3 3.597 10.791 14.388 0 0 0
2298 3 14.388 8.9925 16.1865 0 0 0
2425 3 14.388 17.985 21.582 0 0 0
1049 3 25.179 3.597 7.194 0 0 0
564 3 30.5745 34.1715 0.0 0 0 0
2919 3 8.9925 25.179 34.1715 0 0 0
1207 3 23.3805 17.985 5.3955 0 0 0
2257 3 14.388 3.597 14.388 0 0 0
2175 3 16.1865 32.373 12.5895 0 0 0
332 3 30.5745 12.5895 7.194 0 0 0
2871 3 8.9925 21.582 26.9775 0 0 0
1869 3 17.985 3.597 25.179 0 0 0
2676 3 8.9925 5.3955 28.776 0 0 0
727 3 26.9775 10.791 5.3955 0 0 0
2215 3 12.5895 0.0 12.5895 0 0 0
820 3 26.9775 19.7835 14.388 0 0 0
3427 3 1.7985 0.0 23.3805 0 0 0
1430 3 21.582 1.7985 26.9775 0 0 0
108 3 34.1715 19.7835 10.791 0 0 0
2138 3 17.985 30.5745 16.1865 0 0 0
2519 3 12.5895 25.179 34.1715 0 0 0
2941 3 10.791 28.776 17.985 0 0 0
1082 3 25.179 8.9925 1.7985 0 0 0
2948 3 8.9925 30.5745 21.582 0 0 0
1498 3 21.582 8.9925 16.1865 0 0 0
3615 3 1.7985 17.985 12.5895 0 0 0
2571 3 12.5895 32.373 8.9925 0 0 0
3532 3 1.7985 12.5895 7.194 0 0 0
3817 3 0.0 0.0 28.776 0 0 0
1468 3 19.7835 5.3955 21.582 0 0 0
1034 3 25.179 1.7985 30.5745 0 0 0
2604 3 8.9925 1.7985 0.0 0 0 0
1518 3 21.582 8.9925 34.1715 0 0 0
3956 3 0.0 26.9775 26.9775 0 0 0
3713 3 3.597 25.179 28.776 0 0 0
3009 3 7.194 0.0 7.194 0 0 0
1684 3 19.7835 26.9775 0.0 0 0 0
1165 3 25.179 14.388 3.597 0 0 0
3890 3 0.0 16.1865 16.1865 0 0 0
3348 3 5.3955 30.5745 21.582 0 0 0
2349 3 14.388 10.791 25.179 0 0 0
2360 3 12.5895 12.5895 32.373 0 0 0
2680 3 8.9925 5.3955 32.373 0 0 0
2226 3 14.388 1.7985 23.3805 0 0 0
3138 3 7.194 12.5895 16.1865 0 0 0
892 3 26.9775 26.9775 7.194 0 0 0
391 3 30.5745 14.388 26.9775 0 0 0
1760 3 19.7835 30.5745 32.373 0 0 0
1333 3 25.179 28.776 10.791 0 0 0
106 3 34.1715 19.7835 7.194 0 0 0
1502 3 21.582 8.9925 19.7835 0 0 0
641 3 28.776 3.597 0.0 0 0 0
1260 3 23.3805 23.3805 14.388 0 0 0
1140 3 23.3805 12.5895 14.388 0 0 0
2564 3 12.5895 34.1715 0.0 0 0 0
1598 3 21.582 16.1865 34.1715 0 0 0
2818 3 10.791 19.7835 16.1865 0 0 0
3977 3 0.0 28.776 28.776 0 0 0
2920 3 8.9925 26.9775 32.373 0 0 0
594 3 32.373 34.1715 30.5745 0 0 0
233 3 32.373 0.0 28.776 0 0 0
2758 3 10.791 12.5895 34.1715 0 0 0
2429 3 14.388 17.985 25.179 0 0 0
905 3 28.776 25.179 21.582 0 0 0
1098 3 25.179 8.9925 16.1865 0 0 0
761 3 28.776 14.388 0.0 0 0 0
1141 3 25.179 10.791 17.985 0 0 0
3612 3 1.7985 19.7835 7.194 0 0 0
1469 3 21.582 3.597 25.179 0 0 0
3223 3 5.3955 17.985 19.7835 0 0 0
1063 3 23.3805 3.597 19.7835 0 0 0
1067 3 23.3805 3.597 23.3805 0 0 0
2827 3 8.9925 17.985 23.3805 0 0 0
3699 3 1.7985 25.179 16.1865 0 0 0
3735 3 1.7985 28.776 12.5895 0 0 0
1383 3 23.3805 32.373 19.7835 0 0 0
2283 3 12.5895 7.194 1.7985 0 0 0
2130 3 17.985 30.5745 8.9925 0 0 0
337 3 32.373 10.791 14.388 0 0 0
3443 3 1.7985 3.597 1.7985 0 0 0
3712 3 1.7985 26.9775 25.179 0 0 0
2823 3 8.9925 17.985 19.7835 0 0 0
1273 3 25.179 21.582 28.776 0 0 0
1358 3 25.179 30.5745 34.1715 0 0 0
3029 3 7.194 0.0 25.179 0 0 0
2117 3 17.985 25.179 32.373 0 0 0
1340 3 23.3805 30.5745 14.388 0 0 0
3944 3 0.0 26.9775 5.3955 0 0 0
2627 3 8.9925 0.0 23.3805 0 0 0
2454 3 14.388 23.3805 12.5895 0 0 0
2384 3 12.5895 16.1865 17.985 0 0 0
600 3 30.5745 34.1715 32.373 0 0 0
2255 3 12.5895 3.597 12.5895 0 0 0
1923 3 16.1865 10.791 1.7985 0 0 0
1476 3 19.7835 5.3955 28.776 0 0 0
2610 3 10.791 1.7985 8.9925 0 0 0
2174 3 17.985 34.1715 12.5895 0 0 0
2731 3 8.9925 10.791 8.9925 0 0 0
43 3 34.1715 7.194 5.3955 0 0 0
3040 3 5.3955 1.7985 32.373 0 0 0
3777 3 3.597 32.373 14.388 0 0 0
1859 3 16.1865 3.597 16.1865 0 0 0
1540 3 19.7835 12.5895 14.388 0 0 0
1720 3 19.7835 26.9775 32.373 0 0 0
1316 3 23.3805 26.9775 28.776 0 0 0
3854 3 0.0 8.9925 23.3805 0 0 0
1237 3 25.179 17.985 32.373 0 0 0
1193 3 25.179 14.388 28.776 0 0 0
702 3 28.776 8.9925 19.7835 0 0 0
1238 3 25.179 19.7835 34.1715 0 0 0
2950 3 10.791 30.5745 26.9775 0 0 0
3357 3 7.194 28.776 32.373 0 0 0
3623 3 1.7985 17.985 19.7835 0 0 0
2509 3 14.388 25.179 25.179 0 0 0
3827 3 0.0 3.597 10.791 0 0 0
1596 3 19.7835 16.1865 28.776 0 0 0
1219 3 23.3805 17.985 16.1865 0 0 0
2741 3 10.791 10.791 17.985 0 0 0
186 3 34.1715 34.1715 7.194 0 0 0
1415 3 19.7835 0.0 12.5895 0 0 0
174 3 34.1715 30.5745 21.582 0 0 0
2150 3 17.985 30.5745 26.9775 0 0 0
2017 3 17.985 17.985 14.388 0 0 0
3146 3 7.194 12.5895 23.3805 0 0 0
3685 3 3.597 25.179 3.597 0 0 0
763 3 26.9775 14.388 1.7985 0 0 0
2162 3 17.985 34.1715 1.7985 0 0 0
2177 3 17.985 32.373 14.388 0 0 0
178 3 34.1715 30.5745 28.776 0 0 0
2988 3 8.9925 34.1715 21.582 0 0 0
7 3 34.1715 0.0 12.5895 0 0 0
1310 3 25.179 26.9775 26.9775 0 0 0
658 3 28.776 5.3955 16.1865 0 0 0
2302 3 14.388 8.9925 19.7835 0 0 0
1149 3 25.179 10.791 25.179 0 0 0
3114 3 7.194 8.9925 30.5745 0 0 0
3515 3 1.7985 7.194 30.5745 0 0 0
2566 3 14.388 34.1715 5.3955 0 0 0
2068 3 16.1865 23.3805 21.582 0 0 0
3746 3 3.597 30.5745 23.3805 0 0 0
1590 3 21.582 16.1865 26.9775 0 0 0
2542 3 14.388 30.5745 19.7835 0 0 0
2055 3 16.1865 21.582 12.5895 0 0 0
963 3 26.9775 32.373 1.7985 0 0 0
371 3 30.5745 14.388 8.9925 0 0 0
1128 3 23.3805 12.5895 3.597 0 0 0
3689 3 3.597 25.179 7.194 0 0 0
1356 3 23.3805 30.5745 28.776 0 0 0
261 3 32.373 3.597 17.985 0 0 0
2268 3 12.5895 5.3955 21.582 0 0 0
1946 3 17.985 12.5895 23.3805 0 0 0
741 3 28.776 10.791 17.985 0 0 0
3655 3 1.7985 21.582 12.5895 0 0 0
3368 3 5.3955 34.1715 3.597 0 0 0
250 3 32.373 5.3955 8.9925 0 0 0
2418 3 14.388 19.7835 16.1865 0 0 0
2147 3 16.1865 28.776 23.3805 0 0 0
1282 3 25.179 26.9775 1.7985 0 0 0
989 3 28.776 32.373 25.179 0 0 0
1902 3 17.985 8.9925 19.7835 0 0 0
2038 3 17.985 19.7835 34.1715 0 0 0
1372 3 23.3805 34.1715 7.194 0 0 0
3951 3 0.0 25.179 17.985 0 0 0
728 3 26.9775 12.5895 3.597 0 0 0
3745 3 3.597 28.776 21.582 0 0 0
2123 3 16.1865 28.776 1.7985 0 0 0
424 3 30.5745 19.7835 17.985 0 0 0
3020 3 5.3955 1.7985 14.388 0 0 0
1492 3 19.7835 8.9925 7.194 0 0 0
818 3 28.776 19.7835 16.1865 0 0 0
2900 3 8.9925 26.9775 14.388 0 0 0
3838 3 0.0 5.3955 30.5745 0 0 0
321 3 32.373 10.791 0.0 0 0 0
2051 3 16.1865 21.582 8.9925 0 0 0
485 3 32.373 25.179 3.597 0 0 0
1872 3 16.1865 5.3955 25.179 0 0 0
893 3 28.776 25.179 10.791 0 0 0
850 3 28.776 23.3805 8.9925 0 0 0
44 3 34.1715 8.9925 3.597 0 0 0
259 3 30.5745 3.597 16.1865 0 0 0
961 3 28.776 32.373 0.0 0 0 0
3978 3 0.0 30.5745 30.5745 0 0 0
800 3 26.9775 16.1865 32.373 0 0 0
3551 3 1.7985 10.791 26.9775 0 0 0
817 3 28.776 17.985 14.388 0 0 0
381 3 32.373 14.388 17.985 0 0 0
642 3 28.776 5.3955 1.7985 0 0 0
1270 3 25.179 23.3805 26.9775 0 0 0
2531 3 12.5895 28.776 8.9925 0 0 0
3724 3 1.7985 30.5745 0.0 0 0 0
2237 3 14.388 0.0 32.373 0 0 0
3297 3 7.194 25.179 14.388 0 0 0
1839 3 16.1865 0.0 34.1715 0 0 0
1411 3 19.7835 0.0 8.9925 0 0 0
3821 3 0.0 3.597 0.0 0 0 0
2962 3 10.791 34.1715 1.7985 0 0 0
3842 3 0.0 8.9925 1.7985 0 0 0
3083 3 5.3955 7.194 1.7985 0 0 0
3110 3 7.194 8.9925 26.9775 0 0 0
3638 3 3.597 19.7835 34.1715 0 0 0
710 3 28.776 8.9925 26.9775 0 0 0
880 3 26.9775 23.3805 32.373 0 0 0
835 3 26.9775 17.985 30.5745 0 0 0
1199 3 23.3805 14.388 34.1715 0 0 0
3318 3 7.194 26.9775 34.1715 0 0 0
996 3 26.9775 34.1715 28.776 0 0 0
628 3 26.9775 1.7985 21.582 0 0 0
3940 3 0.0 23.3805 34.1715 0 0 0
588 3 30.5745 34.1715 21.582 0 0 0
611 3 26.9775 0.0 8.9925 0 0 0
3874 3 0.0 12.5895 23.3805 0 0 0
788 3 26.9775 16.1865 21.582 0 0 0
2930 3 10.791 30.5745 8.9925 0 0 0
2461 3 14.388 21.582 17.985 0 0 0
1317 3 25.179 25.179 32.373 0 0 0
2098 3 17.985 26.9775 16.1865 0 0 0
206 3 32.373 1.7985 5.3955 0 0 0
2064 3 16.1865 23.3805 17.985 0 0 0
653 3 28.776 3.597 10.791 0 0 0
1570 3 21.582 16.1865 8.9925 0 0 0
1088 3 23.3805 8.9925 3.597 0 0 0
374 3 32.373 16.1865 12.5895 0 0 0
2600 3 12.5895 34.1715 32.373 0 0 0
276 3 30.5745 5.3955 28.776 0 0 0
3539 3 1.7985 10.791 16.1865 0 0 0
3417 3 3.597 0.0 14.388 0 0 0
737 3 28.776 10.791 14.388 0 0 0
3438 3 3.597 1.7985 34.1715 0 0 0
164 3 34.1715 30.5745 3.597 0 0 0
1301 3 25.179 25.179 17.985 0 0 0
1809 3 17.985 0.0 7.194 0 0 0
937 3 28.776 28.776 14.388 0 0 0
932 3 26.9775 30.5745 7.194 0 0 0
3988 3 0.0 34.1715 12.5895 0 0 0
1084 3 23.3805 8.9925 0.0 0 0 0
1136 3 23.3805 12.5895 10.791 0 0 0
1183 3 23.3805 14.388 19.7835 0 0 0
2715 3 8.9925 7.194 30.5745 0 0 0
1497 3 21.582 7.194 14.388 0 0 0
468 3 30.5745 23.3805 21.582 0 0 0
2125 3 17.985 28.776 3.597 0 0 0
401 3 32.373 17.985 0.0 0 0 0
2494 3 14.388 26.9775 12.5895 0 0 0
1582 3 21.582 16.1865 19.7835 0 0 0
694 3 28.776 8.9925 12.5895 0 0 0
3858 3 0.0 8.9925 30.5745 0 0 0
2049 3 17.985 21.582 7.194 0 0 0
472 3 30.5745 23.3805 25.179 0 0 0
2252 3 12.5895 5.3955 7.194 0 0 0
1820 3 16.1865 1.7985 14.388 0 0 0
2411 3 12.5895 17.985 8.9925 0 0 0
754 3 28.776 12.5895 30.5745 0 0 0
1668 3 19.7835 23.3805 21.582 0 0 0
3502 3 3.597 8.9925 19.7835 0 0 0
3191 3 5.3955 14.388 26.9775 0 0 0
2368 3 12.5895 16.1865 3.597 0 0 0
3393 3 7.194 32.373 28.776 0 0 0
2191 3 16.1865 32.373 26.9775 0 0 0
3232 3 5.3955 19.7835 25.179 0 0 0
2982 3 10.791 34.1715 19.7835 0 0 0
3878 3 0.0 12.5895 30.5745 0 0 0
2525 3 14.388 28.776 3.597 0 0 0
3387 3 5.3955 32.373 23.3805 0 0 0
2278 3 14.388 5.3955 34.1715 0 0 0
1277 3 25.179 21.582 32.373 0 0 0
2908 3 8.9925 26.9775 21.582 0 0 0
2253 3 14.388 3.597 10.791 0 0 0
633 3 28.776 0.0 28.776 0 0 0
2615 3 8.9925 0.0 12.5895 0 0 0
1516 3 19.7835 8.9925 28.776 0 0 0
2359 3 12.5895 10.791 34.1715 0 0 0
587 3 30.5745 32.373 23.3805 0 0 0
124 3 34.1715 23.3805 3.597 0 0 0
1151 3 23.3805 10.791 26.9775 0 0 0
2010 3 17.985 19.7835 8.9925 0 0 0
3702 3 3.597 26.9775 19.7835 0 0 0
2565 3 14.388 32.373 3.597 0 0 0
160 3 34.1715 26.9775 32.373 0 0 0
1924 3 16.1865 12.5895 0.0 0 0 0
2657 3 10.791 3.597 14.388 0 0 0
3920 3 0.0 19.7835 34.1715 0 0 0
3681 3 3.597 25.179 0.0 0 0 0
2416 3 12.5895 19.7835 10.791 0 0 0
1338 3 25.179 30.5745 16.1865 0 0 0
2339 3 12.5895 10.791 16.1865 0 0 0
1733 3 21.582 28.776 10.791 0 0 0
2026 3 17.985 19.7835 23.3805 0 0 0
1187 3 23.3805 14.388 23.3805 0 0 0
1761 3 21.582 32.373 0.0 0 0 0
2456 3 12.5895 23.3805 10.791 0 0 0
1432 3 19.7835 1.7985 25.179 0 0 0
230 3 32.373 1.7985 26.9775 0 0 0
2179 3 16.1865 32.373 16.1865 0 0 0
962 3 28.776 34.1715 1.7985 0 0 0
280 3 30.5745 5.3955 32.373 0 0 0
3280 3 5.3955 23.3805 32.373 0 0 0
2229 3 14.388 0.0 25.179 0 0 0
730 3 28.776 12.5895 8.9925 0 0 0
2708 3 8.9925 8.9925 21.582 0 0 0
442 3 32.373 23.3805 1.7985 0 0 0
1828 3 16.1865 1.7985 21.582 0 0 0
2545 3 14.388 28.776 21.582 0 0 0
1111 3 23.3805 7.194 26.9775 0 0 0
952 3 26.9775 30.5745 25.179 0 0 0
2376 3 12.5895 16.1865 10.791 0 0 0
1424 3 19.7835 1.7985 17.985 0 0 0
1555 3 19.7835 10.791 30.5745 0 0 0
1930 3 17.985 12.5895 8.9925 0 0 0
3823 3 0.0 3.597 3.597 0 0 0
1670 3 21.582 23.3805 26.9775 0 0 0
3254 3 7.194 23.3805 12.5895 0 0 0
438 3 32.373 19.7835 34.1715 0 0 0
2641 3 10.791 3.597 0.0 0 0 0
3774 3 3.597 34.1715 12.5895 0 0 0
3281 3 7.194 25.179 0.0 0 0 0
1538 3 21.582 12.5895 16.1865 0 0 0
2320 3 12.5895 8.9925 32.373 0 0 0
718 3 28.776 8.9925 34.1715 0 0 0
2775 3 8.9925 14.388 12.5895 0 0 0
2443 3 12.5895 21.582 1.7985 0 0 0
1880 3 16.1865 5.3955 32.373 0 0 0
2668 3 8.9925 5.3955 21.582 0 0 0
2093 3 17.985 25.179 10.791 0 0 0
2976 3 8.9925 34.1715 10.791 0 0 0
1928 3 16.1865 12.5895 3.597 0 0 0
1638 3 21.582 19.7835 34.1715 0 0 0
3436 3 1.7985 1.7985 28.776 0 0 0
3046 3 7.194 5.3955 5.3955 0 0 0
684 3 26.9775 8.9925 0.0 0 0 0
923 3 26.9775 28.776 1.7985 0 0 0
1769 3 21.582 32.373 7.194 0 0 0
827 3 26.9775 17.985 23.3805 0 0 0
2371 3 12.5895 14.388 8.9925 0 0 0
590 3 32.373 34.1715 26.9775 0 0 0
739 3 26.9775 10.791 16.1865 0 0 0
21 3 34.1715 3.597 1.7985 0 0 0
1407 3 19.7835 0.0 5.3955 0 0 0
3476 3 1.7985 5.3955 28.776 0 0 0
260 3 30.5745 5.3955 14.388 0 0 0
828 3 26.9775 19.7835 21.582 0 0 0
3868 3 0.0 12.5895 12.5895 0 0 0
1807 3 16.1865 0.0 5.3955 0 0 0
3322 3 7.194 30.5745 1.7985 0 0 0
993 3 28.776 32.373 28.776 0 0 0
2248 3 12.5895 5.3955 3.597 0 0 0
1811 3 16.1865 0.0 8.9925 0 0 0
2388 3 12.5895 16.1865 21.582 0 0 0
404 3 30.5745 19.7835 0.0 0 0 0
627 3 26.9775 0.0 23.3805 0 0 0
2508 3 12.5895 26.9775 21.582 0 0 0
3373 3 7.194 32.373 10.791 0 0 0
2300 3 12.5895 8.9925 14.388 0 0 0
1680 3 19.7835 23.3805 32.373 0 0 0
1455 3 19.7835 3.597 12.5895 0 0 0
2111 3 16.1865 25.179 26.9775 0 0 0
1392 3 23.3805 34.1715 25.179 0 0 0
3067 3 5.3955 3.597 23.3805 0 0 0
2797 3 10.791 14.388 32.373 0 0 0
1655 3 19.7835 21.582 12.5895 0 0 0
2108 3 16.1865 26.9775 21.582 0 0 0
2468 3 12.5895 23.3805 21.582 0 0 0
1949 3 17.985 10.791 25.179 0 0 0
1520 3 19.7835 8.9925 32.373 0 0 0
3952 3 0.0 26.9775 19.7835 0 0 0
2235 3 12.5895 0.0 30.5745 0 0 0
1398 3 25.179 34.1715 34.1715 0 0 0
2279 3 12.5895 3.597 34.1715 0 0 0
3131 3 5.3955 10.791 8.9925 0 0 0
2894 3 10.791 26.9775 12.5895 0 0 0
2084 3 16.1865 26.9775 0.0 0 0 0
2421 3 14.388 17.985 17.985 0 0 0
864 3 26.9775 23.3805 17.985 0 0 0
2748 3 8.9925 12.5895 21.582 0 0 0
1029 3 25.179 0.0 25.179 0 0 0
300 3 30.5745 8.9925 14.388 0 0 0
3101 3 7.194 7.194 17.985 0 0 0
2719 3 8.9925 7.194 34.1715 0 0 0
885 3 28.776 25.179 3.597 0 0 0
999 3 26.9775 32.373 34.1715 0 0 0
298 3 32.373 8.9925 16.1865 0 0 0
2658 3 10.791 5.3955 16.1865 0 0 0
1378 3 25.179 34.1715 16.1865 0 0 0
2097 3 17.985 25.179 14.388 0 0 0
1010 3 25.179 1.7985 8.9925 0 0 0
1120 3 23.3805 8.9925 32.373 0 0 0
3258 3 7.194 23.3805 16.1865 0 0 0
3619 3 1.7985 17.985 16.1865 0 0 0
2972 3 8.9925 34.1715 7.194 0 0 0
703 3 26.9775 7.194 19.7835 0 0 0
1738 3 21.582 30.5745 16.1865 0 0 0
1135 3 23.3805 10.791 12.5895 0 0 0
282 3 32.373 8.9925 1.7985 0 0 0
782 3 28.776 16.1865 19.7835 0 0 0
2916 3 8.9925 26.9775 28.776 0 0 0
2016 3 16.1865 19.7835 10.791 0 0 0
3546 3 3.597 12.5895 23.3805 0 0 0
2803 3 8.9925 17.985 1.7985 0 0 0
2729 3 10.791 10.791 7.194 0 0 0
326 3 32.373 12.5895 5.3955 0 0 0
2362 3 14.388 16.1865 1.7985 0 0 0
2001 3 17.985 17.985 0.0 0 0 0
221 3 32.373 0.0 17.985 0 0 0
2995 3 8.9925 32.373 30.5745 0 0 0
3106 3 7.194 8.9925 23.3805 0 0 0
1335 3 23.3805 28.776 12.5895 0 0 0
3959 3 0.0 25.179 32.373 0 0 0
502 3 32.373 26.9775 19.7835 0 0 0
171 3 34.1715 28.776 19.7835 0 0 0
3886 3 0.0 16.1865 8.9925 0 0 0
2161 3 17.985 32.373 0.0 0 0 0
461 3 32.373 21.582 17.985 0 0 0
2200 3 16.1865 34.1715 32.373 0 0 0
190 3 34.1715 34.1715 14.388 0 0 0
1771 3 19.7835 32.373 8.9925 0 0 0
1883 3 16.1865 7.194 1.7985 0 0 0
1422 3 21.582 1.7985 19.7835 0 0 0
560 3 30.5745 30.5745 32.373 0 0 0
2882 3 10.791 26.9775 1.7985 0 0 0
3065 3 7.194 3.597 21.582 0 0 0
3325 3 7.194 28.776 3.597 0 0 0
3577 3 3.597 14.388 14.388 0 0 0
3462 3 3.597 5.3955 19.7835 0 0 0
1052 3 23.3805 5.3955 7.194 0 0 0
22 3 34.1715 5.3955 0.0 0 0 0
1453 3 21.582 3.597 10.791 0 0 0
1258 3 25.179 23.3805 16.1865 0 0 0
1095 3 23.3805 7.194 12.5895 0 0 0
2294 3 14.388 8.9925 12.5895 0 0 0
3918 3 0.0 19.7835 30.5745 0 0 0
437 3 32.373 17.985 32.373 0 0 0
1031 3 23.3805 0.0 26.9775 0 0 0
1891 3 16.1865 7.194 8.9925 0 0 0
2800 3 8.9925 16.1865 32.373 0 0 0
3356 3 5.3955 30.5745 28.776 0 0 0
1721 3 21.582 28.776 0.0 0 0 0
618 3 28.776 1.7985 16.1865 0 0 0
3112 3 5.3955 8.9925 25.179 0 0 0
3877 3 0.0 10.791 28.776 0 0 0
539 3 30.5745 28.776 16.1865 0 0 0
1343 3 23.3805 28.776 19.7835 0 0 0
45 3 34.1715 7.194 8.9925 0 0 0
573 3 32.373 32.373 10.791 0 0 0
2862 3 10.791 23.3805 19.7835 0 0 0
358 3 32.373 12.5895 34.1715 0 0 0
3187 3 5.3955 14.388 23.3805 0 0 0
3629 3 3.597 17.985 25.179 0 0 0
608 3 26.9775 1.7985 3.597 0 0 0
831 3 26.9775 17.985 26.9775 0 0 0
1490 3 21.582 8.9925 8.9925 0 0 0
2331 3 12.5895 10.791 8.9925 0 0 0
3182 3 7.194 16.1865 19.7835 0 0 0
2940 3 8.9925 30.5745 14.388 0 0 0
444 3 30.5745 23.3805 0.0 0 0 0
650 3 28.776 5.3955 8.9925 0 0 0
3206 3 7.194 19.7835 5.3955 0 0 0
1241 3 25.179 21.582 0.0 0 0 0
2917 3 10.791 25.179 32.373 0 0 0
2671 3 8.9925 3.597 26.9775 0 0 0
1021 3 25.179 0.0 17.985 0 0 0
659 3 26.9775 3.597 16.1865 0 0 0
1683 3 19.7835 25.179 1.7985 0 0 0
1602 3 21.582 19.7835 1.7985 0 0 0
1503 3 19.7835 7.194 19.7835 0 0 0
3392 3 5.3955 34.1715 25.179 0 0 0
2126 3 17.985 30.5745 5.3955 0 0 0
279 3 30.5745 3.597 34.1715 0 0 0
2312 3 12.5895 8.9925 25.179 0 0 0
2393 3 14.388 14.388 28.776 0 0 0
310 3 32.373 8.9925 26.9775 0 0 0
1972 3 16.1865 16.1865 7.194 0 0 0
3540 3 1.7985 12.5895 14.388 0 0 0
2586 3 14.388 34.1715 23.3805 0 0 0
2141 3 17.985 28.776 17.985 0 0 0
487 3 30.5745 25.179 5.3955 0 0 0
3050 3 7.194 5.3955 8.9925 0 0 0
2555 3 12.5895 28.776 30.5745 0 0 0
2764 3 8.9925 16.1865 0.0 0 0 0
3203 3 5.3955 17.985 1.7985 0 0 0
3166 3 7.194 16.1865 5.3955 0 0 0
3294 3 7.194 26.9775 12.5895 0 0 0
3660 3 1.7985 23.3805 14.388 0 0 0
824 3 26.9775 19.7835 17.985 0 0 0
3352 3 5.3955 30.5745 25.179 0 0 0
1953 3 17.985 10.791 28.776 0 0 0
1910 3 17.985 8.9925 26.9775 0 0 0
101 3 34.1715 17.985 1.7985 0 0 0
2021 3 17.985 17.985 17.985 0 0 0
1743 3 19.7835 28.776 19.7835 0 0 0
70 3 34.1715 12.5895 14.388 0 0 0
2622 3 10.791 1.7985 19.7835 0 0 0
1148 3 23.3805 12.5895 21.582 0 0 0
572 3 30.5745 34.1715 7.194 0 0 0
3909 3 0.0 17.985 14.388 0 0 0
3264 3 5.3955 23.3805 17.985 0 0 0
2431 3 12.5895 17.985 26.9775 0 0 0
2136 3 16.1865 30.5745 10.791 0 0 0
995 3 26.9775 32.373 30.5745 0 0 0
2968 3 8.9925 34.1715 3.597 0 0 0
305 3 32.373 7.194 21.582 0 0 0
3447 3 1.7985 3.597 5.3955 0 0 0
1161 3 25.179 14.388 0.0 0 0 0
1658 3 21.582 23.3805 16.1865 0 0 0
105 3 34.1715 17.985 8.9925 0 0 0
1228 3 23.3805 19.7835 21.582 0 0 0
1144 3 23.3805 12.5895 17.985 0 0 0
3810 3 0.0 1.7985 16.1865 0 0 0
1575 3 19.7835 14.388 12.5895 0 0 0
1864 3 16.1865 5.3955 17.985 0 0 0
615 3 26.9775 0.0 12.5895 0 0 0
2879 3 8.9925 21.582 34.1715 0 0 0
1939 3 16.1865 10.791 16.1865 0 0 0
459 3 30.5745 21.582 16.1865 0 0 0
1204 3 23.3805 19.7835 0.0 0 0 0
1586 3 21.582 16.1865 23.3805 0 0 0
2911 3 8.9925 25.179 26.9775 0 0 0
1296 3 23.3805 26.9775 10.791 0 0 0
785 3 28.776 14.388 21.582 0 0 0
198 3 34.1715 34.1715 28.776 0 0 0
1564 3 19.7835 16.1865 0.0 0 0 0
3494 3 3.597 8.9925 12.5895 0 0 0
2012 3 16.1865 19.7835 7.194 0 0 0
994 3 28.776 34.1715 30.5745 0 0 0
202 3 32.373 1.7985 1.7985 0 0 0
857 3 28.776 21.582 14.388 0 0 0
1382 3 25.179 34.1715 19.7835 0 0 0
3787 3 1.7985 32.373 23.3805 0 0 0
2423 3 12.5895 17.985 19.7835 0 0 0
111 3 34.1715 17.985 19.7835 0 0 0
32 3 34.1715 5.3955 17.985 0 0 0
1033 3 25.179 0.0 28.776 0 0 0
3526 3 3.597 12.5895 5.3955 0 0 0
2666 3 10.791 5.3955 23.3805 0 0 0
3430 3 3.597 1.7985 26.9775 0 0 0
25 3 34.1715 3.597 8.9925 0 0 0
3504 3 1.7985 8.9925 17.985 0 0 0
2626 3 10.791 1.7985 23.3805 0 0 0
1776 3 19.7835 34.1715 10.791 0 0 0
2714 3 10.791 8.9925 30.5745 0 0 0
1261 3 25.179 21.582 17.985 0 0 0
1484 3 19.7835 8.9925 0.0 0 0 0
356 3 30.5745 12.5895 28.776 0 0 0
1221 3 25.179 17.985 17.985 0 0 0
2924 3 8.9925 30.5745 0.0 0 0 0
1773 3 21.582 32.373 10.791 0 0 0
1190 3 25.179 16.1865 26.9775 0 0 0
3092 3 5.3955 8.9925 7.194 0 0 0
413 3 32.373 17.985 10.791 0 0 0
750 3 28.776 12.5895 26.9775 0 0 0
656 3 26.9775 5.3955 10.791 0 0 0
3209 3 7.194 17.985 7.194 0 0 0
3963 3 0.0 28.776 3.597 0 0 0
3866 3 0.0 12.5895 8.9925 0 0 0
3792 3 1.7985 34.1715 25.179 0 0 0
3845 3 0.0 7.194 7.194 0 0 0
2647 3 8.9925 3.597 5.3955 0 0 0
1522 3 21.582 12.5895 1.7985 0 0 0
870 3 28.776 23.3805 26.9775 0 0 0
2848 3 8.9925 23.3805 3.597 0 0 0
2796 3 8.9925 16.1865 28.776 0 0 0
1433 3 21.582 0.0 28.776 0 0 0
2543 3 12.5895 28.776 19.7835 0 0 0
657 3 28.776 3.597 14.388 0 0 0
1732 3 19.7835 30.5745 7.194 0 0 0
891 3 26.9775 25.179 8.9925 0 0 0
258 3 32.373 5.3955 16.1865 0 0 0
3035 3 5.3955 0.0 30.5745 0 0 0
1595 3 19.7835 14.388 30.5745 0 0 0
3806 3 0.0 1.7985 8.9925 0 0 0
2963 3 8.9925 32.373 1.7985 0 0 0
3541 3 3.597 10.791 17.985 0 0 0
1395 3 23.3805 32.373 30.5745 0 0 0
1699 3 19.7835 25.179 16.1865 0 0 0
2467 3 12.5895 21.582 23.3805 0 0 0
3762 3 3.597 34.1715 1.7985 0 0 0
2219 3 12.5895 0.0 16.1865 0 0 0
1641 3 21.582 21.582 0.0 0 0 0
449 3 32.373 21.582 7.194 0 0 0
903 3 26.9775 25.179 19.7835 0 0 0
2020 3 16.1865 19.7835 14.388 0 0 0
1956 3 16.1865 12.5895 28.776 0 0 0
3835 3 0.0 3.597 25.179 0 0 0
2436 3 12.5895 19.7835 28.776 0 0 0
1275 3 23.3805 21.582 30.5745 0 0 0
2002 3 17.985 19.7835 1.7985 0 0 0
2921 3 10.791 28.776 0.0 0 0 0
19 3 34.1715 0.0 34.1715 0 0 0
3714 3 3.597 26.9775 30.5745 0 0 0
2207 3 12.5895 0.0 5.3955 0 0 0
1376 3 23.3805 34.1715 10.791 0 0 0
1643 3 19.7835 21.582 1.7985 0 0 0
3064 3 5.3955 5.3955 17.985 0 0 0
3411 3 1.7985 0.0 8.9925 0 0 0
3307 3 5.3955 25.179 23.3805 0 0 0
532 3 30.5745 30.5745 7.194 0 0 0
1702 3 21.582 26.9775 19.7835 0 0 0
2717 3 10.791 7.194 32.373 0 0 0
76 3 34.1715 12.5895 25.179 0 0 0
1091 3 23.3805 7.194 8.9925 0 0 0
3851 3 0.0 7.194 17.985 0 0 0
3693 3 3.597 25.179 10.791 0 0 0
2075 3 16.1865 21.582 30.5745 0 0 0
512 3 30.5745 26.9775 25.179 0 0 0
3884 3 0.0 16.1865 5.3955 0 0 0
2691 3 8.9925 7.194 8.9925 0 0 0
3205 3 7.194 17.985 3.597 0 0 0
669 3 28.776 3.597 25.179 0 0 0
3813 3 0.0 0.0 21.582 0 0 0
855 3 26.9775 21.582 12.5895 0 0 0
1857 3 17.985 3.597 14.388 0 0 0
3120 3 5.3955 8.9925 32.373 0 0 0
2698 3 10.791 8.9925 16.1865 0 0 0
3573 3 3.597 14.388 10.791 0 0 0
591 3 30.5745 32.373 26.9775 0 0 0
3241 3 7.194 21.582 0.0 0 0 0
3399 3 5.3955 32.373 34.1715 0 0 0
1955 3 16.1865 10.791 30.5745 0 0 0
2247 3 12.5895 3.597 5.3955 0 0 0
3562 3 3.597 16.1865 1.7985 0 0 0
2520 3 12.5895 26.9775 32.373 0 0 0
1245 3 25.179 21.582 3.597 0 0 0
1810 3 17.985 1.7985 8.9925 0 0 0
1108 3 23.3805 8.9925 21.582 0 0 0
3953 3 0.0 25.179 21.582 0 0 0
746 3 28.776 12.5895 23.3805 0 0 0
1952 3 16.1865 12.5895 25.179 0 0 0
3359 3 5.3955 28.776 34.1715 0 0 0
3632 3 1.7985 19.7835 25.179 0 0 0
1040 3 23.3805 1.7985 32.373 0 0 0
469 3 32.373 21.582 25.179 0 0 0
1854 3 17.985 5.3955 12.5895 0 0 0
568 3 30.5745 34.1715 3.597 0 0 0
1780 3 19.7835 34.1715 14.388 0 0 0
3620 3 1.7985 19.7835 14.388 0 0 0
2810 3 10.791 19.7835 8.9925 0 0 0
2135 3 16.1865 28.776 12.5895 0 0 0
2570 3 14.388 34.1715 8.9925 0 0 0
909 3 28.776 25.179 25.179 0 0 0
379 3 30.5745 14.388 16.1865 0 0 0
533 3 32.373 28.776 10.791 0 0 0
2228 3 12.5895 1.7985 21.582 0 0 0
929 3 28.776 28.776 7.194 0 0 0
3186 3 7.194 16.1865 23.3805 0 0 0
1210 3 25.179 19.7835 8.9925 0 0 0
2646 3 10.791 5.3955 5.3955 0 0 0
2487 3 12.5895 25.179 5.3955 0 0 0
189 3 34.1715 32.373 16.1865 0 0 0
3416 3 1.7985 1.7985 10.791 0 0 0
1169 3 25.179 14.388 7.194 0 0 0
3008 3 5.3955 1.7985 3.597 0 0 0
2518 3 14.388 26.9775 34.1715 0 0 0
3976 3 0.0 30.5745 26.9775 0 0 0
1994 3 17.985 16.1865 30.5745 0 0 0
1375 3 23.3805 32.373 12.5895 0 0 0
1846 3 17.985 5.3955 5.3955 0 0 0
3350 3 7.194 30.5745 26.9775 0 0 0
1173 3 25.179 14.388 10.791 0 0 0
1805 3 17.985 0.0 3.597 0 0 0
1243 3 23.3805 21.582 1.7985 0 0 0
308 3 30.5745 8.9925 21.582 0 0 0
3725 3 3.597 28.776 3.597 0 0 0
3882 3 0.0 16.1865 1.7985 0 0 0
12 3 34.1715 1.7985 17.985 0 0 0
3374 3 7.194 34.1715 12.5895 0 0 0
1384 3 23.3805 34.1715 17.985 0 0 0
3998 3 0.0 34.1715 30.5745 0 0 0
3596 3 1.7985 16.1865 28.776 0 0 0
3016 3 5.3955 1.7985 10.791 0 0 0
3094 3 7.194 8.9925 12.5895 0 0 0
3986 3 0.0 34.1715 8.9925 0 0 0
3420 3 1.7985 1.7985 14.388 0 0 0
1479 3 19.7835 3.597 34.1715 0 0 0
2196 3 16.1865 34.1715 28.776 0 0 0
3171 3 5.3955 14.388 8.9925 0 0 0
811 3 26.9775 17.985 8.9925 0 0 0
2035 3 16.1865 17.985 30.5745 0 0 0
3192 3 5.3955 16.1865 25.179 0 0 0
888 3 26.9775 26.9775 3.597 0 0 0
562 3 32.373 34.1715 1.7985 0 0 0
2614 3 10.791 1.7985 12.5895 0 0 0
675 3 26.9775 3.597 30.5745 0 0 0
3538 3 3.597 12.5895 16.1865 0 0 0
2780 3 8.9925 16.1865 14.388 0 0 0
3474 3 3.597 5.3955 30.5745 0 0 0
958 3 28.776 30.5745 34.1715 0 0 0
2140 3 16.1865 30.5745 14.388 0 0 0
504 3 30.5745 26.9775 17.985 0 0 0
2987 3 8.9925 32.373 23.3805 0 0 0
2663 3 8.9925 3.597 19.7835 0 0 0
1784 3 19.7835 34.1715 17.985 0 0 0
249 3 32.373 3.597 7.194 0 0 0
3098 3 7.194 8.9925 16.1865 0 0 0
2169 3 17.985 32.373 7.194 0 0 0
1322 3 25.179 30.5745 1.7985 0 0 0
2107 3 16.1865 25.179 23.3805 0 0 0
706 3 28.776 8.9925 23.3805 0 0 0
1648 3 19.7835 23.3805 3.597 0 0 0
3853 3 0.0 7.194 21.582 0 0 0
2888 3 8.9925 26.9775 3.597 0 0 0
1008 3 23.3805 1.7985 3.597 0 0 0
2558 3 14.388 30.5745 34.1715 0 0 0
2280 3 12.5895 5.3955 32.373 0 0 0
3048 3 5.3955 5.3955 3.597 0 0 0
2378 3 14.388 16.1865 16.1865 0 0 0
3324 3 5.3955 30.5745 0.0 0 0 0
2720 3 8.9925 8.9925 32.373 0 0 0
3396 3 5.3955 34.1715 28.776 0 0 0
390 3 32.373 16.1865 26.9775 0 0 0
1373 3 25.179 32.373 10.791 0 0 0
975 3 26.9775 32.373 12.5895 0 0 0
1368 3 23.3805 34.1715 3.597 0 0 0
1158 3 25.179 12.5895 34.1715 0 0 0
3947 3 0.0 25.179 10.791 0 0 0
212 3 30.5745 1.7985 7.194 0 0 0
74 3 34.1715 12.5895 21.582 0 0 0
960 3 26.9775 30.5745 32.373 0 0 0
3235 3 5.3955 17.985 30.5745 0 0 0
3832 3 0.0 5.3955 19.7835 0 0 0
17 3 34.1715 0.0 30.5745 0 0 0
1213 3 25.179 17.985 10.791 0 0 0
457 3 32.373 21.582 14.388 0 0 0
2969 3 10.791 32.373 7.194 0 0 0
595 3 30.5745 32.373 30.5745 0 0 0
2407 3 12.5895 17.985 5.3955 0 0 0
1177 3 25.179 14.388 14.388 0 0 0
80 3 34.1715 12.5895 32.373 0 0 0
2760 3 8.9925 12.5895 32.373 0 0 0
530 3 32.373 30.5745 8.9925 0 0 0
2996 3 8.9925 34.1715 28.776 0 0 0
3602 3 3.597 19.7835 1.7985 0 0 0
1303 3 23.3805 25.179 19.7835 0 0 0
790 3 28.776 16.1865 26.9775 0 0 0
3563 3 1.7985 14.388 1.7985 0 0 0
2222 3 14.388 1.7985 19.7835 0 0 0
2316 3 12.5895 8.9925 28.776 0 0 0
2873 3 10.791 21.582 28.776 0 0 0
3720 3 1.7985 26.9775 32.373 0 0 0
3663 3 1.7985 21.582 19.7835 0 0 0
414 3 32.373 19.7835 12.5895 0 0 0
2166 3 17.985 34.1715 5.3955 0 0 0
2751 3 8.9925 10.791 26.9775 0 0 0
1609 3 21.582 17.985 7.194 0 0 0
2095 3 16.1865 25.179 12.5895 0 0 0
583 3 30.5745 32.373 19.7835 0 0 0
681 3 28.776 7.194 0.0 0 0 0
644 3 26.9775 5.3955 0.0 0 0 0
2786 3 10.791 16.1865 23.3805 0 0 0
1326 3 25.179 30.5745 5.3955 0 0 0
664 3 26.9775 5.3955 17.985 0 0 0
1106 3 25.179 8.9925 23.3805 0 0 0
3354 3 7.194 30.5745 30.5745 0 0 0
751 3 26.9775 10.791 26.9775 0 0 0
2373 3 14.388 14.388 10.791 0 0 0
3678 3 3.597 23.3805 34.1715 0 0 0
2009 3 17.985 17.985 7.194 0 0 0
292 3 30.5745 8.9925 7.194 0 0 0
677 3 28.776 3.597 32.373 0 0 0
1840 3 16.1865 1.7985 32.373 0 0 0
28 3 34.1715 5.3955 10.791 0 0 0
801 3 28.776 17.985 0.0 0 0 0
10 3 34.1715 1.7985 14.388 0 0 0
2769 3 10.791 14.388 7.194 0 0 0
2019 3 16.1865 17.985 16.1865 0 0 0
1631 3 19.7835 17.985 26.9775 0 0 0
3038 3 7.194 1.7985 34.1715 0 0 0
757 3 28.776 10.791 32.373 0 0 0
984 3 26.9775 34.1715 17.985 0 0 0
1646 3 21.582 23.3805 5.3955 0 0 0
925 3 28.776 28.776 3.597 0 0 0
90 3 34.1715 16.1865 14.388 0 0 0
1070 3 25.179 5.3955 26.9775 0 0 0
3490 3 3.597 8.9925 8.9925 0 0 0
1530 3 21.582 12.5895 8.9925 0 0 0
2851 3 8.9925 21.582 8.9925 0 0 0
2286 3 14.388 8.9925 5.3955 0 0 0
3949 3 0.0 25.179 14.388 0 0 0
370 3 32.373 16.1865 8.9925 0 0 0
1445 3 21.582 3.597 3.597 0 0 0
988 3 26.9775 34.1715 21.582 0 0 0
3093 3 7.194 7.194 10.791 0 0 0
933 3 28.776 28.776 10.791 0 0 0
2465 3 14.388 21.582 21.582 0 0 0
2957 3 10.791 28.776 32.373 0 0 0
1352 3 23.3805 30.5745 25.179 0 0 0
3172 3 5.3955 16.1865 7.194 0 0 0
3240 3 5.3955 19.7835 32.373 0 0 0
2129 3 17.985 28.776 7.194 0 0 0
2753 3 10.791 10.791 28.776 0 0 0
772 3 26.9775 16.1865 7.194 0 0 0
2498 3 14.388 26.9775 16.1865 0 0 0
3670 3 3.597 23.3805 26.9775 0 0 0
336 3 30.5745 12.5895 10.791 0 0 0
3123 3 5.3955 10.791 1.7985 0 0 0
109 3 34.1715 17.985 16.1865 0 0 0
1579 3 19.7835 14.388 16.1865 0 0 0
1877 3 17.985 3.597 32.373 0 0 0
3161 3 7.194 14.388 0.0 0 0 0
2630 3 10.791 1.7985 26.9775 0 0 0
2340 3 12.5895 12.5895 14.388 0 0 0
58 3 34.1715 8.9925 28.776 0 0 0
1735 3 19.7835 28.776 12.5895 0 0 0
3828 3 0.0 5.3955 12.5895 0 0 0
3226 3 7.194 19.7835 23.3805 0 0 0
1894 3 17.985 8.9925 12.5895 0 0 0
2446 3 14.388 23.3805 5.3955 0 0 0
1496 3 19.7835 8.9925 10.791 0 0 0
2156 3 16.1865 30.5745 28.776 0 0 0
3077 3 7.194 3.597 32.373 0 0 0
1254 3 25.179 23.3805 12.5895 0 0 0
1546 3 21.582 12.5895 23.3805 0 0 0
1318 3 25.179 26.9775 34.1715 0 0 0
3889 3 0.0 14.388 14.388 0 0 0
1549 3 21.582 10.791 25.179 0 0 0
986 3 28.776 34.1715 23.3805 0 0 0
2685 3 10.791 7.194 3.597 0 0 0
3824 3 0.0 5.3955 5.3955 0 0 0
338 3 32.373 12.5895 16.1865 0 0 0
2495 3 12.5895 25.179 12.5895 0 0 0
646 3 28.776 5.3955 5.3955 0 0 0
1267 3 23.3805 21.582 23.3805 0 0 0
663 3 26.9775 3.597 19.7835 0 0 0
1991 3 16.1865 14.388 26.9775 0 0 0
2674 3 10.791 5.3955 30.5745 0 0 0
2113 3 17.985 25.179 28.776 0 0 0
1346 3 25.179 30.5745 23.3805 0 0 0
3012 3 5.3955 1.7985 7.194 0 0 0
1056 3 23.3805 5.3955 10.791 0 0 0
1076 3 23.3805 5.3955 28.776 0 0 0
1678 3 21.582 23.3805 34.1715 0 0 0
1513 3 21.582 7.194 28.776 0 0 0
1764 3 19.7835 34.1715 0.0 0 0 0
2935 3 8.9925 28.776 12.5895 0 0 0
3079 3 5.3955 3.597 34.1715 0 0 0
447 3 30.5745 21.582 5.3955 0 0 0
2922 3 10.791 30.5745 1.7985 0 0 0
1863 3 16.1865 3.597 19.7835 0 0 0
3789 3 3.597 32.373 25.179 0 0 0
2034 3 17.985 19.7835 30.5745 0 0 0
894 3 28.776 26.9775 12.5895 0 0 0
2528 3 12.5895 30.5745 3.597 0 0 0
2616 3 8.9925 1.7985 10.791 0 0 0
1394 3 25.179 34.1715 30.5745 0 0 0
3719 3 1.7985 25.179 34.1715 0 0 0
67 3 34.1715 10.791 12.5895 0 0 0
3299 3 5.3955 25.179 16.1865 0 0 0
3748 3 1.7985 30.5745 21.582 0 0 0
3864 3 0.0 12.5895 5.3955 0 0 0
740 3 26.9775 12.5895 14.388 0 0 0
2039 3 16.1865 17.985 34.1715 0 0 0
2197 3 17.985 32.373 32.373 0 0 0
676 3 26.9775 5.3955 28.776 0 0 0
2383 3 12.5895 14.388 19.7835 0 0 0
3321 3 7.194 28.776 0.0 0 0 0
373 3 32.373 14.388 10.791 0 0 0
3308 3 5.3955 26.9775 21.582 0 0 0
743 3 26.9775 10.791 19.7835 0 0 0
177 3 34.1715 28.776 30.5745 0 0 0
3990 3 0.0 34.1715 16.1865 0 0 0
1523 3 19.7835 10.791 1.7985 0 0 0
3007 3 5.3955 0.0 5.3955 0 0 0
936 3 26.9775 30.5745 10.791 0 0 0
876 3 26.9775 23.3805 28.776 0 0 0
1644 4 19.7835 23.3805 0.0 0 0 0
1231 4 23.3805 17.985 26.9775 0 0 0
1182 4 25.179 16.1865 19.7835 0 0 0
1101 4 25.179 7.194 17.985 0 0 0
1990 4 17.985 16.1865 26.9775 0 0 0
3721 4 3.597 28.776 0.0 0 0 0
2491 4 12.5895 25.179 8.9925 0 0 0
895 4 26.9775 25.179 12.5895 0 0 0
113 4 34.1715 17.985 23.3805 0 0 0
234 4 32.373 1.7985 30.5745 0 0 0
158 4 34.1715 26.9775 28.776 0 0 0
1470 4 21.582 5.3955 26.9775 0 0 0
317 4 32.373 7.194 32.373 0 0 0
3429 4 3.597 0.0 25.179 0 0 0
2345 4 14.388 10.791 21.582 0 0 0
805 4 28.776 17.985 3.597 0 0 0
254 4 32.373 5.3955 12.5895 0 0 0
1709 4 21.582 25.179 25.179 0 0 0
242 4 32.373 5.3955 1.7985 0 0 0
647 4 26.9775 3.597 5.3955 0 0 0
2265 4 14.388 3.597 21.582 0 0 0
2318 4 14.388 8.9925 34.1715 0 0 0
2180 4 16.1865 34.1715 14.388 0 0 0
2234 4 14.388 1.7985 30.5745 0 0 0
580 4 30.5745 34.1715 14.388 0 0 0
2860 4 8.9925 23.3805 14.388 0 0 0
2391 4 12.5895 14.388 26.9775 0 0 0
2716 4 8.9925 8.9925 28.776 0 0 0
3740 4 1.7985 30.5745 14.388 0 0 0
2218 4 14.388 1.7985 16.1865 0 0 0
1250 4 25.179 23.3805 8.9925 0 0 0
1448 4 19.7835 5.3955 3.597 0 0 0
2505 4 14.388 25.179 21.582 0 0 0
3066 4 7.194 5.3955 23.3805 0 0 0
1815 4 16.1865 0.0 12.5895 0 0 0
1491 4 19.7835 7.194 8.9925 0 0 0
1948 4 16.1865 12.5895 21.582 0 0 0
2830 4 10.791 19.7835 26.9775 0 0 0
2690 4 10.791 8.9925 8.9925 0 0 0
2127 4 16.1865 28.776 5.3955 0 0 0
3296 4 5.3955 26.9775 10.791 0 0 0
3758 4 3.597 30.5745 34.1715 0 0 0
508 4 30.5745 26.9775 21.582 0 0 0
3598 4 3.597 16.1865 34.1715 0 0 0
2978 4 10.791 34.1715 16.1865 0 0 0
309 4 32.373 7.194 25.179 0 0 0
2131 4 16.1865 28.776 8.9925 0 0 0
1038 4 25.179 1.7985 34.1715 0 0 0
2057 4 17.985 21.582 14.388 0 0 0
3903 4 0.0 17.985 3.597 0 0 0
2613 4 10.791 0.0 10.791 0 0 0
3349 4 7.194 28.776 25.179 0 0 0
758 4 28.776 12.5895 34.1715 0 0 0
1627 4 19.7835 17.985 23.3805 0 0 0
991 4 26.9775 32.373 26.9775 0 0 0
1419 4 19.7835 0.0 16.1865 0 0 0
1000 4 26.9775 34.1715 32.373 0 0 0
3825 4 0.0 3.597 7.194 0 0 0
1050 4 25.179 5.3955 8.9925 0 0 0
3575 4 1.7985 14.388 12.5895 0 0 0
3601 4 3.597 17.985 0.0 0 0 0
2148 4 16.1865 30.5745 21.582 0 0 0
2102 4 17.985 26.9775 19.7835 0 0 0
3347 4 5.3955 28.776 23.3805 0 0 0
1044 4 23.3805 5.3955 0.0 0 0 0
1951 4 16.1865 10.791 26.9775 0 0 0
3332 4 5.3955 30.5745 7.194 0 0 0
2960 4 8.9925 30.5745 32.373 0 0 0
3756 4 1.7985 30.5745 28.776 0 0 0
528 4 30.5745 30.5745 3.597 0 0 0
2308 4 12.5895 8.9925 21.582 0 0 0
2167 4 16.1865 32.373 5.3955 0 0 0
3341 4 7.194 28.776 17.985 0 0 0
938 4 28.776 30.5745 16.1865 0 0 0
2256 4 12.5895 5.3955 10.791 0 0 0
2819 4 8.9925 17.985 16.1865 0 0 0
3738 4 3.597 30.5745 16.1865 0 0 0
1712 4 19.7835 26.9775 25.179 0 0 0
914 4 28.776 26.9775 30.5745 0 0 0
435 4 30.5745 17.985 30.5745 0 0 0
239 4 30.5745 0.0 34.1715 0 0 0
901 4 28.776 25.179 17.985 0 0 0
1447 4 19.7835 3.597 5.3955 0 0 0
1295 4 23.3805 25.179 12.5895 0 0 0
3470 4 3.597 5.3955 26.9775 0 0 0
120 4 34.1715 19.7835 32.373 0 0 0
2711 4 8.9925 7.194 26.9775 0 0 0
273 4 32.373 3.597 28.776 0 0 0
3606 4 3.597 19.7835 5.3955 0 0 0
1039 4 23.3805 0.0 34.1715 0 0 0
3252 4 5.3955 23.3805 7.194 0 0 0
1147 4 23.3805 10.791 23.3805 0 0 0
3639 4 1.7985 17.985 34.1715 0 0 0
1259 4 23.3805 21.582 16.1865 0 0 0
2204 4 12.5895 1.7985 0.0 0 0 0
3653 4 3.597 21.582 10.791 0 0 0
208 4 30.5745 1.7985 3.597 0 0 0
188 4 34.1715 34.1715 10.791 0 0 0
668 4 26.9775 5.3955 21.582 0 0 0
3692 4 1.7985 26.9775 7.194 0 0 0
3954 4 0.0 26.9775 23.3805 0 0 0
3259 4 5.3955 21.582 16.1865 0 0 0
1698 4 21.582 26.9775 16.1865 0 0 0
2146 4 17.985 30.5745 23.3805 0 0 0
55 4 34.1715 7.194 26.9775 0 0 0
1714 4 21.582 26.9775 30.5745 0 0 0
2217 4 14.388 0.0 14.388 0 0 0
3871 4 0.0 10.791 17.985 0 0 0
69 4 34.1715 10.791 16.1865 0 0 0
2387 4 12.5895 14.388 23.3805 0 0 0
66 4 34.1715 12.5895 7.194 0 0 0
3401 4 3.597 0.0 0.0 0 0 0
2305 4 14.388 7.194 21.582 0 0 0
3475 4 1.7985 3.597 30.5745 0 0 0
1202 4 25.179 19.7835 1.7985 0 0 0
2768 4 8.9925 16.1865 3.597 0 0 0
2208 4 12.5895 1.7985 3.597 0 0 0
1233 4 25.179 17.985 28.776 0 0 0
1370 4 25.179 34.1715 8.9925 0 0 0
1583 4 19.7835 14.388 19.7835 0 0 0
1489 4 21.582 7.194 7.194 0 0 0
41 4 34.1715 7.194 1.7985 0 0 0
1406 4 21.582 1.7985 5.3955 0 0 0
2322 4 14.388 12.5895 1.7985 0 0 0
2047 4 16.1865 21.582 5.3955 0 0 0
2202 4 14.388 1.7985 1.7985 0 0 0
717 4 28.776 7.194 32.373 0 0 0
1342 4 25.179 30.5745 19.7835 0 0 0
1740 4 19.7835 30.5745 14.388 0 0 0
3143 4 5.3955 10.791 19.7835 0 0 0
1357 4 25.179 28.776 32.373 0 0 0
1102 4 25.179 8.9925 19.7835 0 0 0
2323 4 12.5895 10.791 1.7985 0 0 0
349 4 32.373 10.791 25.179 0 0 0
652 4 26.9775 5.3955 7.194 0 0 0
822 4 28.776 19.7835 19.7835 0 0 0
1639 4 19.7835 17.985 34.1715 0 0 0
1958 4 17.985 12.5895 34.1715 0 0 0
3701 4 3.597 25.179 17.985 0 0 0
1269 4 25.179 21.582 25.179 0 0 0
2139 4 16.1865 28.776 16.1865 0 0 0
1235 4 23.3805 17.985 30.5745 0 0 0
970 4 28.776 34.1715 8.9925 0 0 0
3723 4 1.7985 28.776 1.7985 0 0 0
2601 4 10.791 0.0 0.0 0 0 0
2241 4 14.388 3.597 0.0 0 0 0
1028 4 23.3805 1.7985 21.582 0 0 0
2994 4 10.791 34.1715 30.5745 0 0 0
1868 4 16.1865 5.3955 21.582 0 0 0
3840 4 0.0 5.3955 34.1715 0 0 0
2915 4 8.9925 25.179 30.5745 0 0 0
3739 4 1.7985 28.776 16.1865 0 0 0
2375 4 12.5895 14.388 12.5895 0 0 0
425 4 32.373 17.985 21.582 0 0 0
3155 4 5.3955 10.791 30.5745 0 0 0
983 4 26.9775 32.373 19.7835 0 0 0
86 4 34.1715 16.1865 7.194 0 0 0
1408 4 19.7835 1.7985 3.597 0 0 0
81 4 34.1715 14.388 1.7985 0 0 0
2578 4 14.388 34.1715 16.1865 0 0 0
661 4 28.776 3.597 17.985 0 0 0
3503 4 1.7985 7.194 19.7835 0 0 0
1797 4 21.582 32.373 32.373 0 0 0
2133 4 17.985 28.776 10.791 0 0 0
1305 4 25.179 25.179 21.582 0 0 0
297 4 32.373 7.194 14.388 0 0 0
209 4 32.373 0.0 7.194 0 0 0
2998 4 10.791 34.1715 34.1715 0 0 0
91 4 34.1715 14.388 19.7835 0 0 0
931 4 26.9775 28.776 8.9925 0 0 0
673 4 28.776 3.597 28.776 0 0 0
2951 4 8.9925 28.776 26.9775 0 0 0
2201 4 14.388 0.0 0.0 0 0 0
859 4 26.9775 21.582 16.1865 0 0 0
50 4 34.1715 8.9925 14.388 0 0 0
616 4 26.9775 1.7985 10.791 0 0 0
2367 4 12.5895 14.388 5.3955 0 0 0
957 4 28.776 28.776 32.373 0 0 0
1563 4 19.7835 14.388 1.7985 0 0 0
2155 4 16.1865 28.776 30.5745 0 0 0
2981 4 10.791 32.373 17.985 0 0 0
2063 4 16.1865 21.582 19.7835 0 0 0
1577 4 21.582 14.388 14.388 0 0 0
2767 4 8.9925 14.388 5.3955 0 0 0
2164 4 16.1865 34.1715 0.0 0 0 0
3376 4 5.3955 34.1715 10.791 0 0 0
1153 4 25.179 10.791 28.776 0 0 0
630 4 28.776 1.7985 26.9775 0 0 0
3901 4 0.0 17.985 0.0 0 0 0
2338 4 14.388 12.5895 16.1865 0 0 0
285 4 32.373 7.194 3.597 0 0 0
499 4 30.5745 25.179 16.1865 0 0 0
62 4 34.1715 12.5895 0.0 0 0 0
1593 4 21.582 14.388 28.776 0 0 0
543 4 30.5745 28.776 19.7835 0 0 0
662 4 28.776 5.3955 19.7835 0 0 0
1099 4 23.3805 7.194 16.1865 0 0 0
451 4 30.5745 21.582 8.9925 0 0 0
1562 4 21.582 16.1865 1.7985 0 0 0
2875 4 8.9925 21.582 30.5745 0 0 0
1329 4 25.179 28.776 7.194 0 0 0
851 4 26.9775 21.582 8.9925 0 0 0
3881 4 0.0 14.388 0.0 0 0 0
3270 4 7.194 23.3805 26.9775 0 0 0
2472 4 12.5895 23.3805 25.179 0 0 0
682 4 28.776 8.9925 1.7985 0 0 0
3972 4 0.0 30.5745 19.7835 0 0 0
1312 4 23.3805 26.9775 25.179 0 0 0
1087 4 23.3805 7.194 5.3955 0 0 0
1547 4 19.7835 10.791 23.3805 0 0 0
3669 4 3.597 21.582 25.179 0 0 0
2522 4 14.388 30.5745 1.7985 0 0 0
3995 4 0.0 32.373 25.179 0 0 0
924 4 26.9775 30.5745 0.0 0 0 0
3130 4 7.194 12.5895 8.9925 0 0 0
3448 4 1.7985 5.3955 3.597 0 0 0
527 4 30.5745 28.776 5.3955 0 0 0
1483 4 19.7835 7.194 1.7985 0 0 0
3133 4 7.194 10.791 10.791 0 0 0
494 4 32.373 26.9775 12.5895 0 0 0
3047 4 5.3955 3.597 5.3955 0 0 0
1510 4 21.582 8.9925 26.9775 0 0 0
2695 4 8.9925 7.194 12.5895 0 0 0
1542 4 21.582 12.5895 19.7835 0 0 0
3622 4 3.597 19.7835 19.7835 0 0 0
3108 4 5.3955 8.9925 21.582 0 0 0
1145 4 25.179 10.791 21.582 0 0 0
2817 4 10.791 17.985 14.388 0 0 0
2334 4 14.388 12.5895 12.5895 0 0 0
3770 4 3.597 34.1715 8.9925 0 0 0
1572 4 19.7835 16.1865 7.194 0 0 0
3388 4 5.3955 34.1715 21.582 0 0 0
1171 4 23.3805 14.388 8.9925 0 0 0
1746 4 21.582 30.5745 23.3805 0 0 0
3363 4 5.3955 32.373 1.7985 0 0 0
3014 4 7.194 1.7985 12.5895 0 0 0
350 4 32.373 12.5895 26.9775 0 0 0
3999 4 0.0 32.373 32.373 0 0 0
3237 4 7.194 17.985 32.373 0 0 0
2943 4 8.9925 28.776 19.7835 0 0 0
3069 4 7.194 3.597 25.179 0 0 0
1002 4 25.179 1.7985 1.7985 0 0 0
1973 4 17.985 14.388 10.791 0 0 0
2464 4 12.5895 23.3805 17.985 0 0 0
3042 4 7.194 5.3955 1.7985 0 0 0
744 4 26.9775 12.5895 17.985 0 0 0
450 4 32.373 23.3805 8.9925 0 0 0
1104 4 23.3805 8.9925 17.985 0 0 0
3231 4 5.3955 17.985 26.9775 0 0 0
3151 4 5.3955 10.791 26.9775 0 0 0
1905 4 17.985 7.194 21.582 0 0 0
271 4 30.5745 3.597 26.9775 0 0 0
3345 4 7.194 28.776 21.582 0 0 0
500 4 30.5745 26.9775 14.388 0 0 0
2210 4 14.388 1.7985 8.9925 0 0 0
328 4 30.5745 12.5895 3.597 0 0 0
2784 4 8.9925 16.1865 17.985 0 0 0
3391 4 5.3955 32.373 26.9775 0 0 0
1975 4 16.1865 14.388 12.5895 0 0 0
1025 4 25.179 0.0 21.582 0 0 0
54 4 34.1715 8.9925 21.582 0 0 0
946 4 28.776 30.5745 23.3805 0 0 0
2463 4 12.5895 21.582 19.7835 0 0 0
3229 4 7.194 17.985 25.179 0 0 0
1167 4 23.3805 14.388 5.3955 0 0 0
1174 4 25.179 16.1865 12.5895 0 0 0
2595 4 12.5895 32.373 30.5745 0 0 0
2854 4 10.791 23.3805 12.5895 0 0 0
3847 4 0.0 7.194 10.791 0 0 0
194 4 34.1715 34.1715 21.582 0 0 0
555 4 30.5745 28.776 30.5745 0 0 0
2515 4 12.5895 25.179 30.5745 0 0 0
11 4 34.1715 0.0 19.7835 0 0 0
2825 4 10.791 17.985 21.582 0 0 0
3419 4 1.7985 0.0 16.1865 0 0 0
1083 4 23.3805 7.194 1.7985 0 0 0
2795 4 8.9925 14.388 30.5745 0 0 0
1772 4 19.7835 34.1715 7.194 0 0 0
1014 4 25.179 1.7985 12.5895 0 0 0
1192 4 23.3805 16.1865 25.179 0 0 0
1672 4 19.7835 23.3805 25.179 0 0 0
1971 4 16.1865 14.388 8.9925 0 0 0
1297 4 25.179 25.179 14.388 0 0 0
1272 4 23.3805 23.3805 25.179 0 0 0
2365 4 14.388 14.388 3.597 0 0 0
1850 4 17.985 5.3955 8.9925 0 0 0
592 4 30.5745 34.1715 25.179 0 0 0
3550 4 3.597 12.5895 26.9775 0 0 0
845 4 28.776 21.582 3.597 0 0 0
3837 4 0.0 3.597 28.776 0 0 0
3811 4 0.0 0.0 17.985 0 0 0
3493 4 3.597 7.194 10.791 0 0 0
3574 4 3.597 16.1865 12.5895 0 0 0
3068 4 5.3955 5.3955 21.582 0 0 0
2863 4 8.9925 21.582 19.7835 0 0 0
698 4 28.776 8.9925 16.1865 0 0 0
1917 4 17.985 7.194 32.373 0 0 0
1178 4 25.179 16.1865 16.1865 0 0 0
2927 4 8.9925 28.776 5.3955 0 0 0
368 4 30.5745 16.1865 3.597 0 0 0
185 4 34.1715 32.373 8.9925 0 0 0
700 4 26.9775 8.9925 14.388 0 0 0
873 4 28.776 21.582 28.776 0 0 0
1988 4 16.1865 16.1865 21.582 0 0 0
3472 4 1.7985 5.3955 25.179 0 0 0
3031 4 5.3955 0.0 26.9775 0 0 0
2812 4 8.9925 19.7835 7.194 0 0 0
1387 4 23.3805 32.373 23.3805 0 0 0
3441 4 3.597 3.597 0.0 0 0 0
2243 4 12.5895 3.597 1.7985 0 0 0
1671 4 19.7835 21.582 26.9775 0 0 0
474 4 32.373 23.3805 30.5745 0 0 0
2462 4 14.388 23.3805 19.7835 0 0 0
428 4 30.5745 19.7835 21.582 0 0 0
765 4 28.776 14.388 3.597 0 0 0
1403 4 19.7835 0.0 1.7985 0 0 0
1232 4 23.3805 19.7835 25.179 0 0 0
3710 4 3.597 26.9775 26.9775 0 0 0
2081 4 17.985 25.179 0.0 0 0 0
2366 4 14.388 16.1865 5.3955 0 0 0
1501 4 21.582 7.194 17.985 0 0 0
3937 4 0.0 21.582 28.776 0 0 0
1552 4 19.7835 12.5895 25.179 0 0 0
2510 4 14.388 26.9775 26.9775 0 0 0
1195 4 23.3805 14.388 30.5745 0 0 0
1806 4 17.985 1.7985 5.3955 0 0 0
3613 4 3.597 17.985 10.791 0 0 0
3929 4 0.0 21.582 14.388 0 0 0
2008 4 16.1865 19.7835 3.597 0 0 0
2778 4 10.791 16.1865 16.1865 0 0 0
1081 4 25.179 7.194 0.0 0 0 0
2904 4 8.9925 26.9775 17.985 0 0 0
2707 4 8.9925 7.194 23.3805 0 0 0
3661 4 3.597 21.582 17.985 0 0 0
3028 4 5.3955 1.7985 21.582 0 0 0
2587 4 12.5895 32.373 23.3805 0 0 0
1794 4 21.582 34.1715 30.5745 0 0 0
3593 4 3.597 14.388 28.776 0 0 0
2539 4 12.5895 28.776 16.1865 0 0 0
14 4 34.1715 1.7985 21.582 0 0 0
283 4 30.5745 7.194 1.7985 0 0 0
3216 4 5.3955 19.7835 10.791 0 0 0
2221 4 14.388 0.0 17.985 0 0 0
537 4 32.373 28.776 14.388 0 0 0
917 4 28.776 25.179 32.373 0 0 0
2799 4 8.9925 14.388 34.1715 0 0 0
419 4 30.5745 17.985 16.1865 0 0 0
1402 4 21.582 1.7985 1.7985 0 0 0
3437 4 3.597 0.0 32.373 0 0 0
715 4 26.9775 7.194 30.5745 0 0 0
3684 4 1.7985 26.9775 0.0 0 0 0
2242 4 14.388 5.3955 1.7985 0 0 0
3973 4 0.0 28.776 21.582 0 0 0
2557 4 14.388 28.776 32.373 0 0 0
3426 4 3.597 1.7985 23.3805 0 0 0
2165 4 17.985 32.373 3.597 0 0 0
1068 4 23.3805 5.3955 21.582 0 0 0
3841 4 0.0 7.194 0.0 0 0 0
2236 4 12.5895 1.7985 28.776 0 0 0
345 4 32.373 10.791 21.582 0 0 0
2727 4 8.9925 10.791 5.3955 0 0 0
756 4 26.9775 12.5895 28.776 0 0 0
3099 4 5.3955 7.194 16.1865 0 0 0
3006 4 7.194 1.7985 5.3955 0 0 0
37 4 34.1715 3.597 30.5745 0 0 0
3269 4 7.194 21.582 25.179 0 0 0
2842 4 10.791 23.3805 1.7985 0 0 0
1116 4 23.3805 8.9925 28.776 0 0 0
2662 4 10.791 5.3955 19.7835 0 0 0
323 4 30.5745 10.791 1.7985 0 0 0
1274 4 25.179 23.3805 30.5745 0 0 0
2152 4 16.1865 30.5745 25.179 0 0 0
115 4 34.1715 17.985 26.9775 0 0 0
1788 4 19.7835 34.1715 21.582 0 0 0
1777 4 21.582 32.373 14.388 0 0 0
705 4 28.776 7.194 21.582 0 0 0
3160 4 5.3955 12.5895 32.373 0 0 0
3867 4 0.0 10.791 10.791 0 0 0
1285 4 25.179 25.179 3.597 0 0 0
1471 4 19.7835 3.597 26.9775 0 0 0
365 4 32.373 14.388 3.597 0 0 0
4000 4 0.0 34.1715 34.1715 0 0 0
1637 4 21.582 17.985 32.373 0 0 0
2983 4 8.9925 32.373 19.7835 0 0 0
94 4 34.1715 16.1865 21.582 0 0 0
3865 4 0.0 10.791 7.194 0 0 0
1332 4 23.3805 30.5745 7.194 0 0 0
2232 4 12.5895 1.7985 25.179 0 0 0
1466 4 21.582 5.3955 23.3805 0 0 0
3339 4 5.3955 28.776 16.1865 0 0 0
2722 4 10.791 12.5895 1.7985 0 0 0
556 4 30.5745 30.5745 28.776 0 0 0
225 4 32.373 0.0 21.582 0 0 0
719 4 26.9775 7.194 34.1715 0 0 0
89 4 34.1715 14.388 16.1865 0 0 0
3580 4 1.7985 16.1865 14.388 0 0 0
1385 4 25.179 32.373 21.582 0 0 0
229 4 32.373 0.0 25.179 0 0 0
2870 4 10.791 23.3805 26.9775 0 0 0
2363 4 12.5895 14.388 1.7985 0 0 0
3611 4 1.7985 17.985 8.9925 0 0 0
2441 4 14.388 21.582 0.0 0 0 0
1184 4 23.3805 16.1865 17.985 0 0 0
2929 4 10.791 28.776 7.194 0 0 0
2493 4 14.388 25.179 10.791 0 0 0
2713 4 10.791 7.194 28.776 0 0 0
216 4 30.5745 1.7985 10.791 0 0 0
2124 4 16.1865 30.5745 0.0 0 0 0
626 4 28.776 1.7985 23.3805 0 0 0
1094 4 25.179 8.9925 12.5895 0 0 0
2511 4 12.5895 25.179 26.9775 0 0 0
1480 4 19.7835 5.3955 32.373 0 0 0
3139 4 5.3955 10.791 16.1865 0 0 0
1126 4 25.179 12.5895 5.3955 0 0 0
100 4 34.1715 16.1865 32.373 0 0 0
395 4 30.5745 14.388 30.5745 0 0 0
2574 4 14.388 34.1715 12.5895 0 0 0
701 4 28.776 7.194 17.985 0 0 0
1499 4 19.7835 7.194 16.1865 0 0 0
1185 4 25.179 14.388 21.582 0 0 0
1201 4 25.179 17.985 0.0 0 0 0
1908 4 16.1865 8.9925 21.582 0 0 0
1970 4 17.985 16.1865 8.9925 0 0 0
3862 4 0.0 12.5895 1.7985 0 0 0
944 4 26.9775 30.5745 17.985 0 0 0
1858 4 17.985 5.3955 16.1865 0 0 0
3085 4 7.194 7.194 3.597 0 0 0
2811 4 8.9925 17.985 8.9925 0 0 0
1163 4 23.3805 14.388 1.7985 0 0 0
2712 4 8.9925 8.9925 25.179 0 0 0
3456 4 1.7985 5.3955 10.791 0 0 0
2815 4 8.9925 17.985 12.5895 0 0 0
2303 4 12.5895 7.194 19.7835 0 0 0
1987 4 16.1865 14.388 23.3805 0 0 0
825 4 28.776 17.985 21.582 0 0 0
3610 4 3.597 19.7835 8.9925 0 0 0
1521 4 21.582 10.791 0.0 0 0 0
2931 4 8.9925 28.776 8.9925 0 0 0
1619 4 19.7835 17.985 16.1865 0 0 0
2853 4 10.791 21.582 10.791 0 0 0
1179 4 23.3805 14.388 16.1865 0 0 0
804 4 26.9775 19.7835 0.0 0 0 0
3797 4 3.597 32.373 32.373 0 0 0
1695 4 19.7835 25.179 12.5895 0 0 0
376 4 30.5745 16.1865 10.791 0 0 0
2840 4 8.9925 19.7835 32.373 0 0 0
2785 4 10.791 14.388 21.582 0 0 0
2633 4 10.791 0.0 28.776 0 0 0
1429 4 21.582 0.0 25.179 0 0 0
217 4 32.373 0.0 14.388 0 0 0
992 4 26.9775 34.1715 25.179 0 0 0
1 4 34.1715 0.0 1.7985 0 0 0
3549 4 3.597 10.791 25.179 0 0 0
976 4 26.9775 34.1715 10.791 0 0 0
582 4 32.373 34.1715 19.7835 0 0 0
116 4 34.1715 19.7835 25.179 0 0 0
3741 4 3.597 28.776 17.985 0 0 0
1330 4 25.179 30.5745 8.9925 0 0 0
114 4 34.1715 19.7835 21.582 0 0 0
56 4 34.1715 8.9925 25.179 0 0 0
3305 4 7.194 25.179 21.582 0 0 0
1410 4 21.582 1.7985 8.9925 0 0 0
1172 4 23.3805 16.1865 7.194 0 0 0
1898 4 17.985 8.9925 16.1865 0 0 0
369 4 32.373 14.388 7.194 0 0 0
1061 4 25.179 3.597 17.985 0 0 0
2285 4 14.388 7.194 3.597 0 0 0
3090 4 7.194 8.9925 8.9925 0 0 0
1248 4 23.3805 23.3805 3.597 0 0 0
2044 4 16.1865 23.3805 0.0 0 0 0
1066 4 25.179 5.3955 23.3805 0 0 0
900 4 26.9775 26.9775 14.388 0 0 0
2607 4 8.9925 0.0 5.3955 0 0 0
322 4 32.373 12.5895 1.7985 0 0 0
1191 4 23.3805 14.388 26.9775 0 0 0
142 4 34.1715 26.9775 0.0 0 0 0
2770 4 10.791 16.1865 8.9925 0 0 0
1205 4 25.179 17.985 3.597 0 0 0
2190 4 17.985 34.1715 26.9775 0 0 0
2837 4 10.791 17.985 32.373 0 0 0
3145 4 7.194 10.791 21.582 0 0 0
1832 4 16.1865 1.7985 25.179 0 0 0
881 4 28.776 25.179 0.0 0 0 0
930 4 28.776 30.5745 8.9925 0 0 0
1790 4 21.582 34.1715 26.9775 0 0 0
2635 4 8.9925 0.0 30.5745 0 0 0
3679 4 1.7985 21.582 34.1715 0 0 0
3326 4 7.194 30.5745 5.3955 0 0 0
103 4 34.1715 17.985 5.3955 0 0 0
412 4 30.5745 19.7835 7.194 0 0 0
601 4 28.776 0.0 0.0 0 0 0
3135 4 5.3955 10.791 12.5895 0 0 0
3303 4 5.3955 25.179 19.7835 0 0 0
183 4 34.1715 32.373 5.3955 0 0 0
1347 4 23.3805 28.776 23.3805 0 0 0
2392 4 12.5895 16.1865 25.179 0 0 0
2588 4 12.5895 34.1715 21.582 0 0 0
2965 4 10.791 32.373 3.597 0 0 0
294 4 32.373 8.9925 12.5895 0 0 0
1075 4 23.3805 3.597 30.5745 0 0 0
3614 4 3.597 19.7835 12.5895 0 0 0
2439 4 12.5895 17.985 34.1715 0 0 0
2326 4 14.388 12.5895 5.3955 0 0 0
2986 4 10.791 34.1715 23.3805 0 0 0
2537 4 14.388 28.776 14.388 0 0 0
884 4 26.9775 26.9775 0.0 0 0 0
1985 4 17.985 14.388 21.582 0 0 0
2971 4 8.9925 32.373 8.9925 0 0 0
2896 4 8.9925 26.9775 10.791 0 0 0
2452 4 12.5895 23.3805 7.194 0 0 0
1718 4 21.582 26.9775 34.1715 0 0 0
3861 4 0.0 10.791 0.0 0 0 0
898 4 28.776 26.9775 16.1865 0 0 0
578 4 32.373 34.1715 16.1865 0 0 0
1328 4 23.3805 30.5745 3.597 0 0 0
3312 4 5.3955 26.9775 25.179 0 0 0
713 4 28.776 7.194 28.776 0 0 0
3592 4 1.7985 16.1865 25.179 0 0 0
1487 4 19.7835 7.194 5.3955 0 0 0
3156 4 5.3955 12.5895 28.776 0 0 0
1823 4 16.1865 0.0 19.7835 0 0 0
2220 4 12.5895 1.7985 14.388 0 0 0
1795 4 19.7835 32.373 30.5745 0 0 0
1256 4 23.3805 23.3805 10.791 0 0 0
3656 4 1.7985 23.3805 10.791 0 0 0
2011 4 16.1865 17.985 8.9925 0 0 0
1532 4 19.7835 12.5895 7.194 0 0 0
3309 4 7.194 25.179 25.179 0 0 0
1906 4 17.985 8.9925 23.3805 0 0 0
52 4 34.1715 8.9925 17.985 0 0 0
604 4 26.9775 1.7985 0.0 0 0 0
2086 4 17.985 26.9775 5.3955 0 0 0
1692 4 19.7835 26.9775 7.194 0 0 0
1848 4 16.1865 5.3955 3.597 0 0 0
2438 4 14.388 19.7835 34.1715 0 0 0
1706 4 21.582 26.9775 23.3805 0 0 0
3796 4 1.7985 34.1715 28.776 0 0 0
945 4 28.776 28.776 21.582 0 0 0
520 4 30.5745 26.9775 32.373 0 0 0
843 4 26.9775 21.582 1.7985 0 0 0
3004 4 5.3955 1.7985 0.0 0 0 0
2213 4 14.388 0.0 10.791 0 0 0
3128 4 5.3955 12.5895 3.597 0 0 0
3743 4 1.7985 28.776 19.7835 0 0 0
152 4 34.1715 26.9775 17.985 0 0 0
1686 4 21.582 26.9775 5.3955 0 0 0
977 4 28.776 32.373 14.388 0 0 0
866 4 28.776 23.3805 23.3805 0 0 0
3424 4 1.7985 1.7985 17.985 0 0 0
3888 4 0.0 16.1865 12.5895 0 0 0
3023 4 5.3955 0.0 19.7835 0 0 0
1508 4 19.7835 8.9925 21.582 0 0 0
2776 4 8.9925 16.1865 10.791 0 0 0
941 4 28.776 28.776 17.985 0 0 0
2928 4 8.9925 30.5745 3.597 0 0 0
1852 4 16.1865 5.3955 7.194 0 0 0
1289 4 25.179 25.179 7.194 0 0 0
3022 4 7.194 1.7985 19.7835 0 0 0
2182 4 17.985 34.1715 19.7835 0 0 0
386 4 32.373 16.1865 23.3805 0 0 0
3818 4 0.0 1.7985 30.5745 0 0 0
2802 4 10.791 19.7835 1.7985 0 0 0
2500 4 12.5895 26.9775 14.388 0 0 0
3451 4 1.7985 3.597 8.9925 0 0 0
3486 4 3.597 8.9925 5.3955 0 0 0
2173 4 17.985 32.373 10.791 0 0 0
1585 4 21.582 14.388 21.582 0 0 0
2885 4 10.791 25.179 3.597 0 0 0
505 4 32.373 25.179 21.582 0 0 0
3545 4 3.597 10.791 21.582 0 0 0
919 4 26.9775 25.179 34.1715 0 0 0
377 4 32.373 14.388 14.388 0 0 0
2290 4 14.388 8.9925 8.9925 0 0 0
796 4 26.9775 16.1865 28.776 0 0 0
3075 4 5.3955 3.597 30.5745 0 0 0
3248 4 5.3955 23.3805 3.597 0 0 0
1652 4 19.7835 23.3805 7.194 0 0 0
18 4 34.1715 1.7985 28.776 0 0 0
789 4 28.776 14.388 25.179 0 0 0
288 4 30.5745 8.9925 3.597 0 0 0
3870 4 0.0 12.5895 16.1865 0 0 0
3650 4 3.597 23.3805 8.9925 0 0 0
622 4 28.776 1.7985 19.7835 0 0 0
525 4 32.373 28.776 3.597 0 0 0
2477 4 14.388 21.582 32.373 0 0 0
1399 4 23.3805 32.373 34.1715 0 0 0
1964 4 16.1865 16.1865 0.0 0 0 0
1603 4 19.7835 17.985 1.7985 0 0 0
1611 4 19.7835 17.985 8.9925 0 0 0
585 4 32.373 32.373 21.582 0 0 0
3041 4 7.194 3.597 0.0 0 0 0
3576 4 1.7985 16.1865 10.791 0 0 0
1886 4 17.985 8.9925 5.3955 0 0 0
3782 4 3.597 34.1715 19.7835 0 0 0
3543 4 1.7985 10.791 19.7835 0 0 0
107 4 34.1715 17.985 12.5895 0 0 0
3564 4 1.7985 16.1865 0.0 0 0 0
3514 4 3.597 8.9925 30.5745 0 0 0
3747 4 1.7985 28.776 23.3805 0 0 0
3291 4 5.3955 25.179 8.9925 0 0 0
3904 4 0.0 19.7835 5.3955 0 0 0
1915 4 16.1865 7.194 30.5745 0 0 0
1591 4 19.7835 14.388 26.9775 0 0 0
1753 4 21.582 28.776 28.776 0 0 0
2399 4 12.5895 14.388 34.1715 0 0 0
1660 4 19.7835 23.3805 14.388 0 0 0
3026 4 7.194 1.7985 23.3805 0 0 0
3966 4 0.0 30.5745 8.9925 0 0 0
256 4 30.5745 5.3955 10.791 0 0 0
3102 4 7.194 8.9925 19.7835 0 0 0
3412 4 1.7985 1.7985 7.194 0 0 0
759 4 26.9775 10.791 34.1715 0 0 0
1759 4 19.7835 28.776 34.1715 0 0 0
133 4 34.1715 21.582 23.3805 0 0 0
1115 4 23.3805 7.194 30.5745 0 0 0
1725 4 21.582 28.776 3.597 0 0 0
3652 4 1.7985 23.3805 7.194 0 0 0
912 4 26.9775 26.9775 25.179 0 0 0
2553 4 14.388 28.776 28.776 0 0 0
87 4 34.1715 14.388 12.5895 0 0 0
621 4 28.776 0.0 17.985 0 0 0
3323 4 5.3955 28.776 1.7985 0 0 0
2846 4 10.791 23.3805 5.3955 0 0 0
725 4 28.776 10.791 3.597 0 0 0
1045 4 25.179 3.597 3.597 0 0 0
2080 4 16.1865 23.3805 32.373 0 0 0
593 4 32.373 32.373 28.776 0 0 0
1576 4 19.7835 16.1865 10.791 0 0 0
1253 4 25.179 21.582 10.791 0 0 0
2239 4 12.5895 0.0 34.1715 0 0 0
1851 4 16.1865 3.597 8.9925 0 0 0
518 4 32.373 26.9775 34.1715 0 0 0
1620 4 19.7835 19.7835 14.388 0 0 0
3485 4 3.597 7.194 3.597 0 0 0
433 4 32.373 17.985 28.776 0 0 0
434 4 32.373 19.7835 30.5745 0 0 0
3736 4 1.7985 30.5745 10.791 0 0 0
3630 4 3.597 19.7835 26.9775 0 0 0
2284 4 12.5895 8.9925 0.0 0 0 0
605 4 28.776 0.0 3.597 0 0 0
2527 4 12.5895 28.776 5.3955 0 0 0
2523 4 12.5895 28.776 1.7985 0 0 0
767 4 26.9775 14.388 5.3955 0 0 0
2773 4 10.791 14.388 10.791 0 0 0
3536 4 1.7985 12.5895 10.791 0 0 0
1944 4 16.1865 12.5895 17.985 0 0 0
263 4 30.5745 3.597 19.7835 0 0 0
680 4 26.9775 5.3955 32.373 0 0 0
2460 4 12.5895 23.3805 14.388 0 0 0
3081 4 7.194 7.194 0.0 0 0 0
2170 4 17.985 34.1715 8.9925 0 0 0
394 4 32.373 16.1865 30.5745 0 0 0
2883 4 8.9925 25.179 1.7985 0 0 0
201 4 32.373 0.0 0.0 0 0 0
453 4 32.373 21.582 10.791 0 0 0
1553 4 21.582 10.791 28.776 0 0 0
1967 4 16.1865 14.388 5.3955 0 0 0
2304 4 12.5895 8.9925 17.985 0 0 0
1957 4 17.985 10.791 32.373 0 0 0
3511 4 1.7985 7.194 26.9775 0 0 0
2801 4 10.791 17.985 0.0 0 0 0
1348 4 23.3805 30.5745 21.582 0 0 0
3498 4 3.597 8.9925 16.1865 0 0 0
2990 4 10.791 34.1715 26.9775 0 0 0
2970 4 10.791 34.1715 8.9925 0 0 0
1941 4 17.985 10.791 17.985 0 0 0
1413 4 21.582 0.0 10.791 0 0 0
747 4 26.9775 10.791 23.3805 0 0 0
854 4 28.776 23.3805 12.5895 0 0 0
1428 4 19.7835 1.7985 21.582 0 0 0
1138 4 25.179 12.5895 16.1865 0 0 0
2233 4 14.388 0.0 28.776 0 0 0
1606 4 21.582 19.7835 5.3955 0 0 0
2091 4 16.1865 25.179 8.9925 0 0 0
2849 4 10.791 21.582 7.194 0 0 0
1550 4 21.582 12.5895 26.9775 0 0 0
2005 4 17.985 17.985 3.597 0 0 0
1006 4 25.179 1.7985 5.3955 0 0 0
2273 4 14.388 3.597 28.776 0 0 0
1688 4 19.7835 26.9775 3.597 0 0 0
2692 4 8.9925 8.9925 7.194 0 0 0
342 4 32.373 12.5895 19.7835 0 0 0
3177 4 7.194 14.388 14.388 0 0 0
769 4 28.776 14.388 7.194 0 0 0
3468 4 1.7985 5.3955 21.582 0 0 0
3946 4 0.0 26.9775 8.9925 0 0 0
2119 4 16.1865 25.179 34.1715 0 0 0
1528 4 19.7835 12.5895 3.597 0 0 0
3812 4 0.0 1.7985 19.7835 0 0 0
42 4 34.1715 8.9925 0.0 0 0 0
2869 4 10.791 21.582 25.179 0 0 0
3531 4 1.7985 10.791 8.9925 0 0 0
227 4 30.5745 0.0 23.3805 0 0 0
2816 4 8.9925 19.7835 10.791 0 0 0
2341 4 14.388 10.791 17.985 0 0 0
246 4 32.373 5.3955 5.3955 0 0 0
1308 4 23.3805 26.9775 21.582 0 0 0
2548 4 12.5895 30.5745 21.582 0 0 0
1960 4 16.1865 12.5895 32.373 0 0 0
2644 4 8.9925 5.3955 0.0 0 0 0
798 4 28.776 16.1865 34.1715 0 0 0
2455 4 12.5895 21.582 12.5895 0 0 0
1835 4 16.1865 0.0 30.5745 0 0 0
3276 4 5.3955 23.3805 28.776 0 0 0
2327 4 12.5895 10.791 5.3955 0 0 0
3150 4 7.194 12.5895 26.9775 0 0 0
2134 4 17.985 30.5745 12.5895 0 0 0
1882 4 17.985 8.9925 1.7985 0 0 0
1762 4 21.582 34.1715 1.7985 0 0 0
3731 4 1.7985 28.776 8.9925 0 0 0
916 4 26.9775 26.9775 28.776 0 0 0
3579 4 1.7985 14.388 16.1865 0 0 0
2584 4 12.5895 34.1715 17.985 0 0 0
3165 4 7.194 14.388 3.597 0 0 0
3256 4 5.3955 23.3805 10.791 0 0 0
2003 4 16.1865 17.985 1.7985 0 0 0
1391 4 23.3805 32.373 26.9775 0 0 0
1588 4 19.7835 16.1865 21.582 0 0 0
1114 4 25.179 8.9925 30.5745 0 0 0
3730 4 3.597 30.5745 8.9925 0 0 0
2910 4 10.791 26.9775 26.9775 0 0 0
3277 4 7.194 21.582 32.373 0 0 0
1899 4 16.1865 7.194 16.1865 0 0 0
1778 4 21.582 34.1715 16.1865 0 0 0
3654 4 3.597 23.3805 12.5895 0 0 0
385 4 32.373 14.388 21.582 0 0 0
3096 4 5.3955 8.9925 10.791 0 0 0
1244 4 23.3805 23.3805 0.0 0 0 0
3 5 34.1715 0.0 5.3955 0 0 0
5 5 34.1715 0.0 8.9925 0 0 0
20 5 34.1715 1.7985 32.373 0 0 0
23 5 34.1715 3.597 5.3955 0 0 0
27 5 34.1715 3.597 12.5895 0 0 0
29 5 34.1715 3.597 16.1865 0 0 0
33 5 34.1715 3.597 23.3805 0 0 0
34 5 34.1715 5.3955 21.582 0 0 0
36 5 34.1715 5.3955 25.179 0 0 0
38 5 34.1715 5.3955 28.776 0 0 0
39 5 34.1715 3.597 34.1715 0 0 0
40 5 34.1715 5.3955 32.373 0 0 0
48 5 34.1715 8.9925 10.791 0 0 0
49 5 34.1715 7.194 16.1865 0 0 0
51 5 34.1715 7.194 19.7835 0 0 0
60 5 34.1715 8.9925 32.373 0 0 0
75 5 34.1715 10.791 26.9775 0 0 0
84 5 34.1715 16.1865 3.597 0 0 0
88 5 34.1715 16.1865 10.791 0 0 0
96 5 34.1715 16.1865 25.179 0 0 0
117 5 34.1715 17.985 30.5745 0 0 0
118 5 34.1715 19.7835 28.776 0 0 0
121 5 34.1715 21.582 1.7985 0 0 0
122 5 34.1715 23.3805 0.0 0 0 0
126 5 34.1715 23.3805 7.194 0 0 0
128 5 34.1715 23.3805 10.791 0 0 0
131 5 34.1715 21.582 19.7835 0 0 0
135 5 34.1715 21.582 26.9775 0 0 0
136 5 34.1715 23.3805 25.179 0 0 0
137 5 34.1715 21.582 30.5745 0 0 0
138 5 34.1715 23.3805 28.776 0 0 0
139 5 34.1715 21.582 34.1715 0 0 0
140 5 34.1715 23.3805 32.373 0 0 0
149 5 34.1715 25.179 16.1865 0 0 0
154 5 34.1715 26.9775 21.582 0 0 0
159 5 34.1715 25.179 34.1715 0 0 0
161 5 34.1715 28.776 1.7985 0 0 0
162 5 34.1715 30.5745 0.0 0 0 0
165 5 34.1715 28.776 8.9925 0 0 0
166 5 34.1715 30.5745 7.194 0 0 0
167 5 34.1715 28.776 12.5895 0 0 0
168 5 34.1715 30.5745 10.791 0 0 0
170 5 34.1715 30.5745 14.388 0 0 0
172 5 34.1715 30.5745 17.985 0 0 0
175 5 34.1715 28.776 26.9775 0 0 0
179 5 34.1715 28.776 34.1715 0 0 0
180 5 34.1715 30.5745 32.373 0 0 0
181 5 34.1715 32.373 1.7985 0 0 0
187 5 34.1715 32.373 12.5895 0 0 0
191 5 34.1715 32.373 19.7835 0 0 0
192 5 34.1715 34.1715 17.985 0 0 0
195 5 34.1715 32.373 26.9775 0 0 0
196 5 34.1715 34.1715 25.179 0 0 0
199 5 34.1715 32.373 34.1715 0 0 0
203 5 30.5745 0.0 1.7985 0 0 0
207 5 30.5745 0.0 5.3955 0 0 0
210 5 32.373 1.7985 8.9925 0 0 0
215 5 30.5745 0.0 12.5895 0 0 0
222 5 32.373 1.7985 19.7835 0 0 0
231 5 30.5745 0.0 26.9775 0 0 0
232 5 30.5745 1.7985 25.179 0 0 0
235 5 30.5745 0.0 30.5745 0 0 0
236 5 30.5745 1.7985 28.776 0 0 0
240 5 30.5745 1.7985 32.373 0 0 0
241 5 32.373 3.597 0.0 0 0 0
247 5 30.5745 3.597 5.3955 0 0 0
248 5 30.5745 5.3955 3.597 0 0 0
255 5 30.5745 3.597 12.5895 0 0 0
264 5 30.5745 5.3955 17.985 0 0 0
272 5 30.5745 5.3955 25.179 0 0 0
275 5 30.5745 3.597 30.5745 0 0 0
281 5 32.373 7.194 0.0 0 0 0
284 5 30.5745 8.9925 0.0 0 0 0
286 5 32.373 8.9925 5.3955 0 0 0
287 5 30.5745 7.194 5.3955 0 0 0
293 5 32.373 7.194 10.791 0 0 0
302 5 32.373 8.9925 19.7835 0 0 0
303 5 30.5745 7.194 19.7835 0 0 0
306 5 32.373 8.9925 23.3805 0 0 0
311 5 30.5745 7.194 26.9775 0 0 0
313 5 32.373 7.194 28.776 0 0 0
314 5 32.373 8.9925 30.5745 0 0 0
316 5 30.5745 8.9925 28.776 0 0 0
324 5 30.5745 12.5895 0.0 0 0 0
325 5 32.373 10.791 3.597 0 0 0
327 5 30.5745 10.791 5.3955 0 0 0
329 5 32.373 10.791 7.194 0 0 0
331 5 30.5745 10.791 8.9925 0 0 0
333 5 32.373 10.791 10.791 0 0 0
334 5 32.373 12.5895 12.5895 0 0 0
341 5 32.373 10.791 17.985 0 0 0
346 5 32.373 12.5895 23.3805 0 0 0
347 5 30.5745 10.791 23.3805 0 0 0
353 5 32.373 10.791 28.776 0 0 0
355 5 30.5745 10.791 30.5745 0 0 0
359 5 30.5745 10.791 34.1715 0 0 0
360 5 30.5745 12.5895 32.373 0 0 0
361 5 32.373 14.388 0.0 0 0 0
362 5 32.373 16.1865 1.7985 0 0 0
367 5 30.5745 14.388 5.3955 0 0 0
375 5 30.5745 14.388 12.5895 0 0 0
380 5 30.5745 16.1865 14.388 0 0 0
384 5 30.5745 16.1865 17.985 0 0 0
387 5 30.5745 14.388 23.3805 0 0 0
388 5 30.5745 16.1865 21.582 0 0 0
389 5 32.373 14.388 25.179 0 0 0
399 5 30.5745 14.388 34.1715 0 0 0
400 5 30.5745 16.1865 32.373 0 0 0
405 5 32.373 17.985 3.597 0 0 0
409 5 32.373 17.985 7.194 0 0 0
411 5 30.5745 17.985 8.9925 0 0 0
416 5 30.5745 19.7835 10.791 0 0 0
422 5 32.373 19.7835 19.7835 0 0 0
426 5 32.373 19.7835 23.3805 0 0 0
427 5 30.5745 17.985 23.3805 0 0 0
431 5 30.5745 17.985 26.9775 0 0 0
436 5 30.5745 19.7835 28.776 0 0 0
439 5 30.5745 17.985 34.1715 0 0 0
443 5 30.5745 21.582 1.7985 0 0 0
448 5 30.5745 23.3805 3.597 0 0 0
452 5 30.5745 23.3805 7.194 0 0 0
455 5 30.5745 21.582 12.5895 0 0 0
456 5 30.5745 23.3805 10.791 0 0 0
460 5 30.5745 23.3805 14.388 0 0 0
462 5 32.373 23.3805 19.7835 0 0 0
465 5 32.373 21.582 21.582 0 0 0
467 5 30.5745 21.582 23.3805 0 0 0
475 5 30.5745 21.582 30.5745 0 0 0
476 5 30.5745 23.3805 28.776 0 0 0
477 5 32.373 21.582 32.373 0 0 0
479 5 30.5745 21.582 34.1715 0 0 0
481 5 32.373 25.179 0.0 0 0 0
482 5 32.373 26.9775 1.7985 0 0 0
484 5 30.5745 26.9775 0.0 0 0 0
492 5 30.5745 26.9775 7.194 0 0 0
495 5 30.5745 25.179 12.5895 0 0 0
496 5 30.5745 26.9775 10.791 0 0 0
497 5 32.373 25.179 14.388 0 0 0
510 5 32.373 26.9775 26.9775 0 0 0
511 5 30.5745 25.179 26.9775 0 0 0
513 5 32.373 25.179 28.776 0 0 0
515 5 30.5745 25.179 30.5745 0 0 0
516 5 30.5745 26.9775 28.776 0 0 0
521 5 32.373 28.776 0.0 0 0 0
523 5 30.5745 28.776 1.7985 0 0 0
526 5 32.373 30.5745 5.3955 0 0 0
531 5 30.5745 28.776 8.9925 0 0 0
536 5 30.5745 30.5745 10.791 0 0 0
538 5 32.373 30.5745 16.1865 0 0 0
541 5 32.373 28.776 17.985 0 0 0
542 5 32.373 30.5745 19.7835 0 0 0
547 5 30.5745 28.776 23.3805 0 0 0
549 5 32.373 28.776 25.179 0 0 0
551 5 30.5745 28.776 26.9775 0 0 0
554 5 32.373 30.5745 30.5745 0 0 0
558 5 32.373 30.5745 34.1715 0 0 0
559 5 30.5745 28.776 34.1715 0 0 0
563 5 30.5745 32.373 1.7985 0 0 0
566 5 32.373 34.1715 5.3955 0 0 0
567 5 30.5745 32.373 5.3955 0 0 0
576 5 30.5745 34.1715 10.791 0 0 0
579 5 30.5745 32.373 16.1865 0 0 0
586 5 32.373 34.1715 23.3805 0 0 0
596 5 30.5745 34.1715 28.776 0 0 0
598 5 32.373 34.1715 34.1715 0 0 0
603 5 26.9775 0.0 1.7985 0 0 0
606 5 28.776 1.7985 5.3955 0 0 0
607 5 26.9775 0.0 5.3955 0 0 0
613 5 28.776 0.0 10.791 0 0 0
614 5 28.776 1.7985 12.5895 0 0 0
617 5 28.776 0.0 14.388 0 0 0
623 5 26.9775 0.0 19.7835 0 0 0
625 5 28.776 0.0 21.582 0 0 0
629 5 28.776 0.0 25.179 0 0 0
631 5 26.9775 0.0 26.9775 0 0 0
634 5 28.776 1.7985 30.5745 0 0 0
636 5 26.9775 1.7985 28.776 0 0 0
645 5 28.776 3.597 3.597 0 0 0
648 5 26.9775 5.3955 3.597 0 0 0
651 5 26.9775 3.597 8.9925 0 0 0
654 5 28.776 5.3955 12.5895 0 0 0
655 5 26.9775 3.597 12.5895 0 0 0
670 5 28.776 5.3955 26.9775 0 0 0
671 5 26.9775 3.597 26.9775 0 0 0
674 5 28.776 5.3955 30.5745 0 0 0
679 5 26.9775 3.597 34.1715 0 0 0
683 5 26.9775 7.194 1.7985 0 0 0
686 5 28.776 8.9925 5.3955 0 0 0
687 5 26.9775 7.194 5.3955 0 0 0
691 5 26.9775 7.194 8.9925 0 0 0
692 5 26.9775 8.9925 7.194 0 0 0
693 5 28.776 7.194 10.791 0 0 0
695 5 26.9775 7.194 12.5895 0 0 0
696 5 26.9775 8.9925 10.791 0 0 0
699 5 26.9775 7.194 16.1865 0 0 0
707 5 26.9775 7.194 23.3805 0 0 0
720 5 26.9775 8.9925 32.373 0 0 0
721 5 28.776 10.791 0.0 0 0 0
722 5 28.776 12.5895 1.7985 0 0 0
723 5 26.9775 10.791 1.7985 0 0 0
732 5 26.9775 12.5895 7.194 0 0 0
735 5 26.9775 10.791 12.5895 0 0 0
760 5 26.9775 12.5895 32.373 0 0 0
773 5 28.776 14.388 10.791 0 0 0
774 5 28.776 16.1865 12.5895 0 0 0
775 5 26.9775 14.388 12.5895 0 0 0
781 5 28.776 14.388 17.985 0 0 0
784 5 26.9775 16.1865 17.985 0 0 0
787 5 26.9775 14.388 23.3805 0 0 0
791 5 26.9775 14.388 26.9775 0 0 0
792 5 26.9775 16.1865 25.179 0 0 0
793 5 28.776 14.388 28.776 0 0 0
795 5 26.9775 14.388 30.5745 0 0 0
802 5 28.776 19.7835 1.7985 0 0 0
803 5 26.9775 17.985 1.7985 0 0 0
806 5 28.776 19.7835 5.3955 0 0 0
809 5 28.776 17.985 7.194 0 0 0
810 5 28.776 19.7835 8.9925 0 0 0
816 5 26.9775 19.7835 10.791 0 0 0
819 5 26.9775 17.985 16.1865 0 0 0
826 5 28.776 19.7835 23.3805 0 0 0
829 5 28.776 17.985 25.179 0 0 0
834 5 28.776 19.7835 30.5745 0 0 0
840 5 26.9775 19.7835 32.373 0 0 0
847 5 26.9775 21.582 5.3955 0 0 0
848 5 26.9775 23.3805 3.597 0 0 0
849 5 28.776 21.582 7.194 0 0 0
853 5 28.776 21.582 10.791 0 0 0
860 5 26.9775 23.3805 14.388 0 0 0
862 5 28.776 23.3805 19.7835 0 0 0
865 5 28.776 21.582 21.582 0 0 0
867 5 26.9775 21.582 23.3805 0 0 0
869 5 28.776 21.582 25.179 0 0 0
877 5 28.776 21.582 32.373 0 0 0
879 5 26.9775 21.582 34.1715 0 0 0
883 5 26.9775 25.179 1.7985 0 0 0
889 5 28.776 25.179 7.194 0 0 0
890 5 28.776 26.9775 8.9925 0 0 0
896 5 26.9775 26.9775 10.791 0 0 0
897 5 28.776 25.179 14.388 0 0 0
899 5 26.9775 25.179 16.1865 0 0 0
913 5 28.776 25.179 28.776 0 0 0
918 5 28.776 26.9775 34.1715 0 0 0
921 5 28.776 28.776 0.0 0 0 0
934 5 28.776 30.5745 12.5895 0 0 0
939 5 26.9775 28.776 16.1865 0 0 0
942 5 28.776 30.5745 19.7835 0 0 0
947 5 26.9775 28.776 23.3805 0 0 0
949 5 28.776 28.776 25.179 0 0 0
950 5 28.776 30.5745 26.9775 0 0 0
953 5 28.776 28.776 28.776 0 0 0
954 5 28.776 30.5745 30.5745 0 0 0
955 5 26.9775 28.776 30.5745 0 0 0
959 5 26.9775 28.776 34.1715 0 0 0
964 5 26.9775 34.1715 0.0 0 0 0
965 5 28.776 32.373 3.597 0 0 0
968 5 26.9775 34.1715 3.597 0 0 0
969 5 28.776 32.373 7.194 0 0 0
974 5 28.776 34.1715 12.5895 0 0 0
982 5 28.776 34.1715 19.7835 0 0 0
987 5 26.9775 32.373 23.3805 0 0 0
990 5 28.776 34.1715 26.9775 0 0 0
997 5 28.776 32.373 32.373 0 0 0
1009 5 25.179 0.0 7.194 0 0 0
1013 5 25.179 0.0 10.791 0 0 0
1015 5 23.3805 0.0 12.5895 0 0 0
1019 5 23.3805 0.0 16.1865 0 0 0
1022 5 25.179 1.7985 19.7835 0 0 0
1023 5 23.3805 0.0 19.7835 0 0 0
1027 5 23.3805 0.0 23.3805 0 0 0
1042 5 25.179 5.3955 1.7985 0 0 0
1053 5 25.179 3.597 10.791 0 0 0
1055 5 23.3805 3.597 12.5895 0 0 0
1057 5 25.179 3.597 14.388 0 0 0
1059 5 23.3805 3.597 16.1865 0 0 0
1060 5 23.3805 5.3955 14.388 0 0 0
1064 5 23.3805 5.3955 17.985 0 0 0
1071 5 23.3805 3.597 26.9775 0 0 0
1072 5 23.3805 5.3955 25.179 0 0 0
1073 5 25.179 3.597 28.776 0 0 0
1079 5 23.3805 3.597 34.1715 0 0 0
1093 5 25.179 7.194 10.791 0 0 0
1097 5 25.179 7.194 14.388 0 0 0
1100 5 23.3805 8.9925 14.388 0 0 0
1105 5 25.179 7.194 21.582 0 0 0
1109 5 25.179 7.194 25.179 0 0 0
1112 5 23.3805 8.9925 25.179 0 0 0
1117 5 25.179 7.194 32.373 0 0 0
1118 5 25.179 8.9925 34.1715 0 0 0
1122 5 25.179 12.5895 1.7985 0 0 0
1124 5 23.3805 12.5895 0.0 0 0 0
1125 5 25.179 10.791 3.597 0 0 0
1129 5 25.179 10.791 7.194 0 0 0
1130 5 25.179 12.5895 8.9925 0 0 0
1133 5 25.179 10.791 10.791 0 0 0
1142 5 25.179 12.5895 19.7835 0 0 0
1160 5 23.3805 12.5895 32.373 0 0 0
1164 5 23.3805 16.1865 0.0 0 0 0
1166 5 25.179 16.1865 5.3955 0 0 0
1170 5 25.179 16.1865 8.9925 0 0 0
1176 5 23.3805 16.1865 10.791 0 0 0
1189 5 25.179 14.388 25.179 0 0 0
1194 5 25.179 16.1865 30.5745 0 0 0
1206 5 25.179 19.7835 5.3955 0 0 0
1209 5 25.179 17.985 7.194 0 0 0
1211 5 23.3805 17.985 8.9925 0 0 0
1215 5 23.3805 17.985 12.5895 0 0 0
1218 5 25.179 19.7835 16.1865 0 0 0
1225 5 25.179 17.985 21.582 0 0 0
1226 5 25.179 19.7835 23.3805 0 0 0
1229 5 25.179 17.985 25.179 0 0 0
1230 5 25.179 19.7835 26.9775 0 0 0
1234 5 25.179 19.7835 30.5745 0 0 0
1239 5 23.3805 17.985 34.1715 0 0 0
1242 5 25.179 23.3805 1.7985 0 0 0
1263 5 23.3805 21.582 19.7835 0 0 0
1264 5 23.3805 23.3805 17.985 0 0 0
1265 5 25.179 21.582 21.582 0 0 0
1276 5 23.3805 23.3805 28.776 0 0 0
1280 5 23.3805 23.3805 32.373 0 0 0
1281 5 25.179 25.179 0.0 0 0 0
1286 5 25.179 26.9775 5.3955 0 0 0
1290 5 25.179 26.9775 8.9925 0 0 0
1291 5 23.3805 25.179 8.9925 0 0 0
1293 5 25.179 25.179 10.791 0 0 0
1294 5 25.179 26.9775 12.5895 0 0 0
1299 5 23.3805 25.179 16.1865 0 0 0
1304 5 23.3805 26.9775 17.985 0 0 0
1309 5 25.179 25.179 25.179 0 0 0
1311 5 23.3805 25.179 26.9775 0 0 0
1314 5 25.179 26.9775 30.5745 0 0 0
1319 5 23.3805 25.179 34.1715 0 0 0
1320 5 23.3805 26.9775 32.373 0 0 0
1327 5 23.3805 28.776 5.3955 0 0 0
1334 5 25.179 30.5745 12.5895 0 0 0
1336 5 23.3805 30.5745 10.791 0 0 0
1337 5 25.179 28.776 14.388 0 0 0
1339 5 23.3805 28.776 16.1865 0 0 0
1344 5 23.3805 30.5745 17.985 0 0 0
1350 5 25.179 30.5745 26.9775 0 0 0
1353 5 25.179 28.776 28.776 0 0 0
1354 5 25.179 30.5745 30.5745 0 0 0
1355 5 23.3805 28.776 30.5745 0 0 0
1360 5 23.3805 30.5745 32.373 0 0 0
1361 5 25.179 32.373 0.0 0 0 0
1363 5 23.3805 32.373 1.7985 0 0 0
1364 5 23.3805 34.1715 0.0 0 0 0
1365 5 25.179 32.373 3.597 0 0 0
1369 5 25.179 32.373 7.194 0 0 0
1380 5 23.3805 34.1715 14.388 0 0 0
1381 5 25.179 32.373 17.985 0 0 0
1389 5 25.179 32.373 25.179 0 0 0
1390 5 25.179 34.1715 26.9775 0 0 0
1393 5 25.179 32.373 28.776 0 0 0
1397 5 25.179 32.373 32.373 0 0 0
1405 5 21.582 0.0 3.597 0 0 0
1414 5 21.582 1.7985 12.5895 0 0 0
1417 5 21.582 0.0 14.388 0 0 0
1423 5 19.7835 0.0 19.7835 0 0 0
1425 5 21.582 0.0 21.582 0 0 0
1431 5 19.7835 0.0 26.9775 0 0 0
1435 5 19.7835 0.0 30.5745 0 0 0
1438 5 21.582 1.7985 34.1715 0 0 0
1439 5 19.7835 0.0 34.1715 0 0 0
1444 5 19.7835 5.3955 0.0 0 0 0
1449 5 21.582 3.597 7.194 0 0 0
1451 5 19.7835 3.597 8.9925 0 0 0
1452 5 19.7835 5.3955 7.194 0 0 0
1454 5 21.582 5.3955 12.5895 0 0 0
1457 5 21.582 3.597 14.388 0 0 0
1461 5 21.582 3.597 17.985 0 0 0
1462 5 21.582 5.3955 19.7835 0 0 0
1463 5 19.7835 3.597 19.7835 0 0 0
1465 5 21.582 3.597 21.582 0 0 0
1467 5 19.7835 3.597 23.3805 0 0 0
1472 5 19.7835 5.3955 25.179 0 0 0
1473 5 21.582 3.597 28.776 0 0 0
1485 5 21.582 7.194 3.597 0 0 0
1486 5 21.582 8.9925 5.3955 0 0 0
1494 5 21.582 8.9925 12.5895 0 0 0
1506 5 21.582 8.9925 23.3805 0 0 0
1507 5 19.7835 7.194 23.3805 0 0 0
1509 5 21.582 7.194 25.179 0 0 0
1511 5 19.7835 7.194 26.9775 0 0 0
1512 5 19.7835 8.9925 25.179 0 0 0
1515 5 19.7835 7.194 30.5745 0 0 0
1526 5 21.582 12.5895 5.3955 0 0 0
1527 5 19.7835 10.791 5.3955 0 0 0
1531 5 19.7835 10.791 8.9925 0 0 0
1534 5 21.582 12.5895 12.5895 0 0 0
1536 5 19.7835 12.5895 10.791 0 0 0
1537 5 21.582 10.791 14.388 0 0 0
1557 5 21.582 10.791 32.373 0 0 0
1558 5 21.582 12.5895 34.1715 0 0 0
1561 5 21.582 14.388 0.0 0 0 0
1566 5 21.582 16.1865 5.3955 0 0 0
1573 5 21.582 14.388 10.791 0 0 0
1574 5 21.582 16.1865 12.5895 0 0 0
1578 5 21.582 16.1865 16.1865 0 0 0
1580 5 19.7835 16.1865 14.388 0 0 0
1584 5 19.7835 16.1865 17.985 0 0 0
1594 5 21.582 16.1865 30.5745 0 0 0
1597 5 21.582 14.388 32.373 0 0 0
1605 5 21.582 17.985 3.597 0 0 0
1607 5 19.7835 17.985 5.3955 0 0 0
1612 5 19.7835 19.7835 7.194 0 0 0
1616 5 19.7835 19.7835 10.791 0 0 0
1625 5 21.582 17.985 21.582 0 0 0
1626 5 21.582 19.7835 23.3805 0 0 0
1628 5 19.7835 19.7835 21.582 0 0 0
1629 5 21.582 17.985 25.179 0 0 0
1630 5 21.582 19.7835 26.9775 0 0 0
1632 5 19.7835 19.7835 25.179 0 0 0
1635 5 19.7835 17.985 30.5745 0 0 0
1642 5 21.582 23.3805 1.7985 0 0 0
1656 5 19.7835 23.3805 10.791 0 0 0
1657 5 21.582 21.582 14.388 0 0 0
1659 5 19.7835 21.582 16.1865 0 0 0
1664 5 19.7835 23.3805 17.985 0 0 0
1666 5 21.582 23.3805 23.3805 0 0 0
1676 5 19.7835 23.3805 28.776 0 0 0
1677 5 21.582 21.582 32.373 0 0 0
1685 5 21.582 25.179 3.597 0 0 0
1687 5 19.7835 25.179 5.3955 0 0 0
1689 5 21.582 25.179 7.194 0 0 0
1693 5 21.582 25.179 10.791 0 0 0
1694 5 21.582 26.9775 12.5895 0 0 0
1700 5 19.7835 26.9775 14.388 0 0 0
1701 5 21.582 25.179 17.985 0 0 0
1703 5 19.7835 25.179 19.7835 0 0 0
1704 5 19.7835 26.9775 17.985 0 0 0
1708 5 19.7835 26.9775 21.582 0 0 0
1711 5 19.7835 25.179 26.9775 0 0 0
1715 5 19.7835 25.179 30.5745 0 0 0
1716 5 19.7835 26.9775 28.776 0 0 0
1717 5 21.582 25.179 32.373 0 0 0
1722 5 21.582 30.5745 1.7985 0 0 0
1723 5 19.7835 28.776 1.7985 0 0 0
1728 5 19.7835 30.5745 3.597 0 0 0
1737 5 21.582 28.776 14.388 0 0 0
1742 5 21.582 30.5745 19.7835 0 0 0
1745 5 21.582 28.776 21.582 0 0 0
1747 5 19.7835 28.776 23.3805 0 0 0
1749 5 21.582 28.776 25.179 0 0 0
1750 5 21.582 30.5745 26.9775 0 0 0
1751 5 19.7835 28.776 26.9775 0 0 0
1752 5 19.7835 30.5745 25.179 0 0 0
1758 5 21.582 30.5745 34.1715 0 0 0
1765 5 21.582 32.373 3.597 0 0 0
1767 5 19.7835 32.373 5.3955 0 0 0
1768 5 19.7835 34.1715 3.597 0 0 0
1774 5 21.582 34.1715 12.5895 0 0 0
1775 5 19.7835 32.373 12.5895 0 0 0
1779 5 19.7835 32.373 16.1865 0 0 0
1783 5 19.7835 32.373 19.7835 0 0 0
1787 5 19.7835 32.373 23.3805 0 0 0
1789 5 21.582 32.373 25.179 0 0 0
1791 5 19.7835 32.373 26.9775 0 0 0
1792 5 19.7835 34.1715 25.179 0 0 0
1804 5 16.1865 1.7985 0.0 0 0 0
1808 5 16.1865 1.7985 3.597 0 0 0
1813 5 17.985 0.0 10.791 0 0 0
1814 5 17.985 1.7985 12.5895 0 0 0
1816 5 16.1865 1.7985 10.791 0 0 0
1822 5 17.985 1.7985 19.7835 0 0 0
1824 5 16.1865 1.7985 17.985 0 0 0
1826 5 17.985 1.7985 23.3805 0 0 0
1831 5 16.1865 0.0 26.9775 0 0 0
1836 5 16.1865 1.7985 28.776 0 0 0
1837 5 17.985 0.0 32.373 0 0 0
1843 5 16.1865 3.597 1.7985 0 0 0
1844 5 16.1865 5.3955 0.0 0 0 0
1845 5 17.985 3.597 3.597 0 0 0
1847 5 16.1865 3.597 5.3955 0 0 0
1849 5 17.985 3.597 7.194 0 0 0
1861 5 17.985 3.597 17.985 0 0 0
1865 5 17.985 3.597 21.582 0 0 0
1866 5 17.985 5.3955 23.3805 0 0 0
1871 5 16.1865 3.597 26.9775 0 0 0
1874 5 17.985 5.3955 30.5745 0 0 0
1885 5 17.985 7.194 3.597 0 0 0
1895 5 16.1865 7.194 12.5895 0 0 0
1897 5 17.985 7.194 14.388 0 0 0
1900 5 16.1865 8.9925 14.388 0 0 0
1916 5 16.1865 8.9925 28.776 0 0 0
1919 5 16.1865 7.194 34.1715 0 0 0
1920 5 16.1865 8.9925 32.373 0 0 0
1921 5 17.985 10.791 0.0 0 0 0
1922 5 17.985 12.5895 1.7985 0 0 0
1926 5 17.985 12.5895 5.3955 0 0 0
1931 5 16.1865 10.791 8.9925 0 0 0
1932 5 16.1865 12.5895 7.194 0 0 0
1935 5 16.1865 10.791 12.5895 0 0 0
1936 5 16.1865 12.5895 10.791 0 0 0
1938 5 17.985 12.5895 16.1865 0 0 0
1943 5 16.1865 10.791 19.7835 0 0 0
1947 5 16.1865 10.791 23.3805 0 0 0
1950 5 17.985 12.5895 26.9775 0 0 0
1963 5 16.1865 14.388 1.7985 0 0 0
1966 5 17.985 16.1865 5.3955 0 0 0
1976 5 16.1865 16.1865 10.791 0 0 0
1978 5 17.985 16.1865 16.1865 0 0 0
1980 5 16.1865 16.1865 14.388 0 0 0
1981 5 17.985 14.388 17.985 0 0 0
1982 5 17.985 16.1865 19.7835 0 0 0
1983 5 16.1865 14.388 19.7835 0 0 0
1984 5 16.1865 16.1865 17.985 0 0 0
1989 5 17.985 14.388 25.179 0 0 0
1993 5 17.985 14.388 28.776 0 0 0
1996 5 16.1865 16.1865 28.776 0 0 0
1997 5 17.985 14.388 32.373 0 0 0
2000 5 16.1865 16.1865 32.373 0 0 0
2006 5 17.985 19.7835 5.3955 0 0 0
2007 5 16.1865 17.985 5.3955 0 0 0
2013 5 17.985 17.985 10.791 0 0 0
2027 5 16.1865 17.985 23.3805 0 0 0
2031 5 16.1865 17.985 26.9775 0 0 0
2037 5 17.985 17.985 32.373 0 0 0
2046 5 17.985 23.3805 5.3955 0 0 0
2048 5 16.1865 23.3805 3.597 0 0 0
2058 5 17.985 23.3805 16.1865 0 0 0
2061 5 17.985 21.582 17.985 0 0 0
2066 5 17.985 23.3805 23.3805 0 0 0
2067 5 16.1865 21.582 23.3805 0 0 0
2069 5 17.985 21.582 25.179 0 0 0
2070 5 17.985 23.3805 26.9775 0 0 0
2071 5 16.1865 21.582 26.9775 0 0 0
2073 5 17.985 21.582 28.776 0 0 0
2074 5 17.985 23.3805 30.5745 0 0 0
2076 5 16.1865 23.3805 28.776 0 0 0
2078 5 17.985 23.3805 34.1715 0 0 0
2079 5 16.1865 21.582 34.1715 0 0 0
2085 5 17.985 25.179 3.597 0 0 0
2090 5 17.985 26.9775 8.9925 0 0 0
2092 5 16.1865 26.9775 7.194 0 0 0
2099 5 16.1865 25.179 16.1865 0 0 0
2103 5 16.1865 25.179 19.7835 0 0 0
2104 5 16.1865 26.9775 17.985 0 0 0
2105 5 17.985 25.179 21.582 0 0 0
2109 5 17.985 25.179 25.179 0 0 0
2112 5 16.1865 26.9775 25.179 0 0 0
2114 5 17.985 26.9775 30.5745 0 0 0
2116 5 16.1865 26.9775 28.776 0 0 0
2118 5 17.985 26.9775 34.1715 0 0 0
2121 5 17.985 28.776 0.0 0 0 0
2137 5 17.985 28.776 14.388 0 0 0
2142 5 17.985 30.5745 19.7835 0 0 0
2145 5 17.985 28.776 21.582 0 0 0
2153 5 17.985 28.776 28.776 0 0 0
2158 5 17.985 30.5745 34.1715 0 0 0
2159 5 16.1865 28.776 34.1715 0 0 0
2171 5 16.1865 32.373 8.9925 0 0 0
2172 5 16.1865 34.1715 7.194 0 0 0
2176 5 16.1865 34.1715 10.791 0 0 0
2178 5 17.985 34.1715 16.1865 0 0 0
2181 5 17.985 32.373 17.985 0 0 0
2183 5 16.1865 32.373 19.7835 0 0 0
2188 5 16.1865 34.1715 21.582 0 0 0
2195 5 16.1865 32.373 30.5745 0 0 0
2206 5 14.388 1.7985 5.3955 0 0 0
2216 5 12.5895 1.7985 10.791 0 0 0
2225 5 14.388 0.0 21.582 0 0 0
2227 5 12.5895 0.0 23.3805 0 0 0
2230 5 14.388 1.7985 26.9775 0 0 0
2240 5 12.5895 1.7985 32.373 0 0 0
2245 5 14.388 3.597 3.597 0 0 0
2246 5 14.388 5.3955 5.3955 0 0 0
2249 5 14.388 3.597 7.194 0 0 0
2258 5 14.388 5.3955 16.1865 0 0 0
2259 5 12.5895 3.597 16.1865 0 0 0
2260 5 12.5895 5.3955 14.388 0 0 0
2261 5 14.388 3.597 17.985 0 0 0
2267 5 12.5895 3.597 23.3805 0 0 0
2269 5 14.388 3.597 25.179 0 0 0
2272 5 12.5895 5.3955 25.179 0 0 0
2274 5 14.388 5.3955 30.5745 0 0 0
2275 5 12.5895 3.597 30.5745 0 0 0
2277 5 14.388 3.597 32.373 0 0 0
2282 5 14.388 8.9925 1.7985 0 0 0
2287 5 12.5895 7.194 5.3955 0 0 0
2289 5 14.388 7.194 7.194 0 0 0
2291 5 12.5895 7.194 8.9925 0 0 0
2293 5 14.388 7.194 10.791 0 0 0
2295 5 12.5895 7.194 12.5895 0 0 0
2307 5 12.5895 7.194 23.3805 0 0 0
2309 5 14.388 7.194 25.179 0 0 0
2313 5 14.388 7.194 28.776 0 0 0
2321 5 14.388 10.791 0.0 0 0 0
2328 5 12.5895 12.5895 3.597 0 0 0
2330 5 14.388 12.5895 8.9925 0 0 0
2332 5 12.5895 12.5895 7.194 0 0 0
2343 5 12.5895 10.791 19.7835 0 0 0
2344 5 12.5895 12.5895 17.985 0 0 0
2346 5 14.388 12.5895 23.3805 0 0 0
2350 5 14.388 12.5895 26.9775 0 0 0
2351 5 12.5895 10.791 26.9775 0 0 0
2352 5 12.5895 12.5895 25.179 0 0 0
2354 5 14.388 12.5895 30.5745 0 0 0
2356 5 12.5895 12.5895 28.776 0 0 0
2357 5 14.388 10.791 32.373 0 0 0
2361 5 14.388 14.388 0.0 0 0 0
2364 5 12.5895 16.1865 0.0 0 0 0
2369 5 14.388 14.388 7.194 0 0 0
2370 5 14.388 16.1865 8.9925 0 0 0
2372 5 12.5895 16.1865 7.194 0 0 0
2377 5 14.388 14.388 14.388 0 0 0
2380 5 12.5895 16.1865 14.388 0 0 0
2389 5 14.388 14.388 25.179 0 0 0
2396 5 12.5895 16.1865 28.776 0 0 0
2397 5 14.388 14.388 32.373 0 0 0
2398 5 14.388 16.1865 34.1715 0 0 0
2400 5 12.5895 16.1865 32.373 0 0 0
2402 5 14.388 19.7835 1.7985 0 0 0
2405 5 14.388 17.985 3.597 0 0 0
2406 5 14.388 19.7835 5.3955 0 0 0
2408 5 12.5895 19.7835 3.597 0 0 0
2412 5 12.5895 19.7835 7.194 0 0 0
2413 5 14.388 17.985 10.791 0 0 0
2417 5 14.388 17.985 14.388 0 0 0
2420 5 12.5895 19.7835 14.388 0 0 0
2426 5 14.388 19.7835 23.3805 0 0 0
2428 5 12.5895 19.7835 21.582 0 0 0
2432 5 12.5895 19.7835 25.179 0 0 0
2447 5 12.5895 21.582 5.3955 0 0 0
2449 5 14.388 21.582 7.194 0 0 0
2450 5 14.388 23.3805 8.9925 0 0 0
2453 5 14.388 21.582 10.791 0 0 0
2457 5 14.388 21.582 14.388 0 0 0
2466 5 14.388 23.3805 23.3805 0 0 0
2469 5 14.388 21.582 25.179 0 0 0
2470 5 14.388 23.3805 26.9775 0 0 0
2471 5 12.5895 21.582 26.9775 0 0 0
2473 5 14.388 21.582 28.776 0 0 0
2476 5 12.5895 23.3805 28.776 0 0 0
2481 5 14.388 25.179 0.0 0 0 0
2485 5 14.388 25.179 3.597 0 0 0
2492 5 12.5895 26.9775 7.194 0 0 0
2497 5 14.388 25.179 14.388 0 0 0
2499 5 12.5895 25.179 16.1865 0 0 0
2506 5 14.388 26.9775 23.3805 0 0 0
2513 5 14.388 25.179 28.776 0 0 0
2514 5 14.388 26.9775 30.5745 0 0 0
2516 5 12.5895 26.9775 28.776 0 0 0
2526 5 14.388 30.5745 5.3955 0 0 0
2530 5 14.388 30.5745 8.9925 0 0 0
2532 5 12.5895 30.5745 7.194 0 0 0
2533 5 14.388 28.776 10.791 0 0 0
2536 5 12.5895 30.5745 10.791 0 0 0
2538 5 14.388 30.5745 16.1865 0 0 0
2544 5 12.5895 30.5745 17.985 0 0 0
2549 5 14.388 28.776 25.179 0 0 0
2550 5 14.388 30.5745 26.9775 0 0 0
2552 5 12.5895 30.5745 25.179 0 0 0
2560 5 12.5895 30.5745 32.373 0 0 0
2562 5 14.388 34.1715 1.7985 0 0 0
2568 5 12.5895 34.1715 3.597 0 0 0
2569 5 14.388 32.373 7.194 0 0 0
2572 5 12.5895 34.1715 7.194 0 0 0
2576 5 12.5895 34.1715 10.791 0 0 0
2582 5 14.388 34.1715 19.7835 0 0 0
2585 5 14.388 32.373 21.582 0 0 0
2590 5 14.388 34.1715 26.9775 0 0 0
2591 5 12.5895 32.373 26.9775 0 0 0
2592 5 12.5895 34.1715 25.179 0 0 0
2596 5 12.5895 34.1715 28.776 0 0 0
2597 5 14.388 32.373 32.373 0 0 0
2599 5 12.5895 32.373 34.1715 0 0 0
2606 5 10.791 1.7985 5.3955 0 0 0
2608 5 8.9925 1.7985 3.597 0 0 0
2618 5 10.791 1.7985 16.1865 0 0 0
2623 5 8.9925 0.0 19.7835 0 0 0
2628 5 8.9925 1.7985 21.582 0 0 0
2629 5 10.791 0.0 25.179 0 0 0
2631 5 8.9925 0.0 26.9775 0 0 0
2636 5 8.9925 1.7985 28.776 0 0 0
2640 5 8.9925 1.7985 32.373 0 0 0
2649 5 10.791 3.597 7.194 0 0 0
2655 5 8.9925 3.597 12.5895 0 0 0
2660 5 8.9925 5.3955 14.388 0 0 0
2664 5 8.9925 5.3955 17.985 0 0 0
2672 5 8.9925 5.3955 25.179 0 0 0
2677 5 10.791 3.597 32.373 0 0 0
2678 5 10.791 5.3955 34.1715 0 0 0
2684 5 8.9925 8.9925 0.0 0 0 0
2686 5 10.791 8.9925 5.3955 0 0 0
2688 5 8.9925 8.9925 3.597 0 0 0
2693 5 10.791 7.194 10.791 0 0 0
2694 5 10.791 8.9925 12.5895 0 0 0
2706 5 10.791 8.9925 23.3805 0 0 0
2709 5 10.791 7.194 25.179 0 0 0
2721 5 10.791 10.791 0.0 0 0 0
2723 5 8.9925 10.791 1.7985 0 0 0
2725 5 10.791 10.791 3.597 0 0 0
2728 5 8.9925 12.5895 3.597 0 0 0
2732 5 8.9925 12.5895 7.194 0 0 0
2733 5 10.791 10.791 10.791 0 0 0
2735 5 8.9925 10.791 12.5895 0 0 0
2740 5 8.9925 12.5895 14.388 0 0 0
2742 5 10.791 12.5895 19.7835 0 0 0
2744 5 8.9925 12.5895 17.985 0 0 0
2747 5 8.9925 10.791 23.3805 0 0 0
2750 5 10.791 12.5895 26.9775 0 0 0
2755 5 8.9925 10.791 30.5745 0 0 0
2757 5 10.791 10.791 32.373 0 0 0
2759 5 8.9925 10.791 34.1715 0 0 0
2762 5 10.791 16.1865 1.7985 0 0 0
2763 5 8.9925 14.388 1.7985 0 0 0
2766 5 10.791 16.1865 5.3955 0 0 0
2771 5 8.9925 14.388 8.9925 0 0 0
2777 5 10.791 14.388 14.388 0 0 0
2787 5 8.9925 14.388 23.3805 0 0 0
2789 5 10.791 14.388 25.179 0 0 0
2790 5 10.791 16.1865 26.9775 0 0 0
2793 5 10.791 14.388 28.776 0 0 0
2794 5 10.791 16.1865 30.5745 0 0 0
2804 5 8.9925 19.7835 0.0 0 0 0
2808 5 8.9925 19.7835 3.597 0 0 0
2820 5 8.9925 19.7835 14.388 0 0 0
2824 5 8.9925 19.7835 17.985 0 0 0
2832 5 8.9925 19.7835 25.179 0 0 0
2841 5 10.791 21.582 0.0 0 0 0
2844 5 8.9925 23.3805 0.0 0 0 0
2845 5 10.791 21.582 3.597 0 0 0
2850 5 10.791 23.3805 8.9925 0 0 0
2856 5 8.9925 23.3805 10.791 0 0 0
2861 5 10.791 21.582 17.985 0 0 0
2866 5 10.791 23.3805 23.3805 0 0 0
2868 5 8.9925 23.3805 21.582 0 0 0
2874 5 10.791 23.3805 30.5745 0 0 0
2878 5 10.791 23.3805 34.1715 0 0 0
2887 5 8.9925 25.179 5.3955 0 0 0
2889 5 10.791 25.179 7.194 0 0 0
2890 5 10.791 26.9775 8.9925 0 0 0
2893 5 10.791 25.179 10.791 0 0 0
2895 5 8.9925 25.179 12.5895 0 0 0
2897 5 10.791 25.179 14.388 0 0 0
2898 5 10.791 26.9775 16.1865 0 0 0
2899 5 8.9925 25.179 16.1865 0 0 0
2903 5 8.9925 25.179 19.7835 0 0 0
2907 5 8.9925 25.179 23.3805 0 0 0
2925 5 10.791 28.776 3.597 0 0 0
2932 5 8.9925 30.5745 7.194 0 0 0
2937 5 10.791 28.776 14.388 0 0 0
2938 5 10.791 30.5745 16.1865 0 0 0
2942 5 10.791 30.5745 19.7835 0 0 0
2944 5 8.9925 30.5745 17.985 0 0 0
2945 5 10.791 28.776 21.582 0 0 0
2946 5 10.791 30.5745 23.3805 0 0 0
2947 5 8.9925 28.776 23.3805 0 0 0
2953 5 10.791 28.776 28.776 0 0 0
2958 5 10.791 30.5745 34.1715 0 0 0
2961 5 10.791 32.373 0.0 0 0 0
2967 5 8.9925 32.373 5.3955 0 0 0
2973 5 10.791 32.373 10.791 0 0 0
2974 5 10.791 34.1715 12.5895 0 0 0
2975 5 8.9925 32.373 12.5895 0 0 0
2979 5 8.9925 32.373 16.1865 0 0 0
2999 5 8.9925 32.373 34.1715 0 0 0
3015 5 5.3955 0.0 12.5895 0 0 0
3017 5 7.194 0.0 14.388 0 0 0
3019 5 5.3955 0.0 16.1865 0 0 0
3024 5 5.3955 1.7985 17.985 0 0 0
3025 5 7.194 0.0 21.582 0 0 0
3027 5 5.3955 0.0 23.3805 0 0 0
3030 5 7.194 1.7985 26.9775 0 0 0
3034 5 7.194 1.7985 30.5745 0 0 0
3044 5 5.3955 5.3955 0.0 0 0 0
3053 5 7.194 3.597 10.791 0 0 0
3056 5 5.3955 5.3955 10.791 0 0 0
3059 5 5.3955 3.597 16.1865 0 0 0
3061 5 7.194 3.597 17.985 0 0 0
3071 5 5.3955 3.597 26.9775 0 0 0
3073 5 7.194 3.597 28.776 0 0 0
3074 5 7.194 5.3955 30.5745 0 0 0
3086 5 7.194 8.9925 5.3955 0 0 0
3089 5 7.194 7.194 7.194 0 0 0
3100 5 5.3955 8.9925 14.388 0 0 0
3104 5 5.3955 8.9925 17.985 0 0 0
3109 5 7.194 7.194 25.179 0 0 0
3115 5 5.3955 7.194 30.5745 0 0 0
3116 5 5.3955 8.9925 28.776 0 0 0
3119 5 5.3955 7.194 34.1715 0 0 0
3121 5 7.194 10.791 0.0 0 0 0
3125 5 7.194 10.791 3.597 0 0 0
3126 5 7.194 12.5895 5.3955 0 0 0
3129 5 7.194 10.791 7.194 0 0 0
3132 5 5.3955 12.5895 7.194 0 0 0
3140 5 5.3955 12.5895 14.388 0 0 0
3148 5 5.3955 12.5895 21.582 0 0 0
3149 5 7.194 10.791 25.179 0 0 0
3152 5 5.3955 12.5895 25.179 0 0 0
3158 5 7.194 12.5895 34.1715 0 0 0
3159 5 5.3955 10.791 34.1715 0 0 0
3162 5 7.194 16.1865 1.7985 0 0 0
3163 5 5.3955 14.388 1.7985 0 0 0
3164 5 5.3955 16.1865 0.0 0 0 0
3168 5 5.3955 16.1865 3.597 0 0 0
3169 5 7.194 14.388 7.194 0 0 0
3175 5 5.3955 14.388 12.5895 0 0 0
3178 5 7.194 16.1865 16.1865 0 0 0
3179 5 5.3955 14.388 16.1865 0 0 0
3181 5 7.194 14.388 17.985 0 0 0
3183 5 5.3955 14.388 19.7835 0 0 0
3196 5 5.3955 16.1865 28.776 0 0 0
3197 5 7.194 14.388 32.373 0 0 0
3198 5 7.194 16.1865 34.1715 0 0 0
3200 5 5.3955 16.1865 32.373 0 0 0
3202 5 7.194 19.7835 1.7985 0 0 0
3204 5 5.3955 19.7835 0.0 0 0 0
3208 5 5.3955 19.7835 3.597 0 0 0
3214 5 7.194 19.7835 12.5895 0 0 0
3215 5 5.3955 17.985 12.5895 0 0 0
3220 5 5.3955 19.7835 14.388 0 0 0
3221 5 7.194 17.985 17.985 0 0 0
3233 5 7.194 17.985 28.776 0 0 0
3242 5 7.194 23.3805 1.7985 0 0 0
3244 5 5.3955 23.3805 0.0 0 0 0
3249 5 7.194 21.582 7.194 0 0 0
3250 5 7.194 23.3805 8.9925 0 0 0
3251 5 5.3955 21.582 8.9925 0 0 0
3260 5 5.3955 23.3805 14.388 0 0 0
3262 5 7.194 23.3805 19.7835 0 0 0
3265 5 7.194 21.582 21.582 0 0 0
3267 5 5.3955 21.582 23.3805 0 0 0
3273 5 7.194 21.582 28.776 0 0 0
3282 5 7.194 26.9775 1.7985 0 0 0
3285 5 7.194 25.179 3.597 0 0 0
3287 5 5.3955 25.179 5.3955 0 0 0
3292 5 5.3955 26.9775 7.194 0 0 0
3295 5 5.3955 25.179 12.5895 0 0 0
3301 5 7.194 25.179 17.985 0 0 0
3306 5 7.194 26.9775 23.3805 0 0 0
3314 5 7.194 26.9775 30.5745 0 0 0
3315 5 5.3955 25.179 30.5745 0 0 0
3316 5 5.3955 26.9775 28.776 0 0 0
3317 5 7.194 25.179 32.373 0 0 0
3319 5 5.3955 25.179 34.1715 0 0 0
3320 5 5.3955 26.9775 32.373 0 0 0
3329 5 7.194 28.776 7.194 0 0 0
3330 5 7.194 30.5745 8.9925 0 0 0
3335 5 5.3955 28.776 12.5895 0 0 0
3337 5 7.194 28.776 14.388 0 0 0
3338 5 7.194 30.5745 16.1865 0 0 0
3343 5 5.3955 28.776 19.7835 0 0 0
3346 5 7.194 30.5745 23.3805 0 0 0
3360 5 5.3955 30.5745 32.373 0 0 0
3361 5 7.194 32.373 0.0 0 0 0
3362 5 7.194 34.1715 1.7985 0 0 0
3365 5 7.194 32.373 3.597 0 0 0
3375 5 5.3955 32.373 12.5895 0 0 0
3379 5 5.3955 32.373 16.1865 0 0 0
3380 5 5.3955 34.1715 14.388 0 0 0
3382 5 7.194 34.1715 19.7835 0 0 0
3383 5 5.3955 32.373 19.7835 0 0 0
3386 5 7.194 34.1715 23.3805 0 0 0
3390 5 7.194 34.1715 26.9775 0 0 0
3402 5 3.597 1.7985 1.7985 0 0 0
3405 5 3.597 0.0 3.597 0 0 0
3406 5 3.597 1.7985 5.3955 0 0 0
3408 5 1.7985 1.7985 3.597 0 0 0
3413 5 3.597 0.0 10.791 0 0 0
3414 5 3.597 1.7985 12.5895 0 0 0
3415 5 1.7985 0.0 12.5895 0 0 0
3422 5 3.597 1.7985 19.7835 0 0 0
3423 5 1.7985 0.0 19.7835 0 0 0
3432 5 1.7985 1.7985 25.179 0 0 0
3433 5 3.597 0.0 28.776 0 0 0
3434 5 3.597 1.7985 30.5745 0 0 0
3435 5 1.7985 0.0 30.5745 0 0 0
3444 5 1.7985 5.3955 0.0 0 0 0
3445 5 3.597 3.597 3.597 0 0 0
3446 5 3.597 5.3955 5.3955 0 0 0
3449 5 3.597 3.597 7.194 0 0 0
3453 5 3.597 3.597 10.791 0 0 0
3455 5 1.7985 3.597 12.5895 0 0 0
3463 5 1.7985 3.597 19.7835 0 0 0
3464 5 1.7985 5.3955 17.985 0 0 0
3466 5 3.597 5.3955 23.3805 0 0 0
3469 5 3.597 3.597 25.179 0 0 0
3471 5 1.7985 3.597 26.9775 0 0 0
3473 5 3.597 3.597 28.776 0 0 0
3477 5 3.597 3.597 32.373 0 0 0
3478 5 3.597 5.3955 34.1715 0 0 0
3482 5 3.597 8.9925 1.7985 0 0 0
3483 5 1.7985 7.194 1.7985 0 0 0
3484 5 1.7985 8.9925 0.0 0 0 0
3488 5 1.7985 8.9925 3.597 0 0 0
3489 5 3.597 7.194 7.194 0 0 0
3491 5 1.7985 7.194 8.9925 0 0 0
3495 5 1.7985 7.194 12.5895 0 0 0
3496 5 1.7985 8.9925 10.791 0 0 0
3497 5 3.597 7.194 14.388 0 0 0
3500 5 1.7985 8.9925 14.388 0 0 0
3501 5 3.597 7.194 17.985 0 0 0
3508 5 1.7985 8.9925 21.582 0 0 0
3509 5 3.597 7.194 25.179 0 0 0
3510 5 3.597 8.9925 26.9775 0 0 0
3516 5 1.7985 8.9925 28.776 0 0 0
3519 5 1.7985 7.194 34.1715 0 0 0
3521 5 3.597 10.791 0.0 0 0 0
3522 5 3.597 12.5895 1.7985 0 0 0
3524 5 1.7985 12.5895 0.0 0 0 0
3525 5 3.597 10.791 3.597 0 0 0
3527 5 1.7985 10.791 5.3955 0 0 0
3529 5 3.597 10.791 7.194 0 0 0
3556 5 1.7985 12.5895 28.776 0 0 0
3557 5 3.597 10.791 32.373 0 0 0
3559 5 1.7985 10.791 34.1715 0 0 0
3560 5 1.7985 12.5895 32.373 0 0 0
3561 5 3.597 14.388 0.0 0 0 0
3565 5 3.597 14.388 3.597 0 0 0
3567 5 1.7985 14.388 5.3955 0 0 0
3569 5 3.597 14.388 7.194 0 0 0
3584 5 1.7985 16.1865 17.985 0 0 0
3585 5 3.597 14.388 21.582 0 0 0
3588 5 1.7985 16.1865 21.582 0 0 0
3589 5 3.597 14.388 25.179 0 0 0
3591 5 1.7985 14.388 26.9775 0 0 0
3594 5 3.597 16.1865 30.5745 0 0 0
3599 5 1.7985 14.388 34.1715 0 0 0
3604 5 1.7985 19.7835 0.0 0 0 0
3607 5 1.7985 17.985 5.3955 0 0 0
3609 5 3.597 17.985 7.194 0 0 0
3616 5 1.7985 19.7835 10.791 0 0 0
3618 5 3.597 19.7835 16.1865 0 0 0
3625 5 3.597 17.985 21.582 0 0 0
3635 5 1.7985 17.985 30.5745 0 0 0
3641 5 3.597 21.582 0.0 0 0 0
3644 5 1.7985 23.3805 0.0 0 0 0
3645 5 3.597 21.582 3.597 0 0 0
3651 5 1.7985 21.582 8.9925 0 0 0
3659 5 1.7985 21.582 16.1865 0 0 0
3662 5 3.597 23.3805 19.7835 0 0 0
3668 5 1.7985 23.3805 21.582 0 0 0
3672 5 1.7985 23.3805 25.179 0 0 0
3673 5 3.597 21.582 28.776 0 0 0
3675 5 1.7985 21.582 30.5745 0 0 0
3676 5 1.7985 23.3805 28.776 0 0 0
3682 5 3.597 26.9775 1.7985 0 0 0
3687 5 1.7985 25.179 5.3955 0 0 0
3688 5 1.7985 26.9775 3.597 0 0 0
3690 5 3.597 26.9775 8.9925 0 0 0
3695 5 1.7985 25.179 12.5895 0 0 0
3698 5 3.597 26.9775 16.1865 0 0 0
3700 5 1.7985 26.9775 14.388 0 0 0
3703 5 1.7985 25.179 19.7835 0 0 0
3707 5 1.7985 25.179 23.3805 0 0 0
3716 5 1.7985 26.9775 28.776 0 0 0
3718 5 3.597 26.9775 34.1715 0 0 0
3726 5 3.597 30.5745 5.3955 0 0 0
3727 5 1.7985 28.776 5.3955 0 0 0
3729 5 3.597 28.776 7.194 0 0 0
3733 5 3.597 28.776 10.791 0 0 0
3734 5 3.597 30.5745 12.5895 0 0 0
3737 5 3.597 28.776 14.388 0 0 0
3742 5 3.597 30.5745 19.7835 0 0 0
3744 5 1.7985 30.5745 17.985 0 0 0
3751 5 1.7985 28.776 26.9775 0 0 0
3752 5 1.7985 30.5745 25.179 0 0 0
3754 5 3.597 30.5745 30.5745 0 0 0
3755 5 1.7985 28.776 30.5745 0 0 0
3760 5 1.7985 30.5745 32.373 0 0 0
3761 5 3.597 32.373 0.0 0 0 0
3765 5 3.597 32.373 3.597 0 0 0
3766 5 3.597 34.1715 5.3955 0 0 0
3767 5 1.7985 32.373 5.3955 0 0 0
3786 5 3.597 34.1715 23.3805 0 0 0
3791 5 1.7985 32.373 26.9775 0 0 0
3794 5 3.597 34.1715 30.5745 0 0 0
3795 5 1.7985 32.373 30.5745 0 0 0
3801 5 0.0 0.0 0.0 0 0 0
3802 5 0.0 1.7985 1.7985 0 0 0
3814 5 0.0 1.7985 23.3805 0 0 0
3815 5 0.0 0.0 25.179 0 0 0
3816 5 0.0 1.7985 26.9775 0 0 0
3820 5 0.0 1.7985 34.1715 0 0 0
3822 5 0.0 5.3955 1.7985 0 0 0
3829 5 0.0 3.597 14.388 0 0 0
3831 5 0.0 3.597 17.985 0 0 0
3834 5 0.0 5.3955 23.3805 0 0 0
3836 5 0.0 5.3955 26.9775 0 0 0
3848 5 0.0 8.9925 12.5895 0 0 0
3850 5 0.0 8.9925 16.1865 0 0 0
3852 5 0.0 8.9925 19.7835 0 0 0
3857 5 0.0 7.194 28.776 0 0 0
3863 5 0.0 10.791 3.597 0 0 0
3872 5 0.0 12.5895 19.7835 0 0 0
3876 5 0.0 12.5895 26.9775 0 0 0
3894 5 0.0 16.1865 23.3805 0 0 0
3895 5 0.0 14.388 25.179 0 0 0
3896 5 0.0 16.1865 26.9775 0 0 0
3897 5 0.0 14.388 28.776 0 0 0
3898 5 0.0 16.1865 30.5745 0 0 0
3899 5 0.0 14.388 32.373 0 0 0
3902 5 0.0 19.7835 1.7985 0 0 0
3905 5 0.0 17.985 7.194 0 0 0
3906 5 0.0 19.7835 8.9925 0 0 0
3908 5 0.0 19.7835 12.5895 0 0 0
3913 5 0.0 17.985 21.582 0 0 0
3914 5 0.0 19.7835 23.3805 0 0 0
3916 5 0.0 19.7835 26.9775 0 0 0
3924 5 0.0 23.3805 5.3955 0 0 0
3925 5 0.0 21.582 7.194 0 0 0
3932 5 0.0 23.3805 19.7835 0 0 0
3935 5 0.0 21.582 25.179 0 0 0
3939 5 0.0 21.582 32.373 0 0 0
3942 5 0.0 26.9775 1.7985 0 0 0
3943 5 0.0 25.179 3.597 0 0 0
3950 5 0.0 26.9775 16.1865 0 0 0
3961 5 0.0 28.776 0.0 0 0 0
3962 5 0.0 30.5745 1.7985 0 0 0
3965 5 0.0 28.776 7.194 0 0 0
3967 5 0.0 28.776 10.791 0 0 0
3971 5 0.0 28.776 17.985 0 0 0
3979 5 0.0 28.776 32.373 0 0 0
3980 5 0.0 30.5745 34.1715 0 0 0
3981 5 0.0 32.373 0.0 0 0 0
3984 5 0.0 34.1715 5.3955 0 0 0
3993 5 0.0 32.373 21.582 0 0 0
3994 5 0.0 34.1715 23.3805 0 0 0
3996 5 0.0 34.1715 26.9775 0 0 0
