LAMMPS data file via write_data version 30 Jul 2021 timestep = 0
4000 atoms
5 atom types
0 35.97 xlo xhi
0 35.97 ylo yhi
0 35.97 zlo zhi
0.0 0.0 0.0 xy xz yz
 
Masses
 
1 1.0
2 2.0
3 3.0
4 4.0
5 5.0
 
Atoms  # atomic
 
522 1 32.373 30.5745 1.7985 0 0 0
195 1 34.1715 32.373 26.9775 0 0 0
89 1 34.1715 14.388 16.1865 0 0 0
1661 1 21.582 21.582 17.985 0 0 0
3624 1 1.7985 19.7835 17.985 0 0 0
564 1 30.5745 34.1715 0.0 0 0 0
3676 1 1.7985 23.3805 28.776 0 0 0
483 1 30.5745 25.179 1.7985 0 0 0
1186 1 25.179 16.1865 23.3805 0 0 0
665 1 28.776 3.597 21.582 0 0 0
3205 1 7.194 17.985 3.597 0 0 0
912 1 26.9775 26.9775 25.179 0 0 0
1019 1 23.3805 0.0 16.1865 0 0 0
3681 1 3.597 25.179 0.0 0 0 0
3892 1 0.0 16.1865 19.7835 0 0 0
1961 1 17.985 14.388 0.0 0 0 0
2758 1 10.791 12.5895 34.1715 0 0 0
25 1 34.1715 3.597 8.9925 0 0 0
619 1 26.9775 0.0 16.1865 0 0 0
1512 1 19.7835 8.9925 25.179 0 0 0
251 1 30.5745 3.597 8.9925 0 0 0
1562 1 21.582 16.1865 1.7985 0 0 0
1683 1 19.7835 25.179 1.7985 0 0 0
3080 1 5.3955 5.3955 32.373 0 0 0
1158 1 25.179 12.5895 34.1715 0 0 0
2953 1 10.791 28.776 28.776 0 0 0
3844 1 0.0 8.9925 5.3955 0 0 0
30 1 34.1715 5.3955 14.388 0 0 0
3628 1 1.7985 19.7835 21.582 0 0 0
2766 1 10.791 16.1865 5.3955 0 0 0
970 1 28.776 34.1715 8.9925 0 0 0
1990 1 17.985 16.1865 26.9775 0 0 0
874 1 28.776 23.3805 30.5745 0 0 0
2426 1 14.388 19.7835 23.3805 0 0 0
1477 1 21.582 3.597 32.373 0 0 0
3190 1 7.194 16.1865 26.9775 0 0 0
2608 1 8.9925 1.7985 3.597 0 0 0
3597 1 3.597 14.388 32.373 0 0 0
765 1 28.776 14.388 3.597 0 0 0
2387 1 12.5895 14.388 23.3805 0 0 0
630 1 28.776 1.7985 26.9775 0 0 0
1413 1 21.582 0.0 10.791 0 0 0
3547 1 1.7985 10.791 23.3805 0 0 0
3373 1 7.194 32.373 10.791 0 0 0
3660 1 1.7985 23.3805 14.388 0 0 0
2328 1 12.5895 12.5895 3.597 0 0 0
2032 1 16.1865 19.7835 25.179 0 0 0
302 1 32.373 8.9925 19.7835 0 0 0
1962 1 17.985 16.1865 1.7985 0 0 0
3370 1 7.194 34.1715 8.9925 0 0 0
2199 1 16.1865 32.373 34.1715 0 0 0
1346 1 25.179 30.5745 23.3805 0 0 0
3108 1 5.3955 8.9925 21.582 0 0 0
2349 1 14.388 10.791 25.179 0 0 0
3607 1 1.7985 17.985 5.3955 0 0 0
2504 1 12.5895 26.9775 17.985 0 0 0
3587 1 1.7985 14.388 23.3805 0 0 0
2643 1 8.9925 3.597 1.7985 0 0 0
3893 1 0.0 14.388 21.582 0 0 0
90 1 34.1715 16.1865 14.388 0 0 0
3183 1 5.3955 14.388 19.7835 0 0 0
2660 1 8.9925 5.3955 14.388 0 0 0
2746 1 10.791 12.5895 23.3805 0 0 0
3377 1 7.194 32.373 14.388 0 0 0
1769 1 21.582 32.373 7.194 0 0 0
1919 1 16.1865 7.194 34.1715 0 0 0
2995 1 8.9925 32.373 30.5745 0 0 0
1560 1 19.7835 12.5895 32.373 0 0 0
3974 1 0.0 30.5745 23.3805 0 0 0
960 1 26.9775 30.5745 32.373 0 0 0
3125 1 7.194 10.791 3.597 0 0 0
3966 1 0.0 30.5745 8.9925 0 0 0
2894 1 10.791 26.9775 12.5895 0 0 0
3035 1 5.3955 0.0 30.5745 0 0 0
1146 1 25.179 12.5895 23.3805 0 0 0
2495 1 12.5895 25.179 12.5895 0 0 0
308 1 30.5745 8.9925 21.582 0 0 0
1334 1 25.179 30.5745 12.5895 0 0 0
425 1 32.373 17.985 21.582 0 0 0
2177 1 17.985 32.373 14.388 0 0 0
454 1 32.373 23.3805 12.5895 0 0 0
537 1 32.373 28.776 14.388 0 0 0
1813 1 17.985 0.0 10.791 0 0 0
3218 1 7.194 19.7835 16.1865 0 0 0
1421 1 21.582 0.0 17.985 0 0 0
1147 1 23.3805 10.791 23.3805 0 0 0
3463 1 1.7985 3.597 19.7835 0 0 0
1428 1 19.7835 1.7985 21.582 0 0 0
1697 1 21.582 25.179 14.388 0 0 0
2513 1 14.388 25.179 28.776 0 0 0
34 1 34.1715 5.3955 21.582 0 0 0
351 1 30.5745 10.791 26.9775 0 0 0
3877 1 0.0 10.791 28.776 0 0 0
3019 1 5.3955 0.0 16.1865 0 0 0
1541 1 21.582 10.791 17.985 0 0 0
2987 1 8.9925 32.373 23.3805 0 0 0
464 1 30.5745 23.3805 17.985 0 0 0
1081 1 25.179 7.194 0.0 0 0 0
1859 1 16.1865 3.597 16.1865 0 0 0
14 1 34.1715 1.7985 21.582 0 0 0
3508 1 1.7985 8.9925 21.582 0 0 0
3631 1 1.7985 17.985 26.9775 0 0 0
1107 1 23.3805 7.194 23.3805 0 0 0
997 1 28.776 32.373 32.373 0 0 0
2346 1 14.388 12.5895 23.3805 0 0 0
1685 1 21.582 25.179 3.597 0 0 0
1043 1 23.3805 3.597 1.7985 0 0 0
921 1 28.776 28.776 0.0 0 0 0
1088 1 23.3805 8.9925 3.597 0 0 0
907 1 26.9775 25.179 23.3805 0 0 0
3775 1 1.7985 32.373 12.5895 0 0 0
86 1 34.1715 16.1865 7.194 0 0 0
110 1 34.1715 19.7835 14.388 0 0 0
46 1 34.1715 8.9925 7.194 0 0 0
3793 1 3.597 32.373 28.776 0 0 0
590 1 32.373 34.1715 26.9775 0 0 0
822 1 28.776 19.7835 19.7835 0 0 0
3343 1 5.3955 28.776 19.7835 0 0 0
2860 1 8.9925 23.3805 14.388 0 0 0
2453 1 14.388 21.582 10.791 0 0 0
1776 1 19.7835 34.1715 10.791 0 0 0
2000 1 16.1865 16.1865 32.373 0 0 0
745 1 28.776 10.791 21.582 0 0 0
1342 1 25.179 30.5745 19.7835 0 0 0
317 1 32.373 7.194 32.373 0 0 0
1336 1 23.3805 30.5745 10.791 0 0 0
1103 1 23.3805 7.194 19.7835 0 0 0
318 1 32.373 8.9925 34.1715 0 0 0
2666 1 10.791 5.3955 23.3805 0 0 0
749 1 28.776 10.791 25.179 0 0 0
1886 1 17.985 8.9925 5.3955 0 0 0
1924 1 16.1865 12.5895 0.0 0 0 0
404 1 30.5745 19.7835 0.0 0 0 0
2936 1 8.9925 30.5745 10.791 0 0 0
3419 1 1.7985 0.0 16.1865 0 0 0
3050 1 7.194 5.3955 8.9925 0 0 0
1999 1 16.1865 14.388 34.1715 0 0 0
1810 1 17.985 1.7985 8.9925 0 0 0
3951 1 0.0 25.179 17.985 0 0 0
2291 1 12.5895 7.194 8.9925 0 0 0
1423 1 19.7835 0.0 19.7835 0 0 0
2536 1 12.5895 30.5745 10.791 0 0 0
3713 1 3.597 25.179 28.776 0 0 0
3245 1 7.194 21.582 3.597 0 0 0
3227 1 5.3955 17.985 23.3805 0 0 0
410 1 32.373 19.7835 8.9925 0 0 0
681 1 28.776 7.194 0.0 0 0 0
3992 1 0.0 34.1715 19.7835 0 0 0
1126 1 25.179 12.5895 5.3955 0 0 0
1689 1 21.582 25.179 7.194 0 0 0
1822 1 17.985 1.7985 19.7835 0 0 0
2384 1 12.5895 16.1865 17.985 0 0 0
3861 1 0.0 10.791 0.0 0 0 0
3682 1 3.597 26.9775 1.7985 0 0 0
1615 1 19.7835 17.985 12.5895 0 0 0
92 1 34.1715 16.1865 17.985 0 0 0
1177 1 25.179 14.388 14.388 0 0 0
1673 1 21.582 21.582 28.776 0 0 0
2099 1 16.1865 25.179 16.1865 0 0 0
1152 1 23.3805 12.5895 25.179 0 0 0
892 1 26.9775 26.9775 7.194 0 0 0
3247 1 5.3955 21.582 5.3955 0 0 0
1877 1 17.985 3.597 32.373 0 0 0
2011 1 16.1865 17.985 8.9925 0 0 0
1658 1 21.582 23.3805 16.1865 0 0 0
2845 1 10.791 21.582 3.597 0 0 0
3067 1 5.3955 3.597 23.3805 0 0 0
1154 1 25.179 12.5895 30.5745 0 0 0
132 1 34.1715 23.3805 17.985 0 0 0
2965 1 10.791 32.373 3.597 0 0 0
1157 1 25.179 10.791 32.373 0 0 0
2942 1 10.791 30.5745 19.7835 0 0 0
2207 1 12.5895 0.0 5.3955 0 0 0
957 1 28.776 28.776 32.373 0 0 0
3582 1 3.597 16.1865 19.7835 0 0 0
839 1 26.9775 17.985 34.1715 0 0 0
403 1 30.5745 17.985 1.7985 0 0 0
2627 1 8.9925 0.0 23.3805 0 0 0
2802 1 10.791 19.7835 1.7985 0 0 0
83 1 34.1715 14.388 5.3955 0 0 0
1494 1 21.582 8.9925 12.5895 0 0 0
2121 1 17.985 28.776 0.0 0 0 0
2707 1 8.9925 7.194 23.3805 0 0 0
2795 1 8.9925 14.388 30.5745 0 0 0
2532 1 12.5895 30.5745 7.194 0 0 0
130 1 34.1715 23.3805 14.388 0 0 0
998 1 28.776 34.1715 34.1715 0 0 0
3457 1 3.597 3.597 14.388 0 0 0
2559 1 12.5895 28.776 34.1715 0 0 0
2716 1 8.9925 8.9925 28.776 0 0 0
828 1 26.9775 19.7835 21.582 0 0 0
2457 1 14.388 21.582 14.388 0 0 0
2694 1 10.791 8.9925 12.5895 0 0 0
903 1 26.9775 25.179 19.7835 0 0 0
1722 1 21.582 30.5745 1.7985 0 0 0
60 1 34.1715 8.9925 32.373 0 0 0
309 1 32.373 7.194 25.179 0 0 0
2603 1 8.9925 0.0 1.7985 0 0 0
3854 1 0.0 8.9925 23.3805 0 0 0
1149 1 25.179 10.791 25.179 0 0 0
444 1 30.5745 23.3805 0.0 0 0 0
2361 1 14.388 14.388 0.0 0 0 0
3986 1 0.0 34.1715 8.9925 0 0 0
2315 1 12.5895 7.194 30.5745 0 0 0
1193 1 25.179 14.388 28.776 0 0 0
2866 1 10.791 23.3805 23.3805 0 0 0
1734 1 21.582 30.5745 12.5895 0 0 0
2873 1 10.791 21.582 28.776 0 0 0
40 1 34.1715 5.3955 32.373 0 0 0
3131 1 5.3955 10.791 8.9925 0 0 0
889 1 28.776 25.179 7.194 0 0 0
3045 1 7.194 3.597 3.597 0 0 0
774 1 28.776 16.1865 12.5895 0 0 0
3732 1 1.7985 30.5745 7.194 0 0 0
494 1 32.373 26.9775 12.5895 0 0 0
2821 1 10.791 17.985 17.985 0 0 0
3213 1 7.194 17.985 10.791 0 0 0
1311 1 23.3805 25.179 26.9775 0 0 0
728 1 26.9775 12.5895 3.597 0 0 0
3539 1 1.7985 10.791 16.1865 0 0 0
2084 1 16.1865 26.9775 0.0 0 0 0
545 1 32.373 28.776 21.582 0 0 0
1640 1 19.7835 19.7835 32.373 0 0 0
2063 1 16.1865 21.582 19.7835 0 0 0
3525 1 3.597 10.791 3.597 0 0 0
2286 1 14.388 8.9925 5.3955 0 0 0
3429 1 3.597 0.0 25.179 0 0 0
2664 1 8.9925 5.3955 17.985 0 0 0
13 1 34.1715 0.0 23.3805 0 0 0
2270 1 14.388 5.3955 26.9775 0 0 0
418 1 32.373 19.7835 16.1865 0 0 0
702 1 28.776 8.9925 19.7835 0 0 0
3222 1 7.194 19.7835 19.7835 0 0 0
2216 1 12.5895 1.7985 10.791 0 0 0
1496 1 19.7835 8.9925 10.791 0 0 0
641 1 28.776 3.597 0.0 0 0 0
3653 1 3.597 21.582 10.791 0 0 0
1655 1 19.7835 21.582 12.5895 0 0 0
594 1 32.373 34.1715 30.5745 0 0 0
3611 1 1.7985 17.985 8.9925 0 0 0
2722 1 10.791 12.5895 1.7985 0 0 0
744 1 26.9775 12.5895 17.985 0 0 0
1941 1 17.985 10.791 17.985 0 0 0
442 1 32.373 23.3805 1.7985 0 0 0
2002 1 17.985 19.7835 1.7985 0 0 0
366 1 32.373 16.1865 5.3955 0 0 0
2013 1 17.985 17.985 10.791 0 0 0
3394 1 7.194 34.1715 30.5745 0 0 0
3869 1 0.0 10.791 14.388 0 0 0
2175 1 16.1865 32.373 12.5895 0 0 0
2651 1 8.9925 3.597 8.9925 0 0 0
1513 1 21.582 7.194 28.776 0 0 0
659 1 26.9775 3.597 16.1865 0 0 0
3458 1 3.597 5.3955 16.1865 0 0 0
770 1 28.776 16.1865 8.9925 0 0 0
3944 1 0.0 26.9775 5.3955 0 0 0
114 1 34.1715 19.7835 21.582 0 0 0
1600 1 19.7835 16.1865 32.373 0 0 0
3806 1 0.0 1.7985 8.9925 0 0 0
1062 1 25.179 5.3955 19.7835 0 0 0
1377 1 25.179 32.373 14.388 0 0 0
1108 1 23.3805 8.9925 21.582 0 0 0
2857 1 10.791 21.582 14.388 0 0 0
1583 1 19.7835 14.388 19.7835 0 0 0
3443 1 1.7985 3.597 1.7985 0 0 0
753 1 28.776 10.791 28.776 0 0 0
1839 1 16.1865 0.0 34.1715 0 0 0
3476 1 1.7985 5.3955 28.776 0 0 0
3156 1 5.3955 12.5895 28.776 0 0 0
1302 1 25.179 26.9775 19.7835 0 0 0
2292 1 12.5895 8.9925 7.194 0 0 0
2840 1 8.9925 19.7835 32.373 0 0 0
2777 1 10.791 14.388 14.388 0 0 0
3560 1 1.7985 12.5895 32.373 0 0 0
1970 1 17.985 16.1865 8.9925 0 0 0
3398 1 7.194 34.1715 34.1715 0 0 0
1017 1 25.179 0.0 14.388 0 0 0
1390 1 25.179 34.1715 26.9775 0 0 0
22 1 34.1715 5.3955 0.0 0 0 0
2575 1 12.5895 32.373 12.5895 0 0 0
1787 1 19.7835 32.373 23.3805 0 0 0
1967 1 16.1865 14.388 5.3955 0 0 0
3870 1 0.0 12.5895 16.1865 0 0 0
1756 1 19.7835 30.5745 28.776 0 0 0
1953 1 17.985 10.791 28.776 0 0 0
2677 1 10.791 3.597 32.373 0 0 0
2500 1 12.5895 26.9775 14.388 0 0 0
1757 1 21.582 28.776 32.373 0 0 0
1011 1 23.3805 0.0 8.9925 0 0 0
57 1 34.1715 7.194 30.5745 0 0 0
15 1 34.1715 0.0 26.9775 0 0 0
2115 1 16.1865 25.179 30.5745 0 0 0
280 1 30.5745 5.3955 32.373 0 0 0
3648 1 1.7985 23.3805 3.597 0 0 0
239 1 30.5745 0.0 34.1715 0 0 0
2893 1 10.791 25.179 10.791 0 0 0
2849 1 10.791 21.582 7.194 0 0 0
3319 1 5.3955 25.179 34.1715 0 0 0
1792 1 19.7835 34.1715 25.179 0 0 0
1537 1 21.582 10.791 14.388 0 0 0
2145 1 17.985 28.776 21.582 0 0 0
2787 1 8.9925 14.388 23.3805 0 0 0
3599 1 1.7985 14.388 34.1715 0 0 0
530 1 32.373 30.5745 8.9925 0 0 0
2967 1 8.9925 32.373 5.3955 0 0 0
1332 1 23.3805 30.5745 7.194 0 0 0
2401 1 14.388 17.985 0.0 0 0 0
2245 1 14.388 3.597 3.597 0 0 0
1276 1 23.3805 23.3805 28.776 0 0 0
3586 1 3.597 16.1865 23.3805 0 0 0
820 1 26.9775 19.7835 14.388 0 0 0
222 1 32.373 1.7985 19.7835 0 0 0
991 1 26.9775 32.373 26.9775 0 0 0
2298 1 14.388 8.9925 16.1865 0 0 0
2862 1 10.791 23.3805 19.7835 0 0 0
2744 1 8.9925 12.5895 17.985 0 0 0
1288 1 23.3805 26.9775 3.597 0 0 0
3306 1 7.194 26.9775 23.3805 0 0 0
3633 1 3.597 17.985 28.776 0 0 0
1997 1 17.985 14.388 32.373 0 0 0
2176 1 16.1865 34.1715 10.791 0 0 0
2634 1 10.791 1.7985 30.5745 0 0 0
1380 1 23.3805 34.1715 14.388 0 0 0
538 1 32.373 30.5745 16.1865 0 0 0
1702 1 21.582 26.9775 19.7835 0 0 0
1545 1 21.582 10.791 21.582 0 0 0
3603 1 1.7985 17.985 1.7985 0 0 0
2174 1 17.985 34.1715 12.5895 0 0 0
342 1 32.373 12.5895 19.7835 0 0 0
1162 1 25.179 16.1865 1.7985 0 0 0
1887 1 16.1865 7.194 5.3955 0 0 0
3376 1 5.3955 34.1715 10.791 0 0 0
783 1 26.9775 14.388 19.7835 0 0 0
3836 1 0.0 5.3955 26.9775 0 0 0
332 1 30.5745 12.5895 7.194 0 0 0
199 1 34.1715 32.373 34.1715 0 0 0
3765 1 3.597 32.373 3.597 0 0 0
3057 1 7.194 3.597 14.388 0 0 0
1408 1 19.7835 1.7985 3.597 0 0 0
1369 1 25.179 32.373 7.194 0 0 0
984 1 26.9775 34.1715 17.985 0 0 0
388 1 30.5745 16.1865 21.582 0 0 0
1730 1 21.582 30.5745 8.9925 0 0 0
1812 1 16.1865 1.7985 7.194 0 0 0
2263 1 12.5895 3.597 19.7835 0 0 0
2695 1 8.9925 7.194 12.5895 0 0 0
3828 1 0.0 5.3955 12.5895 0 0 0
2561 1 14.388 32.373 0.0 0 0 0
669 1 28.776 3.597 25.179 0 0 0
987 1 26.9775 32.373 23.3805 0 0 0
3840 1 0.0 5.3955 34.1715 0 0 0
3203 1 5.3955 17.985 1.7985 0 0 0
437 1 32.373 17.985 32.373 0 0 0
3392 1 5.3955 34.1715 25.179 0 0 0
1459 1 19.7835 3.597 16.1865 0 0 0
3032 1 5.3955 1.7985 25.179 0 0 0
2839 1 8.9925 17.985 34.1715 0 0 0
1644 1 19.7835 23.3805 0.0 0 0 0
2422 1 14.388 19.7835 19.7835 0 0 0
3685 1 3.597 25.179 3.597 0 0 0
3590 1 3.597 16.1865 26.9775 0 0 0
1851 1 16.1865 3.597 8.9925 0 0 0
213 1 32.373 0.0 10.791 0 0 0
3766 1 3.597 34.1715 5.3955 0 0 0
3026 1 7.194 1.7985 23.3805 0 0 0
3651 1 1.7985 21.582 8.9925 0 0 0
896 1 26.9775 26.9775 10.791 0 0 0
283 1 30.5745 7.194 1.7985 0 0 0
248 1 30.5745 5.3955 3.597 0 0 0
188 1 34.1715 34.1715 10.791 0 0 0
2947 1 8.9925 28.776 23.3805 0 0 0
2979 1 8.9925 32.373 16.1865 0 0 0
1897 1 17.985 7.194 14.388 0 0 0
703 1 26.9775 7.194 19.7835 0 0 0
2229 1 14.388 0.0 25.179 0 0 0
155 1 34.1715 25.179 26.9775 0 0 0
1515 1 19.7835 7.194 30.5745 0 0 0
1170 1 25.179 16.1865 8.9925 0 0 0
3906 1 0.0 19.7835 8.9925 0 0 0
1653 1 21.582 21.582 10.791 0 0 0
2728 1 8.9925 12.5895 3.597 0 0 0
1333 1 25.179 28.776 10.791 0 0 0
3435 1 1.7985 0.0 30.5745 0 0 0
1771 1 19.7835 32.373 8.9925 0 0 0
3397 1 7.194 32.373 32.373 0 0 0
3895 1 0.0 14.388 25.179 0 0 0
893 1 28.776 25.179 10.791 0 0 0
3881 1 0.0 14.388 0.0 0 0 0
3929 1 0.0 21.582 14.388 0 0 0
1128 1 23.3805 12.5895 3.597 0 0 0
2760 1 8.9925 12.5895 32.373 0 0 0
516 1 30.5745 26.9775 28.776 0 0 0
541 1 32.373 28.776 17.985 0 0 0
1121 1 25.179 10.791 0.0 0 0 0
1331 1 23.3805 28.776 8.9925 0 0 0
1084 1 23.3805 8.9925 0.0 0 0 0
1986 1 17.985 16.1865 23.3805 0 0 0
3147 1 5.3955 10.791 23.3805 0 0 0
2940 1 8.9925 30.5745 14.388 0 0 0
294 1 32.373 8.9925 12.5895 0 0 0
3299 1 5.3955 25.179 16.1865 0 0 0
2419 2 12.5895 17.985 16.1865 0 0 0
2405 2 14.388 17.985 3.597 0 0 0
2154 2 17.985 30.5745 30.5745 0 0 0
3945 2 0.0 25.179 7.194 0 0 0
844 2 26.9775 23.3805 0.0 0 0 0
2811 2 8.9925 17.985 8.9925 0 0 0
944 2 26.9775 30.5745 17.985 0 0 0
1874 2 17.985 5.3955 30.5745 0 0 0
2135 2 16.1865 28.776 12.5895 0 0 0
203 2 30.5745 0.0 1.7985 0 0 0
462 2 32.373 23.3805 19.7835 0 0 0
2619 2 8.9925 0.0 16.1865 0 0 0
972 2 26.9775 34.1715 7.194 0 0 0
3325 2 7.194 28.776 3.597 0 0 0
2070 2 17.985 23.3805 26.9775 0 0 0
3240 2 5.3955 19.7835 32.373 0 0 0
1849 2 17.985 3.597 7.194 0 0 0
2903 2 8.9925 25.179 19.7835 0 0 0
3384 2 5.3955 34.1715 17.985 0 0 0
2400 2 12.5895 16.1865 32.373 0 0 0
3337 2 7.194 28.776 14.388 0 0 0
2793 2 10.791 14.388 28.776 0 0 0
2665 2 10.791 3.597 21.582 0 0 0
3173 2 7.194 14.388 10.791 0 0 0
2955 2 8.9925 28.776 30.5745 0 0 0
2257 2 14.388 3.597 14.388 0 0 0
2551 2 12.5895 28.776 26.9775 0 0 0
758 2 28.776 12.5895 34.1715 0 0 0
1376 2 23.3805 34.1715 10.791 0 0 0
976 2 26.9775 34.1715 10.791 0 0 0
7 2 34.1715 0.0 12.5895 0 0 0
964 2 26.9775 34.1715 0.0 0 0 0
2356 2 12.5895 12.5895 28.776 0 0 0
9 2 34.1715 0.0 16.1865 0 0 0
3857 2 0.0 7.194 28.776 0 0 0
3432 2 1.7985 1.7985 25.179 0 0 0
2450 2 14.388 23.3805 8.9925 0 0 0
727 2 26.9775 10.791 5.3955 0 0 0
2333 2 14.388 10.791 10.791 0 0 0
3482 2 3.597 8.9925 1.7985 0 0 0
2122 2 17.985 30.5745 1.7985 0 0 0
2786 2 10.791 16.1865 23.3805 0 0 0
2864 2 8.9925 23.3805 17.985 0 0 0
2599 2 12.5895 32.373 34.1715 0 0 0
3051 2 5.3955 3.597 8.9925 0 0 0
1268 2 23.3805 23.3805 21.582 0 0 0
1328 2 23.3805 30.5745 3.597 0 0 0
2320 2 12.5895 8.9925 32.373 0 0 0
3911 2 0.0 17.985 17.985 0 0 0
2354 2 14.388 12.5895 30.5745 0 0 0
2983 2 8.9925 32.373 19.7835 0 0 0
2178 2 17.985 34.1715 16.1865 0 0 0
3207 2 5.3955 17.985 5.3955 0 0 0
2251 2 12.5895 3.597 8.9925 0 0 0
3437 2 3.597 0.0 32.373 0 0 0
2922 2 10.791 30.5745 1.7985 0 0 0
1754 2 21.582 30.5745 30.5745 0 0 0
968 2 26.9775 34.1715 3.597 0 0 0
3116 2 5.3955 8.9925 28.776 0 0 0
3124 2 5.3955 12.5895 0.0 0 0 0
2133 2 17.985 28.776 10.791 0 0 0
2602 2 10.791 1.7985 1.7985 0 0 0
584 2 30.5745 34.1715 17.985 0 0 0
1283 2 23.3805 25.179 1.7985 0 0 0
2404 2 12.5895 19.7835 0.0 0 0 0
2594 2 14.388 34.1715 30.5745 0 0 0
3677 2 3.597 21.582 32.373 0 0 0
56 2 34.1715 8.9925 25.179 0 0 0
3553 2 3.597 10.791 28.776 0 0 0
2421 2 14.388 17.985 17.985 0 0 0
3470 2 3.597 5.3955 26.9775 0 0 0
1829 2 17.985 0.0 25.179 0 0 0
924 2 26.9775 30.5745 0.0 0 0 0
2025 2 17.985 17.985 21.582 0 0 0
167 2 34.1715 28.776 12.5895 0 0 0
3519 2 1.7985 7.194 34.1715 0 0 0
3771 2 1.7985 32.373 8.9925 0 0 0
264 2 30.5745 5.3955 17.985 0 0 0
312 2 30.5745 8.9925 25.179 0 0 0
165 2 34.1715 28.776 8.9925 0 0 0
525 2 32.373 28.776 3.597 0 0 0
1596 2 19.7835 16.1865 28.776 0 0 0
726 2 28.776 12.5895 5.3955 0 0 0
2161 2 17.985 32.373 0.0 0 0 0
788 2 26.9775 16.1865 21.582 0 0 0
2557 2 14.388 28.776 32.373 0 0 0
3040 2 5.3955 1.7985 32.373 0 0 0
3047 2 5.3955 3.597 5.3955 0 0 0
1712 2 19.7835 26.9775 25.179 0 0 0
2573 2 14.388 32.373 10.791 0 0 0
396 2 30.5745 16.1865 28.776 0 0 0
1811 2 16.1865 0.0 8.9925 0 0 0
2456 2 12.5895 23.3805 10.791 0 0 0
951 2 26.9775 28.776 26.9775 0 0 0
2626 2 10.791 1.7985 23.3805 0 0 0
3621 2 3.597 17.985 17.985 0 0 0
3223 2 5.3955 17.985 19.7835 0 0 0
636 2 26.9775 1.7985 28.776 0 0 0
880 2 26.9775 23.3805 32.373 0 0 0
3170 2 7.194 16.1865 8.9925 0 0 0
2149 2 17.985 28.776 25.179 0 0 0
2100 2 16.1865 26.9775 14.388 0 0 0
3069 2 7.194 3.597 25.179 0 0 0
570 2 32.373 34.1715 8.9925 0 0 0
463 2 30.5745 21.582 19.7835 0 0 0
2007 2 16.1865 17.985 5.3955 0 0 0
3731 2 1.7985 28.776 8.9925 0 0 0
2697 2 10.791 7.194 14.388 0 0 0
1161 2 25.179 14.388 0.0 0 0 0
2018 2 17.985 19.7835 16.1865 0 0 0
935 2 26.9775 28.776 12.5895 0 0 0
3326 2 7.194 30.5745 5.3955 0 0 0
1879 2 16.1865 3.597 34.1715 0 0 0
1025 2 25.179 0.0 21.582 0 0 0
1601 2 21.582 17.985 0.0 0 0 0
216 2 30.5745 1.7985 10.791 0 0 0
860 2 26.9775 23.3805 14.388 0 0 0
3215 2 5.3955 17.985 12.5895 0 0 0
185 2 34.1715 32.373 8.9925 0 0 0
2688 2 8.9925 8.9925 3.597 0 0 0
1257 2 25.179 21.582 14.388 0 0 0
1748 2 19.7835 30.5745 21.582 0 0 0
1966 2 17.985 16.1865 5.3955 0 0 0
1312 2 23.3805 26.9775 25.179 0 0 0
2911 2 8.9925 25.179 26.9775 0 0 0
3099 2 5.3955 7.194 16.1865 0 0 0
3001 2 7.194 0.0 0.0 0 0 0
3313 2 7.194 25.179 28.776 0 0 0
2886 2 10.791 26.9775 5.3955 0 0 0
271 2 30.5745 3.597 26.9775 0 0 0
1198 2 25.179 16.1865 34.1715 0 0 0
3737 2 3.597 28.776 14.388 0 0 0
1097 2 25.179 7.194 14.388 0 0 0
3484 2 1.7985 8.9925 0.0 0 0 0
1218 2 25.179 19.7835 16.1865 0 0 0
3024 2 5.3955 1.7985 17.985 0 0 0
1227 2 23.3805 17.985 23.3805 0 0 0
3979 2 0.0 28.776 32.373 0 0 0
1580 2 19.7835 16.1865 14.388 0 0 0
205 2 32.373 0.0 3.597 0 0 0
3632 2 1.7985 19.7835 25.179 0 0 0
3794 2 3.597 34.1715 30.5745 0 0 0
1130 2 25.179 12.5895 8.9925 0 0 0
3679 2 1.7985 21.582 34.1715 0 0 0
3526 2 3.597 12.5895 5.3955 0 0 0
3886 2 0.0 16.1865 8.9925 0 0 0
3503 2 1.7985 7.194 19.7835 0 0 0
2337 2 14.388 10.791 14.388 0 0 0
320 2 30.5745 8.9925 32.373 0 0 0
2696 2 8.9925 8.9925 10.791 0 0 0
3288 2 5.3955 26.9775 3.597 0 0 0
2691 2 8.9925 7.194 8.9925 0 0 0
1694 2 21.582 26.9775 12.5895 0 0 0
3423 2 1.7985 0.0 19.7835 0 0 0
2869 2 10.791 21.582 25.179 0 0 0
3996 2 0.0 34.1715 26.9775 0 0 0
2680 2 8.9925 5.3955 32.373 0 0 0
2094 2 17.985 26.9775 12.5895 0 0 0
1846 2 17.985 5.3955 5.3955 0 0 0
2870 2 10.791 23.3805 26.9775 0 0 0
1407 2 19.7835 0.0 5.3955 0 0 0
2146 2 17.985 30.5745 23.3805 0 0 0
579 2 30.5745 32.373 16.1865 0 0 0
3510 2 3.597 8.9925 26.9775 0 0 0
2396 2 12.5895 16.1865 28.776 0 0 0
1544 2 19.7835 12.5895 17.985 0 0 0
3527 2 1.7985 10.791 5.3955 0 0 0
2734 2 10.791 12.5895 12.5895 0 0 0
3703 2 1.7985 25.179 19.7835 0 0 0
2297 2 14.388 7.194 14.388 0 0 0
1589 2 21.582 14.388 25.179 0 0 0
3037 2 7.194 0.0 32.373 0 0 0
1215 2 23.3805 17.985 12.5895 0 0 0
965 2 28.776 32.373 3.597 0 0 0
2715 2 8.9925 7.194 30.5745 0 0 0
3810 2 0.0 1.7985 16.1865 0 0 0
1293 2 25.179 25.179 10.791 0 0 0
557 2 32.373 28.776 32.373 0 0 0
1660 2 19.7835 23.3805 14.388 0 0 0
2169 2 17.985 32.373 7.194 0 0 0
551 2 30.5745 28.776 26.9775 0 0 0
1668 2 19.7835 23.3805 21.582 0 0 0
2629 2 10.791 0.0 25.179 0 0 0
768 2 26.9775 16.1865 3.597 0 0 0
1079 2 23.3805 3.597 34.1715 0 0 0
582 2 32.373 34.1715 19.7835 0 0 0
2285 2 14.388 7.194 3.597 0 0 0
3576 2 1.7985 16.1865 10.791 0 0 0
3953 2 0.0 25.179 21.582 0 0 0
453 2 32.373 21.582 10.791 0 0 0
3698 2 3.597 26.9775 16.1865 0 0 0
2255 2 12.5895 3.597 12.5895 0 0 0
1963 2 16.1865 14.388 1.7985 0 0 0
3255 2 5.3955 21.582 12.5895 0 0 0
1725 2 21.582 28.776 3.597 0 0 0
845 2 28.776 21.582 3.597 0 0 0
246 2 32.373 5.3955 5.3955 0 0 0
3389 2 7.194 32.373 25.179 0 0 0
672 2 26.9775 5.3955 25.179 0 0 0
916 2 26.9775 26.9775 28.776 0 0 0
2105 2 17.985 25.179 21.582 0 0 0
655 2 26.9775 3.597 12.5895 0 0 0
1706 2 21.582 26.9775 23.3805 0 0 0
3436 2 1.7985 1.7985 28.776 0 0 0
2231 2 12.5895 0.0 26.9775 0 0 0
1235 2 23.3805 17.985 30.5745 0 0 0
1188 2 23.3805 16.1865 21.582 0 0 0
2526 2 14.388 30.5745 5.3955 0 0 0
1236 2 23.3805 19.7835 28.776 0 0 0
3961 2 0.0 28.776 0.0 0 0 0
3340 2 5.3955 30.5745 14.388 0 0 0
377 2 32.373 14.388 14.388 0 0 0
3634 2 3.597 19.7835 30.5745 0 0 0
2560 2 12.5895 30.5745 32.373 0 0 0
2134 2 17.985 30.5745 12.5895 0 0 0
1136 2 23.3805 12.5895 10.791 0 0 0
161 2 34.1715 28.776 1.7985 0 0 0
3029 2 7.194 0.0 25.179 0 0 0
230 2 32.373 1.7985 26.9775 0 0 0
2210 2 14.388 1.7985 8.9925 0 0 0
3620 2 1.7985 19.7835 14.388 0 0 0
3321 2 7.194 28.776 0.0 0 0 0
2827 2 8.9925 17.985 23.3805 0 0 0
1366 2 25.179 34.1715 5.3955 0 0 0
1340 2 23.3805 30.5745 14.388 0 0 0
2633 2 10.791 0.0 28.776 0 0 0
902 2 28.776 26.9775 19.7835 0 0 0
2189 2 17.985 32.373 25.179 0 0 0
3114 2 7.194 8.9925 30.5745 0 0 0
766 2 28.776 16.1865 5.3955 0 0 0
2950 2 10.791 30.5745 26.9775 0 0 0
1548 2 19.7835 12.5895 21.582 0 0 0
1143 2 23.3805 10.791 19.7835 0 0 0
2020 2 16.1865 19.7835 14.388 0 0 0
164 2 34.1715 30.5745 3.597 0 0 0
2448 2 12.5895 23.3805 3.597 0 0 0
1608 2 19.7835 19.7835 3.597 0 0 0
3834 2 0.0 5.3955 23.3805 0 0 0
311 2 30.5745 7.194 26.9775 0 0 0
1841 2 17.985 3.597 0.0 0 0 0
3460 2 1.7985 5.3955 14.388 0 0 0
1621 2 21.582 17.985 17.985 0 0 0
48 2 34.1715 8.9925 10.791 0 0 0
259 2 30.5745 3.597 16.1865 0 0 0
2925 2 10.791 28.776 3.597 0 0 0
3228 2 5.3955 19.7835 21.582 0 0 0
367 2 30.5745 14.388 5.3955 0 0 0
2089 2 17.985 25.179 7.194 0 0 0
1738 2 21.582 30.5745 16.1865 0 0 0
2050 2 17.985 23.3805 8.9925 0 0 0
852 2 26.9775 23.3805 7.194 0 0 0
1638 2 21.582 19.7835 34.1715 0 0 0
977 2 28.776 32.373 14.388 0 0 0
3564 2 1.7985 16.1865 0.0 0 0 0
3490 2 3.597 8.9925 8.9925 0 0 0
2888 2 8.9925 26.9775 3.597 0 0 0
3154 2 7.194 12.5895 30.5745 0 0 0
234 2 32.373 1.7985 30.5745 0 0 0
1992 2 16.1865 16.1865 25.179 0 0 0
3865 2 0.0 10.791 7.194 0 0 0
400 2 30.5745 16.1865 32.373 0 0 0
1343 2 23.3805 28.776 19.7835 0 0 0
3629 2 3.597 17.985 25.179 0 0 0
1528 2 19.7835 12.5895 3.597 0 0 0
2589 2 14.388 32.373 25.179 0 0 0
2432 2 12.5895 19.7835 25.179 0 0 0
2339 2 12.5895 10.791 16.1865 0 0 0
3829 2 0.0 3.597 14.388 0 0 0
3598 2 3.597 16.1865 34.1715 0 0 0
1367 2 23.3805 32.373 5.3955 0 0 0
3640 2 1.7985 19.7835 32.373 0 0 0
2820 2 8.9925 19.7835 14.388 0 0 0
861 2 28.776 21.582 17.985 0 0 0
3670 2 3.597 23.3805 26.9775 0 0 0
1431 2 19.7835 0.0 26.9775 0 0 0
2491 2 12.5895 25.179 8.9925 0 0 0
3380 2 5.3955 34.1715 14.388 0 0 0
1975 2 16.1865 14.388 12.5895 0 0 0
421 2 32.373 17.985 17.985 0 0 0
909 2 28.776 25.179 25.179 0 0 0
3073 2 7.194 3.597 28.776 0 0 0
1265 2 25.179 21.582 21.582 0 0 0
270 2 32.373 5.3955 26.9775 0 0 0
2711 2 8.9925 7.194 26.9775 0 0 0
2776 2 8.9925 16.1865 10.791 0 0 0
1226 2 25.179 19.7835 23.3805 0 0 0
1159 2 23.3805 10.791 34.1715 0 0 0
1716 2 19.7835 26.9775 28.776 0 0 0
1958 2 17.985 12.5895 34.1715 0 0 0
2164 2 16.1865 34.1715 0.0 0 0 0
549 2 32.373 28.776 25.179 0 0 0
2737 2 10.791 10.791 14.388 0 0 0
3258 2 7.194 23.3805 16.1865 0 0 0
482 2 32.373 26.9775 1.7985 0 0 0
648 2 26.9775 5.3955 3.597 0 0 0
2091 2 16.1865 25.179 8.9925 0 0 0
1056 2 23.3805 5.3955 10.791 0 0 0
2847 2 8.9925 21.582 5.3955 0 0 0
3827 2 0.0 3.597 10.791 0 0 0
2739 2 8.9925 10.791 16.1865 0 0 0
1309 2 25.179 25.179 25.179 0 0 0
973 2 28.776 32.373 10.791 0 0 0
3988 2 0.0 34.1715 12.5895 0 0 0
1127 2 23.3805 10.791 5.3955 0 0 0
138 2 34.1715 23.3805 28.776 0 0 0
884 2 26.9775 26.9775 0.0 0 0 0
3512 2 1.7985 8.9925 25.179 0 0 0
1715 2 19.7835 25.179 30.5745 0 0 0
2843 2 8.9925 21.582 1.7985 0 0 0
1631 2 19.7835 17.985 26.9775 0 0 0
496 2 30.5745 26.9775 10.791 0 0 0
3054 2 7.194 5.3955 12.5895 0 0 0
614 2 28.776 1.7985 12.5895 0 0 0
2644 2 8.9925 5.3955 0.0 0 0 0
507 2 30.5745 25.179 23.3805 0 0 0
1498 2 21.582 8.9925 16.1865 0 0 0
2732 2 8.9925 12.5895 7.194 0 0 0
1175 2 23.3805 14.388 12.5895 0 0 0
3473 2 3.597 3.597 28.776 0 0 0
3270 2 7.194 23.3805 26.9775 0 0 0
303 2 30.5745 7.194 19.7835 0 0 0
2719 2 8.9925 7.194 34.1715 0 0 0
2152 2 16.1865 30.5745 25.179 0 0 0
735 2 26.9775 10.791 12.5895 0 0 0
1224 2 23.3805 19.7835 17.985 0 0 0
1356 2 23.3805 30.5745 28.776 0 0 0
3882 2 0.0 16.1865 1.7985 0 0 0
325 2 32.373 10.791 3.597 0 0 0
3098 2 7.194 8.9925 16.1865 0 0 0
3535 2 1.7985 10.791 12.5895 0 0 0
3406 2 3.597 1.7985 5.3955 0 0 0
2835 2 8.9925 17.985 30.5745 0 0 0
2512 2 12.5895 26.9775 25.179 0 0 0
3710 2 3.597 26.9775 26.9775 0 0 0
3188 2 5.3955 16.1865 21.582 0 0 0
3296 2 5.3955 26.9775 10.791 0 0 0
1619 2 19.7835 17.985 16.1865 0 0 0
1430 2 21.582 1.7985 26.9775 0 0 0
2347 2 12.5895 10.791 23.3805 0 0 0
2750 2 10.791 12.5895 26.9775 0 0 0
145 2 34.1715 25.179 8.9925 0 0 0
2684 2 8.9925 8.9925 0.0 0 0 0
1429 2 21.582 0.0 25.179 0 0 0
2068 2 16.1865 23.3805 21.582 0 0 0
2901 2 10.791 25.179 17.985 0 0 0
2287 2 12.5895 7.194 5.3955 0 0 0
1835 2 16.1865 0.0 30.5745 0 0 0
1931 2 16.1865 10.791 8.9925 0 0 0
98 2 34.1715 16.1865 28.776 0 0 0
2460 2 12.5895 23.3805 14.388 0 0 0
1416 2 19.7835 1.7985 10.791 0 0 0
2024 2 16.1865 19.7835 17.985 0 0 0
910 2 28.776 26.9775 26.9775 0 0 0
512 2 30.5745 26.9775 25.179 0 0 0
1337 2 25.179 28.776 14.388 0 0 0
1373 2 25.179 32.373 10.791 0 0 0
2375 2 12.5895 14.388 12.5895 0 0 0
2673 2 10.791 3.597 28.776 0 0 0
1425 2 21.582 0.0 21.582 0 0 0
841 2 28.776 21.582 0.0 0 0 0
1993 2 17.985 14.388 28.776 0 0 0
223 2 30.5745 0.0 19.7835 0 0 0
2051 2 16.1865 21.582 8.9925 0 0 0
2554 2 14.388 30.5745 30.5745 0 0 0
1352 2 23.3805 30.5745 25.179 0 0 0
2891 2 8.9925 25.179 8.9925 0 0 0
3153 2 7.194 10.791 28.776 0 0 0
2269 2 14.388 3.597 25.179 0 0 0
2276 2 12.5895 5.3955 28.776 0 0 0
3481 2 3.597 7.194 0.0 0 0 0
1977 2 17.985 14.388 14.388 0 0 0
3981 2 0.0 32.373 0.0 0 0 0
2406 2 14.388 19.7835 5.3955 0 0 0
3352 2 5.3955 30.5745 25.179 0 0 0
3274 2 7.194 23.3805 30.5745 0 0 0
71 2 34.1715 10.791 19.7835 0 0 0
2260 2 12.5895 5.3955 14.388 0 0 0
1934 2 17.985 12.5895 12.5895 0 0 0
3338 2 7.194 30.5745 16.1865 0 0 0
1646 2 21.582 23.3805 5.3955 0 0 0
1393 2 25.179 32.373 28.776 0 0 0
281 2 32.373 7.194 0.0 0 0 0
1554 2 21.582 12.5895 30.5745 0 0 0
45 2 34.1715 7.194 8.9925 0 0 0
1412 2 19.7835 1.7985 7.194 0 0 0
2951 2 8.9925 28.776 26.9775 0 0 0
1945 2 17.985 10.791 21.582 0 0 0
3697 2 3.597 25.179 14.388 0 0 0
3180 2 5.3955 16.1865 14.388 0 0 0
2253 2 14.388 3.597 10.791 0 0 0
3958 2 0.0 26.9775 30.5745 0 0 0
1978 2 17.985 16.1865 16.1865 0 0 0
146 2 34.1715 26.9775 7.194 0 0 0
3579 2 1.7985 14.388 16.1865 0 0 0
3391 2 5.3955 32.373 26.9775 0 0 0
854 2 28.776 23.3805 12.5895 0 0 0
58 2 34.1715 8.9925 28.776 0 0 0
2765 2 10.791 14.388 3.597 0 0 0
606 2 28.776 1.7985 5.3955 0 0 0
1733 2 21.582 28.776 10.791 0 0 0
2464 2 12.5895 23.3805 17.985 0 0 0
1726 2 21.582 30.5745 5.3955 0 0 0
1156 2 23.3805 12.5895 28.776 0 0 0
993 2 28.776 32.373 28.776 0 0 0
3513 2 3.597 7.194 28.776 0 0 0
2123 2 16.1865 28.776 1.7985 0 0 0
840 2 26.9775 19.7835 32.373 0 0 0
1448 2 19.7835 5.3955 3.597 0 0 0
1720 2 19.7835 26.9775 32.373 0 0 0
1122 2 25.179 12.5895 1.7985 0 0 0
3980 2 0.0 30.5745 34.1715 0 0 0
2147 2 16.1865 28.776 23.3805 0 0 0
1014 2 25.179 1.7985 12.5895 0 0 0
2990 2 10.791 34.1715 26.9775 0 0 0
3800 2 1.7985 34.1715 32.373 0 0 0
3772 2 1.7985 34.1715 7.194 0 0 0
3878 2 0.0 12.5895 30.5745 0 0 0
3361 2 7.194 32.373 0.0 0 0 0
3469 2 3.597 3.597 25.179 0 0 0
3341 2 7.194 28.776 17.985 0 0 0
3378 2 7.194 34.1715 16.1865 0 0 0
406 2 32.373 19.7835 5.3955 0 0 0
3123 2 5.3955 10.791 1.7985 0 0 0
2165 2 17.985 32.373 3.597 0 0 0
3863 3 0.0 10.791 3.597 0 0 0
2918 3 10.791 26.9775 34.1715 0 0 0
1237 3 25.179 17.985 32.373 0 0 0
2817 3 10.791 17.985 14.388 0 0 0
1080 3 23.3805 5.3955 32.373 0 0 0
3588 3 1.7985 16.1865 21.582 0 0 0
2768 3 8.9925 16.1865 3.597 0 0 0
3530 3 3.597 12.5895 8.9925 0 0 0
1594 3 21.582 16.1865 30.5745 0 0 0
645 3 28.776 3.597 3.597 0 0 0
2194 3 17.985 34.1715 30.5745 0 0 0
663 3 26.9775 3.597 19.7835 0 0 0
3444 3 1.7985 5.3955 0.0 0 0 0
1241 3 25.179 21.582 0.0 0 0 0
3615 3 1.7985 17.985 12.5895 0 0 0
2800 3 8.9925 16.1865 32.373 0 0 0
2985 3 10.791 32.373 21.582 0 0 0
2576 3 12.5895 34.1715 10.791 0 0 0
3461 3 3.597 3.597 17.985 0 0 0
3689 3 3.597 25.179 7.194 0 0 0
3902 3 0.0 19.7835 1.7985 0 0 0
3485 3 3.597 7.194 3.597 0 0 0
1124 3 23.3805 12.5895 0.0 0 0 0
3365 3 7.194 32.373 3.597 0 0 0
1339 3 23.3805 28.776 16.1865 0 0 0
1305 3 25.179 25.179 21.582 0 0 0
2015 3 16.1865 17.985 12.5895 0 0 0
999 3 26.9775 32.373 34.1715 0 0 0
2498 3 14.388 26.9775 16.1865 0 0 0
974 3 28.776 34.1715 12.5895 0 0 0
711 3 26.9775 7.194 26.9775 0 0 0
1272 3 23.3805 23.3805 25.179 0 0 0
2434 3 14.388 19.7835 30.5745 0 0 0
2743 3 8.9925 10.791 19.7835 0 0 0
125 3 34.1715 21.582 8.9925 0 0 0
3235 3 5.3955 17.985 30.5745 0 0 0
1654 3 21.582 23.3805 12.5895 0 0 0
1989 3 17.985 14.388 25.179 0 0 0
3200 3 5.3955 16.1865 32.373 0 0 0
3842 3 0.0 8.9925 1.7985 0 0 0
939 3 26.9775 28.776 16.1865 0 0 0
2499 3 12.5895 25.179 16.1865 0 0 0
2718 3 10.791 8.9925 34.1715 0 0 0
870 3 28.776 23.3805 26.9775 0 0 0
1392 3 23.3805 34.1715 25.179 0 0 0
701 3 28.776 7.194 17.985 0 0 0
3333 3 7.194 28.776 10.791 0 0 0
3289 3 7.194 25.179 7.194 0 0 0
1891 3 16.1865 7.194 8.9925 0 0 0
510 3 32.373 26.9775 26.9775 0 0 0
431 3 30.5745 17.985 26.9775 0 0 0
295 3 30.5745 7.194 12.5895 0 0 0
2179 3 16.1865 32.373 16.1865 0 0 0
1542 3 21.582 12.5895 19.7835 0 0 0
985 3 28.776 32.373 21.582 0 0 0
3985 3 0.0 32.373 7.194 0 0 0
1112 3 23.3805 8.9925 25.179 0 0 0
2564 3 12.5895 34.1715 0.0 0 0 0
806 3 28.776 19.7835 5.3955 0 0 0
503 3 30.5745 25.179 19.7835 0 0 0
1845 3 17.985 3.597 3.597 0 0 0
3480 3 1.7985 5.3955 32.373 0 0 0
2098 3 17.985 26.9775 16.1865 0 0 0
695 3 26.9775 7.194 12.5895 0 0 0
2841 3 10.791 21.582 0.0 0 0 0
2117 3 17.985 25.179 32.373 0 0 0
119 3 34.1715 17.985 34.1715 0 0 0
3517 3 3.597 7.194 32.373 0 0 0
3540 3 1.7985 12.5895 14.388 0 0 0
2773 3 10.791 14.388 10.791 0 0 0
2958 3 10.791 30.5745 34.1715 0 0 0
430 3 32.373 19.7835 26.9775 0 0 0
278 3 32.373 5.3955 34.1715 0 0 0
2093 3 17.985 25.179 10.791 0 0 0
563 3 30.5745 32.373 1.7985 0 0 0
1327 3 23.3805 28.776 5.3955 0 0 0
54 3 34.1715 8.9925 21.582 0 0 0
3509 3 3.597 7.194 25.179 0 0 0
2998 3 10.791 34.1715 34.1715 0 0 0
87 3 34.1715 14.388 12.5895 0 0 0
1552 3 19.7835 12.5895 25.179 0 0 0
2493 3 14.388 25.179 10.791 0 0 0
1320 3 23.3805 26.9775 32.373 0 0 0
2745 3 10.791 10.791 21.582 0 0 0
3913 3 0.0 17.985 21.582 0 0 0
899 3 26.9775 25.179 16.1865 0 0 0
1026 3 25.179 1.7985 23.3805 0 0 0
299 3 30.5745 7.194 16.1865 0 0 0
3522 3 3.597 12.5895 1.7985 0 0 0
126 3 34.1715 23.3805 7.194 0 0 0
608 3 26.9775 1.7985 3.597 0 0 0
3459 3 1.7985 3.597 16.1865 0 0 0
1534 3 21.582 12.5895 12.5895 0 0 0
1315 3 23.3805 25.179 30.5745 0 0 0
3759 3 1.7985 28.776 34.1715 0 0 0
1238 3 25.179 19.7835 34.1715 0 0 0
1060 3 23.3805 5.3955 14.388 0 0 0
1744 3 19.7835 30.5745 17.985 0 0 0
2439 3 12.5895 17.985 34.1715 0 0 0
3605 3 3.597 17.985 3.597 0 0 0
3446 3 3.597 5.3955 5.3955 0 0 0
1059 3 23.3805 3.597 16.1865 0 0 0
1010 3 25.179 1.7985 8.9925 0 0 0
3816 3 0.0 1.7985 26.9775 0 0 0
859 3 26.9775 21.582 16.1865 0 0 0
260 3 30.5745 5.3955 14.388 0 0 0
3577 3 3.597 14.388 14.388 0 0 0
2352 3 12.5895 12.5895 25.179 0 0 0
3104 3 5.3955 8.9925 17.985 0 0 0
2880 3 8.9925 23.3805 32.373 0 0 0
2382 3 14.388 16.1865 19.7835 0 0 0
2534 3 14.388 30.5745 12.5895 0 0 0
2005 3 17.985 17.985 3.597 0 0 0
2220 3 12.5895 1.7985 14.388 0 0 0
3741 3 3.597 28.776 17.985 0 0 0
2708 3 8.9925 8.9925 21.582 0 0 0
2239 3 12.5895 0.0 34.1715 0 0 0
1701 3 21.582 25.179 17.985 0 0 0
2986 3 10.791 34.1715 23.3805 0 0 0
2107 3 16.1865 25.179 23.3805 0 0 0
2027 3 16.1865 17.985 23.3805 0 0 0
1435 3 19.7835 0.0 30.5745 0 0 0
2368 3 12.5895 16.1865 3.597 0 0 0
2065 3 17.985 21.582 21.582 0 0 0
722 3 28.776 12.5895 1.7985 0 0 0
881 3 28.776 25.179 0.0 0 0 0
1347 3 23.3805 28.776 23.3805 0 0 0
96 3 34.1715 16.1865 25.179 0 0 0
3250 3 7.194 23.3805 8.9925 0 0 0
637 3 28.776 0.0 32.373 0 0 0
79 3 34.1715 10.791 34.1715 0 0 0
526 3 32.373 30.5745 5.3955 0 0 0
1171 3 23.3805 14.388 8.9925 0 0 0
63 3 34.1715 10.791 5.3955 0 0 0
1786 3 21.582 34.1715 23.3805 0 0 0
658 3 28.776 5.3955 16.1865 0 0 0
3675 3 1.7985 21.582 30.5745 0 0 0
1018 3 25.179 1.7985 16.1865 0 0 0
210 3 32.373 1.7985 8.9925 0 0 0
3077 3 7.194 3.597 32.373 0 0 0
1203 3 23.3805 17.985 1.7985 0 0 0
1574 3 21.582 16.1865 12.5895 0 0 0
1843 3 16.1865 3.597 1.7985 0 0 0
2836 3 8.9925 19.7835 28.776 0 0 0
2921 3 10.791 28.776 0.0 0 0 0
3280 3 5.3955 23.3805 32.373 0 0 0
2413 3 14.388 17.985 10.791 0 0 0
386 3 32.373 16.1865 23.3805 0 0 0
1251 3 23.3805 21.582 8.9925 0 0 0
3044 3 5.3955 5.3955 0.0 0 0 0
3440 3 1.7985 1.7985 32.373 0 0 0
94 3 34.1715 16.1865 21.582 0 0 0
2108 3 16.1865 26.9775 21.582 0 0 0
2232 3 12.5895 1.7985 25.179 0 0 0
1447 3 19.7835 3.597 5.3955 0 0 0
1678 3 21.582 23.3805 34.1715 0 0 0
3093 3 7.194 7.194 10.791 0 0 0
209 3 32.373 0.0 7.194 0 0 0
2409 3 14.388 17.985 7.194 0 0 0
2785 3 10.791 14.388 21.582 0 0 0
2095 3 16.1865 25.179 12.5895 0 0 0
2681 3 10.791 7.194 0.0 0 0 0
361 3 32.373 14.388 0.0 0 0 0
204 3 30.5745 1.7985 0.0 0 0 0
178 3 34.1715 30.5745 28.776 0 0 0
327 3 30.5745 10.791 5.3955 0 0 0
949 3 28.776 28.776 25.179 0 0 0
1890 3 17.985 8.9925 8.9925 0 0 0
2669 3 10.791 3.597 25.179 0 0 0
1751 3 19.7835 28.776 26.9775 0 0 0
2062 3 17.985 23.3805 19.7835 0 0 0
67 3 34.1715 10.791 12.5895 0 0 0
3017 3 7.194 0.0 14.388 0 0 0
3246 3 7.194 23.3805 5.3955 0 0 0
932 3 26.9775 30.5745 7.194 0 0 0
3362 3 7.194 34.1715 1.7985 0 0 0
3252 3 5.3955 23.3805 7.194 0 0 0
2933 3 10.791 28.776 10.791 0 0 0
668 3 26.9775 5.3955 21.582 0 0 0
149 3 34.1715 25.179 16.1865 0 0 0
292 3 30.5745 8.9925 7.194 0 0 0
3924 3 0.0 23.3805 5.3955 0 0 0
830 3 28.776 19.7835 26.9775 0 0 0
667 3 26.9775 3.597 23.3805 0 0 0
3856 3 0.0 8.9925 26.9775 0 0 0
3130 3 7.194 12.5895 8.9925 0 0 0
1492 3 19.7835 8.9925 7.194 0 0 0
375 3 30.5745 14.388 12.5895 0 0 0
2585 3 14.388 32.373 21.582 0 0 0
3723 3 1.7985 28.776 1.7985 0 0 0
517 3 32.373 25.179 32.373 0 0 0
1201 3 25.179 17.985 0.0 0 0 0
2416 3 12.5895 19.7835 10.791 0 0 0
38 3 34.1715 5.3955 28.776 0 0 0
540 3 30.5745 30.5745 14.388 0 0 0
2350 3 14.388 12.5895 26.9775 0 0 0
1582 3 21.582 16.1865 19.7835 0 0 0
3626 3 3.597 19.7835 23.3805 0 0 0
174 3 34.1715 30.5745 21.582 0 0 0
257 3 32.373 3.597 14.388 0 0 0
1956 3 16.1865 12.5895 28.776 0 0 0
1409 3 21.582 0.0 7.194 0 0 0
77 3 34.1715 10.791 30.5745 0 0 0
3627 3 1.7985 17.985 23.3805 0 0 0
3133 3 7.194 10.791 10.791 0 0 0
3324 3 5.3955 30.5745 0.0 0 0 0
2302 3 14.388 8.9925 19.7835 0 0 0
2601 3 10.791 0.0 0.0 0 0 0
2631 3 8.9925 0.0 26.9775 0 0 0
2824 3 8.9925 19.7835 17.985 0 0 0
3506 3 3.597 8.9925 23.3805 0 0 0
1054 3 25.179 5.3955 12.5895 0 0 0
3663 3 1.7985 21.582 19.7835 0 0 0
341 3 32.373 10.791 17.985 0 0 0
3925 3 0.0 21.582 7.194 0 0 0
3561 3 3.597 14.388 0.0 0 0 0
1642 3 21.582 23.3805 1.7985 0 0 0
1470 3 21.582 5.3955 26.9775 0 0 0
562 3 32.373 34.1715 1.7985 0 0 0
761 3 28.776 14.388 0.0 0 0 0
3267 3 5.3955 21.582 23.3805 0 0 0
269 3 32.373 3.597 25.179 0 0 0
1662 3 21.582 23.3805 19.7835 0 0 0
2588 3 12.5895 34.1715 21.582 0 0 0
2937 3 10.791 28.776 14.388 0 0 0
2542 3 14.388 30.5745 19.7835 0 0 0
3876 3 0.0 12.5895 26.9775 0 0 0
460 3 30.5745 23.3805 14.388 0 0 0
521 3 32.373 28.776 0.0 0 0 0
3122 3 7.194 12.5895 1.7985 0 0 0
186 3 34.1715 34.1715 7.194 0 0 0
686 3 28.776 8.9925 5.3955 0 0 0
3764 3 1.7985 34.1715 0.0 0 0 0
3239 3 5.3955 17.985 34.1715 0 0 0
1915 3 16.1865 7.194 30.5745 0 0 0
2624 3 8.9925 1.7985 17.985 0 0 0
2305 3 14.388 7.194 21.582 0 0 0
1753 3 21.582 28.776 28.776 0 0 0
401 3 32.373 17.985 0.0 0 0 0
3606 3 3.597 19.7835 5.3955 0 0 0
237 3 32.373 0.0 32.373 0 0 0
3039 3 5.3955 0.0 34.1715 0 0 0
2531 3 12.5895 28.776 8.9925 0 0 0
3031 3 5.3955 0.0 26.9775 0 0 0
55 3 34.1715 7.194 26.9775 0 0 0
876 3 26.9775 23.3805 28.776 0 0 0
3095 3 5.3955 7.194 12.5895 0 0 0
1682 3 21.582 26.9775 1.7985 0 0 0
3718 3 3.597 26.9775 34.1715 0 0 0
141 3 34.1715 25.179 1.7985 0 0 0
1100 3 23.3805 8.9925 14.388 0 0 0
858 3 28.776 23.3805 16.1865 0 0 0
3279 3 5.3955 21.582 34.1715 0 0 0
3692 3 1.7985 26.9775 7.194 0 0 0
2028 3 16.1865 19.7835 21.582 0 0 0
2410 3 14.388 19.7835 8.9925 0 0 0
1155 3 23.3805 10.791 30.5745 0 0 0
2683 3 8.9925 7.194 1.7985 0 0 0
1761 3 21.582 32.373 0.0 0 0 0
1519 3 19.7835 7.194 34.1715 0 0 0
3231 3 5.3955 17.985 26.9775 0 0 0
2906 3 10.791 26.9775 23.3805 0 0 0
1217 3 25.179 17.985 14.388 0 0 0
1772 3 19.7835 34.1715 7.194 0 0 0
2671 3 8.9925 3.597 26.9775 0 0 0
1926 3 17.985 12.5895 5.3955 0 0 0
479 3 30.5745 21.582 34.1715 0 0 0
3552 3 1.7985 12.5895 25.179 0 0 0
3837 3 0.0 3.597 28.776 0 0 0
1140 3 23.3805 12.5895 14.388 0 0 0
2850 3 10.791 23.3805 8.9925 0 0 0
1465 3 21.582 3.597 21.582 0 0 0
2645 3 10.791 3.597 3.597 0 0 0
382 3 32.373 16.1865 19.7835 0 0 0
2518 3 14.388 26.9775 34.1715 0 0 0
1832 3 16.1865 1.7985 25.179 0 0 0
3113 3 7.194 7.194 28.776 0 0 0
3790 3 3.597 34.1715 26.9775 0 0 0
3832 3 0.0 5.3955 19.7835 0 0 0
2441 3 14.388 21.582 0.0 0 0 0
2489 3 14.388 25.179 7.194 0 0 0
1939 3 16.1865 10.791 16.1865 0 0 0
2130 3 17.985 30.5745 8.9925 0 0 0
3466 3 3.597 5.3955 23.3805 0 0 0
1394 3 25.179 34.1715 30.5745 0 0 0
1169 3 25.179 14.388 7.194 0 0 0
1713 3 21.582 25.179 28.776 0 0 0
1181 3 25.179 14.388 17.985 0 0 0
3623 3 1.7985 17.985 19.7835 0 0 0
656 3 26.9775 5.3955 10.791 0 0 0
3699 3 1.7985 25.179 16.1865 0 0 0
1643 3 19.7835 21.582 1.7985 0 0 0
3243 3 5.3955 21.582 1.7985 0 0 0
1577 3 21.582 14.388 14.388 0 0 0
43 3 34.1715 7.194 5.3955 0 0 0
3538 3 3.597 12.5895 16.1865 0 0 0
3995 3 0.0 32.373 25.179 0 0 0
3242 3 7.194 23.3805 1.7985 0 0 0
1426 3 21.582 1.7985 23.3805 0 0 0
3818 3 0.0 1.7985 30.5745 0 0 0
3781 3 3.597 32.373 17.985 0 0 0
1529 3 21.582 10.791 7.194 0 0 0
989 3 28.776 32.373 25.179 0 0 0
3404 3 1.7985 1.7985 0.0 0 0 0
1076 3 23.3805 5.3955 28.776 0 0 0
279 3 30.5745 3.597 34.1715 0 0 0
1639 3 19.7835 17.985 34.1715 0 0 0
455 3 30.5745 21.582 12.5895 0 0 0
1199 3 23.3805 14.388 34.1715 0 0 0
2234 3 14.388 1.7985 30.5745 0 0 0
1015 3 23.3805 0.0 12.5895 0 0 0
2563 3 12.5895 32.373 1.7985 0 0 0
598 3 32.373 34.1715 34.1715 0 0 0
2244 3 12.5895 5.3955 0.0 0 0 0
1359 3 23.3805 28.776 34.1715 0 0 0
730 3 28.776 12.5895 8.9925 0 0 0
3229 3 7.194 17.985 25.179 0 0 0
3858 3 0.0 8.9925 30.5745 0 0 0
1020 3 23.3805 1.7985 14.388 0 0 0
1938 3 17.985 12.5895 16.1865 0 0 0
1536 3 19.7835 12.5895 10.791 0 0 0
1591 3 19.7835 14.388 26.9775 0 0 0
3399 3 5.3955 32.373 34.1715 0 0 0
3187 3 5.3955 14.388 23.3805 0 0 0
791 3 26.9775 14.388 26.9775 0 0 0
2466 3 14.388 23.3805 23.3805 0 0 0
2076 3 16.1865 23.3805 28.776 0 0 0
2838 3 10.791 19.7835 34.1715 0 0 0
2225 3 14.388 0.0 21.582 0 0 0
3595 3 1.7985 14.388 30.5745 0 0 0
356 3 30.5745 12.5895 28.776 0 0 0
3193 3 7.194 14.388 28.776 0 0 0
31 3 34.1715 3.597 19.7835 0 0 0
346 3 32.373 12.5895 23.3805 0 0 0
3563 3 1.7985 14.388 1.7985 0 0 0
2632 3 8.9925 1.7985 25.179 0 0 0
2223 3 12.5895 0.0 19.7835 0 0 0
2003 3 16.1865 17.985 1.7985 0 0 0
1207 3 23.3805 17.985 5.3955 0 0 0
2678 3 10.791 5.3955 34.1715 0 0 0
2912 3 8.9925 26.9775 25.179 0 0 0
2221 3 14.388 0.0 17.985 0 0 0
1051 3 23.3805 3.597 8.9925 0 0 0
156 3 34.1715 26.9775 25.179 0 0 0
113 3 34.1715 17.985 23.3805 0 0 0
3415 3 1.7985 0.0 12.5895 0 0 0
2124 3 16.1865 30.5745 0.0 0 0 0
1233 3 25.179 17.985 28.776 0 0 0
1695 3 19.7835 25.179 12.5895 0 0 0
3375 3 5.3955 32.373 12.5895 0 0 0
3497 3 3.597 7.194 14.388 0 0 0
1178 3 25.179 16.1865 16.1865 0 0 0
3787 3 1.7985 32.373 23.3805 0 0 0
1132 3 23.3805 12.5895 7.194 0 0 0
3409 3 3.597 0.0 7.194 0 0 0
3554 3 3.597 12.5895 30.5745 0 0 0
3814 3 0.0 1.7985 23.3805 0 0 0
709 3 28.776 7.194 25.179 0 0 0
1322 3 25.179 30.5745 1.7985 0 0 0
1058 3 25.179 5.3955 16.1865 0 0 0
1223 3 23.3805 17.985 19.7835 0 0 0
3608 3 1.7985 19.7835 3.597 0 0 0
864 3 26.9775 23.3805 17.985 0 0 0
1248 3 23.3805 23.3805 3.597 0 0 0
51 3 34.1715 7.194 19.7835 0 0 0
3860 3 0.0 8.9925 34.1715 0 0 0
2371 3 12.5895 14.388 8.9925 0 0 0
3109 3 7.194 7.194 25.179 0 0 0
2119 3 16.1865 25.179 34.1715 0 0 0
3366 3 7.194 34.1715 5.3955 0 0 0
3430 3 3.597 1.7985 26.9775 0 0 0
1947 3 16.1865 10.791 23.3805 0 0 0
3253 3 7.194 21.582 10.791 0 0 0
1239 3 23.3805 17.985 34.1715 0 0 0
316 3 30.5745 8.9925 28.776 0 0 0
2966 3 10.791 34.1715 5.3955 0 0 0
755 3 26.9775 10.791 30.5745 0 0 0
3849 3 0.0 7.194 14.388 0 0 0
74 3 34.1715 12.5895 21.582 0 0 0
1758 3 21.582 30.5745 34.1715 0 0 0
3374 3 7.194 34.1715 12.5895 0 0 0
585 3 32.373 32.373 21.582 0 0 0
3777 3 3.597 32.373 14.388 0 0 0
3798 3 3.597 34.1715 34.1715 0 0 0
1362 3 25.179 34.1715 1.7985 0 0 0
2730 3 10.791 12.5895 8.9925 0 0 0
2029 3 17.985 17.985 25.179 0 0 0
2855 3 8.9925 21.582 12.5895 0 0 0
1098 3 25.179 8.9925 16.1865 0 0 0
1957 3 17.985 10.791 32.373 0 0 0
374 3 32.373 16.1865 12.5895 0 0 0
1378 3 25.179 34.1715 16.1865 0 0 0
1743 3 19.7835 28.776 19.7835 0 0 0
3658 3 3.597 23.3805 16.1865 0 0 0
2882 3 10.791 26.9775 1.7985 0 0 0
324 3 30.5745 12.5895 0.0 0 0 0
2284 3 12.5895 8.9925 0.0 0 0 0
922 3 28.776 30.5745 1.7985 0 0 0
3005 3 7.194 0.0 3.597 0 0 0
890 3 28.776 26.9775 8.9925 0 0 0
3492 3 1.7985 8.9925 7.194 0 0 0
666 3 28.776 5.3955 23.3805 0 0 0
191 3 34.1715 32.373 19.7835 0 0 0
3383 3 5.3955 32.373 19.7835 0 0 0
2772 3 8.9925 16.1865 7.194 0 0 0
1473 3 21.582 3.597 28.776 0 0 0
1125 3 25.179 10.791 3.597 0 0 0
3224 3 5.3955 19.7835 17.985 0 0 0
1606 3 21.582 19.7835 5.3955 0 0 0
534 3 32.373 30.5745 12.5895 0 0 0
846 3 28.776 23.3805 5.3955 0 0 0
662 3 28.776 5.3955 19.7835 0 0 0
3562 3 3.597 16.1865 1.7985 0 0 0
2394 3 14.388 16.1865 30.5745 0 0 0
1415 3 19.7835 0.0 12.5895 0 0 0
2721 3 10.791 10.791 0.0 0 0 0
1383 3 23.3805 32.373 19.7835 0 0 0
3251 3 5.3955 21.582 8.9925 0 0 0
1137 3 25.179 10.791 14.388 0 0 0
2206 3 14.388 1.7985 5.3955 0 0 0
2265 3 14.388 3.597 21.582 0 0 0
3760 3 1.7985 30.5745 32.373 0 0 0
1508 3 19.7835 8.9925 21.582 0 0 0
786 3 28.776 16.1865 23.3805 0 0 0
3177 3 7.194 14.388 14.388 0 0 0
2380 3 12.5895 16.1865 14.388 0 0 0
1317 3 25.179 25.179 32.373 0 0 0
414 3 32.373 19.7835 12.5895 0 0 0
808 3 26.9775 19.7835 3.597 0 0 0
1742 3 21.582 30.5745 19.7835 0 0 0
1827 3 16.1865 0.0 23.3805 0 0 0
1780 3 19.7835 34.1715 14.388 0 0 0
3074 3 7.194 5.3955 30.5745 0 0 0
1856 3 16.1865 5.3955 10.791 0 0 0
2784 3 8.9925 16.1865 17.985 0 0 0
2799 3 8.9925 14.388 34.1715 0 0 0
1791 3 19.7835 32.373 26.9775 0 0 0
3053 3 7.194 3.597 10.791 0 0 0
3260 3 5.3955 23.3805 14.388 0 0 0
1770 3 21.582 34.1715 8.9925 0 0 0
2511 3 12.5895 25.179 26.9775 0 0 0
2238 3 14.388 1.7985 34.1715 0 0 0
1503 3 19.7835 7.194 19.7835 0 0 0
699 3 26.9775 7.194 16.1865 0 0 0
1559 3 19.7835 10.791 34.1715 0 0 0
3932 3 0.0 23.3805 19.7835 0 0 0
3354 3 7.194 30.5745 30.5745 0 0 0
3833 3 0.0 3.597 21.582 0 0 0
1538 3 21.582 12.5895 16.1865 0 0 0
2517 3 14.388 25.179 32.373 0 0 0
3817 3 0.0 0.0 28.776 0 0 0
897 3 28.776 25.179 14.388 0 0 0
599 3 30.5745 32.373 34.1715 0 0 0
1681 3 21.582 25.179 0.0 0 0 0
3965 3 0.0 28.776 7.194 0 0 0
12 3 34.1715 1.7985 17.985 0 0 0
1440 3 19.7835 1.7985 32.373 0 0 0
2342 3 14.388 12.5895 19.7835 0 0 0
3838 3 0.0 5.3955 30.5745 0 0 0
2868 3 8.9925 23.3805 21.582 0 0 0
336 3 30.5745 12.5895 10.791 0 0 0
3083 3 5.3955 7.194 1.7985 0 0 0
1767 3 19.7835 32.373 5.3955 0 0 0
624 3 26.9775 1.7985 17.985 0 0 0
2943 3 8.9925 28.776 19.7835 0 0 0
3927 3 0.0 21.582 10.791 0 0 0
1039 3 23.3805 0.0 34.1715 0 0 0
3401 3 3.597 0.0 0.0 0 0 0
1266 3 25.179 23.3805 23.3805 0 0 0
355 3 30.5745 10.791 30.5745 0 0 0
3614 3 3.597 19.7835 12.5895 0 0 0
574 3 32.373 34.1715 12.5895 0 0 0
1676 3 19.7835 23.3805 28.776 0 0 0
792 3 26.9775 16.1865 25.179 0 0 0
23 3 34.1715 3.597 5.3955 0 0 0
41 3 34.1715 7.194 1.7985 0 0 0
853 3 28.776 21.582 10.791 0 0 0
1502 3 21.582 8.9925 19.7835 0 0 0
3541 3 3.597 10.791 17.985 0 0 0
2617 3 10.791 0.0 14.388 0 0 0
3993 3 0.0 32.373 21.582 0 0 0
1974 3 17.985 16.1865 12.5895 0 0 0
1433 3 21.582 0.0 28.776 0 0 0
3479 3 1.7985 3.597 34.1715 0 0 0
1506 3 21.582 8.9925 23.3805 0 0 0
322 3 32.373 12.5895 1.7985 0 0 0
2538 3 14.388 30.5745 16.1865 0 0 0
446 3 32.373 23.3805 5.3955 0 0 0
3801 3 0.0 0.0 0.0 0 0 0
3767 3 1.7985 32.373 5.3955 0 0 0
2871 3 8.9925 21.582 26.9775 0 0 0
3664 3 1.7985 23.3805 17.985 0 0 0
2423 3 12.5895 17.985 19.7835 0 0 0
1691 3 19.7835 25.179 8.9925 0 0 0
1165 3 25.179 14.388 3.597 0 0 0
3075 3 5.3955 3.597 30.5745 0 0 0
1133 3 25.179 10.791 10.791 0 0 0
217 3 32.373 0.0 14.388 0 0 0
1710 3 21.582 26.9775 26.9775 0 0 0
2788 3 8.9925 16.1865 21.582 0 0 0
950 3 28.776 30.5745 26.9775 0 0 0
229 3 32.373 0.0 25.179 0 0 0
319 3 30.5745 7.194 34.1715 0 0 0
1250 3 25.179 23.3805 8.9925 0 0 0
3498 3 3.597 8.9925 16.1865 0 0 0
307 3 30.5745 7.194 23.3805 0 0 0
823 3 26.9775 17.985 19.7835 0 0 0
3569 3 3.597 14.388 7.194 0 0 0
2689 3 10.791 7.194 7.194 0 0 0
44 3 34.1715 8.9925 3.597 0 0 0
1163 3 23.3805 14.388 1.7985 0 0 0
3824 3 0.0 5.3955 5.3955 0 0 0
1987 3 16.1865 14.388 23.3805 0 0 0
2675 3 8.9925 3.597 30.5745 0 0 0
3751 3 1.7985 28.776 26.9775 0 0 0
885 3 28.776 25.179 3.597 0 0 0
2144 3 16.1865 30.5745 17.985 0 0 0
4 3 34.1715 1.7985 3.597 0 0 0
978 3 28.776 34.1715 16.1865 0 0 0
904 3 26.9775 26.9775 17.985 0 0 0
3424 3 1.7985 1.7985 17.985 0 0 0
3115 3 5.3955 7.194 30.5745 0 0 0
2509 3 14.388 25.179 25.179 0 0 0
2204 3 12.5895 1.7985 0.0 0 0 0
3072 3 5.3955 5.3955 25.179 0 0 0
157 3 34.1715 25.179 30.5745 0 0 0
1450 3 21.582 5.3955 8.9925 0 0 0
3049 3 7.194 3.597 7.194 0 0 0
1633 3 21.582 17.985 28.776 0 0 0
1119 3 23.3805 7.194 34.1715 0 0 0
936 3 26.9775 30.5745 10.791 0 0 0
2502 3 14.388 26.9775 19.7835 0 0 0
2968 3 8.9925 34.1715 3.597 0 0 0
2431 3 12.5895 17.985 26.9775 0 0 0
710 3 28.776 8.9925 26.9775 0 0 0
725 3 28.776 10.791 3.597 0 0 0
857 3 28.776 21.582 14.388 0 0 0
1066 3 25.179 5.3955 23.3805 0 0 0
3907 3 0.0 17.985 10.791 0 0 0
3351 3 5.3955 28.776 26.9775 0 0 0
3298 3 7.194 26.9775 16.1865 0 0 0
2920 3 8.9925 26.9775 32.373 0 0 0
306 3 32.373 8.9925 23.3805 0 0 0
1870 3 17.985 5.3955 26.9775 0 0 0
1307 3 23.3805 25.179 23.3805 0 0 0
1862 3 17.985 5.3955 19.7835 0 0 0
2747 3 8.9925 10.791 23.3805 0 0 0
420 3 30.5745 19.7835 14.388 0 0 0
879 3 26.9775 21.582 34.1715 0 0 0
750 3 28.776 12.5895 26.9775 0 0 0
3027 3 5.3955 0.0 23.3805 0 0 0
704 3 26.9775 8.9925 17.985 0 0 0
680 3 26.9775 5.3955 32.373 0 0 0
236 3 30.5745 1.7985 28.776 0 0 0
1563 3 19.7835 14.388 1.7985 0 0 0
1632 3 19.7835 19.7835 25.179 0 0 0
440 3 30.5745 19.7835 32.373 0 0 0
1556 3 19.7835 12.5895 28.776 0 0 0
621 3 28.776 0.0 17.985 0 0 0
1764 3 19.7835 34.1715 0.0 0 0 0
1612 3 19.7835 19.7835 7.194 0 0 0
1469 3 21.582 3.597 25.179 0 0 0
1692 3 19.7835 26.9775 7.194 0 0 0
3318 3 7.194 26.9775 34.1715 0 0 0
2304 3 12.5895 8.9925 17.985 0 0 0
3529 3 3.597 10.791 7.194 0 0 0
2846 3 10.791 23.3805 5.3955 0 0 0
2218 3 14.388 1.7985 16.1865 0 0 0
2281 3 14.388 7.194 0.0 0 0 0
2294 3 14.388 8.9925 12.5895 0 0 0
2248 3 12.5895 5.3955 3.597 0 0 0
1569 3 21.582 14.388 7.194 0 0 0
3323 3 5.3955 28.776 1.7985 0 0 0
2378 3 14.388 16.1865 16.1865 0 0 0
3111 3 5.3955 7.194 26.9775 0 0 0
2982 3 10.791 34.1715 19.7835 0 0 0
996 3 26.9775 34.1715 28.776 0 0 0
2503 3 12.5895 25.179 19.7835 0 0 0
2136 3 16.1865 30.5745 10.791 0 0 0
609 3 28.776 0.0 7.194 0 0 0
2203 3 12.5895 0.0 1.7985 0 0 0
3524 3 1.7985 12.5895 0.0 0 0 0
2889 3 10.791 25.179 7.194 0 0 0
2403 3 12.5895 17.985 1.7985 0 0 0
2195 3 16.1865 32.373 30.5745 0 0 0
1828 3 16.1865 1.7985 21.582 0 0 0
1381 3 25.179 32.373 17.985 0 0 0
3454 3 3.597 5.3955 12.5895 0 0 0
623 3 26.9775 0.0 19.7835 0 0 0
3012 3 5.3955 1.7985 7.194 0 0 0
254 3 32.373 5.3955 12.5895 0 0 0
3085 3 7.194 7.194 3.597 0 0 0
1507 3 19.7835 7.194 23.3805 0 0 0
533 3 32.373 28.776 10.791 0 0 0
224 3 30.5745 1.7985 17.985 0 0 0
796 3 26.9775 16.1865 28.776 0 0 0
3413 3 3.597 0.0 10.791 0 0 0
3160 3 5.3955 12.5895 32.373 0 0 0
2959 3 8.9925 28.776 34.1715 0 0 0
2462 3 14.388 23.3805 19.7835 0 0 0
1304 3 23.3805 26.9775 17.985 0 0 0
3556 3 1.7985 12.5895 28.776 0 0 0
3041 3 7.194 3.597 0.0 0 0 0
2467 3 12.5895 21.582 23.3805 0 0 0
1411 3 19.7835 0.0 8.9925 0 0 0
158 3 34.1715 26.9775 28.776 0 0 0
395 3 30.5745 14.388 30.5745 0 0 0
2844 3 8.9925 23.3805 0.0 0 0 0
1371 3 23.3805 32.373 8.9925 0 0 0
2662 3 10.791 5.3955 19.7835 0 0 0
2172 3 16.1865 34.1715 7.194 0 0 0
2740 3 8.9925 12.5895 14.388 0 0 0
720 3 26.9775 8.9925 32.373 0 0 0
2338 3 14.388 12.5895 16.1865 0 0 0
1669 3 21.582 21.582 25.179 0 0 0
2579 3 12.5895 32.373 16.1865 0 0 0
3696 3 1.7985 26.9775 10.791 0 0 0
2312 3 12.5895 8.9925 25.179 0 0 0
3327 3 5.3955 28.776 5.3955 0 0 0
1219 3 23.3805 17.985 16.1865 0 0 0
144 3 34.1715 26.9775 3.597 0 0 0
338 3 32.373 12.5895 16.1865 0 0 0
1372 3 23.3805 34.1715 7.194 0 0 0
470 3 32.373 23.3805 26.9775 0 0 0
3776 3 1.7985 34.1715 10.791 0 0 0
1543 3 19.7835 10.791 19.7835 0 0 0
2756 3 8.9925 12.5895 28.776 0 0 0
419 3 30.5745 17.985 16.1865 0 0 0
995 3 26.9775 32.373 30.5745 0 0 0
3851 3 0.0 7.194 17.985 0 0 0
992 3 26.9775 34.1715 25.179 0 0 0
3934 3 0.0 23.3805 23.3805 0 0 0
1212 3 23.3805 19.7835 7.194 0 0 0
3799 3 1.7985 32.373 34.1715 0 0 0
894 3 28.776 26.9775 12.5895 0 0 0
432 3 30.5745 19.7835 25.179 0 0 0
1783 3 19.7835 32.373 19.7835 0 0 0
723 3 26.9775 10.791 1.7985 0 0 0
1635 3 19.7835 17.985 30.5745 0 0 0
2213 3 14.388 0.0 10.791 0 0 0
215 3 30.5745 0.0 12.5895 0 0 0
3410 3 3.597 1.7985 8.9925 0 0 0
1243 3 23.3805 21.582 1.7985 0 0 0
3465 3 3.597 3.597 21.582 0 0 0
27 3 34.1715 3.597 12.5895 0 0 0
3220 3 5.3955 19.7835 14.388 0 0 0
2369 3 14.388 14.388 7.194 0 0 0
2303 3 12.5895 7.194 19.7835 0 0 0
1823 3 16.1865 0.0 19.7835 0 0 0
1478 3 21.582 5.3955 34.1715 0 0 0
1759 3 19.7835 28.776 34.1715 0 0 0
2496 3 12.5895 26.9775 10.791 0 0 0
357 3 32.373 10.791 32.373 0 0 0
2019 3 16.1865 17.985 16.1865 0 0 0
3422 3 3.597 1.7985 19.7835 0 0 0
2593 3 14.388 32.373 28.776 0 0 0
1571 3 19.7835 14.388 8.9925 0 0 0
2268 3 12.5895 5.3955 21.582 0 0 0
1384 3 23.3805 34.1715 17.985 0 0 0
3820 3 0.0 1.7985 34.1715 0 0 0
3107 3 5.3955 7.194 23.3805 0 0 0
3904 3 0.0 19.7835 5.3955 0 0 0
633 3 28.776 0.0 28.776 0 0 0
1865 3 17.985 3.597 21.582 0 0 0
612 3 26.9775 1.7985 7.194 0 0 0
3868 3 0.0 12.5895 12.5895 0 0 0
915 3 26.9775 25.179 30.5745 0 0 0
2296 3 12.5895 8.9925 10.791 0 0 0
1903 3 16.1865 7.194 19.7835 0 0 0
1818 3 17.985 1.7985 16.1865 0 0 0
2330 3 14.388 12.5895 8.9925 0 0 0
3937 3 0.0 21.582 28.776 0 0 0
2852 3 8.9925 23.3805 7.194 0 0 0
362 3 32.373 16.1865 1.7985 0 0 0
2326 3 14.388 12.5895 5.3955 0 0 0
2308 3 12.5895 8.9925 21.582 0 0 0
3308 3 5.3955 26.9775 21.582 0 0 0
2742 3 10.791 12.5895 19.7835 0 0 0
3284 3 5.3955 26.9775 0.0 0 0 0
168 3 34.1715 30.5745 10.791 0 0 0
3084 3 5.3955 8.9925 0.0 0 0 0
2938 3 10.791 30.5745 16.1865 0 0 0
2386 3 14.388 16.1865 23.3805 0 0 0
172 3 34.1715 30.5745 17.985 0 0 0
601 3 28.776 0.0 0.0 0 0 0
2960 3 8.9925 30.5745 32.373 0 0 0
673 3 28.776 3.597 28.776 0 0 0
3769 3 3.597 32.373 7.194 0 0 0
286 3 32.373 8.9925 5.3955 0 0 0
129 3 34.1715 21.582 16.1865 0 0 0
108 3 34.1715 19.7835 10.791 0 0 0
2319 3 12.5895 7.194 34.1715 0 0 0
1889 3 17.985 7.194 7.194 0 0 0
3565 3 3.597 14.388 3.597 0 0 0
1883 3 16.1865 7.194 1.7985 0 0 0
1497 3 21.582 7.194 14.388 0 0 0
544 3 30.5745 30.5745 17.985 0 0 0
3926 3 0.0 23.3805 8.9925 0 0 0
3078 3 7.194 5.3955 34.1715 0 0 0
387 3 30.5745 14.388 23.3805 0 0 0
2310 3 14.388 8.9925 26.9775 0 0 0
3450 3 3.597 5.3955 8.9925 0 0 0
580 3 30.5745 34.1715 14.388 0 0 0
2060 3 16.1865 23.3805 14.388 0 0 0
2741 3 10.791 10.791 17.985 0 0 0
2600 3 12.5895 34.1715 32.373 0 0 0
618 3 28.776 1.7985 16.1865 0 0 0
2550 3 14.388 30.5745 26.9775 0 0 0
3334 3 7.194 30.5745 12.5895 0 0 0
2535 3 12.5895 28.776 12.5895 0 0 0
344 3 30.5745 12.5895 17.985 0 0 0
3941 3 0.0 25.179 0.0 0 0 0
1301 3 25.179 25.179 17.985 0 0 0
953 3 28.776 28.776 28.776 0 0 0
3452 3 1.7985 5.3955 7.194 0 0 0
3609 3 3.597 17.985 7.194 0 0 0
198 3 34.1715 34.1715 28.776 0 0 0
2167 3 16.1865 32.373 5.3955 0 0 0
2615 3 8.9925 0.0 12.5895 0 0 0
3489 3 3.597 7.194 7.194 0 0 0
1486 3 21.582 8.9925 5.3955 0 0 0
3989 3 0.0 32.373 14.388 0 0 0
1863 3 16.1865 3.597 19.7835 0 0 0
495 3 30.5745 25.179 12.5895 0 0 0
3282 3 7.194 26.9775 1.7985 0 0 0
3117 3 7.194 7.194 32.373 0 0 0
775 3 26.9775 14.388 12.5895 0 0 0
1424 3 19.7835 1.7985 17.985 0 0 0
747 3 26.9775 10.791 23.3805 0 0 0
3573 3 3.597 14.388 10.791 0 0 0
2236 3 12.5895 1.7985 28.776 0 0 0
946 3 28.776 30.5745 23.3805 0 0 0
561 3 32.373 32.373 0.0 0 0 0
2280 3 12.5895 5.3955 32.373 0 0 0
3421 3 3.597 0.0 17.985 0 0 0
20 3 34.1715 1.7985 32.373 0 0 0
1549 3 21.582 10.791 25.179 0 0 0
2275 3 12.5895 3.597 30.5745 0 0 0
1731 3 19.7835 28.776 8.9925 0 0 0
941 3 28.776 28.776 17.985 0 0 0
1092 3 23.3805 8.9925 7.194 0 0 0
2884 3 8.9925 26.9775 0.0 0 0 0
1135 3 23.3805 10.791 12.5895 0 0 0
1599 3 19.7835 14.388 34.1715 0 0 0
2139 3 16.1865 28.776 16.1865 0 0 0
3345 3 7.194 28.776 21.582 0 0 0
1449 3 21.582 3.597 7.194 0 0 0
2293 3 14.388 7.194 10.791 0 0 0
1916 3 16.1865 8.9925 28.776 0 0 0
1277 3 25.179 21.582 32.373 0 0 0
3786 3 3.597 34.1715 23.3805 0 0 0
1622 3 21.582 19.7835 19.7835 0 0 0
1952 3 16.1865 12.5895 25.179 0 0 0
2525 3 14.388 28.776 3.597 0 0 0
3283 3 5.3955 25.179 1.7985 0 0 0
1721 3 21.582 28.776 0.0 0 0 0
1232 3 23.3805 19.7835 25.179 0 0 0
3742 3 3.597 30.5745 19.7835 0 0 0
3176 3 5.3955 16.1865 10.791 0 0 0
1704 3 19.7835 26.9775 17.985 0 0 0
3064 3 5.3955 5.3955 17.985 0 0 0
3700 3 1.7985 26.9775 14.388 0 0 0
2996 3 8.9925 34.1715 28.776 0 0 0
3532 3 1.7985 12.5895 7.194 0 0 0
2157 3 17.985 28.776 32.373 0 0 0
2842 3 10.791 23.3805 1.7985 0 0 0
3412 3 1.7985 1.7985 7.194 0 0 0
868 3 26.9775 23.3805 21.582 0 0 0
596 3 30.5745 34.1715 28.776 0 0 0
97 3 34.1715 14.388 30.5745 0 0 0
1740 3 19.7835 30.5745 14.388 0 0 0
2118 3 17.985 26.9775 34.1715 0 0 0
3105 3 7.194 7.194 21.582 0 0 0
17 3 34.1715 0.0 30.5745 0 0 0
3286 3 7.194 26.9775 5.3955 0 0 0
927 3 26.9775 28.776 5.3955 0 0 0
1611 3 19.7835 17.985 8.9925 0 0 0
576 3 30.5745 34.1715 10.791 0 0 0
1206 3 25.179 19.7835 5.3955 0 0 0
3521 3 3.597 10.791 0.0 0 0 0
2277 3 14.388 3.597 32.373 0 0 0
759 3 26.9775 10.791 34.1715 0 0 0
2510 3 14.388 26.9775 26.9775 0 0 0
937 3 28.776 28.776 14.388 0 0 0
1145 3 25.179 10.791 21.582 0 0 0
2279 3 12.5895 3.597 34.1715 0 0 0
1358 3 25.179 30.5745 34.1715 0 0 0
1869 3 17.985 3.597 25.179 0 0 0
2058 3 17.985 23.3805 16.1865 0 0 0
3264 3 5.3955 23.3805 17.985 0 0 0
261 3 32.373 3.597 17.985 0 0 0
120 3 34.1715 19.7835 32.373 0 0 0
65 3 34.1715 10.791 8.9925 0 0 0
2610 3 10.791 1.7985 8.9925 0 0 0
3344 3 5.3955 30.5745 17.985 0 0 0
1800 3 19.7835 34.1715 32.373 0 0 0
2590 3 14.388 34.1715 26.9775 0 0 0
3625 3 3.597 17.985 21.582 0 0 0
1604 3 19.7835 19.7835 0.0 0 0 0
1348 3 23.3805 30.5745 21.582 0 0 0
1814 3 17.985 1.7985 12.5895 0 0 0
1208 3 23.3805 19.7835 3.597 0 0 0
3674 3 3.597 23.3805 30.5745 0 0 0
2391 3 12.5895 14.388 26.9775 0 0 0
3127 3 5.3955 10.791 5.3955 0 0 0
628 3 26.9775 1.7985 21.582 0 0 0
3023 3 5.3955 0.0 19.7835 0 0 0
350 3 32.373 12.5895 26.9775 0 0 0
2056 3 16.1865 23.3805 10.791 0 0 0
1061 3 25.179 3.597 17.985 0 0 0
1296 3 23.3805 26.9775 10.791 0 0 0
2190 3 17.985 34.1715 26.9775 0 0 0
2110 3 17.985 26.9775 26.9775 0 0 0
183 3 34.1715 32.373 5.3955 0 0 0
3 3 34.1715 0.0 5.3955 0 0 0
2454 3 14.388 23.3805 12.5895 0 0 0
3132 3 5.3955 12.5895 7.194 0 0 0
620 3 26.9775 1.7985 14.388 0 0 0
1400 3 23.3805 34.1715 32.373 0 0 0
385 3 32.373 14.388 21.582 0 0 0
2116 3 16.1865 26.9775 28.776 0 0 0
679 3 26.9775 3.597 34.1715 0 0 0
1345 3 25.179 28.776 21.582 0 0 0
1946 3 17.985 12.5895 23.3805 0 0 0
573 3 32.373 32.373 10.791 0 0 0
2709 3 10.791 7.194 25.179 0 0 0
1172 3 23.3805 16.1865 7.194 0 0 0
2198 3 17.985 34.1715 34.1715 0 0 0
1101 3 25.179 7.194 17.985 0 0 0
2001 3 17.985 17.985 0.0 0 0 0
524 3 30.5745 30.5745 0.0 0 0 0
2209 3 14.388 0.0 7.194 0 0 0
2528 3 12.5895 30.5745 3.597 0 0 0
1085 3 25.179 7.194 3.597 0 0 0
1867 3 16.1865 3.597 23.3805 0 0 0
3199 3 5.3955 14.388 34.1715 0 0 0
2545 3 14.388 28.776 21.582 0 0 0
855 3 26.9775 21.582 12.5895 0 0 0
3796 3 1.7985 34.1715 28.776 0 0 0
552 3 30.5745 30.5745 25.179 0 0 0
2351 3 12.5895 10.791 26.9775 0 0 0
767 3 26.9775 14.388 5.3955 0 0 0
2703 3 8.9925 7.194 19.7835 0 0 0
2915 3 8.9925 25.179 30.5745 0 0 0
1455 3 19.7835 3.597 12.5895 0 0 0
1745 3 21.582 28.776 21.582 0 0 0
3905 3 0.0 17.985 7.194 0 0 0
337 3 32.373 10.791 14.388 0 0 0
2524 3 12.5895 30.5745 0.0 0 0 0
1920 3 16.1865 8.9925 32.373 0 0 0
1297 3 25.179 25.179 14.388 0 0 0
2360 3 12.5895 12.5895 32.373 0 0 0
1138 3 25.179 12.5895 16.1865 0 0 0
1120 3 23.3805 8.9925 32.373 0 0 0
1872 3 16.1865 5.3955 25.179 0 0 0
2516 3 12.5895 26.9775 28.776 0 0 0
1464 3 19.7835 5.3955 17.985 0 0 0
600 3 30.5745 34.1715 32.373 0 0 0
2086 3 17.985 26.9775 5.3955 0 0 0
2991 3 8.9925 32.373 26.9775 0 0 0
1801 3 17.985 0.0 0.0 0 0 0
3121 3 7.194 10.791 0.0 0 0 0
757 3 28.776 10.791 32.373 0 0 0
422 3 32.373 19.7835 19.7835 0 0 0
1114 3 25.179 8.9925 30.5745 0 0 0
2755 3 8.9925 10.791 30.5745 0 0 0
3058 3 7.194 5.3955 16.1865 0 0 0
1057 3 25.179 3.597 14.388 0 0 0
2036 3 16.1865 19.7835 28.776 0 0 0
3891 3 0.0 14.388 17.985 0 0 0
592 3 30.5745 34.1715 25.179 0 0 0
2362 3 14.388 16.1865 1.7985 0 0 0
2323 3 12.5895 10.791 1.7985 0 0 0
3968 3 0.0 30.5745 12.5895 0 0 0
2826 3 10.791 19.7835 23.3805 0 0 0
3179 3 5.3955 14.388 16.1865 0 0 0
1240 3 23.3805 19.7835 32.373 0 0 0
73 3 34.1715 10.791 23.3805 0 0 0
1857 3 17.985 3.597 14.388 0 0 0
3330 3 7.194 30.5745 8.9925 0 0 0
2468 3 12.5895 23.3805 21.582 0 0 0
717 3 28.776 7.194 32.373 0 0 0
3804 3 0.0 1.7985 5.3955 0 0 0
3544 3 1.7985 12.5895 17.985 0 0 0
2219 3 12.5895 0.0 16.1865 0 0 0
3152 3 5.3955 12.5895 25.179 0 0 0
3013 3 7.194 0.0 10.791 0 0 0
1089 3 25.179 7.194 7.194 0 0 0
3441 3 3.597 3.597 0.0 0 0 0
2693 3 10.791 7.194 10.791 0 0 0
2096 3 16.1865 26.9775 10.791 0 0 0
2222 3 14.388 1.7985 19.7835 0 0 0
1200 3 23.3805 16.1865 32.373 0 0 0
1592 3 19.7835 16.1865 25.179 0 0 0
862 3 28.776 23.3805 19.7835 0 0 0
428 3 30.5745 19.7835 21.582 0 0 0
1533 3 21.582 10.791 10.791 0 0 0
2237 3 14.388 0.0 32.373 0 0 0
3278 3 7.194 23.3805 34.1715 0 0 0
2390 3 14.388 16.1865 26.9775 0 0 0
1192 3 23.3805 16.1865 25.179 0 0 0
1617 3 21.582 17.985 14.388 0 0 0
3092 3 5.3955 8.9925 7.194 0 0 0
1578 3 21.582 16.1865 16.1865 0 0 0
1567 3 19.7835 14.388 5.3955 0 0 0
3592 3 1.7985 16.1865 25.179 0 0 0
3307 3 5.3955 25.179 23.3805 0 0 0
532 3 30.5745 30.5745 7.194 0 0 0
179 3 34.1715 28.776 34.1715 0 0 0
2648 3 8.9925 5.3955 3.597 0 0 0
3212 3 5.3955 19.7835 7.194 0 0 0
474 3 32.373 23.3805 30.5745 0 0 0
1950 3 17.985 12.5895 26.9775 0 0 0
826 3 28.776 19.7835 23.3805 0 0 0
3622 3 3.597 19.7835 19.7835 0 0 0
3994 3 0.0 34.1715 23.3805 0 0 0
1777 3 21.582 32.373 14.388 0 0 0
887 3 26.9775 25.179 5.3955 0 0 0
1652 3 19.7835 23.3805 7.194 0 0 0
2485 3 14.388 25.179 3.597 0 0 0
1690 3 21.582 26.9775 8.9925 0 0 0
163 3 34.1715 28.776 5.3955 0 0 0
627 3 26.9775 0.0 23.3805 0 0 0
3604 3 1.7985 19.7835 0.0 0 0 0
2553 3 14.388 28.776 28.776 0 0 0
1860 3 16.1865 5.3955 14.388 0 0 0
2904 3 8.9925 26.9775 17.985 0 0 0
70 3 34.1715 12.5895 14.388 0 0 0
2233 3 14.388 0.0 28.776 0 0 0
1896 3 16.1865 8.9925 10.791 0 0 0
3129 3 7.194 10.791 7.194 0 0 0
1802 3 17.985 1.7985 1.7985 0 0 0
1923 3 16.1865 10.791 1.7985 0 0 0
736 3 26.9775 12.5895 10.791 0 0 0
800 3 26.9775 16.1865 32.373 0 0 0
1404 3 19.7835 1.7985 0.0 0 0 0
1898 3 17.985 8.9925 16.1865 0 0 0
3744 3 1.7985 30.5745 17.985 0 0 0
3899 3 0.0 14.388 32.373 0 0 0
1013 3 25.179 0.0 10.791 0 0 0
2907 3 8.9925 25.179 23.3805 0 0 0
1318 3 25.179 26.9775 34.1715 0 0 0
3309 3 7.194 25.179 25.179 0 0 0
1550 3 21.582 12.5895 26.9775 0 0 0
3076 3 5.3955 5.3955 28.776 0 0 0
3748 3 1.7985 30.5745 21.582 0 0 0
3978 3 0.0 30.5745 30.5745 0 0 0
21 3 34.1715 3.597 1.7985 0 0 0
2764 3 8.9925 16.1865 0.0 0 0 0
578 3 32.373 34.1715 16.1865 0 0 0
2614 3 10.791 1.7985 12.5895 0 0 0
1868 3 16.1865 5.3955 21.582 0 0 0
133 3 34.1715 21.582 23.3805 0 0 0
3714 3 3.597 26.9775 30.5745 0 0 0
1799 3 19.7835 32.373 34.1715 0 0 0
1854 3 17.985 5.3955 12.5895 0 0 0
566 3 32.373 34.1715 5.3955 0 0 0
3976 3 0.0 30.5745 26.9775 0 0 0
121 3 34.1715 21.582 1.7985 0 0 0
3537 3 3.597 10.791 14.388 0 0 0
2544 3 12.5895 30.5745 17.985 0 0 0
3192 3 5.3955 16.1865 25.179 0 0 0
1499 3 19.7835 7.194 16.1865 0 0 0
3546 3 3.597 12.5895 23.3805 0 0 0
2825 3 10.791 17.985 21.582 0 0 0
2505 3 14.388 25.179 21.582 0 0 0
2712 3 8.9925 8.9925 25.179 0 0 0
2725 3 10.791 10.791 3.597 0 0 0
159 3 34.1715 25.179 34.1715 0 0 0
298 3 32.373 8.9925 16.1865 0 0 0
1255 3 23.3805 21.582 12.5895 0 0 0
3265 3 7.194 21.582 21.582 0 0 0
143 3 34.1715 25.179 5.3955 0 0 0
3583 3 1.7985 14.388 19.7835 0 0 0
3268 3 5.3955 23.3805 21.582 0 0 0
1656 3 19.7835 23.3805 10.791 0 0 0
47 3 34.1715 7.194 12.5895 0 0 0
1406 3 21.582 1.7985 5.3955 0 0 0
2082 3 17.985 26.9775 1.7985 0 0 0
3065 3 7.194 3.597 21.582 0 0 0
1190 3 25.179 16.1865 26.9775 0 0 0
3931 3 0.0 21.582 17.985 0 0 0
3807 3 0.0 0.0 10.791 0 0 0
2623 3 8.9925 0.0 19.7835 0 0 0
1539 3 19.7835 10.791 16.1865 0 0 0
190 3 34.1715 34.1715 14.388 0 0 0
2083 3 16.1865 25.179 1.7985 0 0 0
1830 3 17.985 1.7985 26.9775 0 0 0
2804 3 8.9925 19.7835 0.0 0 0 0
1630 3 21.582 19.7835 26.9775 0 0 0
1073 3 25.179 3.597 28.776 0 0 0
1109 3 25.179 7.194 25.179 0 0 0
1834 3 17.985 1.7985 30.5745 0 0 0
1821 3 17.985 0.0 17.985 0 0 0
3789 3 3.597 32.373 25.179 0 0 0
2274 3 14.388 5.3955 30.5745 0 0 0
1102 3 25.179 8.9925 19.7835 0 0 0
1191 3 23.3805 14.388 26.9775 0 0 0
2385 3 14.388 14.388 21.582 0 0 0
1998 3 17.985 16.1865 34.1715 0 0 0
220 3 30.5745 1.7985 14.388 0 0 0
3158 3 7.194 12.5895 34.1715 0 0 0
1798 3 21.582 34.1715 34.1715 0 0 0
3428 3 1.7985 1.7985 21.582 0 0 0
3135 3 5.3955 10.791 12.5895 0 0 0
3705 3 3.597 25.179 21.582 0 0 0
467 3 30.5745 21.582 23.3805 0 0 0
450 3 32.373 23.3805 8.9925 0 0 0
1969 3 17.985 14.388 7.194 0 0 0
1016 3 23.3805 1.7985 10.791 0 0 0
1397 3 25.179 32.373 32.373 0 0 0
1587 3 19.7835 14.388 23.3805 0 0 0
1001 3 25.179 0.0 0.0 0 0 0
3880 3 0.0 12.5895 34.1715 0 0 0
1598 3 21.582 16.1865 34.1715 0 0 0
3483 3 1.7985 7.194 1.7985 0 0 0
3738 3 3.597 30.5745 16.1865 0 0 0
3999 3 0.0 32.373 32.373 0 0 0
1520 3 19.7835 8.9925 32.373 0 0 0
1684 3 19.7835 26.9775 0.0 0 0 0
3791 3 1.7985 32.373 26.9775 0 0 0
166 3 34.1715 30.5745 7.194 0 0 0
1699 3 19.7835 25.179 16.1865 0 0 0
3669 3 3.597 21.582 25.179 0 0 0
2240 3 12.5895 1.7985 32.373 0 0 0
2833 3 10.791 17.985 28.776 0 0 0
3277 3 7.194 21.582 32.373 0 0 0
2031 3 16.1865 17.985 26.9775 0 0 0
493 3 32.373 25.179 10.791 0 0 0
505 3 32.373 25.179 21.582 0 0 0
434 3 32.373 19.7835 30.5745 0 0 0
2224 3 12.5895 1.7985 17.985 0 0 0
1982 3 17.985 16.1865 19.7835 0 0 0
1002 3 25.179 1.7985 1.7985 0 0 0
3898 3 0.0 16.1865 30.5745 0 0 0
2686 3 10.791 8.9925 5.3955 0 0 0
2909 3 10.791 25.179 25.179 0 0 0
2043 3 16.1865 21.582 1.7985 0 0 0
1422 3 21.582 1.7985 19.7835 0 0 0
3118 3 7.194 8.9925 34.1715 0 0 0
3610 3 3.597 19.7835 8.9925 0 0 0
1637 3 21.582 17.985 32.373 0 0 0
3332 3 5.3955 30.5745 7.194 0 0 0
102 3 34.1715 19.7835 0.0 0 0 0
1260 3 23.3805 23.3805 14.388 0 0 0
466 3 32.373 23.3805 23.3805 0 0 0
1123 3 23.3805 10.791 1.7985 0 0 0
1586 3 21.582 16.1865 23.3805 0 0 0
634 3 28.776 1.7985 30.5745 0 0 0
103 3 34.1715 17.985 5.3955 0 0 0
2964 3 8.9925 34.1715 0.0 0 0 0
2023 3 16.1865 17.985 19.7835 0 0 0
3990 3 0.0 34.1715 16.1865 0 0 0
829 3 28.776 17.985 25.179 0 0 0
3638 3 3.597 19.7835 34.1715 0 0 0
1264 3 23.3805 23.3805 17.985 0 0 0
1387 3 23.3805 32.373 23.3805 0 0 0
3232 3 5.3955 19.7835 25.179 0 0 0
1696 3 19.7835 26.9775 10.791 0 0 0
18 3 34.1715 1.7985 28.776 0 0 0
1086 3 25.179 8.9925 5.3955 0 0 0
643 3 26.9775 3.597 1.7985 0 0 0
443 3 30.5745 21.582 1.7985 0 0 0
661 3 28.776 3.597 17.985 0 0 0
2763 3 8.9925 14.388 1.7985 0 0 0
1693 3 21.582 25.179 10.791 0 0 0
2045 3 17.985 21.582 3.597 0 0 0
1816 3 16.1865 1.7985 10.791 0 0 0
3259 3 5.3955 21.582 16.1865 0 0 0
2874 3 10.791 23.3805 30.5745 0 0 0
1095 3 23.3805 7.194 12.5895 0 0 0
3960 3 0.0 26.9775 34.1715 0 0 0
2478 3 14.388 23.3805 34.1715 0 0 0
3110 3 7.194 8.9925 26.9775 0 0 0
1522 3 21.582 12.5895 1.7985 0 0 0
851 3 26.9775 21.582 8.9925 0 0 0
2710 3 10.791 8.9925 26.9775 0 0 0
3273 3 7.194 21.582 28.776 0 0 0
3672 3 1.7985 23.3805 25.179 0 0 0
1688 3 19.7835 26.9775 3.597 0 0 0
184 3 34.1715 34.1715 3.597 0 0 0
2180 3 16.1865 34.1715 14.388 0 0 0
3445 3 3.597 3.597 3.597 0 0 0
2212 3 12.5895 1.7985 7.194 0 0 0
2318 3 14.388 8.9925 34.1715 0 0 0
2449 3 14.388 21.582 7.194 0 0 0
52 3 34.1715 8.9925 17.985 0 0 0
3571 3 1.7985 14.388 8.9925 0 0 0
2642 3 10.791 5.3955 1.7985 0 0 0
3020 3 5.3955 1.7985 14.388 0 0 0
3496 3 1.7985 8.9925 10.791 0 0 0
2414 3 14.388 19.7835 12.5895 0 0 0
1855 3 16.1865 3.597 12.5895 0 0 0
3165 3 7.194 14.388 3.597 0 0 0
88 3 34.1715 16.1865 10.791 0 0 0
2999 3 8.9925 32.373 34.1715 0 0 0
3884 3 0.0 16.1865 5.3955 0 0 0
971 3 26.9775 32.373 8.9925 0 0 0
940 3 26.9775 30.5745 14.388 0 0 0
1196 3 23.3805 16.1865 28.776 0 0 0
3448 3 1.7985 5.3955 3.597 0 0 0
3964 3 0.0 30.5745 5.3955 0 0 0
1595 3 19.7835 14.388 30.5745 0 0 0
2411 3 12.5895 17.985 8.9925 0 0 0
1187 3 23.3805 14.388 23.3805 0 0 0
3505 3 3.597 7.194 21.582 0 0 0
2247 3 12.5895 3.597 5.3955 0 0 0
1418 3 21.582 1.7985 16.1865 0 0 0
1876 3 16.1865 5.3955 28.776 0 0 0
3008 3 5.3955 1.7985 3.597 0 0 0
3593 3 3.597 14.388 28.776 0 0 0
3216 3 5.3955 19.7835 10.791 0 0 0
708 3 26.9775 8.9925 21.582 0 0 0
1803 3 16.1865 0.0 1.7985 0 0 0
3495 3 1.7985 7.194 12.5895 0 0 0
3955 3 0.0 25.179 25.179 0 0 0
1641 3 21.582 21.582 0.0 0 0 0
3756 3 1.7985 30.5745 28.776 0 0 0
2771 3 8.9925 14.388 8.9925 0 0 0
547 3 30.5745 28.776 23.3805 0 0 0
3923 3 0.0 21.582 3.597 0 0 0
3175 3 5.3955 14.388 12.5895 0 0 0
2809 3 10.791 17.985 7.194 0 0 0
1707 3 19.7835 25.179 23.3805 0 0 0
1817 3 17.985 0.0 14.388 0 0 0
1093 3 25.179 7.194 10.791 0 0 0
3997 3 0.0 32.373 28.776 0 0 0
975 3 26.9775 32.373 12.5895 0 0 0
2749 3 10.791 10.791 25.179 0 0 0
2383 3 12.5895 14.388 19.7835 0 0 0
1785 3 21.582 32.373 21.582 0 0 0
3491 3 1.7985 7.194 8.9925 0 0 0
3314 3 7.194 26.9775 30.5745 0 0 0
253 3 32.373 3.597 10.791 0 0 0
3359 3 5.3955 28.776 34.1715 0 0 0
3134 3 7.194 12.5895 12.5895 0 0 0
85 3 34.1715 14.388 8.9925 0 0 0
1553 3 21.582 10.791 28.776 0 0 0
2171 3 16.1865 32.373 8.9925 0 0 0
2816 3 8.9925 19.7835 10.791 0 0 0
2596 3 12.5895 34.1715 28.776 0 0 0
1434 3 21.582 1.7985 30.5745 0 0 0
2815 3 8.9925 17.985 12.5895 0 0 0
417 3 32.373 17.985 14.388 0 0 0
3555 3 1.7985 10.791 30.5745 0 0 0
3654 3 3.597 23.3805 12.5895 0 0 0
1675 3 19.7835 21.582 30.5745 0 0 0
2540 3 12.5895 30.5745 14.388 0 0 0
398 3 32.373 16.1865 34.1715 0 0 0
3372 3 5.3955 34.1715 7.194 0 0 0
2829 3 10.791 17.985 25.179 0 0 0
1090 3 25.179 8.9925 8.9925 0 0 0
3942 3 0.0 26.9775 1.7985 0 0 0
147 3 34.1715 25.179 12.5895 0 0 0
1547 3 19.7835 10.791 23.3805 0 0 0
565 3 32.373 32.373 3.597 0 0 0
3778 3 3.597 34.1715 16.1865 0 0 0
2494 3 14.388 26.9775 12.5895 0 0 0
379 3 30.5745 14.388 16.1865 0 0 0
2892 3 8.9925 26.9775 7.194 0 0 0
591 3 30.5745 32.373 26.9775 0 0 0
1893 3 17.985 7.194 10.791 0 0 0
2761 3 10.791 14.388 0.0 0 0 0
3275 3 5.3955 21.582 30.5745 0 0 0
1805 3 17.985 0.0 3.597 0 0 0
877 3 28.776 21.582 32.373 0 0 0
1820 3 16.1865 1.7985 14.388 0 0 0
1244 3 23.3805 23.3805 0.0 0 0 0
3725 3 3.597 28.776 3.597 0 0 0
380 3 30.5745 16.1865 14.388 0 0 0
3928 3 0.0 23.3805 12.5895 0 0 0
546 3 32.373 30.5745 23.3805 0 0 0
683 3 26.9775 7.194 1.7985 0 0 0
1182 3 25.179 16.1865 19.7835 0 0 0
945 3 28.776 28.776 21.582 0 0 0
1401 3 21.582 0.0 0.0 0 0 0
3661 3 3.597 21.582 17.985 0 0 0
1031 3 23.3805 0.0 26.9775 0 0 0
1038 3 25.179 1.7985 34.1715 0 0 0
832 3 26.9775 19.7835 25.179 0 0 0
3157 3 7.194 10.791 32.373 0 0 0
1909 3 17.985 7.194 25.179 0 0 0
2014 3 17.985 19.7835 12.5895 0 0 0
849 3 28.776 21.582 7.194 0 0 0
3671 3 1.7985 21.582 26.9775 0 0 0
2264 3 12.5895 5.3955 17.985 0 0 0
865 3 28.776 21.582 21.582 0 0 0
3011 3 5.3955 0.0 8.9925 0 0 0
1184 3 23.3805 16.1865 17.985 0 0 0
3733 3 3.597 28.776 10.791 0 0 0
504 3 30.5745 26.9775 17.985 0 0 0
2072 3 16.1865 23.3805 25.179 0 0 0
2377 3 14.388 14.388 14.388 0 0 0
2259 3 12.5895 3.597 16.1865 0 0 0
2317 3 14.388 7.194 32.373 0 0 0
2088 3 16.1865 26.9775 3.597 0 0 0
354 3 32.373 12.5895 30.5745 0 0 0
631 3 26.9775 0.0 26.9775 0 0 0
2919 3 8.9925 25.179 34.1715 0 0 0
3589 3 3.597 14.388 25.179 0 0 0
2425 3 14.388 17.985 21.582 0 0 0
353 3 32.373 10.791 28.776 0 0 0
1365 3 25.179 32.373 3.597 0 0 0
99 3 34.1715 14.388 34.1715 0 0 0
1007 3 23.3805 0.0 5.3955 0 0 0
3773 3 3.597 32.373 10.791 0 0 0
2706 3 10.791 8.9925 23.3805 0 0 0
1618 3 21.582 19.7835 16.1865 0 0 0
3642 3 3.597 23.3805 1.7985 0 0 0
616 3 26.9775 1.7985 10.791 0 0 0
698 3 28.776 8.9925 16.1865 0 0 0
3819 3 0.0 0.0 32.373 0 0 0
1009 3 25.179 0.0 7.194 0 0 0
2952 3 8.9925 30.5745 25.179 0 0 0
381 3 32.373 14.388 17.985 0 0 0
123 3 34.1715 21.582 5.3955 0 0 0
1628 3 19.7835 19.7835 21.582 0 0 0
931 3 26.9775 28.776 8.9925 0 0 0
3233 3 7.194 17.985 28.776 0 0 0
969 3 28.776 32.373 7.194 0 0 0
1249 3 25.179 21.582 7.194 0 0 0
3959 3 0.0 25.179 32.373 0 0 0
1037 3 25.179 0.0 32.373 0 0 0
3619 3 1.7985 17.985 16.1865 0 0 0
3750 3 3.597 30.5745 26.9775 0 0 0
1071 3 23.3805 3.597 26.9775 0 0 0
2 3 34.1715 1.7985 0.0 0 0 0
250 3 32.373 5.3955 8.9925 0 0 0
1665 3 21.582 21.582 21.582 0 0 0
952 3 26.9775 30.5745 25.179 0 0 0
226 3 32.373 1.7985 23.3805 0 0 0
2587 3 12.5895 32.373 23.3805 0 0 0
3102 3 7.194 8.9925 19.7835 0 0 0
2437 3 14.388 17.985 32.373 0 0 0
349 3 32.373 10.791 25.179 0 0 0
3295 3 5.3955 25.179 12.5895 0 0 0
3468 3 1.7985 5.3955 21.582 0 0 0
411 3 30.5745 17.985 8.9925 0 0 0
1254 3 25.179 23.3805 12.5895 0 0 0
837 3 28.776 17.985 32.373 0 0 0
1483 3 19.7835 7.194 1.7985 0 0 0
3167 3 5.3955 14.388 5.3955 0 0 0
3475 3 1.7985 3.597 30.5745 0 0 0
928 3 26.9775 30.5745 3.597 0 0 0
2064 3 16.1865 23.3805 17.985 0 0 0
1988 3 16.1865 16.1865 21.582 0 0 0
3144 3 5.3955 12.5895 17.985 0 0 0
2447 3 12.5895 21.582 5.3955 0 0 0
2810 3 10.791 19.7835 8.9925 0 0 0
2008 3 16.1865 19.7835 3.597 0 0 0
3803 3 0.0 0.0 3.597 0 0 0
1360 3 23.3805 30.5745 32.373 0 0 0
1885 3 17.985 7.194 3.597 0 0 0
177 3 34.1715 28.776 30.5745 0 0 0
1614 3 21.582 19.7835 12.5895 0 0 0
3887 3 0.0 14.388 10.791 0 0 0
1357 3 25.179 28.776 32.373 0 0 0
1609 3 21.582 17.985 7.194 0 0 0
2808 3 8.9925 19.7835 3.597 0 0 0
3163 3 5.3955 14.388 1.7985 0 0 0
267 3 30.5745 3.597 23.3805 0 0 0
1905 3 17.985 7.194 21.582 0 0 0
639 3 26.9775 0.0 34.1715 0 0 0
2009 3 17.985 17.985 7.194 0 0 0
2948 3 8.9925 30.5745 21.582 0 0 0
1023 3 23.3805 0.0 19.7835 0 0 0
1806 3 17.985 1.7985 5.3955 0 0 0
3071 3 5.3955 3.597 26.9775 0 0 0
3486 3 3.597 8.9925 5.3955 0 0 0
1313 3 25.179 25.179 28.776 0 0 0
1275 3 23.3805 21.582 30.5745 0 0 0
1287 3 23.3805 25.179 5.3955 0 0 0
1774 3 21.582 34.1715 12.5895 0 0 0
2187 3 16.1865 32.373 23.3805 0 0 0
136 3 34.1715 23.3805 25.179 0 0 0
3650 3 3.597 23.3805 8.9925 0 0 0
243 3 30.5745 3.597 1.7985 0 0 0
3381 3 7.194 32.373 17.985 0 0 0
2812 3 8.9925 19.7835 7.194 0 0 0
2433 3 14.388 17.985 28.776 0 0 0
499 3 30.5745 25.179 16.1865 0 0 0
2137 3 17.985 28.776 14.388 0 0 0
3567 3 1.7985 14.388 5.3955 0 0 0
3570 3 3.597 16.1865 8.9925 0 0 0
484 3 30.5745 26.9775 0.0 0 0 0
3455 3 1.7985 3.597 12.5895 0 0 0
1613 3 21.582 17.985 10.791 0 0 0
2900 3 8.9925 26.9775 14.388 0 0 0
26 3 34.1715 5.3955 7.194 0 0 0
979 3 26.9775 32.373 16.1865 0 0 0
3643 3 1.7985 21.582 1.7985 0 0 0
2549 3 14.388 28.776 25.179 0 0 0
925 3 28.776 28.776 3.597 0 0 0
3917 3 0.0 17.985 28.776 0 0 0
3835 3 0.0 3.597 25.179 0 0 0
1290 3 25.179 26.9775 8.9925 0 0 0
345 3 32.373 10.791 21.582 0 0 0
2336 3 12.5895 12.5895 10.791 0 0 0
814 3 28.776 19.7835 12.5895 0 0 0
3901 3 0.0 17.985 0.0 0 0 0
275 3 30.5745 3.597 30.5745 0 0 0
1714 4 21.582 26.9775 30.5745 0 0 0
461 4 32.373 21.582 17.985 0 0 0
2541 4 14.388 28.776 17.985 0 0 0
824 4 26.9775 19.7835 17.985 0 0 0
1070 4 25.179 5.3955 26.9775 0 0 0
3254 4 7.194 23.3805 12.5895 0 0 0
1511 4 19.7835 7.194 26.9775 0 0 0
2166 4 17.985 34.1715 5.3955 0 0 0
1531 4 19.7835 10.791 8.9925 0 0 0
737 4 28.776 10.791 14.388 0 0 0
3046 4 7.194 5.3955 5.3955 0 0 0
1214 4 25.179 19.7835 12.5895 0 0 0
1737 4 21.582 28.776 14.388 0 0 0
607 4 26.9775 0.0 5.3955 0 0 0
3667 4 1.7985 21.582 23.3805 0 0 0
2021 4 17.985 17.985 17.985 0 0 0
2558 4 14.388 30.5745 34.1715 0 0 0
2059 4 16.1865 21.582 16.1865 0 0 0
2806 4 10.791 19.7835 5.3955 0 0 0
587 4 30.5745 32.373 23.3805 0 0 0
413 4 32.373 17.985 10.791 0 0 0
334 4 32.373 12.5895 12.5895 0 0 0
3009 4 7.194 0.0 7.194 0 0 0
2583 4 12.5895 32.373 19.7835 0 0 0
1461 4 21.582 3.597 17.985 0 0 0
833 4 28.776 17.985 28.776 0 0 0
2751 4 8.9925 10.791 26.9775 0 0 0
1349 4 25.179 28.776 25.179 0 0 0
878 4 28.776 23.3805 34.1715 0 0 0
3191 4 5.3955 14.388 26.9775 0 0 0
3916 4 0.0 19.7835 26.9775 0 0 0
3472 4 1.7985 5.3955 25.179 0 0 0
794 4 28.776 16.1865 30.5745 0 0 0
1485 4 21.582 7.194 3.597 0 0 0
1194 4 25.179 16.1865 30.5745 0 0 0
140 4 34.1715 23.3805 32.373 0 0 0
548 4 30.5745 30.5745 21.582 0 0 0
986 4 28.776 34.1715 23.3805 0 0 0
3970 4 0.0 30.5745 16.1865 0 0 0
3808 4 0.0 1.7985 12.5895 0 0 0
2685 4 10.791 7.194 3.597 0 0 0
3972 4 0.0 30.5745 19.7835 0 0 0
848 4 26.9775 23.3805 3.597 0 0 0
787 4 26.9775 14.388 23.3805 0 0 0
2040 4 16.1865 19.7835 32.373 0 0 0
3813 4 0.0 0.0 21.582 0 0 0
3596 4 1.7985 16.1865 28.776 0 0 0
3975 4 0.0 28.776 25.179 0 0 0
2061 4 17.985 21.582 17.985 0 0 0
1797 4 21.582 32.373 32.373 0 0 0
3120 4 5.3955 8.9925 32.373 0 0 0
739 4 26.9775 10.791 16.1865 0 0 0
3028 4 5.3955 1.7985 21.582 0 0 0
1053 4 25.179 3.597 10.791 0 0 0
772 4 26.9775 16.1865 7.194 0 0 0
1518 4 21.582 8.9925 34.1715 0 0 0
1949 4 17.985 10.791 25.179 0 0 0
1344 4 23.3805 30.5745 17.985 0 0 0
3719 4 1.7985 25.179 34.1715 0 0 0
638 4 28.776 1.7985 34.1715 0 0 0
2949 4 10.791 28.776 25.179 0 0 0
2954 4 10.791 30.5745 30.5745 0 0 0
3822 4 0.0 5.3955 1.7985 0 0 0
1064 4 23.3805 5.3955 17.985 0 0 0
187 4 34.1715 32.373 12.5895 0 0 0
1291 4 23.3805 25.179 8.9925 0 0 0
500 4 30.5745 26.9775 14.388 0 0 0
1035 4 23.3805 0.0 30.5745 0 0 0
2022 4 17.985 19.7835 19.7835 0 0 0
816 4 26.9775 19.7835 10.791 0 0 0
3914 4 0.0 19.7835 23.3805 0 0 0
1000 4 26.9775 34.1715 32.373 0 0 0
988 4 26.9775 34.1715 21.582 0 0 0
1634 4 21.582 19.7835 30.5745 0 0 0
3266 4 7.194 23.3805 23.3805 0 0 0
2578 4 14.388 34.1715 16.1865 0 0 0
154 4 34.1715 26.9775 21.582 0 0 0
898 4 28.776 26.9775 16.1865 0 0 0
2427 4 12.5895 17.985 23.3805 0 0 0
2957 4 10.791 28.776 32.373 0 0 0
817 4 28.776 17.985 14.388 0 0 0
471 4 30.5745 21.582 26.9775 0 0 0
3591 4 1.7985 14.388 26.9775 0 0 0
805 4 28.776 17.985 3.597 0 0 0
458 4 32.373 23.3805 16.1865 0 0 0
2612 4 8.9925 1.7985 7.194 0 0 0
2379 4 12.5895 14.388 16.1865 0 0 0
2461 4 14.388 21.582 17.985 0 0 0
1454 4 21.582 5.3955 12.5895 0 0 0
3785 4 3.597 32.373 21.582 0 0 0
485 4 32.373 25.179 3.597 0 0 0
2034 4 17.985 19.7835 30.5745 0 0 0
3025 4 7.194 0.0 21.582 0 0 0
1948 4 16.1865 12.5895 21.582 0 0 0
1657 4 21.582 21.582 14.388 0 0 0
1234 4 25.179 19.7835 30.5745 0 0 0
1708 4 19.7835 26.9775 21.582 0 0 0
3339 4 5.3955 28.776 16.1865 0 0 0
3386 4 7.194 34.1715 23.3805 0 0 0
567 4 30.5745 32.373 5.3955 0 0 0
3647 4 1.7985 21.582 5.3955 0 0 0
2307 4 12.5895 7.194 23.3805 0 0 0
1446 4 21.582 5.3955 5.3955 0 0 0
1174 4 25.179 16.1865 12.5895 0 0 0
2753 4 10.791 10.791 28.776 0 0 0
2366 4 14.388 16.1865 5.3955 0 0 0
3788 4 1.7985 34.1715 21.582 0 0 0
966 4 28.776 34.1715 5.3955 0 0 0
2993 4 10.791 32.373 28.776 0 0 0
3673 4 3.597 21.582 28.776 0 0 0
3701 4 3.597 25.179 17.985 0 0 0
3494 4 3.597 8.9925 12.5895 0 0 0
2791 4 8.9925 14.388 26.9775 0 0 0
371 4 30.5745 14.388 8.9925 0 0 0
402 4 32.373 19.7835 1.7985 0 0 0
2992 4 8.9925 34.1715 25.179 0 0 0
3694 4 3.597 26.9775 12.5895 0 0 0
3230 4 7.194 19.7835 26.9775 0 0 0
1374 4 25.179 34.1715 12.5895 0 0 0
2261 4 14.388 3.597 17.985 0 0 0
1623 4 19.7835 17.985 19.7835 0 0 0
2672 4 8.9925 5.3955 25.179 0 0 0
2931 4 8.9925 28.776 8.9925 0 0 0
2332 4 12.5895 12.5895 7.194 0 0 0
1197 4 25.179 14.388 32.373 0 0 0
2442 4 14.388 23.3805 1.7985 0 0 0
2372 4 12.5895 16.1865 7.194 0 0 0
734 4 28.776 12.5895 12.5895 0 0 0
3487 4 1.7985 7.194 5.3955 0 0 0
3873 4 0.0 10.791 21.582 0 0 0
1179 4 23.3805 14.388 16.1865 0 0 0
1648 4 19.7835 23.3805 3.597 0 0 0
1853 4 17.985 3.597 10.791 0 0 0
3006 4 7.194 1.7985 5.3955 0 0 0
242 4 32.373 5.3955 1.7985 0 0 0
615 4 26.9775 0.0 12.5895 0 0 0
2289 4 14.388 7.194 7.194 0 0 0
2917 4 10.791 25.179 32.373 0 0 0
773 4 28.776 14.388 10.791 0 0 0
117 4 34.1715 17.985 30.5745 0 0 0
1083 4 23.3805 7.194 1.7985 0 0 0
2141 4 17.985 28.776 17.985 0 0 0
1382 4 25.179 34.1715 19.7835 0 0 0
3797 4 3.597 32.373 32.373 0 0 0
1405 4 21.582 0.0 3.597 0 0 0
2418 4 14.388 19.7835 16.1865 0 0 0
3630 4 3.597 19.7835 26.9775 0 0 0
211 4 30.5745 0.0 8.9925 0 0 0
3839 4 0.0 3.597 32.373 0 0 0
1055 4 23.3805 3.597 12.5895 0 0 0
1389 4 25.179 32.373 25.179 0 0 0
622 4 28.776 1.7985 19.7835 0 0 0
3312 4 5.3955 26.9775 25.179 0 0 0
2591 4 12.5895 32.373 26.9775 0 0 0
3164 4 5.3955 16.1865 0.0 0 0 0
769 4 28.776 14.388 7.194 0 0 0
776 4 26.9775 16.1865 10.791 0 0 0
352 4 30.5745 12.5895 25.179 0 0 0
3859 4 0.0 7.194 32.373 0 0 0
2159 4 16.1865 28.776 34.1715 0 0 0
1286 4 25.179 26.9775 5.3955 0 0 0
3649 4 3.597 21.582 7.194 0 0 0
1861 4 17.985 3.597 17.985 0 0 0
2507 4 12.5895 25.179 23.3805 0 0 0
124 4 34.1715 23.3805 3.597 0 0 0
3426 4 3.597 1.7985 23.3805 0 0 0
1258 4 25.179 23.3805 16.1865 0 0 0
3843 4 0.0 7.194 3.597 0 0 0
2605 4 10.791 0.0 3.597 0 0 0
2586 4 14.388 34.1715 23.3805 0 0 0
2053 4 17.985 21.582 10.791 0 0 0
3161 4 7.194 14.388 0.0 0 0 0
1463 4 19.7835 3.597 19.7835 0 0 0
3616 4 1.7985 19.7835 10.791 0 0 0
162 4 34.1715 30.5745 0.0 0 0 0
2131 4 16.1865 28.776 8.9925 0 0 0
1842 4 17.985 5.3955 1.7985 0 0 0
66 4 34.1715 12.5895 7.194 0 0 0
1329 4 25.179 28.776 7.194 0 0 0
1732 4 19.7835 30.5745 7.194 0 0 0
3208 4 5.3955 19.7835 3.597 0 0 0
1729 4 21.582 28.776 7.194 0 0 0
1164 4 23.3805 16.1865 0.0 0 0 0
1326 4 25.179 30.5745 5.3955 0 0 0
3294 4 7.194 26.9775 12.5895 0 0 0
3511 4 1.7985 7.194 26.9775 0 0 0
1205 4 25.179 17.985 3.597 0 0 0
3181 4 7.194 14.388 17.985 0 0 0
3802 4 0.0 1.7985 1.7985 0 0 0
559 4 30.5745 28.776 34.1715 0 0 0
2376 4 12.5895 16.1865 10.791 0 0 0
1968 4 16.1865 16.1865 3.597 0 0 0
3551 4 1.7985 10.791 26.9775 0 0 0
3568 4 1.7985 16.1865 3.597 0 0 0
1139 4 23.3805 10.791 16.1865 0 0 0
2897 4 10.791 25.179 14.388 0 0 0
139 4 34.1715 21.582 34.1715 0 0 0
2674 4 10.791 5.3955 30.5745 0 0 0
789 4 28.776 14.388 25.179 0 0 0
700 4 26.9775 8.9925 14.388 0 0 0
2767 4 8.9925 14.388 5.3955 0 0 0
245 4 32.373 3.597 3.597 0 0 0
1670 4 21.582 23.3805 26.9775 0 0 0
3969 4 0.0 28.776 14.388 0 0 0
1284 4 23.3805 26.9775 0.0 0 0 0
1489 4 21.582 7.194 7.194 0 0 0
3708 4 1.7985 26.9775 21.582 0 0 0
3201 4 7.194 17.985 0.0 0 0 0
651 4 26.9775 3.597 8.9925 0 0 0
3910 4 0.0 19.7835 16.1865 0 0 0
75 4 34.1715 10.791 26.9775 0 0 0
2972 4 8.9925 34.1715 7.194 0 0 0
3226 4 7.194 19.7835 23.3805 0 0 0
3387 4 5.3955 32.373 23.3805 0 0 0
1500 4 19.7835 8.9925 14.388 0 0 0
1410 4 21.582 1.7985 8.9925 0 0 0
2981 4 10.791 32.373 17.985 0 0 0
489 4 32.373 25.179 7.194 0 0 0
1928 4 16.1865 12.5895 3.597 0 0 0
2127 4 16.1865 28.776 5.3955 0 0 0
3043 4 5.3955 3.597 1.7985 0 0 0
891 4 26.9775 25.179 8.9925 0 0 0
3285 4 7.194 25.179 3.597 0 0 0
2597 4 14.388 32.373 32.373 0 0 0
274 4 32.373 5.3955 30.5745 0 0 0
3081 4 7.194 7.194 0.0 0 0 0
1285 4 25.179 25.179 3.597 0 0 0
1072 4 23.3805 5.3955 25.179 0 0 0
3346 4 7.194 30.5745 23.3805 0 0 0
2831 4 8.9925 17.985 26.9775 0 0 0
719 4 26.9775 7.194 34.1715 0 0 0
1501 4 21.582 7.194 17.985 0 0 0
1395 4 23.3805 32.373 30.5745 0 0 0
933 4 28.776 28.776 10.791 0 0 0
3686 4 3.597 26.9775 5.3955 0 0 0
2974 4 10.791 34.1715 12.5895 0 0 0
2066 4 17.985 23.3805 23.3805 0 0 0
1183 4 23.3805 14.388 19.7835 0 0 0
3018 4 7.194 1.7985 16.1865 0 0 0
3234 4 7.194 19.7835 30.5745 0 0 0
135 4 34.1715 21.582 26.9775 0 0 0
863 4 26.9775 21.582 19.7835 0 0 0
3145 4 7.194 10.791 21.582 0 0 0
980 4 26.9775 34.1715 14.388 0 0 0
2227 4 12.5895 0.0 23.3805 0 0 0
2226 4 14.388 1.7985 23.3805 0 0 0
3471 4 1.7985 3.597 26.9775 0 0 0
3695 4 1.7985 25.179 12.5895 0 0 0
657 4 28.776 3.597 14.388 0 0 0
2228 4 12.5895 1.7985 21.582 0 0 0
1672 4 19.7835 23.3805 25.179 0 0 0
2033 4 17.985 17.985 28.776 0 0 0
1202 4 25.179 19.7835 1.7985 0 0 0
3523 4 1.7985 10.791 1.7985 0 0 0
1029 4 25.179 0.0 25.179 0 0 0
1914 4 17.985 8.9925 30.5745 0 0 0
3735 4 1.7985 28.776 12.5895 0 0 0
152 4 34.1715 26.9775 17.985 0 0 0
3442 4 3.597 5.3955 1.7985 0 0 0
2997 4 10.791 32.373 32.373 0 0 0
963 4 26.9775 32.373 1.7985 0 0 0
3792 4 1.7985 34.1715 25.179 0 0 0
2399 4 12.5895 14.388 34.1715 0 0 0
105 4 34.1715 17.985 8.9925 0 0 0
1195 4 23.3805 14.388 30.5745 0 0 0
2077 4 17.985 21.582 32.373 0 0 0
2935 4 8.9925 28.776 12.5895 0 0 0
3256 4 5.3955 23.3805 10.791 0 0 0
3715 4 1.7985 25.179 30.5745 0 0 0
1831 4 16.1865 0.0 26.9775 0 0 0
2389 4 14.388 14.388 25.179 0 0 0
3014 4 7.194 1.7985 12.5895 0 0 0
3879 4 0.0 10.791 32.373 0 0 0
3550 4 3.597 12.5895 26.9775 0 0 0
3779 4 1.7985 32.373 16.1865 0 0 0
2444 4 12.5895 23.3805 0.0 0 0 0
2300 4 12.5895 8.9925 14.388 0 0 0
3826 4 0.0 5.3955 8.9925 0 0 0
256 4 30.5745 5.3955 10.791 0 0 0
469 4 32.373 21.582 25.179 0 0 0
3848 4 0.0 8.9925 12.5895 0 0 0
847 4 26.9775 21.582 5.3955 0 0 0
948 4 26.9775 30.5745 21.582 0 0 0
3739 4 1.7985 28.776 16.1865 0 0 0
2655 4 8.9925 3.597 12.5895 0 0 0
2735 4 8.9925 10.791 12.5895 0 0 0
1375 4 23.3805 32.373 12.5895 0 0 0
2899 4 8.9925 25.179 16.1865 0 0 0
3938 4 0.0 23.3805 30.5745 0 0 0
29 4 34.1715 3.597 16.1865 0 0 0
3809 4 0.0 0.0 14.388 0 0 0
1330 4 25.179 30.5745 8.9925 0 0 0
2472 4 12.5895 23.3805 25.179 0 0 0
2797 4 10.791 14.388 32.373 0 0 0
486 4 32.373 26.9775 5.3955 0 0 0
1781 4 21.582 32.373 17.985 0 0 0
1686 4 21.582 26.9775 5.3955 0 0 0
779 4 26.9775 14.388 16.1865 0 0 0
68 4 34.1715 12.5895 10.791 0 0 0
3225 4 7.194 17.985 21.582 0 0 0
1456 4 19.7835 5.3955 10.791 0 0 0
1927 4 16.1865 10.791 5.3955 0 0 0
677 4 28.776 3.597 32.373 0 0 0
456 4 30.5745 23.3805 10.791 0 0 0
206 4 32.373 1.7985 5.3955 0 0 0
3919 4 0.0 17.985 32.373 0 0 0
2895 4 8.9925 25.179 12.5895 0 0 0
1570 4 21.582 16.1865 8.9925 0 0 0
2451 4 12.5895 21.582 8.9925 0 0 0
3600 4 1.7985 16.1865 32.373 0 0 0
101 4 34.1715 17.985 1.7985 0 0 0
472 4 30.5745 23.3805 25.179 0 0 0
2916 4 8.9925 26.9775 28.776 0 0 0
475 4 30.5745 21.582 30.5745 0 0 0
3762 4 3.597 34.1715 1.7985 0 0 0
2331 4 12.5895 10.791 8.9925 0 0 0
1351 4 23.3805 28.776 26.9775 0 0 0
3823 4 0.0 3.597 3.597 0 0 0
3106 4 7.194 8.9925 23.3805 0 0 0
1687 4 19.7835 25.179 5.3955 0 0 0
2508 4 12.5895 26.9775 21.582 0 0 0
2073 4 17.985 21.582 28.776 0 0 0
3257 4 7.194 21.582 14.388 0 0 0
3915 4 0.0 17.985 25.179 0 0 0
153 4 34.1715 25.179 23.3805 0 0 0
2565 4 14.388 32.373 3.597 0 0 0
1245 4 25.179 21.582 3.597 0 0 0
368 4 30.5745 16.1865 3.597 0 0 0
1479 4 19.7835 3.597 34.1715 0 0 0
258 4 32.373 5.3955 16.1865 0 0 0
134 4 34.1715 23.3805 21.582 0 0 0
2313 4 14.388 7.194 28.776 0 0 0
3310 4 7.194 26.9775 26.9775 0 0 0
2853 4 10.791 21.582 10.791 0 0 0
201 4 32.373 0.0 0.0 0 0 0
1866 4 17.985 5.3955 23.3805 0 0 0
1677 4 21.582 21.582 32.373 0 0 0
1319 4 23.3805 25.179 34.1715 0 0 0
2392 4 12.5895 16.1865 25.179 0 0 0
3197 4 7.194 14.388 32.373 0 0 0
797 4 28.776 14.388 32.373 0 0 0
2075 4 16.1865 21.582 30.5745 0 0 0
335 4 30.5745 10.791 12.5895 0 0 0
1908 4 16.1865 8.9925 21.582 0 0 0
3186 4 7.194 16.1865 23.3805 0 0 0
2638 4 10.791 1.7985 34.1715 0 0 0
61 4 34.1715 10.791 1.7985 0 0 0
3558 4 3.597 12.5895 34.1715 0 0 0
2370 4 14.388 16.1865 8.9925 0 0 0
1480 4 19.7835 5.3955 32.373 0 0 0
2470 4 14.388 23.3805 26.9775 0 0 0
2078 4 17.985 23.3805 34.1715 0 0 0
240 4 30.5745 1.7985 32.373 0 0 0
2814 4 10.791 19.7835 12.5895 0 0 0
1991 4 16.1865 14.388 26.9775 0 0 0
3311 4 5.3955 25.179 26.9775 0 0 0
189 4 34.1715 32.373 16.1865 0 0 0
449 4 32.373 21.582 7.194 0 0 0
2994 4 10.791 34.1715 30.5745 0 0 0
369 4 32.373 14.388 7.194 0 0 0
1940 4 16.1865 12.5895 14.388 0 0 0
244 4 30.5745 5.3955 0.0 0 0 0
1847 4 16.1865 3.597 5.3955 0 0 0
1299 4 23.3805 25.179 16.1865 0 0 0
2309 4 14.388 7.194 25.179 0 0 0
3237 4 7.194 17.985 32.373 0 0 0
2106 4 17.985 26.9775 23.3805 0 0 0
3866 4 0.0 12.5895 8.9925 0 0 0
1042 4 25.179 5.3955 1.7985 0 0 0
1141 4 25.179 10.791 17.985 0 0 0
2272 4 12.5895 5.3955 25.179 0 0 0
1610 4 21.582 19.7835 8.9925 0 0 0
2580 4 12.5895 34.1715 14.388 0 0 0
1052 4 23.3805 5.3955 7.194 0 0 0
1323 4 23.3805 28.776 1.7985 0 0 0
2090 4 17.985 26.9775 8.9925 0 0 0
2819 4 8.9925 17.985 16.1865 0 0 0
2984 4 8.9925 34.1715 17.985 0 0 0
2789 4 10.791 14.388 25.179 0 0 0
1222 4 25.179 19.7835 19.7835 0 0 0
3770 4 3.597 34.1715 8.9925 0 0 0
2214 4 14.388 1.7985 12.5895 0 0 0
3729 4 3.597 28.776 7.194 0 0 0
3166 4 7.194 16.1865 5.3955 0 0 0
1913 4 17.985 7.194 28.776 0 0 0
2235 4 12.5895 0.0 30.5745 0 0 0
2193 4 17.985 32.373 28.776 0 0 0
1555 4 19.7835 10.791 30.5745 0 0 0
3271 4 5.3955 21.582 26.9775 0 0 0
3890 4 0.0 16.1865 16.1865 0 0 0
3405 4 3.597 0.0 3.597 0 0 0
171 4 34.1715 28.776 19.7835 0 0 0
3504 4 1.7985 8.9925 17.985 0 0 0
3507 4 1.7985 7.194 23.3805 0 0 0
3940 4 0.0 23.3805 34.1715 0 0 0
115 4 34.1715 17.985 26.9775 0 0 0
1211 4 23.3805 17.985 8.9925 0 0 0
1627 4 19.7835 17.985 23.3805 0 0 0
3690 4 3.597 26.9775 8.9925 0 0 0
2132 4 16.1865 30.5745 7.194 0 0 0
8 4 34.1715 1.7985 10.791 0 0 0
2577 4 14.388 32.373 14.388 0 0 0
2153 4 17.985 28.776 28.776 0 0 0
3261 4 7.194 21.582 17.985 0 0 0
91 4 34.1715 14.388 19.7835 0 0 0
3140 4 5.3955 12.5895 14.388 0 0 0
1794 4 21.582 34.1715 30.5745 0 0 0
2700 4 8.9925 8.9925 14.388 0 0 0
1027 4 23.3805 0.0 23.3805 0 0 0
1717 4 21.582 25.179 32.373 0 0 0
1943 4 16.1865 10.791 19.7835 0 0 0
3998 4 0.0 34.1715 30.5745 0 0 0
2455 4 12.5895 21.582 12.5895 0 0 0
919 4 26.9775 25.179 34.1715 0 0 0
3691 4 1.7985 25.179 8.9925 0 0 0
2357 4 14.388 10.791 32.373 0 0 0
433 4 32.373 17.985 28.776 0 0 0
1667 4 19.7835 21.582 23.3805 0 0 0
2344 4 12.5895 12.5895 17.985 0 0 0
3853 4 0.0 7.194 21.582 0 0 0
2324 4 12.5895 12.5895 0.0 0 0 0
2398 4 14.388 16.1865 34.1715 0 0 0
3883 4 0.0 14.388 3.597 0 0 0
3665 4 3.597 21.582 21.582 0 0 0
3746 4 3.597 30.5745 23.3805 0 0 0
1584 4 19.7835 16.1865 17.985 0 0 0
1388 4 23.3805 34.1715 21.582 0 0 0
2670 4 10.791 5.3955 26.9775 0 0 0
3141 4 7.194 10.791 17.985 0 0 0
2334 4 14.388 12.5895 12.5895 0 0 0
33 4 34.1715 3.597 23.3805 0 0 0
2961 4 10.791 32.373 0.0 0 0 0
707 4 26.9775 7.194 23.3805 0 0 0
1008 4 23.3805 1.7985 3.597 0 0 0
917 4 28.776 25.179 32.373 0 0 0
1568 4 19.7835 16.1865 3.597 0 0 0
2288 4 12.5895 8.9925 3.597 0 0 0
376 4 30.5745 16.1865 10.791 0 0 0
2971 4 8.9925 32.373 8.9925 0 0 0
733 4 28.776 10.791 10.791 0 0 0
3425 4 3.597 0.0 21.582 0 0 0
3206 4 7.194 19.7835 5.3955 0 0 0
128 4 34.1715 23.3805 10.791 0 0 0
2654 4 10.791 5.3955 12.5895 0 0 0
2092 4 16.1865 26.9775 7.194 0 0 0
3946 4 0.0 26.9775 8.9925 0 0 0
249 4 32.373 3.597 7.194 0 0 0
1487 4 19.7835 7.194 5.3955 0 0 0
2738 4 10.791 12.5895 16.1865 0 0 0
193 4 34.1715 32.373 23.3805 0 0 0
1229 4 25.179 17.985 25.179 0 0 0
3355 4 5.3955 28.776 30.5745 0 0 0
497 4 32.373 25.179 14.388 0 0 0
1225 4 25.179 17.985 21.582 0 0 0
2030 4 17.985 19.7835 26.9775 0 0 0
3350 4 7.194 30.5745 26.9775 0 0 0
3963 4 0.0 28.776 3.597 0 0 0
3456 4 1.7985 5.3955 10.791 0 0 0
2569 4 14.388 32.373 7.194 0 0 0
1616 4 19.7835 19.7835 10.791 0 0 0
1488 4 19.7835 8.9925 3.597 0 0 0
1030 4 25.179 1.7985 26.9775 0 0 0
3763 4 1.7985 32.373 1.7985 0 0 0
3740 4 1.7985 30.5745 14.388 0 0 0
1728 4 19.7835 30.5745 3.597 0 0 0
1462 4 21.582 5.3955 19.7835 0 0 0
2483 4 12.5895 25.179 1.7985 0 0 0
1645 4 21.582 21.582 3.597 0 0 0
2365 4 14.388 14.388 3.597 0 0 0
2641 4 10.791 3.597 0.0 0 0 0
872 4 26.9775 23.3805 25.179 0 0 0
3903 4 0.0 17.985 3.597 0 0 0
3347 4 5.3955 28.776 23.3805 0 0 0
2929 4 10.791 28.776 7.194 0 0 0
2562 4 14.388 34.1715 1.7985 0 0 0
1585 4 21.582 14.388 21.582 0 0 0
2723 4 8.9925 10.791 1.7985 0 0 0
2861 4 10.791 21.582 17.985 0 0 0
597 4 32.373 32.373 32.373 0 0 0
150 4 34.1715 26.9775 14.388 0 0 0
1438 4 21.582 1.7985 34.1715 0 0 0
2241 4 14.388 3.597 0.0 0 0 0
2114 4 17.985 26.9775 30.5745 0 0 0
3957 4 0.0 25.179 28.776 0 0 0
3079 4 5.3955 3.597 34.1715 0 0 0
3174 4 7.194 16.1865 12.5895 0 0 0
3758 4 3.597 30.5745 34.1715 0 0 0
2374 4 14.388 16.1865 12.5895 0 0 0
2492 4 12.5895 26.9775 7.194 0 0 0
1779 4 19.7835 32.373 16.1865 0 0 0
1482 4 21.582 8.9925 1.7985 0 0 0
2047 4 16.1865 21.582 5.3955 0 0 0
2480 4 12.5895 23.3805 32.373 0 0 0
3684 4 1.7985 26.9775 0.0 0 0 0
1736 4 19.7835 30.5745 10.791 0 0 0
3447 4 1.7985 3.597 5.3955 0 0 0
1768 4 19.7835 34.1715 3.597 0 0 0
2598 4 14.388 34.1715 34.1715 0 0 0
2782 4 10.791 16.1865 19.7835 0 0 0
1399 4 23.3805 32.373 34.1715 0 0 0
1414 4 21.582 1.7985 12.5895 0 0 0
293 4 32.373 7.194 10.791 0 0 0
3655 4 1.7985 21.582 12.5895 0 0 0
1895 4 16.1865 7.194 12.5895 0 0 0
1350 4 25.179 30.5745 26.9775 0 0 0
1231 4 23.3805 17.985 26.9775 0 0 0
2290 4 14.388 8.9925 8.9925 0 0 0
64 4 34.1715 12.5895 3.597 0 0 0
2490 4 14.388 26.9775 8.9925 0 0 0
801 4 28.776 17.985 0.0 0 0 0
214 4 32.373 1.7985 12.5895 0 0 0
3755 4 1.7985 28.776 30.5745 0 0 0
967 4 26.9775 32.373 5.3955 0 0 0
1705 4 21.582 25.179 21.582 0 0 0
938 4 28.776 30.5745 16.1865 0 0 0
712 4 26.9775 8.9925 25.179 0 0 0
3872 4 0.0 12.5895 19.7835 0 0 0
100 4 34.1715 16.1865 32.373 0 0 0
488 4 30.5745 26.9775 3.597 0 0 0
2006 4 17.985 19.7835 5.3955 0 0 0
1370 4 25.179 34.1715 8.9925 0 0 0
392 4 30.5745 16.1865 25.179 0 0 0
1505 4 21.582 7.194 21.582 0 0 0
3082 4 7.194 8.9925 1.7985 0 0 0
498 4 32.373 26.9775 16.1865 0 0 0
2249 4 14.388 3.597 7.194 0 0 0
1878 4 17.985 5.3955 34.1715 0 0 0
2120 4 16.1865 26.9775 32.373 0 0 0
273 4 32.373 3.597 28.776 0 0 0
1796 4 19.7835 34.1715 28.776 0 0 0
1782 4 21.582 34.1715 19.7835 0 0 0
2636 4 8.9925 1.7985 28.776 0 0 0
1985 4 17.985 14.388 21.582 0 0 0
1565 4 21.582 14.388 3.597 0 0 0
2080 4 16.1865 23.3805 32.373 0 0 0
3101 4 7.194 7.194 17.985 0 0 0
3639 4 1.7985 17.985 34.1715 0 0 0
724 4 26.9775 12.5895 0.0 0 0 0
3449 4 3.597 3.597 7.194 0 0 0
383 4 30.5745 14.388 19.7835 0 0 0
3249 4 7.194 21.582 7.194 0 0 0
2140 4 16.1865 30.5745 14.388 0 0 0
1679 4 19.7835 21.582 34.1715 0 0 0
2778 4 10.791 16.1865 16.1865 0 0 0
196 4 34.1715 34.1715 25.179 0 0 0
1168 4 23.3805 16.1865 3.597 0 0 0
2714 4 10.791 8.9925 30.5745 0 0 0
2125 4 17.985 28.776 3.597 0 0 0
106 4 34.1715 19.7835 7.194 0 0 0
1973 4 17.985 14.388 10.791 0 0 0
232 4 30.5745 1.7985 25.179 0 0 0
3331 4 5.3955 28.776 8.9925 0 0 0
3396 4 5.3955 34.1715 28.776 0 0 0
873 4 28.776 21.582 28.776 0 0 0
3477 4 3.597 3.597 32.373 0 0 0
3652 4 1.7985 23.3805 7.194 0 0 0
2798 4 10.791 16.1865 34.1715 0 0 0
1930 4 17.985 12.5895 8.9925 0 0 0
1815 4 16.1865 0.0 12.5895 0 0 0
2465 4 14.388 21.582 21.582 0 0 0
3090 4 7.194 8.9925 8.9925 0 0 0
2271 4 12.5895 3.597 26.9775 0 0 0
1899 4 16.1865 7.194 16.1865 0 0 0
1129 4 25.179 10.791 7.194 0 0 0
3862 4 0.0 12.5895 1.7985 0 0 0
3659 4 1.7985 21.582 16.1865 0 0 0
3543 4 1.7985 10.791 19.7835 0 0 0
1034 4 25.179 1.7985 30.5745 0 0 0
49 4 34.1715 7.194 16.1865 0 0 0
1960 4 16.1865 12.5895 32.373 0 0 0
3709 4 3.597 25.179 25.179 0 0 0
515 4 30.5745 25.179 30.5745 0 0 0
2348 4 12.5895 12.5895 21.582 0 0 0
2584 4 12.5895 34.1715 17.985 0 0 0
1078 4 25.179 5.3955 34.1715 0 0 0
1491 4 19.7835 7.194 8.9925 0 0 0
468 4 30.5745 23.3805 21.582 0 0 0
1341 4 25.179 28.776 17.985 0 0 0
1063 4 23.3805 3.597 19.7835 0 0 0
277 4 32.373 3.597 32.373 0 0 0
2325 4 14.388 10.791 3.597 0 0 0
208 4 30.5745 1.7985 3.597 0 0 0
3184 4 5.3955 16.1865 17.985 0 0 0
3335 4 5.3955 28.776 12.5895 0 0 0
617 4 28.776 0.0 14.388 0 0 0
2521 4 14.388 28.776 0.0 0 0 0
3097 4 7.194 7.194 14.388 0 0 0
4000 4 0.0 34.1715 34.1715 0 0 0
2769 4 10.791 14.388 7.194 0 0 0
1789 4 21.582 32.373 25.179 0 0 0
3400 4 5.3955 34.1715 32.373 0 0 0
3950 4 0.0 26.9775 16.1865 0 0 0
1361 4 25.179 32.373 0.0 0 0 0
2988 4 8.9925 34.1715 21.582 0 0 0
1581 4 21.582 14.388 17.985 0 0 0
2150 4 17.985 30.5745 26.9775 0 0 0
218 4 32.373 1.7985 16.1865 0 0 0
3885 4 0.0 14.388 7.194 0 0 0
635 4 26.9775 0.0 30.5745 0 0 0
435 4 30.5745 17.985 30.5745 0 0 0
3717 4 3.597 25.179 32.373 0 0 0
2656 4 8.9925 5.3955 10.791 0 0 0
1936 4 16.1865 12.5895 10.791 0 0 0
1467 4 19.7835 3.597 23.3805 0 0 0
882 4 28.776 26.9775 1.7985 0 0 0
3896 4 0.0 16.1865 26.9775 0 0 0
762 4 28.776 16.1865 1.7985 0 0 0
3920 4 0.0 19.7835 34.1715 0 0 0
3894 4 0.0 16.1865 23.3805 0 0 0
1741 4 21.582 28.776 17.985 0 0 0
1944 4 16.1865 12.5895 17.985 0 0 0
527 4 30.5745 28.776 5.3955 0 0 0
142 4 34.1715 26.9775 0.0 0 0 0
426 4 32.373 19.7835 23.3805 0 0 0
2515 4 12.5895 25.179 30.5745 0 0 0
181 4 34.1715 32.373 1.7985 0 0 0
3003 4 5.3955 0.0 1.7985 0 0 0
3292 4 5.3955 26.9775 7.194 0 0 0
1324 4 23.3805 30.5745 0.0 0 0 0
1262 4 25.179 23.3805 19.7835 0 0 0
3536 4 1.7985 12.5895 10.791 0 0 0
3342 4 7.194 30.5745 19.7835 0 0 0
3644 4 1.7985 23.3805 0.0 0 0 0
3757 4 3.597 28.776 32.373 0 0 0
1824 4 16.1865 1.7985 17.985 0 0 0
2733 4 10.791 10.791 10.791 0 0 0
1719 4 19.7835 25.179 34.1715 0 0 0
3091 4 5.3955 7.194 8.9925 0 0 0
62 4 34.1715 12.5895 0.0 0 0 0
2186 4 17.985 34.1715 23.3805 0 0 0
1603 4 19.7835 17.985 1.7985 0 0 0
118 4 34.1715 19.7835 28.776 0 0 0
2729 4 10.791 10.791 7.194 0 0 0
1273 4 25.179 21.582 28.776 0 0 0
2041 4 17.985 21.582 0.0 0 0 0
424 4 30.5745 19.7835 17.985 0 0 0
1289 4 25.179 25.179 7.194 0 0 0
3702 4 3.597 26.9775 19.7835 0 0 0
1481 4 21.582 7.194 0.0 0 0 0
1590 4 21.582 16.1865 26.9775 0 0 0
2807 4 8.9925 17.985 5.3955 0 0 0
3572 4 1.7985 16.1865 7.194 0 0 0
956 4 26.9775 30.5745 28.776 0 0 0
3542 4 3.597 12.5895 19.7835 0 0 0
518 4 32.373 26.9775 34.1715 0 0 0
393 4 32.373 14.388 28.776 0 0 0
2858 4 10.791 23.3805 16.1865 0 0 0
2417 4 14.388 17.985 14.388 0 0 0
3493 4 3.597 7.194 10.791 0 0 0
647 4 26.9775 3.597 5.3955 0 0 0
3269 4 7.194 21.582 25.179 0 0 0
1006 4 25.179 1.7985 5.3955 0 0 0
2424 4 12.5895 19.7835 17.985 0 0 0
3209 4 7.194 17.985 7.194 0 0 0
197 4 34.1715 32.373 30.5745 0 0 0
1269 4 25.179 21.582 25.179 0 0 0
1308 4 23.3805 26.9775 21.582 0 0 0
170 4 34.1715 30.5745 14.388 0 0 0
2484 4 12.5895 26.9775 0.0 0 0 0
2962 4 10.791 34.1715 1.7985 0 0 0
2969 4 10.791 32.373 7.194 0 0 0
815 4 26.9775 17.985 12.5895 0 0 0
1575 4 19.7835 14.388 12.5895 0 0 0
3087 4 5.3955 7.194 5.3955 0 0 0
1850 4 17.985 5.3955 8.9925 0 0 0
2435 4 12.5895 17.985 30.5745 0 0 0
16 4 34.1715 1.7985 25.179 0 0 0
2299 4 12.5895 7.194 16.1865 0 0 0
1475 4 19.7835 3.597 30.5745 0 0 0
713 4 28.776 7.194 28.776 0 0 0
2736 4 8.9925 12.5895 10.791 0 0 0
1525 4 21.582 10.791 3.597 0 0 0
2017 4 17.985 17.985 14.388 0 0 0
1760 4 19.7835 30.5745 32.373 0 0 0
1750 4 21.582 30.5745 26.9775 0 0 0
589 4 32.373 32.373 25.179 0 0 0
929 4 28.776 28.776 7.194 0 0 0
2079 4 16.1865 21.582 34.1715 0 0 0
1280 4 23.3805 23.3805 32.373 0 0 0
523 4 30.5745 28.776 1.7985 0 0 0
1104 4 23.3805 8.9925 17.985 0 0 0
790 4 28.776 16.1865 26.9775 0 0 0
983 4 26.9775 32.373 19.7835 0 0 0
664 4 26.9775 5.3955 17.985 0 0 0
531 4 30.5745 28.776 8.9925 0 0 0
1709 4 21.582 25.179 25.179 0 0 0
2661 4 10.791 3.597 17.985 0 0 0
2246 4 14.388 5.3955 5.3955 0 0 0
6 4 34.1715 1.7985 7.194 0 0 0
831 4 26.9775 17.985 26.9775 0 0 0
2905 4 10.791 25.179 21.582 0 0 0
2977 4 10.791 32.373 14.388 0 0 0
2335 4 12.5895 10.791 12.5895 0 0 0
490 4 32.373 26.9775 8.9925 0 0 0
588 4 30.5745 34.1715 21.582 0 0 0
2440 4 12.5895 19.7835 32.373 0 0 0
2658 4 10.791 5.3955 16.1865 0 0 0
1875 4 16.1865 3.597 30.5745 0 0 0
1763 4 19.7835 32.373 1.7985 0 0 0
2412 4 12.5895 19.7835 7.194 0 0 0
2724 4 8.9925 12.5895 0.0 0 0 0
2913 4 10.791 25.179 28.776 0 0 0
1033 4 25.179 0.0 28.776 0 0 0
3900 4 0.0 16.1865 34.1715 0 0 0
961 4 28.776 32.373 0.0 0 0 0
577 4 32.373 32.373 14.388 0 0 0
3168 4 5.3955 16.1865 3.597 0 0 0
53 4 34.1715 7.194 23.3805 0 0 0
2713 4 10.791 7.194 28.776 0 0 0
3348 4 5.3955 30.5745 21.582 0 0 0
2469 4 14.388 21.582 25.179 0 0 0
148 4 34.1715 26.9775 10.791 0 0 0
262 4 32.373 5.3955 19.7835 0 0 0
2306 4 14.388 8.9925 23.3805 0 0 0
407 4 30.5745 17.985 5.3955 0 0 0
3462 4 3.597 5.3955 19.7835 0 0 0
593 4 32.373 32.373 28.776 0 0 0
1453 4 21.582 3.597 10.791 0 0 0
2321 4 14.388 10.791 0.0 0 0 0
3301 4 7.194 25.179 17.985 0 0 0
1 5 34.1715 0.0 1.7985 0 0 0
5 5 34.1715 0.0 8.9925 0 0 0
10 5 34.1715 1.7985 14.388 0 0 0
11 5 34.1715 0.0 19.7835 0 0 0
19 5 34.1715 0.0 34.1715 0 0 0
24 5 34.1715 5.3955 3.597 0 0 0
28 5 34.1715 5.3955 10.791 0 0 0
32 5 34.1715 5.3955 17.985 0 0 0
35 5 34.1715 3.597 26.9775 0 0 0
36 5 34.1715 5.3955 25.179 0 0 0
37 5 34.1715 3.597 30.5745 0 0 0
39 5 34.1715 3.597 34.1715 0 0 0
42 5 34.1715 8.9925 0.0 0 0 0
50 5 34.1715 8.9925 14.388 0 0 0
59 5 34.1715 7.194 34.1715 0 0 0
69 5 34.1715 10.791 16.1865 0 0 0
72 5 34.1715 12.5895 17.985 0 0 0
76 5 34.1715 12.5895 25.179 0 0 0
78 5 34.1715 12.5895 28.776 0 0 0
80 5 34.1715 12.5895 32.373 0 0 0
81 5 34.1715 14.388 1.7985 0 0 0
82 5 34.1715 16.1865 0.0 0 0 0
84 5 34.1715 16.1865 3.597 0 0 0
93 5 34.1715 14.388 23.3805 0 0 0
95 5 34.1715 14.388 26.9775 0 0 0
104 5 34.1715 19.7835 3.597 0 0 0
107 5 34.1715 17.985 12.5895 0 0 0
109 5 34.1715 17.985 16.1865 0 0 0
111 5 34.1715 17.985 19.7835 0 0 0
112 5 34.1715 19.7835 17.985 0 0 0
116 5 34.1715 19.7835 25.179 0 0 0
122 5 34.1715 23.3805 0.0 0 0 0
127 5 34.1715 21.582 12.5895 0 0 0
131 5 34.1715 21.582 19.7835 0 0 0
137 5 34.1715 21.582 30.5745 0 0 0
151 5 34.1715 25.179 19.7835 0 0 0
160 5 34.1715 26.9775 32.373 0 0 0
169 5 34.1715 28.776 16.1865 0 0 0
173 5 34.1715 28.776 23.3805 0 0 0
175 5 34.1715 28.776 26.9775 0 0 0
176 5 34.1715 30.5745 25.179 0 0 0
180 5 34.1715 30.5745 32.373 0 0 0
182 5 34.1715 34.1715 0.0 0 0 0
192 5 34.1715 34.1715 17.985 0 0 0
194 5 34.1715 34.1715 21.582 0 0 0
200 5 34.1715 34.1715 32.373 0 0 0
202 5 32.373 1.7985 1.7985 0 0 0
207 5 30.5745 0.0 5.3955 0 0 0
212 5 30.5745 1.7985 7.194 0 0 0
219 5 30.5745 0.0 16.1865 0 0 0
221 5 32.373 0.0 17.985 0 0 0
225 5 32.373 0.0 21.582 0 0 0
227 5 30.5745 0.0 23.3805 0 0 0
228 5 30.5745 1.7985 21.582 0 0 0
231 5 30.5745 0.0 26.9775 0 0 0
233 5 32.373 0.0 28.776 0 0 0
235 5 30.5745 0.0 30.5745 0 0 0
238 5 32.373 1.7985 34.1715 0 0 0
241 5 32.373 3.597 0.0 0 0 0
247 5 30.5745 3.597 5.3955 0 0 0
252 5 30.5745 5.3955 7.194 0 0 0
255 5 30.5745 3.597 12.5895 0 0 0
263 5 30.5745 3.597 19.7835 0 0 0
265 5 32.373 3.597 21.582 0 0 0
266 5 32.373 5.3955 23.3805 0 0 0
268 5 30.5745 5.3955 21.582 0 0 0
272 5 30.5745 5.3955 25.179 0 0 0
276 5 30.5745 5.3955 28.776 0 0 0
282 5 32.373 8.9925 1.7985 0 0 0
284 5 30.5745 8.9925 0.0 0 0 0
285 5 32.373 7.194 3.597 0 0 0
287 5 30.5745 7.194 5.3955 0 0 0
288 5 30.5745 8.9925 3.597 0 0 0
289 5 32.373 7.194 7.194 0 0 0
290 5 32.373 8.9925 8.9925 0 0 0
291 5 30.5745 7.194 8.9925 0 0 0
296 5 30.5745 8.9925 10.791 0 0 0
297 5 32.373 7.194 14.388 0 0 0
300 5 30.5745 8.9925 14.388 0 0 0
301 5 32.373 7.194 17.985 0 0 0
304 5 30.5745 8.9925 17.985 0 0 0
305 5 32.373 7.194 21.582 0 0 0
310 5 32.373 8.9925 26.9775 0 0 0
313 5 32.373 7.194 28.776 0 0 0
314 5 32.373 8.9925 30.5745 0 0 0
315 5 30.5745 7.194 30.5745 0 0 0
321 5 32.373 10.791 0.0 0 0 0
323 5 30.5745 10.791 1.7985 0 0 0
326 5 32.373 12.5895 5.3955 0 0 0
328 5 30.5745 12.5895 3.597 0 0 0
329 5 32.373 10.791 7.194 0 0 0
330 5 32.373 12.5895 8.9925 0 0 0
331 5 30.5745 10.791 8.9925 0 0 0
333 5 32.373 10.791 10.791 0 0 0
339 5 30.5745 10.791 16.1865 0 0 0
340 5 30.5745 12.5895 14.388 0 0 0
343 5 30.5745 10.791 19.7835 0 0 0
347 5 30.5745 10.791 23.3805 0 0 0
348 5 30.5745 12.5895 21.582 0 0 0
358 5 32.373 12.5895 34.1715 0 0 0
359 5 30.5745 10.791 34.1715 0 0 0
360 5 30.5745 12.5895 32.373 0 0 0
363 5 30.5745 14.388 1.7985 0 0 0
364 5 30.5745 16.1865 0.0 0 0 0
365 5 32.373 14.388 3.597 0 0 0
370 5 32.373 16.1865 8.9925 0 0 0
372 5 30.5745 16.1865 7.194 0 0 0
373 5 32.373 14.388 10.791 0 0 0
378 5 32.373 16.1865 16.1865 0 0 0
384 5 30.5745 16.1865 17.985 0 0 0
389 5 32.373 14.388 25.179 0 0 0
390 5 32.373 16.1865 26.9775 0 0 0
391 5 30.5745 14.388 26.9775 0 0 0
394 5 32.373 16.1865 30.5745 0 0 0
397 5 32.373 14.388 32.373 0 0 0
399 5 30.5745 14.388 34.1715 0 0 0
405 5 32.373 17.985 3.597 0 0 0
408 5 30.5745 19.7835 3.597 0 0 0
409 5 32.373 17.985 7.194 0 0 0
412 5 30.5745 19.7835 7.194 0 0 0
415 5 30.5745 17.985 12.5895 0 0 0
416 5 30.5745 19.7835 10.791 0 0 0
423 5 30.5745 17.985 19.7835 0 0 0
427 5 30.5745 17.985 23.3805 0 0 0
429 5 32.373 17.985 25.179 0 0 0
436 5 30.5745 19.7835 28.776 0 0 0
438 5 32.373 19.7835 34.1715 0 0 0
439 5 30.5745 17.985 34.1715 0 0 0
441 5 32.373 21.582 0.0 0 0 0
445 5 32.373 21.582 3.597 0 0 0
447 5 30.5745 21.582 5.3955 0 0 0
448 5 30.5745 23.3805 3.597 0 0 0
451 5 30.5745 21.582 8.9925 0 0 0
452 5 30.5745 23.3805 7.194 0 0 0
457 5 32.373 21.582 14.388 0 0 0
459 5 30.5745 21.582 16.1865 0 0 0
465 5 32.373 21.582 21.582 0 0 0
473 5 32.373 21.582 28.776 0 0 0
476 5 30.5745 23.3805 28.776 0 0 0
477 5 32.373 21.582 32.373 0 0 0
478 5 32.373 23.3805 34.1715 0 0 0
480 5 30.5745 23.3805 32.373 0 0 0
481 5 32.373 25.179 0.0 0 0 0
487 5 30.5745 25.179 5.3955 0 0 0
491 5 30.5745 25.179 8.9925 0 0 0
492 5 30.5745 26.9775 7.194 0 0 0
501 5 32.373 25.179 17.985 0 0 0
502 5 32.373 26.9775 19.7835 0 0 0
506 5 32.373 26.9775 23.3805 0 0 0
508 5 30.5745 26.9775 21.582 0 0 0
509 5 32.373 25.179 25.179 0 0 0
511 5 30.5745 25.179 26.9775 0 0 0
513 5 32.373 25.179 28.776 0 0 0
514 5 32.373 26.9775 30.5745 0 0 0
519 5 30.5745 25.179 34.1715 0 0 0
520 5 30.5745 26.9775 32.373 0 0 0
528 5 30.5745 30.5745 3.597 0 0 0
529 5 32.373 28.776 7.194 0 0 0
535 5 30.5745 28.776 12.5895 0 0 0
536 5 30.5745 30.5745 10.791 0 0 0
539 5 30.5745 28.776 16.1865 0 0 0
542 5 32.373 30.5745 19.7835 0 0 0
543 5 30.5745 28.776 19.7835 0 0 0
550 5 32.373 30.5745 26.9775 0 0 0
553 5 32.373 28.776 28.776 0 0 0
554 5 32.373 30.5745 30.5745 0 0 0
555 5 30.5745 28.776 30.5745 0 0 0
556 5 30.5745 30.5745 28.776 0 0 0
558 5 32.373 30.5745 34.1715 0 0 0
560 5 30.5745 30.5745 32.373 0 0 0
568 5 30.5745 34.1715 3.597 0 0 0
569 5 32.373 32.373 7.194 0 0 0
571 5 30.5745 32.373 8.9925 0 0 0
572 5 30.5745 34.1715 7.194 0 0 0
575 5 30.5745 32.373 12.5895 0 0 0
581 5 32.373 32.373 17.985 0 0 0
583 5 30.5745 32.373 19.7835 0 0 0
586 5 32.373 34.1715 23.3805 0 0 0
595 5 30.5745 32.373 30.5745 0 0 0
602 5 28.776 1.7985 1.7985 0 0 0
603 5 26.9775 0.0 1.7985 0 0 0
604 5 26.9775 1.7985 0.0 0 0 0
605 5 28.776 0.0 3.597 0 0 0
610 5 28.776 1.7985 8.9925 0 0 0
611 5 26.9775 0.0 8.9925 0 0 0
613 5 28.776 0.0 10.791 0 0 0
625 5 28.776 0.0 21.582 0 0 0
626 5 28.776 1.7985 23.3805 0 0 0
629 5 28.776 0.0 25.179 0 0 0
632 5 26.9775 1.7985 25.179 0 0 0
640 5 26.9775 1.7985 32.373 0 0 0
642 5 28.776 5.3955 1.7985 0 0 0
644 5 26.9775 5.3955 0.0 0 0 0
646 5 28.776 5.3955 5.3955 0 0 0
649 5 28.776 3.597 7.194 0 0 0
650 5 28.776 5.3955 8.9925 0 0 0
652 5 26.9775 5.3955 7.194 0 0 0
653 5 28.776 3.597 10.791 0 0 0
654 5 28.776 5.3955 12.5895 0 0 0
660 5 26.9775 5.3955 14.388 0 0 0
670 5 28.776 5.3955 26.9775 0 0 0
671 5 26.9775 3.597 26.9775 0 0 0
674 5 28.776 5.3955 30.5745 0 0 0
675 5 26.9775 3.597 30.5745 0 0 0
676 5 26.9775 5.3955 28.776 0 0 0
678 5 28.776 5.3955 34.1715 0 0 0
682 5 28.776 8.9925 1.7985 0 0 0
684 5 26.9775 8.9925 0.0 0 0 0
685 5 28.776 7.194 3.597 0 0 0
687 5 26.9775 7.194 5.3955 0 0 0
688 5 26.9775 8.9925 3.597 0 0 0
689 5 28.776 7.194 7.194 0 0 0
690 5 28.776 8.9925 8.9925 0 0 0
691 5 26.9775 7.194 8.9925 0 0 0
692 5 26.9775 8.9925 7.194 0 0 0
693 5 28.776 7.194 10.791 0 0 0
694 5 28.776 8.9925 12.5895 0 0 0
696 5 26.9775 8.9925 10.791 0 0 0
697 5 28.776 7.194 14.388 0 0 0
705 5 28.776 7.194 21.582 0 0 0
706 5 28.776 8.9925 23.3805 0 0 0
714 5 28.776 8.9925 30.5745 0 0 0
715 5 26.9775 7.194 30.5745 0 0 0
716 5 26.9775 8.9925 28.776 0 0 0
718 5 28.776 8.9925 34.1715 0 0 0
721 5 28.776 10.791 0.0 0 0 0
729 5 28.776 10.791 7.194 0 0 0
731 5 26.9775 10.791 8.9925 0 0 0
732 5 26.9775 12.5895 7.194 0 0 0
738 5 28.776 12.5895 16.1865 0 0 0
740 5 26.9775 12.5895 14.388 0 0 0
741 5 28.776 10.791 17.985 0 0 0
742 5 28.776 12.5895 19.7835 0 0 0
743 5 26.9775 10.791 19.7835 0 0 0
746 5 28.776 12.5895 23.3805 0 0 0
748 5 26.9775 12.5895 21.582 0 0 0
751 5 26.9775 10.791 26.9775 0 0 0
752 5 26.9775 12.5895 25.179 0 0 0
754 5 28.776 12.5895 30.5745 0 0 0
756 5 26.9775 12.5895 28.776 0 0 0
760 5 26.9775 12.5895 32.373 0 0 0
763 5 26.9775 14.388 1.7985 0 0 0
764 5 26.9775 16.1865 0.0 0 0 0
771 5 26.9775 14.388 8.9925 0 0 0
777 5 28.776 14.388 14.388 0 0 0
778 5 28.776 16.1865 16.1865 0 0 0
780 5 26.9775 16.1865 14.388 0 0 0
781 5 28.776 14.388 17.985 0 0 0
782 5 28.776 16.1865 19.7835 0 0 0
784 5 26.9775 16.1865 17.985 0 0 0
785 5 28.776 14.388 21.582 0 0 0
793 5 28.776 14.388 28.776 0 0 0
795 5 26.9775 14.388 30.5745 0 0 0
798 5 28.776 16.1865 34.1715 0 0 0
799 5 26.9775 14.388 34.1715 0 0 0
802 5 28.776 19.7835 1.7985 0 0 0
803 5 26.9775 17.985 1.7985 0 0 0
804 5 26.9775 19.7835 0.0 0 0 0
807 5 26.9775 17.985 5.3955 0 0 0
809 5 28.776 17.985 7.194 0 0 0
810 5 28.776 19.7835 8.9925 0 0 0
811 5 26.9775 17.985 8.9925 0 0 0
812 5 26.9775 19.7835 7.194 0 0 0
813 5 28.776 17.985 10.791 0 0 0
818 5 28.776 19.7835 16.1865 0 0 0
819 5 26.9775 17.985 16.1865 0 0 0
821 5 28.776 17.985 17.985 0 0 0
825 5 28.776 17.985 21.582 0 0 0
827 5 26.9775 17.985 23.3805 0 0 0
834 5 28.776 19.7835 30.5745 0 0 0
835 5 26.9775 17.985 30.5745 0 0 0
836 5 26.9775 19.7835 28.776 0 0 0
838 5 28.776 19.7835 34.1715 0 0 0
842 5 28.776 23.3805 1.7985 0 0 0
843 5 26.9775 21.582 1.7985 0 0 0
850 5 28.776 23.3805 8.9925 0 0 0
856 5 26.9775 23.3805 10.791 0 0 0
866 5 28.776 23.3805 23.3805 0 0 0
867 5 26.9775 21.582 23.3805 0 0 0
869 5 28.776 21.582 25.179 0 0 0
871 5 26.9775 21.582 26.9775 0 0 0
875 5 26.9775 21.582 30.5745 0 0 0
883 5 26.9775 25.179 1.7985 0 0 0
886 5 28.776 26.9775 5.3955 0 0 0
888 5 26.9775 26.9775 3.597 0 0 0
895 5 26.9775 25.179 12.5895 0 0 0
900 5 26.9775 26.9775 14.388 0 0 0
901 5 28.776 25.179 17.985 0 0 0
905 5 28.776 25.179 21.582 0 0 0
906 5 28.776 26.9775 23.3805 0 0 0
908 5 26.9775 26.9775 21.582 0 0 0
911 5 26.9775 25.179 26.9775 0 0 0
913 5 28.776 25.179 28.776 0 0 0
914 5 28.776 26.9775 30.5745 0 0 0
918 5 28.776 26.9775 34.1715 0 0 0
920 5 26.9775 26.9775 32.373 0 0 0
923 5 26.9775 28.776 1.7985 0 0 0
926 5 28.776 30.5745 5.3955 0 0 0
930 5 28.776 30.5745 8.9925 0 0 0
934 5 28.776 30.5745 12.5895 0 0 0
942 5 28.776 30.5745 19.7835 0 0 0
943 5 26.9775 28.776 19.7835 0 0 0
947 5 26.9775 28.776 23.3805 0 0 0
954 5 28.776 30.5745 30.5745 0 0 0
955 5 26.9775 28.776 30.5745 0 0 0
958 5 28.776 30.5745 34.1715 0 0 0
959 5 26.9775 28.776 34.1715 0 0 0
962 5 28.776 34.1715 1.7985 0 0 0
981 5 28.776 32.373 17.985 0 0 0
982 5 28.776 34.1715 19.7835 0 0 0
990 5 28.776 34.1715 26.9775 0 0 0
994 5 28.776 34.1715 30.5745 0 0 0
1003 5 23.3805 0.0 1.7985 0 0 0
1004 5 23.3805 1.7985 0.0 0 0 0
1005 5 25.179 0.0 3.597 0 0 0
1012 5 23.3805 1.7985 7.194 0 0 0
1021 5 25.179 0.0 17.985 0 0 0
1022 5 25.179 1.7985 19.7835 0 0 0
1024 5 23.3805 1.7985 17.985 0 0 0
1028 5 23.3805 1.7985 21.582 0 0 0
1032 5 23.3805 1.7985 25.179 0 0 0
1036 5 23.3805 1.7985 28.776 0 0 0
1040 5 23.3805 1.7985 32.373 0 0 0
1041 5 25.179 3.597 0.0 0 0 0
1044 5 23.3805 5.3955 0.0 0 0 0
1045 5 25.179 3.597 3.597 0 0 0
1046 5 25.179 5.3955 5.3955 0 0 0
1047 5 23.3805 3.597 5.3955 0 0 0
1048 5 23.3805 5.3955 3.597 0 0 0
1049 5 25.179 3.597 7.194 0 0 0
1050 5 25.179 5.3955 8.9925 0 0 0
1065 5 25.179 3.597 21.582 0 0 0
1067 5 23.3805 3.597 23.3805 0 0 0
1068 5 23.3805 5.3955 21.582 0 0 0
1069 5 25.179 3.597 25.179 0 0 0
1074 5 25.179 5.3955 30.5745 0 0 0
1075 5 23.3805 3.597 30.5745 0 0 0
1077 5 25.179 3.597 32.373 0 0 0
1082 5 25.179 8.9925 1.7985 0 0 0
1087 5 23.3805 7.194 5.3955 0 0 0
1091 5 23.3805 7.194 8.9925 0 0 0
1094 5 25.179 8.9925 12.5895 0 0 0
1096 5 23.3805 8.9925 10.791 0 0 0
1099 5 23.3805 7.194 16.1865 0 0 0
1105 5 25.179 7.194 21.582 0 0 0
1106 5 25.179 8.9925 23.3805 0 0 0
1110 5 25.179 8.9925 26.9775 0 0 0
1111 5 23.3805 7.194 26.9775 0 0 0
1113 5 25.179 7.194 28.776 0 0 0
1115 5 23.3805 7.194 30.5745 0 0 0
1116 5 23.3805 8.9925 28.776 0 0 0
1117 5 25.179 7.194 32.373 0 0 0
1118 5 25.179 8.9925 34.1715 0 0 0
1131 5 23.3805 10.791 8.9925 0 0 0
1134 5 25.179 12.5895 12.5895 0 0 0
1142 5 25.179 12.5895 19.7835 0 0 0
1144 5 23.3805 12.5895 17.985 0 0 0
1148 5 23.3805 12.5895 21.582 0 0 0
1150 5 25.179 12.5895 26.9775 0 0 0
1151 5 23.3805 10.791 26.9775 0 0 0
1153 5 25.179 10.791 28.776 0 0 0
1160 5 23.3805 12.5895 32.373 0 0 0
1166 5 25.179 16.1865 5.3955 0 0 0
1167 5 23.3805 14.388 5.3955 0 0 0
1173 5 25.179 14.388 10.791 0 0 0
1176 5 23.3805 16.1865 10.791 0 0 0
1180 5 23.3805 16.1865 14.388 0 0 0
1185 5 25.179 14.388 21.582 0 0 0
1189 5 25.179 14.388 25.179 0 0 0
1204 5 23.3805 19.7835 0.0 0 0 0
1209 5 25.179 17.985 7.194 0 0 0
1210 5 25.179 19.7835 8.9925 0 0 0
1213 5 25.179 17.985 10.791 0 0 0
1216 5 23.3805 19.7835 10.791 0 0 0
1220 5 23.3805 19.7835 14.388 0 0 0
1221 5 25.179 17.985 17.985 0 0 0
1228 5 23.3805 19.7835 21.582 0 0 0
1230 5 25.179 19.7835 26.9775 0 0 0
1242 5 25.179 23.3805 1.7985 0 0 0
1246 5 25.179 23.3805 5.3955 0 0 0
1247 5 23.3805 21.582 5.3955 0 0 0
1252 5 23.3805 23.3805 7.194 0 0 0
1253 5 25.179 21.582 10.791 0 0 0
1256 5 23.3805 23.3805 10.791 0 0 0
1259 5 23.3805 21.582 16.1865 0 0 0
1261 5 25.179 21.582 17.985 0 0 0
1263 5 23.3805 21.582 19.7835 0 0 0
1267 5 23.3805 21.582 23.3805 0 0 0
1270 5 25.179 23.3805 26.9775 0 0 0
1271 5 23.3805 21.582 26.9775 0 0 0
1274 5 25.179 23.3805 30.5745 0 0 0
1278 5 25.179 23.3805 34.1715 0 0 0
1279 5 23.3805 21.582 34.1715 0 0 0
1281 5 25.179 25.179 0.0 0 0 0
1282 5 25.179 26.9775 1.7985 0 0 0
1292 5 23.3805 26.9775 7.194 0 0 0
1294 5 25.179 26.9775 12.5895 0 0 0
1295 5 23.3805 25.179 12.5895 0 0 0
1298 5 25.179 26.9775 16.1865 0 0 0
1300 5 23.3805 26.9775 14.388 0 0 0
1303 5 23.3805 25.179 19.7835 0 0 0
1306 5 25.179 26.9775 23.3805 0 0 0
1310 5 25.179 26.9775 26.9775 0 0 0
1314 5 25.179 26.9775 30.5745 0 0 0
1316 5 23.3805 26.9775 28.776 0 0 0
1321 5 25.179 28.776 0.0 0 0 0
1325 5 25.179 28.776 3.597 0 0 0
1335 5 23.3805 28.776 12.5895 0 0 0
1338 5 25.179 30.5745 16.1865 0 0 0
1353 5 25.179 28.776 28.776 0 0 0
1354 5 25.179 30.5745 30.5745 0 0 0
1355 5 23.3805 28.776 30.5745 0 0 0
1363 5 23.3805 32.373 1.7985 0 0 0
1364 5 23.3805 34.1715 0.0 0 0 0
1368 5 23.3805 34.1715 3.597 0 0 0
1379 5 23.3805 32.373 16.1865 0 0 0
1385 5 25.179 32.373 21.582 0 0 0
1386 5 25.179 34.1715 23.3805 0 0 0
1391 5 23.3805 32.373 26.9775 0 0 0
1396 5 23.3805 34.1715 28.776 0 0 0
1398 5 25.179 34.1715 34.1715 0 0 0
1402 5 21.582 1.7985 1.7985 0 0 0
1403 5 19.7835 0.0 1.7985 0 0 0
1417 5 21.582 0.0 14.388 0 0 0
1419 5 19.7835 0.0 16.1865 0 0 0
1420 5 19.7835 1.7985 14.388 0 0 0
1427 5 19.7835 0.0 23.3805 0 0 0
1432 5 19.7835 1.7985 25.179 0 0 0
1436 5 19.7835 1.7985 28.776 0 0 0
1437 5 21.582 0.0 32.373 0 0 0
1439 5 19.7835 0.0 34.1715 0 0 0
1441 5 21.582 3.597 0.0 0 0 0
1442 5 21.582 5.3955 1.7985 0 0 0
1443 5 19.7835 3.597 1.7985 0 0 0
1444 5 19.7835 5.3955 0.0 0 0 0
1445 5 21.582 3.597 3.597 0 0 0
1451 5 19.7835 3.597 8.9925 0 0 0
1452 5 19.7835 5.3955 7.194 0 0 0
1457 5 21.582 3.597 14.388 0 0 0
1458 5 21.582 5.3955 16.1865 0 0 0
1460 5 19.7835 5.3955 14.388 0 0 0
1466 5 21.582 5.3955 23.3805 0 0 0
1468 5 19.7835 5.3955 21.582 0 0 0
1471 5 19.7835 3.597 26.9775 0 0 0
1472 5 19.7835 5.3955 25.179 0 0 0
1474 5 21.582 5.3955 30.5745 0 0 0
1476 5 19.7835 5.3955 28.776 0 0 0
1484 5 19.7835 8.9925 0.0 0 0 0
1490 5 21.582 8.9925 8.9925 0 0 0
1493 5 21.582 7.194 10.791 0 0 0
1495 5 19.7835 7.194 12.5895 0 0 0
1504 5 19.7835 8.9925 17.985 0 0 0
1509 5 21.582 7.194 25.179 0 0 0
1510 5 21.582 8.9925 26.9775 0 0 0
1514 5 21.582 8.9925 30.5745 0 0 0
1516 5 19.7835 8.9925 28.776 0 0 0
1517 5 21.582 7.194 32.373 0 0 0
1521 5 21.582 10.791 0.0 0 0 0
1523 5 19.7835 10.791 1.7985 0 0 0
1524 5 19.7835 12.5895 0.0 0 0 0
1526 5 21.582 12.5895 5.3955 0 0 0
1527 5 19.7835 10.791 5.3955 0 0 0
1530 5 21.582 12.5895 8.9925 0 0 0
1532 5 19.7835 12.5895 7.194 0 0 0
1535 5 19.7835 10.791 12.5895 0 0 0
1540 5 19.7835 12.5895 14.388 0 0 0
1546 5 21.582 12.5895 23.3805 0 0 0
1551 5 19.7835 10.791 26.9775 0 0 0
1557 5 21.582 10.791 32.373 0 0 0
1558 5 21.582 12.5895 34.1715 0 0 0
1561 5 21.582 14.388 0.0 0 0 0
1564 5 19.7835 16.1865 0.0 0 0 0
1566 5 21.582 16.1865 5.3955 0 0 0
1572 5 19.7835 16.1865 7.194 0 0 0
1573 5 21.582 14.388 10.791 0 0 0
1576 5 19.7835 16.1865 10.791 0 0 0
1579 5 19.7835 14.388 16.1865 0 0 0
1588 5 19.7835 16.1865 21.582 0 0 0
1593 5 21.582 14.388 28.776 0 0 0
1597 5 21.582 14.388 32.373 0 0 0
1602 5 21.582 19.7835 1.7985 0 0 0
1605 5 21.582 17.985 3.597 0 0 0
1607 5 19.7835 17.985 5.3955 0 0 0
1620 5 19.7835 19.7835 14.388 0 0 0
1624 5 19.7835 19.7835 17.985 0 0 0
1625 5 21.582 17.985 21.582 0 0 0
1626 5 21.582 19.7835 23.3805 0 0 0
1629 5 21.582 17.985 25.179 0 0 0
1636 5 19.7835 19.7835 28.776 0 0 0
1647 5 19.7835 21.582 5.3955 0 0 0
1649 5 21.582 21.582 7.194 0 0 0
1650 5 21.582 23.3805 8.9925 0 0 0
1651 5 19.7835 21.582 8.9925 0 0 0
1659 5 19.7835 21.582 16.1865 0 0 0
1663 5 19.7835 21.582 19.7835 0 0 0
1664 5 19.7835 23.3805 17.985 0 0 0
1666 5 21.582 23.3805 23.3805 0 0 0
1671 5 19.7835 21.582 26.9775 0 0 0
1674 5 21.582 23.3805 30.5745 0 0 0
1680 5 19.7835 23.3805 32.373 0 0 0
1698 5 21.582 26.9775 16.1865 0 0 0
1700 5 19.7835 26.9775 14.388 0 0 0
1703 5 19.7835 25.179 19.7835 0 0 0
1711 5 19.7835 25.179 26.9775 0 0 0
1718 5 21.582 26.9775 34.1715 0 0 0
1723 5 19.7835 28.776 1.7985 0 0 0
1724 5 19.7835 30.5745 0.0 0 0 0
1727 5 19.7835 28.776 5.3955 0 0 0
1735 5 19.7835 28.776 12.5895 0 0 0
1739 5 19.7835 28.776 16.1865 0 0 0
1746 5 21.582 30.5745 23.3805 0 0 0
1747 5 19.7835 28.776 23.3805 0 0 0
1749 5 21.582 28.776 25.179 0 0 0
1752 5 19.7835 30.5745 25.179 0 0 0
1755 5 19.7835 28.776 30.5745 0 0 0
1762 5 21.582 34.1715 1.7985 0 0 0
1765 5 21.582 32.373 3.597 0 0 0
1766 5 21.582 34.1715 5.3955 0 0 0
1773 5 21.582 32.373 10.791 0 0 0
1775 5 19.7835 32.373 12.5895 0 0 0
1778 5 21.582 34.1715 16.1865 0 0 0
1784 5 19.7835 34.1715 17.985 0 0 0
1788 5 19.7835 34.1715 21.582 0 0 0
1790 5 21.582 34.1715 26.9775 0 0 0
1793 5 21.582 32.373 28.776 0 0 0
1795 5 19.7835 32.373 30.5745 0 0 0
1804 5 16.1865 1.7985 0.0 0 0 0
1807 5 16.1865 0.0 5.3955 0 0 0
1808 5 16.1865 1.7985 3.597 0 0 0
1809 5 17.985 0.0 7.194 0 0 0
1819 5 16.1865 0.0 16.1865 0 0 0
1825 5 17.985 0.0 21.582 0 0 0
1826 5 17.985 1.7985 23.3805 0 0 0
1833 5 17.985 0.0 28.776 0 0 0
1836 5 16.1865 1.7985 28.776 0 0 0
1837 5 17.985 0.0 32.373 0 0 0
1838 5 17.985 1.7985 34.1715 0 0 0
1840 5 16.1865 1.7985 32.373 0 0 0
1844 5 16.1865 5.3955 0.0 0 0 0
1848 5 16.1865 5.3955 3.597 0 0 0
1852 5 16.1865 5.3955 7.194 0 0 0
1858 5 17.985 5.3955 16.1865 0 0 0
1864 5 16.1865 5.3955 17.985 0 0 0
1871 5 16.1865 3.597 26.9775 0 0 0
1873 5 17.985 3.597 28.776 0 0 0
1880 5 16.1865 5.3955 32.373 0 0 0
1881 5 17.985 7.194 0.0 0 0 0
1882 5 17.985 8.9925 1.7985 0 0 0
1884 5 16.1865 8.9925 0.0 0 0 0
1888 5 16.1865 8.9925 3.597 0 0 0
1892 5 16.1865 8.9925 7.194 0 0 0
1894 5 17.985 8.9925 12.5895 0 0 0
1900 5 16.1865 8.9925 14.388 0 0 0
1901 5 17.985 7.194 17.985 0 0 0
1902 5 17.985 8.9925 19.7835 0 0 0
1904 5 16.1865 8.9925 17.985 0 0 0
1906 5 17.985 8.9925 23.3805 0 0 0
1907 5 16.1865 7.194 23.3805 0 0 0
1910 5 17.985 8.9925 26.9775 0 0 0
1911 5 16.1865 7.194 26.9775 0 0 0
1912 5 16.1865 8.9925 25.179 0 0 0
1917 5 17.985 7.194 32.373 0 0 0
1918 5 17.985 8.9925 34.1715 0 0 0
1921 5 17.985 10.791 0.0 0 0 0
1922 5 17.985 12.5895 1.7985 0 0 0
1925 5 17.985 10.791 3.597 0 0 0
1929 5 17.985 10.791 7.194 0 0 0
1932 5 16.1865 12.5895 7.194 0 0 0
1933 5 17.985 10.791 10.791 0 0 0
1935 5 16.1865 10.791 12.5895 0 0 0
1937 5 17.985 10.791 14.388 0 0 0
1942 5 17.985 12.5895 19.7835 0 0 0
1951 5 16.1865 10.791 26.9775 0 0 0
1954 5 17.985 12.5895 30.5745 0 0 0
1955 5 16.1865 10.791 30.5745 0 0 0
1959 5 16.1865 10.791 34.1715 0 0 0
1964 5 16.1865 16.1865 0.0 0 0 0
1965 5 17.985 14.388 3.597 0 0 0
1971 5 16.1865 14.388 8.9925 0 0 0
1972 5 16.1865 16.1865 7.194 0 0 0
1976 5 16.1865 16.1865 10.791 0 0 0
1979 5 16.1865 14.388 16.1865 0 0 0
1980 5 16.1865 16.1865 14.388 0 0 0
1981 5 17.985 14.388 17.985 0 0 0
1983 5 16.1865 14.388 19.7835 0 0 0
1984 5 16.1865 16.1865 17.985 0 0 0
1994 5 17.985 16.1865 30.5745 0 0 0
1995 5 16.1865 14.388 30.5745 0 0 0
1996 5 16.1865 16.1865 28.776 0 0 0
2004 5 16.1865 19.7835 0.0 0 0 0
2010 5 17.985 19.7835 8.9925 0 0 0
2012 5 16.1865 19.7835 7.194 0 0 0
2016 5 16.1865 19.7835 10.791 0 0 0
2026 5 17.985 19.7835 23.3805 0 0 0
2035 5 16.1865 17.985 30.5745 0 0 0
2037 5 17.985 17.985 32.373 0 0 0
2038 5 17.985 19.7835 34.1715 0 0 0
2039 5 16.1865 17.985 34.1715 0 0 0
2042 5 17.985 23.3805 1.7985 0 0 0
2044 5 16.1865 23.3805 0.0 0 0 0
2046 5 17.985 23.3805 5.3955 0 0 0
2048 5 16.1865 23.3805 3.597 0 0 0
2049 5 17.985 21.582 7.194 0 0 0
2052 5 16.1865 23.3805 7.194 0 0 0
2054 5 17.985 23.3805 12.5895 0 0 0
2055 5 16.1865 21.582 12.5895 0 0 0
2057 5 17.985 21.582 14.388 0 0 0
2067 5 16.1865 21.582 23.3805 0 0 0
2069 5 17.985 21.582 25.179 0 0 0
2071 5 16.1865 21.582 26.9775 0 0 0
2074 5 17.985 23.3805 30.5745 0 0 0
2081 5 17.985 25.179 0.0 0 0 0
2085 5 17.985 25.179 3.597 0 0 0
2087 5 16.1865 25.179 5.3955 0 0 0
2097 5 17.985 25.179 14.388 0 0 0
2101 5 17.985 25.179 17.985 0 0 0
2102 5 17.985 26.9775 19.7835 0 0 0
2103 5 16.1865 25.179 19.7835 0 0 0
2104 5 16.1865 26.9775 17.985 0 0 0
2109 5 17.985 25.179 25.179 0 0 0
2111 5 16.1865 25.179 26.9775 0 0 0
2112 5 16.1865 26.9775 25.179 0 0 0
2113 5 17.985 25.179 28.776 0 0 0
2126 5 17.985 30.5745 5.3955 0 0 0
2128 5 16.1865 30.5745 3.597 0 0 0
2129 5 17.985 28.776 7.194 0 0 0
2138 5 17.985 30.5745 16.1865 0 0 0
2142 5 17.985 30.5745 19.7835 0 0 0
2143 5 16.1865 28.776 19.7835 0 0 0
2148 5 16.1865 30.5745 21.582 0 0 0
2151 5 16.1865 28.776 26.9775 0 0 0
2155 5 16.1865 28.776 30.5745 0 0 0
2156 5 16.1865 30.5745 28.776 0 0 0
2158 5 17.985 30.5745 34.1715 0 0 0
2160 5 16.1865 30.5745 32.373 0 0 0
2162 5 17.985 34.1715 1.7985 0 0 0
2163 5 16.1865 32.373 1.7985 0 0 0
2168 5 16.1865 34.1715 3.597 0 0 0
2170 5 17.985 34.1715 8.9925 0 0 0
2173 5 17.985 32.373 10.791 0 0 0
2181 5 17.985 32.373 17.985 0 0 0
2182 5 17.985 34.1715 19.7835 0 0 0
2183 5 16.1865 32.373 19.7835 0 0 0
2184 5 16.1865 34.1715 17.985 0 0 0
2185 5 17.985 32.373 21.582 0 0 0
2188 5 16.1865 34.1715 21.582 0 0 0
2191 5 16.1865 32.373 26.9775 0 0 0
2192 5 16.1865 34.1715 25.179 0 0 0
2196 5 16.1865 34.1715 28.776 0 0 0
2197 5 17.985 32.373 32.373 0 0 0
2200 5 16.1865 34.1715 32.373 0 0 0
2201 5 14.388 0.0 0.0 0 0 0
2202 5 14.388 1.7985 1.7985 0 0 0
2205 5 14.388 0.0 3.597 0 0 0
2208 5 12.5895 1.7985 3.597 0 0 0
2211 5 12.5895 0.0 8.9925 0 0 0
2215 5 12.5895 0.0 12.5895 0 0 0
2217 5 14.388 0.0 14.388 0 0 0
2230 5 14.388 1.7985 26.9775 0 0 0
2242 5 14.388 5.3955 1.7985 0 0 0
2243 5 12.5895 3.597 1.7985 0 0 0
2250 5 14.388 5.3955 8.9925 0 0 0
2252 5 12.5895 5.3955 7.194 0 0 0
2254 5 14.388 5.3955 12.5895 0 0 0
2256 5 12.5895 5.3955 10.791 0 0 0
2258 5 14.388 5.3955 16.1865 0 0 0
2262 5 14.388 5.3955 19.7835 0 0 0
2266 5 14.388 5.3955 23.3805 0 0 0
2267 5 12.5895 3.597 23.3805 0 0 0
2273 5 14.388 3.597 28.776 0 0 0
2278 5 14.388 5.3955 34.1715 0 0 0
2282 5 14.388 8.9925 1.7985 0 0 0
2283 5 12.5895 7.194 1.7985 0 0 0
2295 5 12.5895 7.194 12.5895 0 0 0
2301 5 14.388 7.194 17.985 0 0 0
2311 5 12.5895 7.194 26.9775 0 0 0
2314 5 14.388 8.9925 30.5745 0 0 0
2316 5 12.5895 8.9925 28.776 0 0 0
2322 5 14.388 12.5895 1.7985 0 0 0
2327 5 12.5895 10.791 5.3955 0 0 0
2329 5 14.388 10.791 7.194 0 0 0
2340 5 12.5895 12.5895 14.388 0 0 0
2341 5 14.388 10.791 17.985 0 0 0
2343 5 12.5895 10.791 19.7835 0 0 0
2345 5 14.388 10.791 21.582 0 0 0
2353 5 14.388 10.791 28.776 0 0 0
2355 5 12.5895 10.791 30.5745 0 0 0
2358 5 14.388 12.5895 34.1715 0 0 0
2359 5 12.5895 10.791 34.1715 0 0 0
2363 5 12.5895 14.388 1.7985 0 0 0
2364 5 12.5895 16.1865 0.0 0 0 0
2367 5 12.5895 14.388 5.3955 0 0 0
2373 5 14.388 14.388 10.791 0 0 0
2381 5 14.388 14.388 17.985 0 0 0
2388 5 12.5895 16.1865 21.582 0 0 0
2393 5 14.388 14.388 28.776 0 0 0
2395 5 12.5895 14.388 30.5745 0 0 0
2397 5 14.388 14.388 32.373 0 0 0
2402 5 14.388 19.7835 1.7985 0 0 0
2407 5 12.5895 17.985 5.3955 0 0 0
2408 5 12.5895 19.7835 3.597 0 0 0
2415 5 12.5895 17.985 12.5895 0 0 0
2420 5 12.5895 19.7835 14.388 0 0 0
2428 5 12.5895 19.7835 21.582 0 0 0
2429 5 14.388 17.985 25.179 0 0 0
2430 5 14.388 19.7835 26.9775 0 0 0
2436 5 12.5895 19.7835 28.776 0 0 0
2438 5 14.388 19.7835 34.1715 0 0 0
2443 5 12.5895 21.582 1.7985 0 0 0
2445 5 14.388 21.582 3.597 0 0 0
2446 5 14.388 23.3805 5.3955 0 0 0
2452 5 12.5895 23.3805 7.194 0 0 0
2458 5 14.388 23.3805 16.1865 0 0 0
2459 5 12.5895 21.582 16.1865 0 0 0
2463 5 12.5895 21.582 19.7835 0 0 0
2471 5 12.5895 21.582 26.9775 0 0 0
2473 5 14.388 21.582 28.776 0 0 0
2474 5 14.388 23.3805 30.5745 0 0 0
2475 5 12.5895 21.582 30.5745 0 0 0
2476 5 12.5895 23.3805 28.776 0 0 0
2477 5 14.388 21.582 32.373 0 0 0
2479 5 12.5895 21.582 34.1715 0 0 0
2481 5 14.388 25.179 0.0 0 0 0
2482 5 14.388 26.9775 1.7985 0 0 0
2486 5 14.388 26.9775 5.3955 0 0 0
2487 5 12.5895 25.179 5.3955 0 0 0
2488 5 12.5895 26.9775 3.597 0 0 0
2497 5 14.388 25.179 14.388 0 0 0
2501 5 14.388 25.179 17.985 0 0 0
2506 5 14.388 26.9775 23.3805 0 0 0
2514 5 14.388 26.9775 30.5745 0 0 0
2519 5 12.5895 25.179 34.1715 0 0 0
2520 5 12.5895 26.9775 32.373 0 0 0
2522 5 14.388 30.5745 1.7985 0 0 0
2523 5 12.5895 28.776 1.7985 0 0 0
2527 5 12.5895 28.776 5.3955 0 0 0
2529 5 14.388 28.776 7.194 0 0 0
2530 5 14.388 30.5745 8.9925 0 0 0
2533 5 14.388 28.776 10.791 0 0 0
2537 5 14.388 28.776 14.388 0 0 0
2539 5 12.5895 28.776 16.1865 0 0 0
2543 5 12.5895 28.776 19.7835 0 0 0
2546 5 14.388 30.5745 23.3805 0 0 0
2547 5 12.5895 28.776 23.3805 0 0 0
2548 5 12.5895 30.5745 21.582 0 0 0
2552 5 12.5895 30.5745 25.179 0 0 0
2555 5 12.5895 28.776 30.5745 0 0 0
2556 5 12.5895 30.5745 28.776 0 0 0
2566 5 14.388 34.1715 5.3955 0 0 0
2567 5 12.5895 32.373 5.3955 0 0 0
2568 5 12.5895 34.1715 3.597 0 0 0
2570 5 14.388 34.1715 8.9925 0 0 0
2571 5 12.5895 32.373 8.9925 0 0 0
2572 5 12.5895 34.1715 7.194 0 0 0
2574 5 14.388 34.1715 12.5895 0 0 0
2581 5 14.388 32.373 17.985 0 0 0
2582 5 14.388 34.1715 19.7835 0 0 0
2592 5 12.5895 34.1715 25.179 0 0 0
2595 5 12.5895 32.373 30.5745 0 0 0
2604 5 8.9925 1.7985 0.0 0 0 0
2606 5 10.791 1.7985 5.3955 0 0 0
2607 5 8.9925 0.0 5.3955 0 0 0
2609 5 10.791 0.0 7.194 0 0 0
2611 5 8.9925 0.0 8.9925 0 0 0
2613 5 10.791 0.0 10.791 0 0 0
2616 5 8.9925 1.7985 10.791 0 0 0
2618 5 10.791 1.7985 16.1865 0 0 0
2620 5 8.9925 1.7985 14.388 0 0 0
2621 5 10.791 0.0 17.985 0 0 0
2622 5 10.791 1.7985 19.7835 0 0 0
2625 5 10.791 0.0 21.582 0 0 0
2628 5 8.9925 1.7985 21.582 0 0 0
2630 5 10.791 1.7985 26.9775 0 0 0
2635 5 8.9925 0.0 30.5745 0 0 0
2637 5 10.791 0.0 32.373 0 0 0
2639 5 8.9925 0.0 34.1715 0 0 0
2640 5 8.9925 1.7985 32.373 0 0 0
2646 5 10.791 5.3955 5.3955 0 0 0
2647 5 8.9925 3.597 5.3955 0 0 0
2649 5 10.791 3.597 7.194 0 0 0
2650 5 10.791 5.3955 8.9925 0 0 0
2652 5 8.9925 5.3955 7.194 0 0 0
2653 5 10.791 3.597 10.791 0 0 0
2657 5 10.791 3.597 14.388 0 0 0
2659 5 8.9925 3.597 16.1865 0 0 0
2663 5 8.9925 3.597 19.7835 0 0 0
2667 5 8.9925 3.597 23.3805 0 0 0
2668 5 8.9925 5.3955 21.582 0 0 0
2676 5 8.9925 5.3955 28.776 0 0 0
2679 5 8.9925 3.597 34.1715 0 0 0
2682 5 10.791 8.9925 1.7985 0 0 0
2687 5 8.9925 7.194 5.3955 0 0 0
2690 5 10.791 8.9925 8.9925 0 0 0
2692 5 8.9925 8.9925 7.194 0 0 0
2698 5 10.791 8.9925 16.1865 0 0 0
2699 5 8.9925 7.194 16.1865 0 0 0
2701 5 10.791 7.194 17.985 0 0 0
2702 5 10.791 8.9925 19.7835 0 0 0
2704 5 8.9925 8.9925 17.985 0 0 0
2705 5 10.791 7.194 21.582 0 0 0
2717 5 10.791 7.194 32.373 0 0 0
2720 5 8.9925 8.9925 32.373 0 0 0
2726 5 10.791 12.5895 5.3955 0 0 0
2727 5 8.9925 10.791 5.3955 0 0 0
2731 5 8.9925 10.791 8.9925 0 0 0
2748 5 8.9925 12.5895 21.582 0 0 0
2752 5 8.9925 12.5895 25.179 0 0 0
2754 5 10.791 12.5895 30.5745 0 0 0
2757 5 10.791 10.791 32.373 0 0 0
2759 5 8.9925 10.791 34.1715 0 0 0
2762 5 10.791 16.1865 1.7985 0 0 0
2770 5 10.791 16.1865 8.9925 0 0 0
2774 5 10.791 16.1865 12.5895 0 0 0
2775 5 8.9925 14.388 12.5895 0 0 0
2779 5 8.9925 14.388 16.1865 0 0 0
2780 5 8.9925 16.1865 14.388 0 0 0
2781 5 10.791 14.388 17.985 0 0 0
2783 5 8.9925 14.388 19.7835 0 0 0
2790 5 10.791 16.1865 26.9775 0 0 0
2792 5 8.9925 16.1865 25.179 0 0 0
2794 5 10.791 16.1865 30.5745 0 0 0
2796 5 8.9925 16.1865 28.776 0 0 0
2801 5 10.791 17.985 0.0 0 0 0
2803 5 8.9925 17.985 1.7985 0 0 0
2805 5 10.791 17.985 3.597 0 0 0
2813 5 10.791 17.985 10.791 0 0 0
2818 5 10.791 19.7835 16.1865 0 0 0
2822 5 10.791 19.7835 19.7835 0 0 0
2823 5 8.9925 17.985 19.7835 0 0 0
2828 5 8.9925 19.7835 21.582 0 0 0
2830 5 10.791 19.7835 26.9775 0 0 0
2832 5 8.9925 19.7835 25.179 0 0 0
2834 5 10.791 19.7835 30.5745 0 0 0
2837 5 10.791 17.985 32.373 0 0 0
2848 5 8.9925 23.3805 3.597 0 0 0
2851 5 8.9925 21.582 8.9925 0 0 0
2854 5 10.791 23.3805 12.5895 0 0 0
2856 5 8.9925 23.3805 10.791 0 0 0
2859 5 8.9925 21.582 16.1865 0 0 0
2863 5 8.9925 21.582 19.7835 0 0 0
2865 5 10.791 21.582 21.582 0 0 0
2867 5 8.9925 21.582 23.3805 0 0 0
2872 5 8.9925 23.3805 25.179 0 0 0
2875 5 8.9925 21.582 30.5745 0 0 0
2876 5 8.9925 23.3805 28.776 0 0 0
2877 5 10.791 21.582 32.373 0 0 0
2878 5 10.791 23.3805 34.1715 0 0 0
2879 5 8.9925 21.582 34.1715 0 0 0
2881 5 10.791 25.179 0.0 0 0 0
2883 5 8.9925 25.179 1.7985 0 0 0
2885 5 10.791 25.179 3.597 0 0 0
2887 5 8.9925 25.179 5.3955 0 0 0
2890 5 10.791 26.9775 8.9925 0 0 0
2896 5 8.9925 26.9775 10.791 0 0 0
2898 5 10.791 26.9775 16.1865 0 0 0
2902 5 10.791 26.9775 19.7835 0 0 0
2908 5 8.9925 26.9775 21.582 0 0 0
2910 5 10.791 26.9775 26.9775 0 0 0
2914 5 10.791 26.9775 30.5745 0 0 0
2923 5 8.9925 28.776 1.7985 0 0 0
2924 5 8.9925 30.5745 0.0 0 0 0
2926 5 10.791 30.5745 5.3955 0 0 0
2927 5 8.9925 28.776 5.3955 0 0 0
2928 5 8.9925 30.5745 3.597 0 0 0
2930 5 10.791 30.5745 8.9925 0 0 0
2932 5 8.9925 30.5745 7.194 0 0 0
2934 5 10.791 30.5745 12.5895 0 0 0
2939 5 8.9925 28.776 16.1865 0 0 0
2941 5 10.791 28.776 17.985 0 0 0
2944 5 8.9925 30.5745 17.985 0 0 0
2945 5 10.791 28.776 21.582 0 0 0
2946 5 10.791 30.5745 23.3805 0 0 0
2956 5 8.9925 30.5745 28.776 0 0 0
2963 5 8.9925 32.373 1.7985 0 0 0
2970 5 10.791 34.1715 8.9925 0 0 0
2973 5 10.791 32.373 10.791 0 0 0
2975 5 8.9925 32.373 12.5895 0 0 0
2976 5 8.9925 34.1715 10.791 0 0 0
2978 5 10.791 34.1715 16.1865 0 0 0
2980 5 8.9925 34.1715 14.388 0 0 0
2989 5 10.791 32.373 25.179 0 0 0
3000 5 8.9925 34.1715 32.373 0 0 0
3002 5 7.194 1.7985 1.7985 0 0 0
3004 5 5.3955 1.7985 0.0 0 0 0
3007 5 5.3955 0.0 5.3955 0 0 0
3010 5 7.194 1.7985 8.9925 0 0 0
3015 5 5.3955 0.0 12.5895 0 0 0
3016 5 5.3955 1.7985 10.791 0 0 0
3021 5 7.194 0.0 17.985 0 0 0
3022 5 7.194 1.7985 19.7835 0 0 0
3030 5 7.194 1.7985 26.9775 0 0 0
3033 5 7.194 0.0 28.776 0 0 0
3034 5 7.194 1.7985 30.5745 0 0 0
3036 5 5.3955 1.7985 28.776 0 0 0
3038 5 7.194 1.7985 34.1715 0 0 0
3042 5 7.194 5.3955 1.7985 0 0 0
3048 5 5.3955 5.3955 3.597 0 0 0
3052 5 5.3955 5.3955 7.194 0 0 0
3055 5 5.3955 3.597 12.5895 0 0 0
3056 5 5.3955 5.3955 10.791 0 0 0
3059 5 5.3955 3.597 16.1865 0 0 0
3060 5 5.3955 5.3955 14.388 0 0 0
3061 5 7.194 3.597 17.985 0 0 0
3062 5 7.194 5.3955 19.7835 0 0 0
3063 5 5.3955 3.597 19.7835 0 0 0
3066 5 7.194 5.3955 23.3805 0 0 0
3068 5 5.3955 5.3955 21.582 0 0 0
3070 5 7.194 5.3955 26.9775 0 0 0
3086 5 7.194 8.9925 5.3955 0 0 0
3088 5 5.3955 8.9925 3.597 0 0 0
3089 5 7.194 7.194 7.194 0 0 0
3094 5 7.194 8.9925 12.5895 0 0 0
3096 5 5.3955 8.9925 10.791 0 0 0
3100 5 5.3955 8.9925 14.388 0 0 0
3103 5 5.3955 7.194 19.7835 0 0 0
3112 5 5.3955 8.9925 25.179 0 0 0
3119 5 5.3955 7.194 34.1715 0 0 0
3126 5 7.194 12.5895 5.3955 0 0 0
3128 5 5.3955 12.5895 3.597 0 0 0
3136 5 5.3955 12.5895 10.791 0 0 0
3137 5 7.194 10.791 14.388 0 0 0
3138 5 7.194 12.5895 16.1865 0 0 0
3139 5 5.3955 10.791 16.1865 0 0 0
3142 5 7.194 12.5895 19.7835 0 0 0
3143 5 5.3955 10.791 19.7835 0 0 0
3146 5 7.194 12.5895 23.3805 0 0 0
3148 5 5.3955 12.5895 21.582 0 0 0
3149 5 7.194 10.791 25.179 0 0 0
3150 5 7.194 12.5895 26.9775 0 0 0
3151 5 5.3955 10.791 26.9775 0 0 0
3155 5 5.3955 10.791 30.5745 0 0 0
3159 5 5.3955 10.791 34.1715 0 0 0
3162 5 7.194 16.1865 1.7985 0 0 0
3169 5 7.194 14.388 7.194 0 0 0
3171 5 5.3955 14.388 8.9925 0 0 0
3172 5 5.3955 16.1865 7.194 0 0 0
3178 5 7.194 16.1865 16.1865 0 0 0
3182 5 7.194 16.1865 19.7835 0 0 0
3185 5 7.194 14.388 21.582 0 0 0
3189 5 7.194 14.388 25.179 0 0 0
3194 5 7.194 16.1865 30.5745 0 0 0
3195 5 5.3955 14.388 30.5745 0 0 0
3196 5 5.3955 16.1865 28.776 0 0 0
3198 5 7.194 16.1865 34.1715 0 0 0
3202 5 7.194 19.7835 1.7985 0 0 0
3204 5 5.3955 19.7835 0.0 0 0 0
3210 5 7.194 19.7835 8.9925 0 0 0
3211 5 5.3955 17.985 8.9925 0 0 0
3214 5 7.194 19.7835 12.5895 0 0 0
3217 5 7.194 17.985 14.388 0 0 0
3219 5 5.3955 17.985 16.1865 0 0 0
3221 5 7.194 17.985 17.985 0 0 0
3236 5 5.3955 19.7835 28.776 0 0 0
3238 5 7.194 19.7835 34.1715 0 0 0
3241 5 7.194 21.582 0.0 0 0 0
3244 5 5.3955 23.3805 0.0 0 0 0
3248 5 5.3955 23.3805 3.597 0 0 0
3262 5 7.194 23.3805 19.7835 0 0 0
3263 5 5.3955 21.582 19.7835 0 0 0
3272 5 5.3955 23.3805 25.179 0 0 0
3276 5 5.3955 23.3805 28.776 0 0 0
3281 5 7.194 25.179 0.0 0 0 0
3287 5 5.3955 25.179 5.3955 0 0 0
3290 5 7.194 26.9775 8.9925 0 0 0
3291 5 5.3955 25.179 8.9925 0 0 0
3293 5 7.194 25.179 10.791 0 0 0
3297 5 7.194 25.179 14.388 0 0 0
3300 5 5.3955 26.9775 14.388 0 0 0
3302 5 7.194 26.9775 19.7835 0 0 0
3303 5 5.3955 25.179 19.7835 0 0 0
3304 5 5.3955 26.9775 17.985 0 0 0
3305 5 7.194 25.179 21.582 0 0 0
3315 5 5.3955 25.179 30.5745 0 0 0
3316 5 5.3955 26.9775 28.776 0 0 0
3317 5 7.194 25.179 32.373 0 0 0
3320 5 5.3955 26.9775 32.373 0 0 0
3322 5 7.194 30.5745 1.7985 0 0 0
3328 5 5.3955 30.5745 3.597 0 0 0
3329 5 7.194 28.776 7.194 0 0 0
3336 5 5.3955 30.5745 10.791 0 0 0
3349 5 7.194 28.776 25.179 0 0 0
3353 5 7.194 28.776 28.776 0 0 0
3356 5 5.3955 30.5745 28.776 0 0 0
3357 5 7.194 28.776 32.373 0 0 0
3358 5 7.194 30.5745 34.1715 0 0 0
3360 5 5.3955 30.5745 32.373 0 0 0
3363 5 5.3955 32.373 1.7985 0 0 0
3364 5 5.3955 34.1715 0.0 0 0 0
3367 5 5.3955 32.373 5.3955 0 0 0
3368 5 5.3955 34.1715 3.597 0 0 0
3369 5 7.194 32.373 7.194 0 0 0
3371 5 5.3955 32.373 8.9925 0 0 0
3379 5 5.3955 32.373 16.1865 0 0 0
3382 5 7.194 34.1715 19.7835 0 0 0
3385 5 7.194 32.373 21.582 0 0 0
3388 5 5.3955 34.1715 21.582 0 0 0
3390 5 7.194 34.1715 26.9775 0 0 0
3393 5 7.194 32.373 28.776 0 0 0
3395 5 5.3955 32.373 30.5745 0 0 0
3402 5 3.597 1.7985 1.7985 0 0 0
3403 5 1.7985 0.0 1.7985 0 0 0
3407 5 1.7985 0.0 5.3955 0 0 0
3408 5 1.7985 1.7985 3.597 0 0 0
3411 5 1.7985 0.0 8.9925 0 0 0
3414 5 3.597 1.7985 12.5895 0 0 0
3416 5 1.7985 1.7985 10.791 0 0 0
3417 5 3.597 0.0 14.388 0 0 0
3418 5 3.597 1.7985 16.1865 0 0 0
3420 5 1.7985 1.7985 14.388 0 0 0
3427 5 1.7985 0.0 23.3805 0 0 0
3431 5 1.7985 0.0 26.9775 0 0 0
3433 5 3.597 0.0 28.776 0 0 0
3434 5 3.597 1.7985 30.5745 0 0 0
3438 5 3.597 1.7985 34.1715 0 0 0
3439 5 1.7985 0.0 34.1715 0 0 0
3451 5 1.7985 3.597 8.9925 0 0 0
3453 5 3.597 3.597 10.791 0 0 0
3464 5 1.7985 5.3955 17.985 0 0 0
3467 5 1.7985 3.597 23.3805 0 0 0
3474 5 3.597 5.3955 30.5745 0 0 0
3478 5 3.597 5.3955 34.1715 0 0 0
3488 5 1.7985 8.9925 3.597 0 0 0
3499 5 1.7985 7.194 16.1865 0 0 0
3500 5 1.7985 8.9925 14.388 0 0 0
3501 5 3.597 7.194 17.985 0 0 0
3502 5 3.597 8.9925 19.7835 0 0 0
3514 5 3.597 8.9925 30.5745 0 0 0
3515 5 1.7985 7.194 30.5745 0 0 0
3516 5 1.7985 8.9925 28.776 0 0 0
3518 5 3.597 8.9925 34.1715 0 0 0
3520 5 1.7985 8.9925 32.373 0 0 0
3528 5 1.7985 12.5895 3.597 0 0 0
3531 5 1.7985 10.791 8.9925 0 0 0
3533 5 3.597 10.791 10.791 0 0 0
3534 5 3.597 12.5895 12.5895 0 0 0
3545 5 3.597 10.791 21.582 0 0 0
3548 5 1.7985 12.5895 21.582 0 0 0
3549 5 3.597 10.791 25.179 0 0 0
3557 5 3.597 10.791 32.373 0 0 0
3559 5 1.7985 10.791 34.1715 0 0 0
3566 5 3.597 16.1865 5.3955 0 0 0
3574 5 3.597 16.1865 12.5895 0 0 0
3575 5 1.7985 14.388 12.5895 0 0 0
3578 5 3.597 16.1865 16.1865 0 0 0
3580 5 1.7985 16.1865 14.388 0 0 0
3581 5 3.597 14.388 17.985 0 0 0
3584 5 1.7985 16.1865 17.985 0 0 0
3585 5 3.597 14.388 21.582 0 0 0
3594 5 3.597 16.1865 30.5745 0 0 0
3601 5 3.597 17.985 0.0 0 0 0
3602 5 3.597 19.7835 1.7985 0 0 0
3612 5 1.7985 19.7835 7.194 0 0 0
3613 5 3.597 17.985 10.791 0 0 0
3617 5 3.597 17.985 14.388 0 0 0
3618 5 3.597 19.7835 16.1865 0 0 0
3635 5 1.7985 17.985 30.5745 0 0 0
3636 5 1.7985 19.7835 28.776 0 0 0
3637 5 3.597 17.985 32.373 0 0 0
3641 5 3.597 21.582 0.0 0 0 0
3645 5 3.597 21.582 3.597 0 0 0
3646 5 3.597 23.3805 5.3955 0 0 0
3656 5 1.7985 23.3805 10.791 0 0 0
3657 5 3.597 21.582 14.388 0 0 0
3662 5 3.597 23.3805 19.7835 0 0 0
3666 5 3.597 23.3805 23.3805 0 0 0
3668 5 1.7985 23.3805 21.582 0 0 0
3678 5 3.597 23.3805 34.1715 0 0 0
3680 5 1.7985 23.3805 32.373 0 0 0
3683 5 1.7985 25.179 1.7985 0 0 0
3687 5 1.7985 25.179 5.3955 0 0 0
3688 5 1.7985 26.9775 3.597 0 0 0
3693 5 3.597 25.179 10.791 0 0 0
3704 5 1.7985 26.9775 17.985 0 0 0
3706 5 3.597 26.9775 23.3805 0 0 0
3707 5 1.7985 25.179 23.3805 0 0 0
3711 5 1.7985 25.179 26.9775 0 0 0
3712 5 1.7985 26.9775 25.179 0 0 0
3716 5 1.7985 26.9775 28.776 0 0 0
3720 5 1.7985 26.9775 32.373 0 0 0
3721 5 3.597 28.776 0.0 0 0 0
3722 5 3.597 30.5745 1.7985 0 0 0
3724 5 1.7985 30.5745 0.0 0 0 0
3726 5 3.597 30.5745 5.3955 0 0 0
3727 5 1.7985 28.776 5.3955 0 0 0
3728 5 1.7985 30.5745 3.597 0 0 0
3730 5 3.597 30.5745 8.9925 0 0 0
3734 5 3.597 30.5745 12.5895 0 0 0
3736 5 1.7985 30.5745 10.791 0 0 0
3743 5 1.7985 28.776 19.7835 0 0 0
3745 5 3.597 28.776 21.582 0 0 0
3747 5 1.7985 28.776 23.3805 0 0 0
3749 5 3.597 28.776 25.179 0 0 0
3752 5 1.7985 30.5745 25.179 0 0 0
3753 5 3.597 28.776 28.776 0 0 0
3754 5 3.597 30.5745 30.5745 0 0 0
3761 5 3.597 32.373 0.0 0 0 0
3768 5 1.7985 34.1715 3.597 0 0 0
3774 5 3.597 34.1715 12.5895 0 0 0
3780 5 1.7985 34.1715 14.388 0 0 0
3782 5 3.597 34.1715 19.7835 0 0 0
3783 5 1.7985 32.373 19.7835 0 0 0
3784 5 1.7985 34.1715 17.985 0 0 0
3795 5 1.7985 32.373 30.5745 0 0 0
3805 5 0.0 0.0 7.194 0 0 0
3811 5 0.0 0.0 17.985 0 0 0
3812 5 0.0 1.7985 19.7835 0 0 0
3815 5 0.0 0.0 25.179 0 0 0
3821 5 0.0 3.597 0.0 0 0 0
3825 5 0.0 3.597 7.194 0 0 0
3830 5 0.0 5.3955 16.1865 0 0 0
3831 5 0.0 3.597 17.985 0 0 0
3841 5 0.0 7.194 0.0 0 0 0
3845 5 0.0 7.194 7.194 0 0 0
3846 5 0.0 8.9925 8.9925 0 0 0
3847 5 0.0 7.194 10.791 0 0 0
3850 5 0.0 8.9925 16.1865 0 0 0
3852 5 0.0 8.9925 19.7835 0 0 0
3855 5 0.0 7.194 25.179 0 0 0
3864 5 0.0 12.5895 5.3955 0 0 0
3867 5 0.0 10.791 10.791 0 0 0
3871 5 0.0 10.791 17.985 0 0 0
3874 5 0.0 12.5895 23.3805 0 0 0
3875 5 0.0 10.791 25.179 0 0 0
3888 5 0.0 16.1865 12.5895 0 0 0
3889 5 0.0 14.388 14.388 0 0 0
3897 5 0.0 14.388 28.776 0 0 0
3908 5 0.0 19.7835 12.5895 0 0 0
3909 5 0.0 17.985 14.388 0 0 0
3912 5 0.0 19.7835 19.7835 0 0 0
3918 5 0.0 19.7835 30.5745 0 0 0
3921 5 0.0 21.582 0.0 0 0 0
3922 5 0.0 23.3805 1.7985 0 0 0
3930 5 0.0 23.3805 16.1865 0 0 0
3933 5 0.0 21.582 21.582 0 0 0
3935 5 0.0 21.582 25.179 0 0 0
3936 5 0.0 23.3805 26.9775 0 0 0
3939 5 0.0 21.582 32.373 0 0 0
3943 5 0.0 25.179 3.597 0 0 0
3947 5 0.0 25.179 10.791 0 0 0
3948 5 0.0 26.9775 12.5895 0 0 0
3949 5 0.0 25.179 14.388 0 0 0
3952 5 0.0 26.9775 19.7835 0 0 0
3954 5 0.0 26.9775 23.3805 0 0 0
3956 5 0.0 26.9775 26.9775 0 0 0
3962 5 0.0 30.5745 1.7985 0 0 0
3967 5 0.0 28.776 10.791 0 0 0
3971 5 0.0 28.776 17.985 0 0 0
3973 5 0.0 28.776 21.582 0 0 0
3977 5 0.0 28.776 28.776 0 0 0
3982 5 0.0 34.1715 1.7985 0 0 0
3983 5 0.0 32.373 3.597 0 0 0
3984 5 0.0 34.1715 5.3955 0 0 0
3987 5 0.0 32.373 10.791 0 0 0
3991 5 0.0 32.373 17.985 0 0 0
