LAMMPS data file via write_data version 30 Jul 2021 timestep = 0
4000 atoms
5 atom types
0 35.97 xlo xhi
0 35.97 ylo yhi
0 35.97 zlo zhi
0.0 0.0 0.0 xy xz yz
 
Masses
 
1 1.0
2 2.0
3 3.0
4 4.0
5 5.0
 
Atoms  # atomic
 
2799 1 8.9925 14.388 34.1715 0 0 0
2304 1 12.5895 8.9925 17.985 0 0 0
3869 1 0.0 10.791 14.388 0 0 0
318 1 32.373 8.9925 34.1715 0 0 0
1587 1 19.7835 14.388 23.3805 0 0 0
806 1 28.776 19.7835 5.3955 0 0 0
1290 1 25.179 26.9775 8.9925 0 0 0
2835 1 8.9925 17.985 30.5745 0 0 0
2880 1 8.9925 23.3805 32.373 0 0 0
130 1 34.1715 23.3805 14.388 0 0 0
2598 1 14.388 34.1715 34.1715 0 0 0
2656 1 8.9925 5.3955 10.791 0 0 0
397 1 32.373 14.388 32.373 0 0 0
406 1 32.373 19.7835 5.3955 0 0 0
294 1 32.373 8.9925 12.5895 0 0 0
3187 1 5.3955 14.388 23.3805 0 0 0
311 1 30.5745 7.194 26.9775 0 0 0
3639 1 1.7985 17.985 34.1715 0 0 0
1657 1 21.582 21.582 14.388 0 0 0
3328 1 5.3955 30.5745 3.597 0 0 0
1736 1 19.7835 30.5745 10.791 0 0 0
1349 1 25.179 28.776 25.179 0 0 0
3210 1 7.194 19.7835 8.9925 0 0 0
811 1 26.9775 17.985 8.9925 0 0 0
2108 1 16.1865 26.9775 21.582 0 0 0
3294 1 7.194 26.9775 12.5895 0 0 0
546 1 32.373 30.5745 23.3805 0 0 0
48 1 34.1715 8.9925 10.791 0 0 0
2111 1 16.1865 25.179 26.9775 0 0 0
2531 1 12.5895 28.776 8.9925 0 0 0
671 1 26.9775 3.597 26.9775 0 0 0
3186 1 7.194 16.1865 23.3805 0 0 0
148 1 34.1715 26.9775 10.791 0 0 0
1522 1 21.582 12.5895 1.7985 0 0 0
2254 1 14.388 5.3955 12.5895 0 0 0
2476 1 12.5895 23.3805 28.776 0 0 0
443 1 30.5745 21.582 1.7985 0 0 0
334 1 32.373 12.5895 12.5895 0 0 0
1398 1 25.179 34.1715 34.1715 0 0 0
3232 1 5.3955 19.7835 25.179 0 0 0
711 1 26.9775 7.194 26.9775 0 0 0
2183 1 16.1865 32.373 19.7835 0 0 0
3179 1 5.3955 14.388 16.1865 0 0 0
2471 1 12.5895 21.582 26.9775 0 0 0
204 1 30.5745 1.7985 0.0 0 0 0
2248 1 12.5895 5.3955 3.597 0 0 0
3994 1 0.0 34.1715 23.3805 0 0 0
1 1 34.1715 0.0 1.7985 0 0 0
2277 1 14.388 3.597 32.373 0 0 0
2733 1 10.791 10.791 10.791 0 0 0
800 1 26.9775 16.1865 32.373 0 0 0
2610 1 10.791 1.7985 8.9925 0 0 0
1050 1 25.179 5.3955 8.9925 0 0 0
890 1 28.776 26.9775 8.9925 0 0 0
444 1 30.5745 23.3805 0.0 0 0 0
1682 1 21.582 26.9775 1.7985 0 0 0
193 1 34.1715 32.373 23.3805 0 0 0
755 1 26.9775 10.791 30.5745 0 0 0
1370 1 25.179 34.1715 8.9925 0 0 0
684 1 26.9775 8.9925 0.0 0 0 0
2251 1 12.5895 3.597 8.9925 0 0 0
3848 1 0.0 8.9925 12.5895 0 0 0
3083 1 5.3955 7.194 1.7985 0 0 0
1242 1 25.179 23.3805 1.7985 0 0 0
2079 1 16.1865 21.582 34.1715 0 0 0
562 1 32.373 34.1715 1.7985 0 0 0
1270 1 25.179 23.3805 26.9775 0 0 0
2732 1 8.9925 12.5895 7.194 0 0 0
2952 1 8.9925 30.5745 25.179 0 0 0
2633 1 10.791 0.0 28.776 0 0 0
2300 1 12.5895 8.9925 14.388 0 0 0
382 1 32.373 16.1865 19.7835 0 0 0
3790 1 3.597 34.1715 26.9775 0 0 0
3213 1 7.194 17.985 10.791 0 0 0
3055 1 5.3955 3.597 12.5895 0 0 0
3230 1 7.194 19.7835 26.9775 0 0 0
3286 1 7.194 26.9775 5.3955 0 0 0
342 1 32.373 12.5895 19.7835 0 0 0
3331 1 5.3955 28.776 8.9925 0 0 0
216 1 30.5745 1.7985 10.791 0 0 0
1047 1 23.3805 3.597 5.3955 0 0 0
1607 1 19.7835 17.985 5.3955 0 0 0
2976 1 8.9925 34.1715 10.791 0 0 0
3458 1 3.597 5.3955 16.1865 0 0 0
3626 1 3.597 19.7835 23.3805 0 0 0
3819 1 0.0 0.0 32.373 0 0 0
822 1 28.776 19.7835 19.7835 0 0 0
168 1 34.1715 30.5745 10.791 0 0 0
445 1 32.373 21.582 3.597 0 0 0
1277 1 25.179 21.582 32.373 0 0 0
2660 1 8.9925 5.3955 14.388 0 0 0
2573 1 14.388 32.373 10.791 0 0 0
165 1 34.1715 28.776 8.9925 0 0 0
1995 1 16.1865 14.388 30.5745 0 0 0
814 1 28.776 19.7835 12.5895 0 0 0
3550 1 3.597 12.5895 26.9775 0 0 0
446 1 32.373 23.3805 5.3955 0 0 0
2682 1 10.791 8.9925 1.7985 0 0 0
1126 1 25.179 12.5895 5.3955 0 0 0
164 1 34.1715 30.5745 3.597 0 0 0
412 1 30.5745 19.7835 7.194 0 0 0
3108 1 5.3955 8.9925 21.582 0 0 0
1451 1 19.7835 3.597 8.9925 0 0 0
87 1 34.1715 14.388 12.5895 0 0 0
3986 1 0.0 34.1715 8.9925 0 0 0
102 1 34.1715 19.7835 0.0 0 0 0
3125 1 7.194 10.791 3.597 0 0 0
500 1 30.5745 26.9775 14.388 0 0 0
1956 1 16.1865 12.5895 28.776 0 0 0
995 1 26.9775 32.373 30.5745 0 0 0
1351 1 23.3805 28.776 26.9775 0 0 0
2164 1 16.1865 34.1715 0.0 0 0 0
1687 1 19.7835 25.179 5.3955 0 0 0
1101 1 25.179 7.194 17.985 0 0 0
3138 1 7.194 12.5895 16.1865 0 0 0
2451 1 12.5895 21.582 8.9925 0 0 0
31 1 34.1715 3.597 19.7835 0 0 0
1761 1 21.582 32.373 0.0 0 0 0
3002 1 7.194 1.7985 1.7985 0 0 0
979 1 26.9775 32.373 16.1865 0 0 0
3929 1 0.0 21.582 14.388 0 0 0
339 1 30.5745 10.791 16.1865 0 0 0
417 1 32.373 17.985 14.388 0 0 0
1482 1 21.582 8.9925 1.7985 0 0 0
2238 1 14.388 1.7985 34.1715 0 0 0
2677 1 10.791 3.597 32.373 0 0 0
630 1 28.776 1.7985 26.9775 0 0 0
3696 1 1.7985 26.9775 10.791 0 0 0
905 1 28.776 25.179 21.582 0 0 0
3977 1 0.0 28.776 28.776 0 0 0
3057 1 7.194 3.597 14.388 0 0 0
2982 1 10.791 34.1715 19.7835 0 0 0
1338 1 25.179 30.5745 16.1865 0 0 0
966 1 28.776 34.1715 5.3955 0 0 0
2819 1 8.9925 17.985 16.1865 0 0 0
1617 1 21.582 17.985 14.388 0 0 0
3296 1 5.3955 26.9775 10.791 0 0 0
3949 1 0.0 25.179 14.388 0 0 0
3114 1 7.194 8.9925 30.5745 0 0 0
407 1 30.5745 17.985 5.3955 0 0 0
899 1 26.9775 25.179 16.1865 0 0 0
2072 1 16.1865 23.3805 25.179 0 0 0
137 1 34.1715 21.582 30.5745 0 0 0
416 1 30.5745 19.7835 10.791 0 0 0
2803 1 8.9925 17.985 1.7985 0 0 0
894 1 28.776 26.9775 12.5895 0 0 0
2961 1 10.791 32.373 0.0 0 0 0
2069 1 17.985 21.582 25.179 0 0 0
3352 1 5.3955 30.5745 25.179 0 0 0
2695 1 8.9925 7.194 12.5895 0 0 0
1997 1 17.985 14.388 32.373 0 0 0
99 1 34.1715 14.388 34.1715 0 0 0
3422 1 3.597 1.7985 19.7835 0 0 0
2667 1 8.9925 3.597 23.3805 0 0 0
326 1 32.373 12.5895 5.3955 0 0 0
1194 1 25.179 16.1865 30.5745 0 0 0
1112 1 23.3805 8.9925 25.179 0 0 0
154 1 34.1715 26.9775 21.582 0 0 0
141 1 34.1715 25.179 1.7985 0 0 0
1552 1 19.7835 12.5895 25.179 0 0 0
2151 1 16.1865 28.776 26.9775 0 0 0
1355 1 23.3805 28.776 30.5745 0 0 0
1152 1 23.3805 12.5895 25.179 0 0 0
2705 1 10.791 7.194 21.582 0 0 0
1638 1 21.582 19.7835 34.1715 0 0 0
1648 1 19.7835 23.3805 3.597 0 0 0
1760 1 19.7835 30.5745 32.373 0 0 0
3931 1 0.0 21.582 17.985 0 0 0
1789 1 21.582 32.373 25.179 0 0 0
1624 1 19.7835 19.7835 17.985 0 0 0
210 1 32.373 1.7985 8.9925 0 0 0
2521 1 14.388 28.776 0.0 0 0 0
3557 1 3.597 10.791 32.373 0 0 0
1248 1 23.3805 23.3805 3.597 0 0 0
746 1 28.776 12.5895 23.3805 0 0 0
1797 1 21.582 32.373 32.373 0 0 0
1661 1 21.582 21.582 17.985 0 0 0
654 1 28.776 5.3955 12.5895 0 0 0
1477 1 21.582 3.597 32.373 0 0 0
1173 1 25.179 14.388 10.791 0 0 0
3849 1 0.0 7.194 14.388 0 0 0
259 1 30.5745 3.597 16.1865 0 0 0
3769 1 3.597 32.373 7.194 0 0 0
1915 1 16.1865 7.194 30.5745 0 0 0
2129 1 17.985 28.776 7.194 0 0 0
2423 1 12.5895 17.985 19.7835 0 0 0
3063 1 5.3955 3.597 19.7835 0 0 0
133 1 34.1715 21.582 23.3805 0 0 0
2028 1 16.1865 19.7835 21.582 0 0 0
851 1 26.9775 21.582 8.9925 0 0 0
1490 1 21.582 8.9925 8.9925 0 0 0
2252 1 12.5895 5.3955 7.194 0 0 0
3738 1 3.597 30.5745 16.1865 0 0 0
136 1 34.1715 23.3805 25.179 0 0 0
847 1 26.9775 21.582 5.3955 0 0 0
2285 1 14.388 7.194 3.597 0 0 0
3663 1 1.7985 21.582 19.7835 0 0 0
3695 1 1.7985 25.179 12.5895 0 0 0
1911 1 16.1865 7.194 26.9775 0 0 0
570 1 32.373 34.1715 8.9925 0 0 0
640 1 26.9775 1.7985 32.373 0 0 0
1780 1 19.7835 34.1715 14.388 0 0 0
3017 1 7.194 0.0 14.388 0 0 0
1139 1 23.3805 10.791 16.1865 0 0 0
3370 1 7.194 34.1715 8.9925 0 0 0
2545 1 14.388 28.776 21.582 0 0 0
1087 1 23.3805 7.194 5.3955 0 0 0
3827 1 0.0 3.597 10.791 0 0 0
3682 1 3.597 26.9775 1.7985 0 0 0
991 1 26.9775 32.373 26.9775 0 0 0
42 1 34.1715 8.9925 0.0 0 0 0
1968 1 16.1865 16.1865 3.597 0 0 0
2586 1 14.388 34.1715 23.3805 0 0 0
2903 1 8.9925 25.179 19.7835 0 0 0
2979 1 8.9925 32.373 16.1865 0 0 0
3596 1 1.7985 16.1865 28.776 0 0 0
2084 1 16.1865 26.9775 0.0 0 0 0
600 1 30.5745 34.1715 32.373 0 0 0
3197 1 7.194 14.388 32.373 0 0 0
41 1 34.1715 7.194 1.7985 0 0 0
1130 1 25.179 12.5895 8.9925 0 0 0
817 1 28.776 17.985 14.388 0 0 0
2596 1 12.5895 34.1715 28.776 0 0 0
3865 1 0.0 10.791 7.194 0 0 0
229 1 32.373 0.0 25.179 0 0 0
1272 1 23.3805 23.3805 25.179 0 0 0
517 1 32.373 25.179 32.373 0 0 0
782 1 28.776 16.1865 19.7835 0 0 0
3122 1 7.194 12.5895 1.7985 0 0 0
295 1 30.5745 7.194 12.5895 0 0 0
1322 1 25.179 30.5745 1.7985 0 0 0
3771 1 1.7985 32.373 8.9925 0 0 0
3145 1 7.194 10.791 21.582 0 0 0
1390 1 25.179 34.1715 26.9775 0 0 0
3883 1 0.0 14.388 3.597 0 0 0
3774 1 3.597 34.1715 12.5895 0 0 0
1488 1 19.7835 8.9925 3.597 0 0 0
3664 1 1.7985 23.3805 17.985 0 0 0
3685 1 3.597 25.179 3.597 0 0 0
958 1 28.776 30.5745 34.1715 0 0 0
189 1 34.1715 32.373 16.1865 0 0 0
2920 1 8.9925 26.9775 32.373 0 0 0
1015 1 23.3805 0.0 12.5895 0 0 0
1930 1 17.985 12.5895 8.9925 0 0 0
310 1 32.373 8.9925 26.9775 0 0 0
3481 1 3.597 7.194 0.0 0 0 0
1306 1 25.179 26.9775 23.3805 0 0 0
2655 1 8.9925 3.597 12.5895 0 0 0
64 1 34.1715 12.5895 3.597 0 0 0
3139 1 5.3955 10.791 16.1865 0 0 0
519 1 30.5745 25.179 34.1715 0 0 0
1212 1 23.3805 19.7835 7.194 0 0 0
1421 1 21.582 0.0 17.985 0 0 0
3434 1 3.597 1.7985 30.5745 0 0 0
1943 1 16.1865 10.791 19.7835 0 0 0
1645 1 21.582 21.582 3.597 0 0 0
3676 1 1.7985 23.3805 28.776 0 0 0
2120 1 16.1865 26.9775 32.373 0 0 0
980 1 26.9775 34.1715 14.388 0 0 0
3955 1 0.0 25.179 25.179 0 0 0
2895 1 8.9925 25.179 12.5895 0 0 0
2522 1 14.388 30.5745 1.7985 0 0 0
3593 1 3.597 14.388 28.776 0 0 0
1668 1 19.7835 23.3805 21.582 0 0 0
537 1 32.373 28.776 14.388 0 0 0
2980 1 8.9925 34.1715 14.388 0 0 0
3461 1 3.597 3.597 17.985 0 0 0
2287 1 12.5895 7.194 5.3955 0 0 0
1497 1 21.582 7.194 14.388 0 0 0
790 1 28.776 16.1865 26.9775 0 0 0
2491 1 12.5895 25.179 8.9925 0 0 0
3838 1 0.0 5.3955 30.5745 0 0 0
1221 1 25.179 17.985 17.985 0 0 0
2051 1 16.1865 21.582 8.9925 0 0 0
2074 1 17.985 23.3805 30.5745 0 0 0
3308 1 5.3955 26.9775 21.582 0 0 0
1859 1 16.1865 3.597 16.1865 0 0 0
1208 1 23.3805 19.7835 3.597 0 0 0
1327 1 23.3805 28.776 5.3955 0 0 0
2071 1 16.1865 21.582 26.9775 0 0 0
2487 1 12.5895 25.179 5.3955 0 0 0
2547 1 12.5895 28.776 23.3805 0 0 0
2543 1 12.5895 28.776 19.7835 0 0 0
2886 1 10.791 26.9775 5.3955 0 0 0
2998 1 10.791 34.1715 34.1715 0 0 0
3151 1 5.3955 10.791 26.9775 0 0 0
1662 1 21.582 23.3805 19.7835 0 0 0
3042 1 7.194 5.3955 1.7985 0 0 0
3867 1 0.0 10.791 10.791 0 0 0
2873 1 10.791 21.582 28.776 0 0 0
432 1 30.5745 19.7835 25.179 0 0 0
1686 1 21.582 26.9775 5.3955 0 0 0
513 1 32.373 25.179 28.776 0 0 0
39 1 34.1715 3.597 34.1715 0 0 0
2159 1 16.1865 28.776 34.1715 0 0 0
3303 1 5.3955 25.179 19.7835 0 0 0
2838 1 10.791 19.7835 34.1715 0 0 0
1749 1 21.582 28.776 25.179 0 0 0
2524 1 12.5895 30.5745 0.0 0 0 0
2513 1 14.388 25.179 28.776 0 0 0
795 1 26.9775 14.388 30.5745 0 0 0
2038 1 17.985 19.7835 34.1715 0 0 0
367 1 30.5745 14.388 5.3955 0 0 0
1136 1 23.3805 12.5895 10.791 0 0 0
2672 1 8.9925 5.3955 25.179 0 0 0
2370 1 14.388 16.1865 8.9925 0 0 0
2256 1 12.5895 5.3955 10.791 0 0 0
3010 1 7.194 1.7985 8.9925 0 0 0
3836 1 0.0 5.3955 26.9775 0 0 0
2348 1 12.5895 12.5895 21.582 0 0 0
1035 1 23.3805 0.0 30.5745 0 0 0
3031 1 5.3955 0.0 26.9775 0 0 0
2918 1 10.791 26.9775 34.1715 0 0 0
2617 1 10.791 0.0 14.388 0 0 0
151 1 34.1715 25.179 19.7835 0 0 0
941 1 28.776 28.776 17.985 0 0 0
38 1 34.1715 5.3955 28.776 0 0 0
300 1 30.5745 8.9925 14.388 0 0 0
2274 1 14.388 5.3955 30.5745 0 0 0
2268 1 12.5895 5.3955 21.582 0 0 0
3462 1 3.597 5.3955 19.7835 0 0 0
713 1 28.776 7.194 28.776 0 0 0
1600 1 19.7835 16.1865 32.373 0 0 0
3970 1 0.0 30.5745 16.1865 0 0 0
1926 1 17.985 12.5895 5.3955 0 0 0
273 1 32.373 3.597 28.776 0 0 0
3652 1 1.7985 23.3805 7.194 0 0 0
872 1 26.9775 23.3805 25.179 0 0 0
398 1 32.373 16.1865 34.1715 0 0 0
2106 1 17.985 26.9775 23.3805 0 0 0
3316 1 5.3955 26.9775 28.776 0 0 0
1939 1 16.1865 10.791 16.1865 0 0 0
813 1 28.776 17.985 10.791 0 0 0
105 1 34.1715 17.985 8.9925 0 0 0
2048 1 16.1865 23.3805 3.597 0 0 0
80 1 34.1715 12.5895 32.373 0 0 0
2546 1 14.388 30.5745 23.3805 0 0 0
2444 1 12.5895 23.3805 0.0 0 0 0
2823 1 8.9925 17.985 19.7835 0 0 0
1992 1 16.1865 16.1865 25.179 0 0 0
1614 1 21.582 19.7835 12.5895 0 0 0
219 1 30.5745 0.0 16.1865 0 0 0
3814 1 0.0 1.7985 23.3805 0 0 0
2062 1 17.985 23.3805 19.7835 0 0 0
1444 1 19.7835 5.3955 0.0 0 0 0
783 1 26.9775 14.388 19.7835 0 0 0
2160 1 16.1865 30.5745 32.373 0 0 0
224 1 30.5745 1.7985 17.985 0 0 0
2486 1 14.388 26.9775 5.3955 0 0 0
474 1 32.373 23.3805 30.5745 0 0 0
2499 1 12.5895 25.179 16.1865 0 0 0
103 1 34.1715 17.985 5.3955 0 0 0
552 1 30.5745 30.5745 25.179 0 0 0
2003 1 16.1865 17.985 1.7985 0 0 0
1160 1 23.3805 12.5895 32.373 0 0 0
3799 1 1.7985 32.373 34.1715 0 0 0
639 1 26.9775 0.0 34.1715 0 0 0
719 1 26.9775 7.194 34.1715 0 0 0
3631 1 1.7985 17.985 26.9775 0 0 0
3761 1 3.597 32.373 0.0 0 0 0
2802 1 10.791 19.7835 1.7985 0 0 0
3490 1 3.597 8.9925 8.9925 0 0 0
1267 1 23.3805 21.582 23.3805 0 0 0
3641 1 3.597 21.582 0.0 0 0 0
203 1 30.5745 0.0 1.7985 0 0 0
92 1 34.1715 16.1865 17.985 0 0 0
2102 1 17.985 26.9775 19.7835 0 0 0
683 1 26.9775 7.194 1.7985 0 0 0
66 1 34.1715 12.5895 7.194 0 0 0
3218 1 7.194 19.7835 16.1865 0 0 0
3954 1 0.0 26.9775 23.3805 0 0 0
1409 1 21.582 0.0 7.194 0 0 0
2109 1 17.985 25.179 25.179 0 0 0
3284 1 5.3955 26.9775 0.0 0 0 0
1000 1 26.9775 34.1715 32.373 0 0 0
209 1 32.373 0.0 7.194 0 0 0
3435 1 1.7985 0.0 30.5745 0 0 0
3104 1 5.3955 8.9925 17.985 0 0 0
2953 1 10.791 28.776 28.776 0 0 0
2130 1 17.985 30.5745 8.9925 0 0 0
2424 1 12.5895 19.7835 17.985 0 0 0
1861 1 17.985 3.597 17.985 0 0 0
906 1 28.776 26.9775 23.3805 0 0 0
1596 1 19.7835 16.1865 28.776 0 0 0
1895 1 16.1865 7.194 12.5895 0 0 0
2042 1 17.985 23.3805 1.7985 0 0 0
362 1 32.373 16.1865 1.7985 0 0 0
737 1 28.776 10.791 14.388 0 0 0
1031 1 23.3805 0.0 26.9775 0 0 0
3293 1 7.194 25.179 10.791 0 0 0
2658 1 10.791 5.3955 16.1865 0 0 0
172 1 34.1715 30.5745 17.985 0 0 0
3681 1 3.597 25.179 0.0 0 0 0
1504 1 19.7835 8.9925 17.985 0 0 0
112 1 34.1715 19.7835 17.985 0 0 0
3367 1 5.3955 32.373 5.3955 0 0 0
3270 1 7.194 23.3805 26.9775 0 0 0
2824 1 8.9925 19.7835 17.985 0 0 0
2245 1 14.388 3.597 3.597 0 0 0
3747 1 1.7985 28.776 23.3805 0 0 0
50 1 34.1715 8.9925 14.388 0 0 0
1779 1 19.7835 32.373 16.1865 0 0 0
2008 1 16.1865 19.7835 3.597 0 0 0
618 1 28.776 1.7985 16.1865 0 0 0
1034 1 25.179 1.7985 30.5745 0 0 0
424 1 30.5745 19.7835 17.985 0 0 0
3766 1 3.597 34.1715 5.3955 0 0 0
2669 1 10.791 3.597 25.179 0 0 0
3221 1 7.194 17.985 17.985 0 0 0
523 1 30.5745 28.776 1.7985 0 0 0
1059 1 23.3805 3.597 16.1865 0 0 0
5 1 34.1715 0.0 8.9925 0 0 0
1529 1 21.582 10.791 7.194 0 0 0
614 1 28.776 1.7985 12.5895 0 0 0
1261 1 25.179 21.582 17.985 0 0 0
908 1 26.9775 26.9775 21.582 0 0 0
2845 1 10.791 21.582 3.597 0 0 0
1149 1 25.179 10.791 25.179 0 0 0
2659 1 8.9925 3.597 16.1865 0 0 0
2472 1 12.5895 23.3805 25.179 0 0 0
587 1 30.5745 32.373 23.3805 0 0 0
2286 1 14.388 8.9925 5.3955 0 0 0
1576 1 19.7835 16.1865 10.791 0 0 0
214 1 32.373 1.7985 12.5895 0 0 0
2783 1 8.9925 14.388 19.7835 0 0 0
3128 1 5.3955 12.5895 3.597 0 0 0
693 1 28.776 7.194 10.791 0 0 0
101 1 34.1715 17.985 1.7985 0 0 0
1250 1 25.179 23.3805 8.9925 0 0 0
1420 1 19.7835 1.7985 14.388 0 0 0
1653 1 21.582 21.582 10.791 0 0 0
183 1 34.1715 32.373 5.3955 0 0 0
3069 1 7.194 3.597 25.179 0 0 0
2425 1 14.388 17.985 21.582 0 0 0
84 1 34.1715 16.1865 3.597 0 0 0
3607 1 1.7985 17.985 5.3955 0 0 0
2284 1 12.5895 8.9925 0.0 0 0 0
316 1 30.5745 8.9925 28.776 0 0 0
170 1 34.1715 30.5745 14.388 0 0 0
802 1 28.776 19.7835 1.7985 0 0 0
2635 1 8.9925 0.0 30.5745 0 0 0
2398 1 14.388 16.1865 34.1715 0 0 0
3418 1 3.597 1.7985 16.1865 0 0 0
434 1 32.373 19.7835 30.5745 0 0 0
3081 1 7.194 7.194 0.0 0 0 0
972 1 26.9775 34.1715 7.194 0 0 0
1121 1 25.179 10.791 0.0 0 0 0
3543 1 1.7985 10.791 19.7835 0 0 0
1005 1 25.179 0.0 3.597 0 0 0
3843 1 0.0 7.194 3.597 0 0 0
1003 1 23.3805 0.0 1.7985 0 0 0
3569 1 3.597 14.388 7.194 0 0 0
2641 1 10.791 3.597 0.0 0 0 0
3001 1 7.194 0.0 0.0 0 0 0
1043 1 23.3805 3.597 1.7985 0 0 0
1443 1 19.7835 3.597 1.7985 0 0 0
2506 1 14.388 26.9775 23.3805 0 0 0
208 1 30.5745 1.7985 3.597 0 0 0
670 1 28.776 5.3955 26.9775 0 0 0
2567 1 12.5895 32.373 5.3955 0 0 0
1777 1 21.582 32.373 14.388 0 0 0
791 1 26.9775 14.388 26.9775 0 0 0
3768 1 1.7985 34.1715 3.597 0 0 0
1634 1 21.582 19.7835 30.5745 0 0 0
3873 1 0.0 10.791 21.582 0 0 0
426 1 32.373 19.7835 23.3805 0 0 0
705 1 28.776 7.194 21.582 0 0 0
704 1 26.9775 8.9925 17.985 0 0 0
3667 1 1.7985 21.582 23.3805 0 0 0
3795 1 1.7985 32.373 30.5745 0 0 0
2763 1 8.9925 14.388 1.7985 0 0 0
2191 1 16.1865 32.373 26.9775 0 0 0
2456 1 12.5895 23.3805 10.791 0 0 0
138 1 34.1715 23.3805 28.776 0 0 0
1434 1 21.582 1.7985 30.5745 0 0 0
1820 1 16.1865 1.7985 14.388 0 0 0
3440 1 1.7985 1.7985 32.373 0 0 0
2987 1 8.9925 32.373 23.3805 0 0 0
2930 1 10.791 30.5745 8.9925 0 0 0
3859 1 0.0 7.194 32.373 0 0 0
1083 1 23.3805 7.194 1.7985 0 0 0
3787 1 1.7985 32.373 23.3805 0 0 0
3824 1 0.0 5.3955 5.3955 0 0 0
399 1 30.5745 14.388 34.1715 0 0 0
1904 1 16.1865 8.9925 17.985 0 0 0
40 1 34.1715 5.3955 32.373 0 0 0
485 1 32.373 25.179 3.597 0 0 0
3384 1 5.3955 34.1715 17.985 0 0 0
1454 1 21.582 5.3955 12.5895 0 0 0
2964 1 8.9925 34.1715 0.0 0 0 0
1684 1 19.7835 26.9775 0.0 0 0 0
1021 1 25.179 0.0 17.985 0 0 0
629 1 28.776 0.0 25.179 0 0 0
1527 1 19.7835 10.791 5.3955 0 0 0
303 1 30.5745 7.194 19.7835 0 0 0
3829 1 0.0 3.597 14.388 0 0 0
675 1 26.9775 3.597 30.5745 0 0 0
2771 1 8.9925 14.388 8.9925 0 0 0
333 1 32.373 10.791 10.791 0 0 0
3618 1 3.597 19.7835 16.1865 0 0 0
2297 1 14.388 7.194 14.388 0 0 0
2526 1 14.388 30.5745 5.3955 0 0 0
3567 1 1.7985 14.388 5.3955 0 0 0
1978 1 17.985 16.1865 16.1865 0 0 0
655 1 26.9775 3.597 12.5895 0 0 0
2020 1 16.1865 19.7835 14.388 0 0 0
2813 1 10.791 17.985 10.791 0 0 0
3088 1 5.3955 8.9925 3.597 0 0 0
484 1 30.5745 26.9775 0.0 0 0 0
1711 1 19.7835 25.179 26.9775 0 0 0
1565 1 21.582 14.388 3.597 0 0 0
1154 1 25.179 12.5895 30.5745 0 0 0
2583 1 12.5895 32.373 19.7835 0 0 0
1190 1 25.179 16.1865 26.9775 0 0 0
1252 1 23.3805 23.3805 7.194 0 0 0
2296 1 12.5895 8.9925 10.791 0 0 0
1216 1 23.3805 19.7835 10.791 0 0 0
1611 1 19.7835 17.985 8.9925 0 0 0
1954 1 17.985 12.5895 30.5745 0 0 0
3655 1 1.7985 21.582 12.5895 0 0 0
94 1 34.1715 16.1865 21.582 0 0 0
702 1 28.776 8.9925 19.7835 0 0 0
1107 1 23.3805 7.194 23.3805 0 0 0
2829 1 10.791 17.985 25.179 0 0 0
595 1 30.5745 32.373 30.5745 0 0 0
1067 1 23.3805 3.597 23.3805 0 0 0
3148 1 5.3955 12.5895 21.582 0 0 0
110 1 34.1715 19.7835 14.388 0 0 0
2371 1 12.5895 14.388 8.9925 0 0 0
726 1 28.776 12.5895 5.3955 0 0 0
1077 1 25.179 3.597 32.373 0 0 0
3693 1 3.597 25.179 10.791 0 0 0
3177 1 7.194 14.388 14.388 0 0 0
3918 1 0.0 19.7835 30.5745 0 0 0
1907 1 16.1865 7.194 23.3805 0 0 0
3132 1 5.3955 12.5895 7.194 0 0 0
3165 1 7.194 14.388 3.597 0 0 0
579 1 30.5745 32.373 16.1865 0 0 0
1339 1 23.3805 28.776 16.1865 0 0 0
3500 1 1.7985 8.9925 14.388 0 0 0
576 1 30.5745 34.1715 10.791 0 0 0
3096 1 5.3955 8.9925 10.791 0 0 0
3240 1 5.3955 19.7835 32.373 0 0 0
1962 1 17.985 16.1865 1.7985 0 0 0
617 1 28.776 0.0 14.388 0 0 0
3671 1 1.7985 21.582 26.9775 0 0 0
250 1 32.373 5.3955 8.9925 0 0 0
1800 1 19.7835 34.1715 32.373 0 0 0
3299 1 5.3955 25.179 16.1865 0 0 0
1620 1 19.7835 19.7835 14.388 0 0 0
714 1 28.776 8.9925 30.5745 0 0 0
2316 1 12.5895 8.9925 28.776 0 0 0
840 1 26.9775 19.7835 32.373 0 0 0
1525 1 21.582 10.791 3.597 0 0 0
1358 1 25.179 30.5745 34.1715 0 0 0
1470 1 21.582 5.3955 26.9775 0 0 0
4 1 34.1715 1.7985 3.597 0 0 0
2055 1 16.1865 21.582 12.5895 0 0 0
3748 1 1.7985 30.5745 21.582 0 0 0
197 1 34.1715 32.373 30.5745 0 0 0
3276 1 5.3955 23.3805 28.776 0 0 0
2859 1 8.9925 21.582 16.1865 0 0 0
2100 1 16.1865 26.9775 14.388 0 0 0
2572 1 12.5895 34.1715 7.194 0 0 0
22 1 34.1715 5.3955 0.0 0 0 0
2324 1 12.5895 12.5895 0.0 0 0 0
3909 1 0.0 17.985 14.388 0 0 0
1897 1 17.985 7.194 14.388 0 0 0
698 1 28.776 8.9925 16.1865 0 0 0
1695 1 19.7835 25.179 12.5895 0 0 0
2440 1 12.5895 19.7835 32.373 0 0 0
1524 1 19.7835 12.5895 0.0 0 0 0
2174 1 17.985 34.1715 12.5895 0 0 0
2095 1 16.1865 25.179 12.5895 0 0 0
2727 1 8.9925 10.791 5.3955 0 0 0
2412 1 12.5895 19.7835 7.194 0 0 0
2913 1 10.791 25.179 28.776 0 0 0
2380 1 12.5895 16.1865 14.388 0 0 0
2435 1 12.5895 17.985 30.5745 0 0 0
710 1 28.776 8.9925 26.9775 0 0 0
1531 1 19.7835 10.791 8.9925 0 0 0
1374 1 25.179 34.1715 12.5895 0 0 0
2615 1 8.9925 0.0 12.5895 0 0 0
3575 1 1.7985 14.388 12.5895 0 0 0
1155 1 23.3805 10.791 30.5745 0 0 0
2537 1 14.388 28.776 14.388 0 0 0
3758 1 3.597 30.5745 34.1715 0 0 0
1106 1 25.179 8.9925 23.3805 0 0 0
19 1 34.1715 0.0 34.1715 0 0 0
1203 1 23.3805 17.985 1.7985 0 0 0
2018 1 17.985 19.7835 16.1865 0 0 0
3516 1 1.7985 8.9925 28.776 0 0 0
3996 1 0.0 34.1715 26.9775 0 0 0
1393 1 25.179 32.373 28.776 0 0 0
2505 1 14.388 25.179 21.582 0 0 0
1590 1 21.582 16.1865 26.9775 0 0 0
712 1 26.9775 8.9925 25.179 0 0 0
3483 1 1.7985 7.194 1.7985 0 0 0
3981 1 0.0 32.373 0.0 0 0 0
999 1 26.9775 32.373 34.1715 0 0 0
949 1 28.776 28.776 25.179 0 0 0
3363 1 5.3955 32.373 1.7985 0 0 0
3377 1 7.194 32.373 14.388 0 0 0
1982 1 17.985 16.1865 19.7835 0 0 0
1020 1 23.3805 1.7985 14.388 0 0 0
1094 1 25.179 8.9925 12.5895 0 0 0
1014 1 25.179 1.7985 12.5895 0 0 0
3673 1 3.597 21.582 28.776 0 0 0
2676 1 8.9925 5.3955 28.776 0 0 0
2495 1 12.5895 25.179 12.5895 0 0 0
3907 1 0.0 17.985 10.791 0 0 0
2587 1 12.5895 32.373 23.3805 0 0 0
1132 1 23.3805 12.5895 7.194 0 0 0
3044 1 5.3955 5.3955 0.0 0 0 0
1969 1 17.985 14.388 7.194 0 0 0
1097 1 25.179 7.194 14.388 0 0 0
3274 1 7.194 23.3805 30.5745 0 0 0
1972 1 16.1865 16.1865 7.194 0 0 0
3386 1 7.194 34.1715 23.3805 0 0 0
573 1 32.373 32.373 10.791 0 0 0
3362 1 7.194 34.1715 1.7985 0 0 0
687 1 26.9775 7.194 5.3955 0 0 0
863 1 26.9775 21.582 19.7835 0 0 0
3488 1 1.7985 8.9925 3.597 0 0 0
2216 1 12.5895 1.7985 10.791 0 0 0
2904 1 8.9925 26.9775 17.985 0 0 0
812 1 26.9775 19.7835 7.194 0 0 0
2662 1 10.791 5.3955 19.7835 0 0 0
1964 1 16.1865 16.1865 0.0 0 0 0
1418 1 21.582 1.7985 16.1865 0 0 0
660 1 26.9775 5.3955 14.388 0 0 0
3155 1 5.3955 10.791 30.5745 0 0 0
3113 1 7.194 7.194 28.776 0 0 0
2508 1 12.5895 26.9775 21.582 0 0 0
2279 1 12.5895 3.597 34.1715 0 0 0
2386 1 14.388 16.1865 23.3805 0 0 0
3915 1 0.0 17.985 25.179 0 0 0
1484 1 19.7835 8.9925 0.0 0 0 0
637 1 28.776 0.0 32.373 0 0 0
605 1 28.776 0.0 3.597 0 0 0
3503 1 1.7985 7.194 19.7835 0 0 0
2916 1 8.9925 26.9775 28.776 0 0 0
3142 1 7.194 12.5895 19.7835 0 0 0
3131 1 5.3955 10.791 8.9925 0 0 0
2231 1 12.5895 0.0 26.9775 0 0 0
777 1 28.776 14.388 14.388 0 0 0
2534 1 14.388 30.5745 12.5895 0 0 0
3700 1 1.7985 26.9775 14.388 0 0 0
1973 1 17.985 14.388 10.791 0 0 0
3489 1 3.597 7.194 7.194 0 0 0
2969 1 10.791 32.373 7.194 0 0 0
3741 1 3.597 28.776 17.985 0 0 0
3199 1 5.3955 14.388 34.1715 0 0 0
3936 1 0.0 23.3805 26.9775 0 0 0
2085 1 17.985 25.179 3.597 0 0 0
3628 1 1.7985 19.7835 21.582 0 0 0
2815 2 8.9925 17.985 12.5895 0 0 0
499 2 30.5745 25.179 16.1865 0 0 0
3209 2 7.194 17.985 7.194 0 0 0
3807 2 0.0 0.0 10.791 0 0 0
2391 2 12.5895 14.388 26.9775 0 0 0
3147 2 5.3955 10.791 23.3805 0 0 0
3154 2 7.194 12.5895 30.5745 0 0 0
1807 2 16.1865 0.0 5.3955 0 0 0
2929 2 10.791 28.776 7.194 0 0 0
1103 2 23.3805 7.194 19.7835 0 0 0
2808 2 8.9925 19.7835 3.597 0 0 0
2093 2 17.985 25.179 10.791 0 0 0
2908 2 8.9925 26.9775 21.582 0 0 0
423 2 30.5745 17.985 19.7835 0 0 0
415 2 30.5745 17.985 12.5895 0 0 0
3509 2 3.597 7.194 25.179 0 0 0
3718 2 3.597 26.9775 34.1715 0 0 0
2654 2 10.791 5.3955 12.5895 0 0 0
2149 2 17.985 28.776 25.179 0 0 0
3027 2 5.3955 0.0 23.3805 0 0 0
1983 2 16.1865 14.388 19.7835 0 0 0
3244 2 5.3955 23.3805 0.0 0 0 0
1627 2 19.7835 17.985 23.3805 0 0 0
2330 2 14.388 12.5895 8.9925 0 0 0
1467 2 19.7835 3.597 23.3805 0 0 0
37 2 34.1715 3.597 30.5745 0 0 0
538 2 32.373 30.5745 16.1865 0 0 0
988 2 26.9775 34.1715 21.582 0 0 0
440 2 30.5745 19.7835 32.373 0 0 0
2087 2 16.1865 25.179 5.3955 0 0 0
370 2 32.373 16.1865 8.9925 0 0 0
3419 2 1.7985 0.0 16.1865 0 0 0
3076 2 5.3955 5.3955 28.776 0 0 0
3225 2 7.194 17.985 21.582 0 0 0
2026 2 17.985 19.7835 23.3805 0 0 0
3457 2 3.597 3.597 14.388 0 0 0
3150 2 7.194 12.5895 26.9775 0 0 0
2833 2 10.791 17.985 28.776 0 0 0
2234 2 14.388 1.7985 30.5745 0 0 0
994 2 28.776 34.1715 30.5745 0 0 0
2406 2 14.388 19.7835 5.3955 0 0 0
3243 2 5.3955 21.582 1.7985 0 0 0
3776 2 1.7985 34.1715 10.791 0 0 0
3368 2 5.3955 34.1715 3.597 0 0 0
1514 2 21.582 8.9925 30.5745 0 0 0
1489 2 21.582 7.194 7.194 0 0 0
1865 2 17.985 3.597 21.582 0 0 0
2801 2 10.791 17.985 0.0 0 0 0
3773 2 3.597 32.373 10.791 0 0 0
1381 2 25.179 32.373 17.985 0 0 0
3840 2 0.0 5.3955 34.1715 0 0 0
2258 2 14.388 5.3955 16.1865 0 0 0
1243 2 23.3805 21.582 1.7985 0 0 0
1028 2 23.3805 1.7985 21.582 0 0 0
1264 2 23.3805 23.3805 17.985 0 0 0
431 2 30.5745 17.985 26.9775 0 0 0
951 2 26.9775 28.776 26.9775 0 0 0
1109 2 25.179 7.194 25.179 0 0 0
2409 2 14.388 17.985 7.194 0 0 0
124 2 34.1715 23.3805 3.597 0 0 0
3566 2 3.597 16.1865 5.3955 0 0 0
3518 2 3.597 8.9925 34.1715 0 0 0
748 2 26.9775 12.5895 21.582 0 0 0
3223 2 5.3955 17.985 19.7835 0 0 0
3198 2 7.194 16.1865 34.1715 0 0 0
2990 2 10.791 34.1715 26.9775 0 0 0
177 2 34.1715 28.776 30.5745 0 0 0
820 2 26.9775 19.7835 14.388 0 0 0
2574 2 14.388 34.1715 12.5895 0 0 0
1751 2 19.7835 28.776 26.9775 0 0 0
3833 2 0.0 3.597 21.582 0 0 0
1460 2 19.7835 5.3955 14.388 0 0 0
983 2 26.9775 32.373 19.7835 0 0 0
1629 2 21.582 17.985 25.179 0 0 0
3640 2 1.7985 19.7835 32.373 0 0 0
3653 2 3.597 21.582 10.791 0 0 0
1914 2 17.985 8.9925 30.5745 0 0 0
920 2 26.9775 26.9775 32.373 0 0 0
1029 2 25.179 0.0 25.179 0 0 0
1453 2 21.582 3.597 10.791 0 0 0
59 2 34.1715 7.194 34.1715 0 0 0
2750 2 10.791 12.5895 26.9775 0 0 0
612 2 26.9775 1.7985 7.194 0 0 0
1415 2 19.7835 0.0 12.5895 0 0 0
2749 2 10.791 10.791 25.179 0 0 0
2955 2 8.9925 28.776 30.5745 0 0 0
3962 2 0.0 30.5745 1.7985 0 0 0
2025 2 17.985 17.985 21.582 0 0 0
3089 2 7.194 7.194 7.194 0 0 0
2840 2 8.9925 19.7835 32.373 0 0 0
2489 2 14.388 25.179 7.194 0 0 0
2125 2 17.985 28.776 3.597 0 0 0
2549 2 14.388 28.776 25.179 0 0 0
2561 2 14.388 32.373 0.0 0 0 0
697 2 28.776 7.194 14.388 0 0 0
1448 2 19.7835 5.3955 3.597 0 0 0
3521 2 3.597 10.791 0.0 0 0 0
182 2 34.1715 34.1715 0.0 0 0 0
2673 2 10.791 3.597 28.776 0 0 0
3514 2 3.597 8.9925 30.5745 0 0 0
2517 2 14.388 25.179 32.373 0 0 0
1981 2 17.985 14.388 17.985 0 0 0
769 2 28.776 14.388 7.194 0 0 0
1012 2 23.3805 1.7985 7.194 0 0 0
2874 2 10.791 23.3805 30.5745 0 0 0
2291 2 12.5895 7.194 8.9925 0 0 0
1074 2 25.179 5.3955 30.5745 0 0 0
240 2 30.5745 1.7985 32.373 0 0 0
3610 2 3.597 19.7835 8.9925 0 0 0
774 2 28.776 16.1865 12.5895 0 0 0
1474 2 21.582 5.3955 30.5745 0 0 0
1183 2 23.3805 14.388 19.7835 0 0 0
3765 2 3.597 32.373 3.597 0 0 0
2533 2 14.388 28.776 10.791 0 0 0
2312 2 12.5895 8.9925 25.179 0 0 0
1671 2 19.7835 21.582 26.9775 0 0 0
3726 2 3.597 30.5745 5.3955 0 0 0
1022 2 25.179 1.7985 19.7835 0 0 0
2378 2 14.388 16.1865 16.1865 0 0 0
1725 2 21.582 28.776 3.597 0 0 0
599 2 30.5745 32.373 34.1715 0 0 0
3725 2 3.597 28.776 3.597 0 0 0
3086 2 7.194 8.9925 5.3955 0 0 0
266 2 32.373 5.3955 23.3805 0 0 0
3945 2 0.0 25.179 7.194 0 0 0
780 2 26.9775 16.1865 14.388 0 0 0
3987 2 0.0 32.373 10.791 0 0 0
3942 2 0.0 26.9775 1.7985 0 0 0
727 2 26.9775 10.791 5.3955 0 0 0
2369 2 14.388 14.388 7.194 0 0 0
2150 2 17.985 30.5745 26.9775 0 0 0
469 2 32.373 21.582 25.179 0 0 0
2199 2 16.1865 32.373 34.1715 0 0 0
3201 2 7.194 17.985 0.0 0 0 0
3452 2 1.7985 5.3955 7.194 0 0 0
3442 2 3.597 5.3955 1.7985 0 0 0
3857 2 0.0 7.194 28.776 0 0 0
2934 2 10.791 30.5745 12.5895 0 0 0
2516 2 12.5895 26.9775 28.776 0 0 0
1595 2 19.7835 14.388 30.5745 0 0 0
218 2 32.373 1.7985 16.1865 0 0 0
3998 2 0.0 34.1715 30.5745 0 0 0
402 2 32.373 19.7835 1.7985 0 0 0
2332 2 12.5895 12.5895 7.194 0 0 0
2611 2 8.9925 0.0 8.9925 0 0 0
3657 2 3.597 21.582 14.388 0 0 0
732 2 26.9775 12.5895 7.194 0 0 0
1937 2 17.985 10.791 14.388 0 0 0
1345 2 25.179 28.776 21.582 0 0 0
3616 2 1.7985 19.7835 10.791 0 0 0
930 2 28.776 30.5745 8.9925 0 0 0
1604 2 19.7835 19.7835 0.0 0 0 0
1046 2 25.179 5.3955 5.3955 0 0 0
1855 2 16.1865 3.597 12.5895 0 0 0
2926 2 10.791 30.5745 5.3955 0 0 0
2395 2 12.5895 14.388 30.5745 0 0 0
1018 2 25.179 1.7985 16.1865 0 0 0
2201 2 14.388 0.0 0.0 0 0 0
3578 2 3.597 16.1865 16.1865 0 0 0
3602 2 3.597 19.7835 1.7985 0 0 0
1593 2 21.582 14.388 28.776 0 0 0
143 2 34.1715 25.179 5.3955 0 0 0
1586 2 21.582 16.1865 23.3805 0 0 0
1790 2 21.582 34.1715 26.9775 0 0 0
1550 2 21.582 12.5895 26.9775 0 0 0
2249 2 14.388 3.597 7.194 0 0 0
3427 2 1.7985 0.0 23.3805 0 0 0
2239 2 12.5895 0.0 34.1715 0 0 0
2822 2 10.791 19.7835 19.7835 0 0 0
134 2 34.1715 23.3805 21.582 0 0 0
1056 2 23.3805 5.3955 10.791 0 0 0
2556 2 12.5895 30.5745 28.776 0 0 0
2340 2 12.5895 12.5895 14.388 0 0 0
2590 2 14.388 34.1715 26.9775 0 0 0
3637 2 3.597 17.985 32.373 0 0 0
1178 2 25.179 16.1865 16.1865 0 0 0
12 2 34.1715 1.7985 17.985 0 0 0
3459 2 1.7985 3.597 16.1865 0 0 0
3475 2 1.7985 3.597 30.5745 0 0 0
1785 2 21.582 32.373 21.582 0 0 0
1091 2 23.3805 7.194 8.9925 0 0 0
24 2 34.1715 5.3955 3.597 0 0 0
3351 2 5.3955 28.776 26.9775 0 0 0
1117 2 25.179 7.194 32.373 0 0 0
2387 2 12.5895 14.388 23.3805 0 0 0
2691 2 8.9925 7.194 8.9925 0 0 0
1866 2 17.985 5.3955 23.3805 0 0 0
1207 2 23.3805 17.985 5.3955 0 0 0
482 2 32.373 26.9775 1.7985 0 0 0
2064 2 16.1865 23.3805 17.985 0 0 0
2797 2 10.791 14.388 32.373 0 0 0
3717 2 3.597 25.179 32.373 0 0 0
2432 2 12.5895 19.7835 25.179 0 0 0
787 2 26.9775 14.388 23.3805 0 0 0
2394 2 14.388 16.1865 30.5745 0 0 0
330 2 32.373 12.5895 8.9925 0 0 0
365 2 32.373 14.388 3.597 0 0 0
1387 2 23.3805 32.373 23.3805 0 0 0
1495 2 19.7835 7.194 12.5895 0 0 0
757 2 28.776 10.791 32.373 0 0 0
1057 2 25.179 3.597 14.388 0 0 0
2390 2 14.388 16.1865 26.9775 0 0 0
1507 2 19.7835 7.194 23.3805 0 0 0
731 2 26.9775 10.791 8.9925 0 0 0
2869 2 10.791 21.582 25.179 0 0 0
823 2 26.9775 17.985 19.7835 0 0 0
473 2 32.373 21.582 28.776 0 0 0
3444 2 1.7985 5.3955 0.0 0 0 0
652 2 26.9775 5.3955 7.194 0 0 0
535 2 30.5745 28.776 12.5895 0 0 0
1556 2 19.7835 12.5895 28.776 0 0 0
1547 2 19.7835 10.791 23.3805 0 0 0
2223 2 12.5895 0.0 19.7835 0 0 0
3791 2 1.7985 32.373 26.9775 0 0 0
1696 2 19.7835 26.9775 10.791 0 0 0
2310 2 14.388 8.9925 26.9775 0 0 0
244 2 30.5745 5.3955 0.0 0 0 0
2863 2 8.9925 21.582 19.7835 0 0 0
610 2 28.776 1.7985 8.9925 0 0 0
946 2 28.776 30.5745 23.3805 0 0 0
3146 2 7.194 12.5895 23.3805 0 0 0
1392 2 23.3805 34.1715 25.179 0 0 0
932 2 26.9775 30.5745 7.194 0 0 0
383 2 30.5745 14.388 19.7835 0 0 0
1685 2 21.582 25.179 3.597 0 0 0
2131 2 16.1865 28.776 8.9925 0 0 0
3379 2 5.3955 32.373 16.1865 0 0 0
2640 2 8.9925 1.7985 32.373 0 0 0
2359 2 12.5895 10.791 34.1715 0 0 0
672 2 26.9775 5.3955 25.179 0 0 0
1164 2 23.3805 16.1865 0.0 0 0 0
309 2 32.373 7.194 25.179 0 0 0
320 2 30.5745 8.9925 32.373 0 0 0
2126 2 17.985 30.5745 5.3955 0 0 0
410 2 32.373 19.7835 8.9925 0 0 0
924 2 26.9775 30.5745 0.0 0 0 0
2501 2 14.388 25.179 17.985 0 0 0
1233 2 25.179 17.985 28.776 0 0 0
1472 2 19.7835 5.3955 25.179 0 0 0
1505 2 21.582 7.194 21.582 0 0 0
2870 2 10.791 23.3805 26.9775 0 0 0
720 2 26.9775 8.9925 32.373 0 0 0
1511 2 19.7835 7.194 26.9775 0 0 0
401 2 32.373 17.985 0.0 0 0 0
2592 2 12.5895 34.1715 25.179 0 0 0
251 2 30.5745 3.597 8.9925 0 0 0
2202 2 14.388 1.7985 1.7985 0 0 0
3963 2 0.0 28.776 3.597 0 0 0
843 2 26.9775 21.582 1.7985 0 0 0
2694 2 10.791 8.9925 12.5895 0 0 0
1135 2 23.3805 10.791 12.5895 0 0 0
2373 2 14.388 14.388 10.791 0 0 0
96 2 34.1715 16.1865 25.179 0 0 0
2352 2 12.5895 12.5895 25.179 0 0 0
3943 2 0.0 25.179 3.597 0 0 0
1227 2 23.3805 17.985 23.3805 0 0 0
3902 2 0.0 19.7835 1.7985 0 0 0
3854 2 0.0 8.9925 23.3805 0 0 0
2675 2 8.9925 3.597 30.5745 0 0 0
159 2 34.1715 25.179 34.1715 0 0 0
3309 2 7.194 25.179 25.179 0 0 0
3006 2 7.194 1.7985 5.3955 0 0 0
585 2 32.373 32.373 21.582 0 0 0
3280 2 5.3955 23.3805 32.373 0 0 0
2438 2 14.388 19.7835 34.1715 0 0 0
1949 2 17.985 10.791 25.179 0 0 0
360 2 30.5745 12.5895 32.373 0 0 0
913 2 28.776 25.179 28.776 0 0 0
211 2 30.5745 0.0 8.9925 0 0 0
173 2 34.1715 28.776 23.3805 0 0 0
494 2 32.373 26.9775 12.5895 0 0 0
277 2 32.373 3.597 32.373 0 0 0
1316 2 23.3805 26.9775 28.776 0 0 0
3423 2 1.7985 0.0 19.7835 0 0 0
3777 2 3.597 32.373 14.388 0 0 0
1485 2 21.582 7.194 3.597 0 0 0
3956 2 0.0 26.9775 26.9775 0 0 0
3515 2 1.7985 7.194 30.5745 0 0 0
3548 2 1.7985 12.5895 21.582 0 0 0
374 2 32.373 16.1865 12.5895 0 0 0
2720 2 8.9925 8.9925 32.373 0 0 0
3372 2 5.3955 34.1715 7.194 0 0 0
2269 2 14.388 3.597 25.179 0 0 0
433 2 32.373 17.985 28.776 0 0 0
2379 2 12.5895 14.388 16.1865 0 0 0
794 2 28.776 16.1865 30.5745 0 0 0
2744 2 8.9925 12.5895 17.985 0 0 0
3414 2 3.597 1.7985 12.5895 0 0 0
2511 2 12.5895 25.179 26.9775 0 0 0
3226 2 7.194 19.7835 23.3805 0 0 0
1896 2 16.1865 8.9925 10.791 0 0 0
2418 2 14.388 19.7835 16.1865 0 0 0
1957 2 17.985 10.791 32.373 0 0 0
1471 2 19.7835 3.597 26.9775 0 0 0
3411 2 1.7985 0.0 8.9925 0 0 0
149 2 34.1715 25.179 16.1865 0 0 0
2236 2 12.5895 1.7985 28.776 0 0 0
509 2 32.373 25.179 25.179 0 0 0
3864 2 0.0 12.5895 5.3955 0 0 0
623 2 26.9775 0.0 19.7835 0 0 0
1389 2 25.179 32.373 25.179 0 0 0
503 2 30.5745 25.179 19.7835 0 0 0
996 2 26.9775 34.1715 28.776 0 0 0
2113 2 17.985 25.179 28.776 0 0 0
1294 2 25.179 26.9775 12.5895 0 0 0
1824 2 16.1865 1.7985 17.985 0 0 0
1900 2 16.1865 8.9925 14.388 0 0 0
1419 2 19.7835 0.0 16.1865 0 0 0
1723 2 19.7835 28.776 1.7985 0 0 0
1146 2 25.179 12.5895 23.3805 0 0 0
3164 2 5.3955 16.1865 0.0 0 0 0
2872 2 8.9925 23.3805 25.179 0 0 0
111 2 34.1715 17.985 19.7835 0 0 0
1963 2 16.1865 14.388 1.7985 0 0 0
1449 2 21.582 3.597 7.194 0 0 0
2602 2 10.791 1.7985 1.7985 0 0 0
2237 2 14.388 0.0 32.373 0 0 0
1425 2 21.582 0.0 21.582 0 0 0
1658 2 21.582 23.3805 16.1865 0 0 0
547 2 30.5745 28.776 23.3805 0 0 0
2098 2 17.985 26.9775 16.1865 0 0 0
376 2 30.5745 16.1865 10.791 0 0 0
1546 2 21.582 12.5895 23.3805 0 0 0
1090 2 25.179 8.9925 8.9925 0 0 0
3940 2 0.0 23.3805 34.1715 0 0 0
3021 2 7.194 0.0 17.985 0 0 0
1985 2 17.985 14.388 21.582 0 0 0
3672 2 1.7985 23.3805 25.179 0 0 0
1301 2 25.179 25.179 17.985 0 0 0
419 2 30.5745 17.985 16.1865 0 0 0
3494 2 3.597 8.9925 12.5895 0 0 0
1104 2 23.3805 8.9925 17.985 0 0 0
947 2 26.9775 28.776 23.3805 0 0 0
2798 2 10.791 16.1865 34.1715 0 0 0
831 2 26.9775 17.985 26.9775 0 0 0
591 2 30.5745 32.373 26.9775 0 0 0
289 2 32.373 7.194 7.194 0 0 0
1567 2 19.7835 14.388 5.3955 0 0 0
317 2 32.373 7.194 32.373 0 0 0
305 2 32.373 7.194 21.582 0 0 0
2335 2 12.5895 10.791 12.5895 0 0 0
1874 2 17.985 5.3955 30.5745 0 0 0
1701 2 21.582 25.179 17.985 0 0 0
1886 2 17.985 8.9925 5.3955 0 0 0
1246 2 25.179 23.3805 5.3955 0 0 0
3465 2 3.597 3.597 21.582 0 0 0
3399 2 5.3955 32.373 34.1715 0 0 0
1240 2 23.3805 19.7835 32.373 0 0 0
881 2 28.776 25.179 0.0 0 0 0
1009 2 25.179 0.0 7.194 0 0 0
627 2 26.9775 0.0 23.3805 0 0 0
2751 2 8.9925 10.791 26.9775 0 0 0
3985 2 0.0 32.373 7.194 0 0 0
3709 2 3.597 25.179 25.179 0 0 0
2910 2 10.791 26.9775 26.9775 0 0 0
1987 2 16.1865 14.388 23.3805 0 0 0
3038 2 7.194 1.7985 34.1715 0 0 0
803 2 26.9775 17.985 1.7985 0 0 0
1334 2 25.179 30.5745 12.5895 0 0 0
3707 2 1.7985 25.179 23.3805 0 0 0
1492 2 19.7835 8.9925 7.194 0 0 0
775 2 26.9775 14.388 12.5895 0 0 0
1837 2 17.985 0.0 32.373 0 0 0
2630 2 10.791 1.7985 26.9775 0 0 0
1210 2 25.179 19.7835 8.9925 0 0 0
1783 2 19.7835 32.373 19.7835 0 0 0
1089 2 25.179 7.194 7.194 0 0 0
1054 2 25.179 5.3955 12.5895 0 0 0
1592 2 19.7835 16.1865 25.179 0 0 0
1741 2 21.582 28.776 17.985 0 0 0
1577 2 21.582 14.388 14.388 0 0 0
3507 2 1.7985 7.194 23.3805 0 0 0
1526 2 21.582 12.5895 5.3955 0 0 0
2993 2 10.791 32.373 28.776 0 0 0
3267 2 5.3955 21.582 23.3805 0 0 0
1693 2 21.582 25.179 10.791 0 0 0
2493 2 14.388 25.179 10.791 0 0 0
528 2 30.5745 30.5745 3.597 0 0 0
2548 2 12.5895 30.5745 21.582 0 0 0
3649 2 3.597 21.582 7.194 0 0 0
1144 2 23.3805 12.5895 17.985 0 0 0
2089 2 17.985 25.179 7.194 0 0 0
1853 2 17.985 3.597 10.791 0 0 0
2688 2 8.9925 8.9925 3.597 0 0 0
632 2 26.9775 1.7985 25.179 0 0 0
3467 2 1.7985 3.597 23.3805 0 0 0
285 2 32.373 7.194 3.597 0 0 0
242 2 32.373 5.3955 1.7985 0 0 0
1352 2 23.3805 30.5745 25.179 0 0 0
2924 2 8.9925 30.5745 0.0 0 0 0
3922 2 0.0 23.3805 1.7985 0 0 0
1055 2 23.3805 3.597 12.5895 0 0 0
391 2 30.5745 14.388 26.9775 0 0 0
3534 2 3.597 12.5895 12.5895 0 0 0
2196 2 16.1865 34.1715 28.776 0 0 0
772 2 26.9775 16.1865 7.194 0 0 0
1004 2 23.3805 1.7985 0.0 0 0 0
1337 2 25.179 28.776 14.388 0 0 0
2124 2 16.1865 30.5745 0.0 0 0 0
3369 2 7.194 32.373 7.194 0 0 0
3660 2 1.7985 23.3805 14.388 0 0 0
3487 2 1.7985 7.194 5.3955 0 0 0
1013 2 25.179 0.0 10.791 0 0 0
2575 2 12.5895 32.373 12.5895 0 0 0
745 2 28.776 10.791 21.582 0 0 0
448 3 30.5745 23.3805 3.597 0 0 0
2090 3 17.985 26.9775 8.9925 0 0 0
534 3 32.373 30.5745 12.5895 0 0 0
3728 3 1.7985 30.5745 3.597 0 0 0
2963 3 8.9925 32.373 1.7985 0 0 0
1222 3 25.179 19.7835 19.7835 0 0 0
2337 3 14.388 10.791 14.388 0 0 0
3629 3 3.597 17.985 25.179 0 0 0
2096 3 16.1865 26.9775 10.791 0 0 0
2713 3 10.791 7.194 28.776 0 0 0
2133 3 17.985 28.776 10.791 0 0 0
1123 3 23.3805 10.791 1.7985 0 0 0
1039 3 23.3805 0.0 34.1715 0 0 0
555 3 30.5745 28.776 30.5745 0 0 0
3314 3 7.194 26.9775 30.5745 0 0 0
3485 3 3.597 7.194 3.597 0 0 0
609 3 28.776 0.0 7.194 0 0 0
3360 3 5.3955 30.5745 32.373 0 0 0
233 3 32.373 0.0 28.776 0 0 0
2831 3 8.9925 17.985 26.9775 0 0 0
3870 3 0.0 12.5895 16.1865 0 0 0
2571 3 12.5895 32.373 8.9925 0 0 0
2375 3 12.5895 14.388 12.5895 0 0 0
1665 3 21.582 21.582 21.582 0 0 0
248 3 30.5745 5.3955 3.597 0 0 0
628 3 26.9775 1.7985 21.582 0 0 0
807 3 26.9775 17.985 5.3955 0 0 0
3080 3 5.3955 5.3955 32.373 0 0 0
2253 3 14.388 3.597 10.791 0 0 0
2759 3 8.9925 10.791 34.1715 0 0 0
3396 3 5.3955 34.1715 28.776 0 0 0
2912 3 8.9925 26.9775 25.179 0 0 0
1413 3 21.582 0.0 10.791 0 0 0
394 3 32.373 16.1865 30.5745 0 0 0
1324 3 23.3805 30.5745 0.0 0 0 0
2554 3 14.388 30.5745 30.5745 0 0 0
3134 3 7.194 12.5895 12.5895 0 0 0
2512 3 12.5895 26.9775 25.179 0 0 0
435 3 30.5745 17.985 30.5745 0 0 0
358 3 32.373 12.5895 34.1715 0 0 0
1880 3 16.1865 5.3955 32.373 0 0 0
2593 3 14.388 32.373 28.776 0 0 0
1980 3 16.1865 16.1865 14.388 0 0 0
1127 3 23.3805 10.791 5.3955 0 0 0
1476 3 19.7835 5.3955 28.776 0 0 0
2850 3 10.791 23.3805 8.9925 0 0 0
1767 3 19.7835 32.373 5.3955 0 0 0
3079 3 5.3955 3.597 34.1715 0 0 0
2636 3 8.9925 1.7985 28.776 0 0 0
2134 3 17.985 30.5745 12.5895 0 0 0
1214 3 25.179 19.7835 12.5895 0 0 0
1406 3 21.582 1.7985 5.3955 0 0 0
3627 3 1.7985 17.985 23.3805 0 0 0
1088 3 23.3805 8.9925 3.597 0 0 0
3711 3 1.7985 25.179 26.9775 0 0 0
2112 3 16.1865 26.9775 25.179 0 0 0
3937 3 0.0 21.582 28.776 0 0 0
1747 3 19.7835 28.776 23.3805 0 0 0
1336 3 23.3805 30.5745 10.791 0 0 0
2459 3 12.5895 21.582 16.1865 0 0 0
1825 3 17.985 0.0 21.582 0 0 0
900 3 26.9775 26.9775 14.388 0 0 0
2977 3 10.791 32.373 14.388 0 0 0
2649 3 10.791 3.597 7.194 0 0 0
3899 3 0.0 14.388 32.373 0 0 0
3378 3 7.194 34.1715 16.1865 0 0 0
3914 3 0.0 19.7835 23.3805 0 0 0
2891 3 8.9925 25.179 8.9925 0 0 0
2213 3 14.388 0.0 10.791 0 0 0
379 3 30.5745 14.388 16.1865 0 0 0
589 3 32.373 32.373 25.179 0 0 0
545 3 32.373 28.776 21.582 0 0 0
1640 3 19.7835 19.7835 32.373 0 0 0
854 3 28.776 23.3805 12.5895 0 0 0
3917 3 0.0 17.985 28.776 0 0 0
3650 3 3.597 23.3805 8.9925 0 0 0
944 3 26.9775 30.5745 17.985 0 0 0
3324 3 5.3955 30.5745 0.0 0 0 0
1572 3 19.7835 16.1865 7.194 0 0 0
1793 3 21.582 32.373 28.776 0 0 0
2761 3 10.791 14.388 0.0 0 0 0
1206 3 25.179 19.7835 5.3955 0 0 0
3821 3 0.0 3.597 0.0 0 0 0
1940 3 16.1865 12.5895 14.388 0 0 0
3433 3 3.597 0.0 28.776 0 0 0
3845 3 0.0 7.194 7.194 0 0 0
2807 3 8.9925 17.985 5.3955 0 0 0
2609 3 10.791 0.0 7.194 0 0 0
146 3 34.1715 26.9775 7.194 0 0 0
3234 3 7.194 19.7835 30.5745 0 0 0
707 3 26.9775 7.194 23.3805 0 0 0
1255 3 23.3805 21.582 12.5895 0 0 0
866 3 28.776 23.3805 23.3805 0 0 0
1858 3 17.985 5.3955 16.1865 0 0 0
2907 3 8.9925 25.179 23.3805 0 0 0
2541 3 14.388 28.776 17.985 0 0 0
1903 3 16.1865 7.194 19.7835 0 0 0
2177 3 17.985 32.373 14.388 0 0 0
135 3 34.1715 21.582 26.9775 0 0 0
3269 3 7.194 21.582 25.179 0 0 0
2142 3 17.985 30.5745 19.7835 0 0 0
1226 3 25.179 19.7835 23.3805 0 0 0
1606 3 21.582 19.7835 5.3955 0 0 0
1562 3 21.582 16.1865 1.7985 0 0 0
2082 3 17.985 26.9775 1.7985 0 0 0
1533 3 21.582 10.791 10.791 0 0 0
3632 3 1.7985 19.7835 25.179 0 0 0
2621 3 10.791 0.0 17.985 0 0 0
821 3 28.776 17.985 17.985 0 0 0
1770 3 21.582 34.1715 8.9925 0 0 0
2960 3 8.9925 30.5745 32.373 0 0 0
1813 3 17.985 0.0 10.791 0 0 0
2198 3 17.985 34.1715 34.1715 0 0 0
3589 3 3.597 14.388 25.179 0 0 0
2867 3 8.9925 21.582 23.3805 0 0 0
3812 3 0.0 1.7985 19.7835 0 0 0
3801 3 0.0 0.0 0.0 0 0 0
3204 3 5.3955 19.7835 0.0 0 0 0
2897 3 10.791 25.179 14.388 0 0 0
3254 3 7.194 23.3805 12.5895 0 0 0
1361 3 25.179 32.373 0.0 0 0 0
2399 3 12.5895 14.388 34.1715 0 0 0
1410 3 21.582 1.7985 8.9925 0 0 0
1483 3 19.7835 7.194 1.7985 0 0 0
1704 3 19.7835 26.9775 17.985 0 0 0
1898 3 17.985 8.9925 16.1865 0 0 0
1383 3 23.3805 32.373 19.7835 0 0 0
3786 3 3.597 34.1715 23.3805 0 0 0
2176 3 16.1865 34.1715 10.791 0 0 0
1759 3 19.7835 28.776 34.1715 0 0 0
2507 3 12.5895 25.179 23.3805 0 0 0
1330 3 25.179 30.5745 8.9925 0 0 0
1651 3 19.7835 21.582 8.9925 0 0 0
2752 3 8.9925 12.5895 25.179 0 0 0
1873 3 17.985 3.597 28.776 0 0 0
1019 3 23.3805 0.0 16.1865 0 0 0
1079 3 23.3805 3.597 34.1715 0 0 0
3762 3 3.597 34.1715 1.7985 0 0 0
2318 3 14.388 8.9925 34.1715 0 0 0
2735 3 8.9925 10.791 12.5895 0 0 0
483 3 30.5745 25.179 1.7985 0 0 0
2994 3 10.791 34.1715 30.5745 0 0 0
2550 3 14.388 30.5745 26.9775 0 0 0
1796 3 19.7835 34.1715 28.776 0 0 0
2889 3 10.791 25.179 7.194 0 0 0
2877 3 10.791 21.582 32.373 0 0 0
3817 3 0.0 0.0 28.776 0 0 0
2282 3 14.388 8.9925 1.7985 0 0 0
3724 3 1.7985 30.5745 0.0 0 0 0
3208 3 5.3955 19.7835 3.597 0 0 0
3282 3 7.194 26.9775 1.7985 0 0 0
1498 3 21.582 8.9925 16.1865 0 0 0
378 3 32.373 16.1865 16.1865 0 0 0
2368 3 12.5895 16.1865 3.597 0 0 0
1795 3 19.7835 32.373 30.5745 0 0 0
973 3 28.776 32.373 10.791 0 0 0
2132 3 16.1865 30.5745 7.194 0 0 0
901 3 28.776 25.179 17.985 0 0 0
2463 3 12.5895 21.582 19.7835 0 0 0
2777 3 10.791 14.388 14.388 0 0 0
1364 3 23.3805 34.1715 0.0 0 0 0
2843 3 8.9925 21.582 1.7985 0 0 0
2193 3 17.985 32.373 28.776 0 0 0
1782 3 21.582 34.1715 19.7835 0 0 0
478 3 32.373 23.3805 34.1715 0 0 0
1399 3 23.3805 32.373 34.1715 0 0 0
989 3 28.776 32.373 25.179 0 0 0
2968 3 8.9925 34.1715 3.597 0 0 0
348 3 30.5745 12.5895 21.582 0 0 0
21 3 34.1715 3.597 1.7985 0 0 0
3617 3 3.597 17.985 14.388 0 0 0
1917 3 17.985 7.194 32.373 0 0 0
3612 3 1.7985 19.7835 7.194 0 0 0
72 3 34.1715 12.5895 17.985 0 0 0
338 3 32.373 12.5895 16.1865 0 0 0
192 3 34.1715 34.1715 17.985 0 0 0
971 3 26.9775 32.373 8.9925 0 0 0
1548 3 19.7835 12.5895 21.582 0 0 0
750 3 28.776 12.5895 26.9775 0 0 0
2730 3 10.791 12.5895 8.9925 0 0 0
3492 3 1.7985 8.9925 7.194 0 0 0
2975 3 8.9925 32.373 12.5895 0 0 0
2050 3 17.985 23.3805 8.9925 0 0 0
337 3 32.373 10.791 14.388 0 0 0
706 3 28.776 8.9925 23.3805 0 0 0
312 3 30.5745 8.9925 25.179 0 0 0
2446 3 14.388 23.3805 5.3955 0 0 0
760 3 26.9775 12.5895 32.373 0 0 0
978 3 28.776 34.1715 16.1865 0 0 0
3952 3 0.0 26.9775 19.7835 0 0 0
1805 3 17.985 0.0 3.597 0 0 0
117 3 34.1715 17.985 30.5745 0 0 0
3802 3 0.0 1.7985 1.7985 0 0 0
1635 3 19.7835 17.985 30.5745 0 0 0
2384 3 12.5895 16.1865 17.985 0 0 0
2068 3 16.1865 23.3805 21.582 0 0 0
2116 3 16.1865 26.9775 28.776 0 0 0
3491 3 1.7985 7.194 8.9925 0 0 0
3570 3 3.597 16.1865 8.9925 0 0 0
2417 3 14.388 17.985 14.388 0 0 0
3658 3 3.597 23.3805 16.1865 0 0 0
728 3 26.9775 12.5895 3.597 0 0 0
1197 3 25.179 14.388 32.373 0 0 0
2141 3 17.985 28.776 17.985 0 0 0
2855 3 8.9925 21.582 12.5895 0 0 0
1539 3 19.7835 10.791 16.1865 0 0 0
2957 3 10.791 28.776 32.373 0 0 0
3975 3 0.0 28.776 25.179 0 0 0
2581 3 14.388 32.373 17.985 0 0 0
2896 3 8.9925 26.9775 10.791 0 0 0
2828 3 8.9925 19.7835 21.582 0 0 0
2570 3 14.388 34.1715 8.9925 0 0 0
1329 3 25.179 28.776 7.194 0 0 0
3329 3 7.194 28.776 7.194 0 0 0
3804 3 0.0 1.7985 5.3955 0 0 0
3868 3 0.0 12.5895 12.5895 0 0 0
1061 3 25.179 3.597 17.985 0 0 0
2182 3 17.985 34.1715 19.7835 0 0 0
2582 3 14.388 34.1715 19.7835 0 0 0
1544 3 19.7835 12.5895 17.985 0 0 0
2467 3 12.5895 21.582 23.3805 0 0 0
2146 3 17.985 30.5745 23.3805 0 0 0
659 3 26.9775 3.597 16.1865 0 0 0
1257 3 25.179 21.582 14.388 0 0 0
2187 3 16.1865 32.373 23.3805 0 0 0
799 3 26.9775 14.388 34.1715 0 0 0
1555 3 19.7835 10.791 30.5745 0 0 0
2864 3 8.9925 23.3805 17.985 0 0 0
1942 3 17.985 12.5895 19.7835 0 0 0
634 3 28.776 1.7985 30.5745 0 0 0
2445 3 14.388 21.582 3.597 0 0 0
1118 3 25.179 8.9925 34.1715 0 0 0
1185 3 25.179 14.388 21.582 0 0 0
2710 3 10.791 8.9925 26.9775 0 0 0
3890 3 0.0 16.1865 16.1865 0 0 0
2422 3 14.388 19.7835 19.7835 0 0 0
1286 3 25.179 26.9775 5.3955 0 0 0
2354 3 14.388 12.5895 30.5745 0 0 0
738 3 28.776 12.5895 16.1865 0 0 0
1754 3 21.582 30.5745 30.5745 0 0 0
3161 3 7.194 14.388 0.0 0 0 0
1520 3 19.7835 8.9925 32.373 0 0 0
481 3 32.373 25.179 0.0 0 0 0
1452 3 19.7835 5.3955 7.194 0 0 0
2166 3 17.985 34.1715 5.3955 0 0 0
1632 3 19.7835 19.7835 25.179 0 0 0
2104 3 16.1865 26.9775 17.985 0 0 0
2114 3 17.985 26.9775 30.5745 0 0 0
283 3 30.5745 7.194 1.7985 0 0 0
3946 3 0.0 26.9775 8.9925 0 0 0
1729 3 21.582 28.776 7.194 0 0 0
403 3 30.5745 17.985 1.7985 0 0 0
314 3 32.373 8.9925 30.5745 0 0 0
2703 3 8.9925 7.194 19.7835 0 0 0
566 3 32.373 34.1715 5.3955 0 0 0
2692 3 8.9925 8.9925 7.194 0 0 0
1411 3 19.7835 0.0 8.9925 0 0 0
236 3 30.5745 1.7985 28.776 0 0 0
3668 3 1.7985 23.3805 21.582 0 0 0
664 3 26.9775 5.3955 17.985 0 0 0
69 3 34.1715 10.791 16.1865 0 0 0
606 3 28.776 1.7985 5.3955 0 0 0
2 3 34.1715 1.7985 0.0 0 0 0
1731 3 19.7835 28.776 8.9925 0 0 0
1493 3 21.582 7.194 10.791 0 0 0
17 3 34.1715 0.0 30.5745 0 0 0
914 3 28.776 26.9775 30.5745 0 0 0
1758 3 21.582 30.5745 34.1715 0 0 0
238 3 32.373 1.7985 34.1715 0 0 0
2946 3 10.791 30.5745 23.3805 0 0 0
2407 3 12.5895 17.985 5.3955 0 0 0
3231 3 5.3955 17.985 26.9775 0 0 0
3579 3 1.7985 14.388 16.1865 0 0 0
427 3 30.5745 17.985 23.3805 0 0 0
2623 3 8.9925 0.0 19.7835 0 0 0
2157 3 17.985 28.776 32.373 0 0 0
3820 3 0.0 1.7985 34.1715 0 0 0
2552 3 12.5895 30.5745 25.179 0 0 0
2021 3 17.985 17.985 17.985 0 0 0
3476 3 1.7985 5.3955 28.776 0 0 0
2331 3 12.5895 10.791 8.9925 0 0 0
635 3 26.9775 0.0 30.5745 0 0 0
3782 3 3.597 34.1715 19.7835 0 0 0
2207 3 12.5895 0.0 5.3955 0 0 0
925 3 28.776 28.776 3.597 0 0 0
2000 3 16.1865 16.1865 32.373 0 0 0
1642 3 21.582 23.3805 1.7985 0 0 0
2939 3 8.9925 28.776 16.1865 0 0 0
264 3 30.5745 5.3955 17.985 0 0 0
262 3 32.373 5.3955 19.7835 0 0 0
3826 3 0.0 5.3955 8.9925 0 0 0
2479 3 12.5895 21.582 34.1715 0 0 0
3285 3 7.194 25.179 3.597 0 0 0
1402 3 21.582 1.7985 1.7985 0 0 0
1030 3 25.179 1.7985 26.9775 0 0 0
3406 3 3.597 1.7985 5.3955 0 0 0
2911 3 8.9925 25.179 26.9775 0 0 0
2017 3 17.985 17.985 14.388 0 0 0
180 3 34.1715 30.5745 32.373 0 0 0
1918 3 17.985 8.9925 34.1715 0 0 0
810 3 28.776 19.7835 8.9925 0 0 0
677 3 28.776 3.597 32.373 0 0 0
373 3 32.373 14.388 10.791 0 0 0
1553 3 21.582 10.791 28.776 0 0 0
3402 3 3.597 1.7985 1.7985 0 0 0
507 3 30.5745 25.179 23.3805 0 0 0
408 3 30.5745 19.7835 3.597 0 0 0
2591 3 12.5895 32.373 26.9775 0 0 0
3976 3 0.0 30.5745 26.9775 0 0 0
1296 3 23.3805 26.9775 10.791 0 0 0
3528 3 1.7985 12.5895 3.597 0 0 0
638 3 28.776 1.7985 34.1715 0 0 0
3381 3 7.194 32.373 17.985 0 0 0
2882 3 10.791 26.9775 1.7985 0 0 0
1564 3 19.7835 16.1865 0.0 0 0 0
1133 3 25.179 10.791 10.791 0 0 0
1171 3 23.3805 14.388 8.9925 0 0 0
3394 3 7.194 34.1715 30.5745 0 0 0
1423 3 19.7835 0.0 19.7835 0 0 0
1513 3 21.582 7.194 28.776 0 0 0
2320 3 12.5895 8.9925 32.373 0 0 0
2760 3 8.9925 12.5895 32.373 0 0 0
1708 3 19.7835 26.9775 21.582 0 0 0
3106 3 7.194 8.9925 23.3805 0 0 0
553 3 32.373 28.776 28.776 0 0 0
2066 3 17.985 23.3805 23.3805 0 0 0
2474 3 14.388 23.3805 30.5745 0 0 0
2847 3 8.9925 21.582 5.3955 0 0 0
1569 3 21.582 14.388 7.194 0 0 0
1883 3 16.1865 7.194 1.7985 0 0 0
3047 3 5.3955 3.597 5.3955 0 0 0
3540 3 1.7985 12.5895 14.388 0 0 0
1774 3 21.582 34.1715 12.5895 0 0 0
3855 3 0.0 7.194 25.179 0 0 0
3613 3 3.597 17.985 10.791 0 0 0
1536 3 19.7835 12.5895 10.791 0 0 0
3533 3 3.597 10.791 10.791 0 0 0
1816 3 16.1865 1.7985 10.791 0 0 0
3391 3 5.3955 32.373 26.9775 0 0 0
411 3 30.5745 17.985 8.9925 0 0 0
1041 3 25.179 3.597 0.0 0 0 0
3905 3 0.0 17.985 7.194 0 0 0
3953 3 0.0 25.179 21.582 0 0 0
1011 3 23.3805 0.0 8.9925 0 0 0
1001 3 25.179 0.0 0.0 0 0 0
1231 3 23.3805 17.985 26.9775 0 0 0
2965 3 10.791 32.373 3.597 0 0 0
122 3 34.1715 23.3805 0.0 0 0 0
1703 3 19.7835 25.179 19.7835 0 0 0
3460 3 1.7985 5.3955 14.388 0 0 0
778 3 28.776 16.1865 16.1865 0 0 0
3505 3 3.597 7.194 21.582 0 0 0
3582 3 3.597 16.1865 19.7835 0 0 0
1299 3 23.3805 25.179 16.1865 0 0 0
1395 3 23.3805 32.373 30.5745 0 0 0
3030 3 7.194 1.7985 26.9775 0 0 0
3760 3 1.7985 30.5745 32.373 0 0 0
332 3 30.5745 12.5895 7.194 0 0 0
504 3 30.5745 26.9775 17.985 0 0 0
2967 3 8.9925 32.373 5.3955 0 0 0
1044 3 23.3805 5.3955 0.0 0 0 0
3279 3 5.3955 21.582 34.1715 0 0 0
1869 3 17.985 3.597 25.179 0 0 0
2047 3 16.1865 21.582 5.3955 0 0 0
2024 3 16.1865 19.7835 17.985 0 0 0
3015 3 5.3955 0.0 12.5895 0 0 0
3705 3 3.597 25.179 21.582 0 0 0
239 3 30.5745 0.0 34.1715 0 0 0
2101 3 17.985 25.179 17.985 0 0 0
3979 3 0.0 28.776 32.373 0 0 0
2772 3 8.9925 16.1865 7.194 0 0 0
3645 3 3.597 21.582 3.597 0 0 0
2569 3 14.388 32.373 7.194 0 0 0
2631 3 8.9925 0.0 26.9775 0 0 0
2266 3 14.388 5.3955 23.3805 0 0 0
2353 3 14.388 10.791 28.776 0 0 0
2503 3 12.5895 25.179 19.7835 0 0 0
3233 3 7.194 17.985 28.776 0 0 0
3250 3 7.194 23.3805 8.9925 0 0 0
3959 3 0.0 25.179 32.373 0 0 0
1776 3 19.7835 34.1715 10.791 0 0 0
3438 3 3.597 1.7985 34.1715 0 0 0
915 3 26.9775 25.179 30.5745 0 0 0
3039 3 5.3955 0.0 34.1715 0 0 0
2397 3 14.388 14.388 32.373 0 0 0
2179 3 16.1865 32.373 16.1865 0 0 0
62 3 34.1715 12.5895 0.0 0 0 0
2510 3 14.388 26.9775 26.9775 0 0 0
1843 3 16.1865 3.597 1.7985 0 0 0
1072 3 23.3805 5.3955 25.179 0 0 0
3200 3 5.3955 16.1865 32.373 0 0 0
3689 3 3.597 25.179 7.194 0 0 0
3839 3 0.0 3.597 32.373 0 0 0
1664 3 19.7835 23.3805 17.985 0 0 0
3273 3 7.194 21.582 28.776 0 0 0
160 3 34.1715 26.9775 32.373 0 0 0
2646 3 10.791 5.3955 5.3955 0 0 0
521 3 32.373 28.776 0.0 0 0 0
1585 3 21.582 14.388 21.582 0 0 0
1256 3 23.3805 23.3805 10.791 0 0 0
2361 3 14.388 14.388 0.0 0 0 0
2161 3 17.985 32.373 0.0 0 0 0
68 3 34.1715 12.5895 10.791 0 0 0
356 3 30.5745 12.5895 28.776 0 0 0
1845 3 17.985 3.597 3.597 0 0 0
2058 3 17.985 23.3805 16.1865 0 0 0
3463 3 1.7985 3.597 19.7835 0 0 0
3788 3 1.7985 34.1715 21.582 0 0 0
3334 3 7.194 30.5745 12.5895 0 0 0
911 3 26.9775 25.179 26.9775 0 0 0
1714 3 21.582 26.9775 30.5745 0 0 0
3107 3 5.3955 7.194 23.3805 0 0 0
241 3 32.373 3.597 0.0 0 0 0
3553 3 3.597 10.791 28.776 0 0 0
3028 3 5.3955 1.7985 21.582 0 0 0
2670 3 10.791 5.3955 26.9775 0 0 0
1060 3 23.3805 5.3955 14.388 0 0 0
2276 3 12.5895 5.3955 28.776 0 0 0
766 3 28.776 16.1865 5.3955 0 0 0
1971 3 16.1865 14.388 8.9925 0 0 0
1343 3 23.3805 28.776 19.7835 0 0 0
1297 3 25.179 25.179 14.388 0 0 0
3084 3 5.3955 8.9925 0.0 0 0 0
270 3 32.373 5.3955 26.9775 0 0 0
3168 3 5.3955 16.1865 3.597 0 0 0
1840 3 16.1865 1.7985 32.373 0 0 0
1254 3 25.179 23.3805 12.5895 0 0 0
2618 3 10.791 1.7985 16.1865 0 0 0
1211 3 23.3805 17.985 8.9925 0 0 0
801 3 28.776 17.985 0.0 0 0 0
1836 3 16.1865 1.7985 28.776 0 0 0
3320 3 5.3955 26.9775 32.373 0 0 0
852 3 26.9775 23.3805 7.194 0 0 0
381 3 32.373 14.388 17.985 0 0 0
3733 3 3.597 28.776 10.791 0 0 0
2351 3 12.5895 10.791 26.9775 0 0 0
491 3 30.5745 25.179 8.9925 0 0 0
108 3 34.1715 19.7835 10.791 0 0 0
524 3 30.5745 30.5745 0.0 0 0 0
343 3 30.5745 10.791 19.7835 0 0 0
2762 3 10.791 16.1865 1.7985 0 0 0
597 3 32.373 32.373 32.373 0 0 0
158 3 34.1715 26.9775 28.776 0 0 0
2653 3 10.791 3.597 10.791 0 0 0
1612 3 19.7835 19.7835 7.194 0 0 0
1882 3 17.985 8.9925 1.7985 0 0 0
856 3 26.9775 23.3805 10.791 0 0 0
3920 3 0.0 19.7835 34.1715 0 0 0
2222 3 14.388 1.7985 19.7835 0 0 0
1137 3 25.179 10.791 14.388 0 0 0
792 3 26.9775 16.1865 25.179 0 0 0
1794 3 21.582 34.1715 30.5745 0 0 0
2162 3 17.985 34.1715 1.7985 0 0 0
1991 3 16.1865 14.388 26.9775 0 0 0
3300 3 5.3955 26.9775 14.388 0 0 0
3879 3 0.0 10.791 32.373 0 0 0
347 3 30.5745 10.791 23.3805 0 0 0
2999 3 8.9925 32.373 34.1715 0 0 0
3529 3 3.597 10.791 7.194 0 0 0
2135 3 16.1865 28.776 12.5895 0 0 0
2480 3 12.5895 23.3805 32.373 0 0 0
139 3 34.1715 21.582 34.1715 0 0 0
3033 3 7.194 0.0 28.776 0 0 0
2628 3 8.9925 1.7985 21.582 0 0 0
11 3 34.1715 0.0 19.7835 0 0 0
3662 3 3.597 23.3805 19.7835 0 0 0
1379 3 23.3805 32.373 16.1865 0 0 0
2073 3 17.985 21.582 28.776 0 0 0
2053 3 17.985 21.582 10.791 0 0 0
1280 3 23.3805 23.3805 32.373 0 0 0
508 3 30.5745 26.9775 21.582 0 0 0
892 3 26.9775 26.9775 7.194 0 0 0
3692 3 1.7985 26.9775 7.194 0 0 0
3445 3 3.597 3.597 3.597 0 0 0
1778 3 21.582 34.1715 16.1865 0 0 0
759 3 26.9775 10.791 34.1715 0 0 0
527 3 30.5745 28.776 5.3955 0 0 0
140 3 34.1715 23.3805 32.373 0 0 0
2923 3 8.9925 28.776 1.7985 0 0 0
923 3 26.9775 28.776 1.7985 0 0 0
2737 3 10.791 10.791 14.388 0 0 0
620 3 26.9775 1.7985 14.388 0 0 0
2746 3 10.791 12.5895 23.3805 0 0 0
1519 3 19.7835 7.194 34.1715 0 0 0
669 3 28.776 3.597 25.179 0 0 0
409 3 32.373 17.985 7.194 0 0 0
1697 3 21.582 25.179 14.388 0 0 0
3498 3 3.597 8.9925 16.1865 0 0 0
1510 3 21.582 8.9925 26.9775 0 0 0
3669 3 3.597 21.582 25.179 0 0 0
896 3 26.9775 26.9775 10.791 0 0 0
4000 3 0.0 34.1715 34.1715 0 0 0
3749 3 3.597 28.776 25.179 0 0 0
2504 3 12.5895 26.9775 17.985 0 0 0
2452 3 12.5895 23.3805 7.194 0 0 0
2326 3 14.388 12.5895 5.3955 0 0 0
396 3 30.5745 16.1865 28.776 0 0 0
3313 3 7.194 25.179 28.776 0 0 0
1234 3 25.179 19.7835 30.5745 0 0 0
1757 3 21.582 28.776 32.373 0 0 0
2478 3 14.388 23.3805 34.1715 0 0 0
2046 3 17.985 23.3805 5.3955 0 0 0
454 3 32.373 23.3805 12.5895 0 0 0
3493 3 3.597 7.194 10.791 0 0 0
2027 3 16.1865 17.985 23.3805 0 0 0
574 3 32.373 34.1715 12.5895 0 0 0
3562 3 3.597 16.1865 1.7985 0 0 0
2768 3 8.9925 16.1865 3.597 0 0 0
2860 3 8.9925 23.3805 14.388 0 0 0
3466 3 3.597 5.3955 23.3805 0 0 0
1367 3 23.3805 32.373 5.3955 0 0 0
331 3 30.5745 10.791 8.9925 0 0 0
2220 3 12.5895 1.7985 14.388 0 0 0
957 3 28.776 28.776 32.373 0 0 0
2588 3 12.5895 34.1715 21.582 0 0 0
3413 3 3.597 0.0 10.791 0 0 0
3194 3 7.194 16.1865 30.5745 0 0 0
3100 3 5.3955 8.9925 14.388 0 0 0
832 3 26.9775 19.7835 25.179 0 0 0
468 3 30.5745 23.3805 21.582 0 0 0
3830 3 0.0 5.3955 16.1865 0 0 0
3580 3 1.7985 16.1865 14.388 0 0 0
389 3 32.373 14.388 25.179 0 0 0
676 3 26.9775 5.3955 28.776 0 0 0
1748 3 19.7835 30.5745 21.582 0 0 0
2787 3 8.9925 14.388 23.3805 0 0 0
3810 3 0.0 1.7985 16.1865 0 0 0
1872 3 16.1865 5.3955 25.179 0 0 0
3304 3 5.3955 26.9775 17.985 0 0 0
1134 3 25.179 12.5895 12.5895 0 0 0
2579 3 12.5895 32.373 16.1865 0 0 0
3019 3 5.3955 0.0 16.1865 0 0 0
1633 3 21.582 17.985 28.776 0 0 0
1832 3 16.1865 1.7985 25.179 0 0 0
626 3 28.776 1.7985 23.3805 0 0 0
1162 3 25.179 16.1865 1.7985 0 0 0
841 3 28.776 21.582 0.0 0 0 0
438 3 32.373 19.7835 34.1715 0 0 0
2121 3 17.985 28.776 0.0 0 0 0
1675 3 19.7835 21.582 30.5745 0 0 0
1491 3 19.7835 7.194 8.9925 0 0 0
3866 3 0.0 12.5895 8.9925 0 0 0
1849 3 17.985 3.597 7.194 0 0 0
3074 3 7.194 5.3955 30.5745 0 0 0
2447 3 12.5895 21.582 5.3955 0 0 0
3056 3 5.3955 5.3955 10.791 0 0 0
125 3 34.1715 21.582 8.9925 0 0 0
3715 3 1.7985 25.179 30.5745 0 0 0
3501 3 3.597 7.194 17.985 0 0 0
2030 3 17.985 19.7835 26.9775 0 0 0
649 3 28.776 3.597 7.194 0 0 0
3272 3 5.3955 23.3805 25.179 0 0 0
1469 3 21.582 3.597 25.179 0 0 0
1762 3 21.582 34.1715 1.7985 0 0 0
1124 3 23.3805 12.5895 0.0 0 0 0
3253 3 7.194 21.582 10.791 0 0 0
1076 3 23.3805 5.3955 28.776 0 0 0
3636 3 1.7985 19.7835 28.776 0 0 0
1827 3 16.1865 0.0 23.3805 0 0 0
1375 3 23.3805 32.373 12.5895 0 0 0
986 3 28.776 34.1715 23.3805 0 0 0
501 3 32.373 25.179 17.985 0 0 0
2443 3 12.5895 21.582 1.7985 0 0 0
3781 3 3.597 32.373 17.985 0 0 0
2012 3 16.1865 19.7835 7.194 0 0 0
1925 3 17.985 10.791 3.597 0 0 0
115 3 34.1715 17.985 26.9775 0 0 0
2163 3 16.1865 32.373 1.7985 0 0 0
842 3 28.776 23.3805 1.7985 0 0 0
2329 3 14.388 10.791 7.194 0 0 0
3163 3 5.3955 14.388 1.7985 0 0 0
1253 3 25.179 21.582 10.791 0 0 0
2922 3 10.791 30.5745 1.7985 0 0 0
1908 3 16.1865 8.9925 21.582 0 0 0
2885 3 10.791 25.179 3.597 0 0 0
572 3 30.5745 34.1715 7.194 0 0 0
2453 3 14.388 21.582 10.791 0 0 0
2613 3 10.791 0.0 10.791 0 0 0
2433 3 14.388 17.985 28.776 0 0 0
3683 3 1.7985 25.179 1.7985 0 0 0
2793 3 10.791 14.388 28.776 0 0 0
2107 3 16.1865 25.179 23.3805 0 0 0
2785 3 10.791 14.388 21.582 0 0 0
3524 3 1.7985 12.5895 0.0 0 0 0
450 3 32.373 23.3805 8.9925 0 0 0
1447 3 19.7835 3.597 5.3955 0 0 0
10 3 34.1715 1.7985 14.388 0 0 0
313 3 32.373 7.194 28.776 0 0 0
749 3 28.776 10.791 25.179 0 0 0
3967 3 0.0 28.776 10.791 0 0 0
3648 3 1.7985 23.3805 3.597 0 0 0
2502 3 14.388 26.9775 19.7835 0 0 0
2092 3 16.1865 26.9775 7.194 0 0 0
2219 3 12.5895 0.0 16.1865 0 0 0
2741 3 10.791 10.791 17.985 0 0 0
3345 3 7.194 28.776 21.582 0 0 0
2309 3 14.388 7.194 25.179 0 0 0
1292 3 23.3805 26.9775 7.194 0 0 0
578 3 32.373 34.1715 16.1865 0 0 0
2638 3 10.791 1.7985 34.1715 0 0 0
2420 3 12.5895 19.7835 14.388 0 0 0
3469 3 3.597 3.597 25.179 0 0 0
1541 3 21.582 10.791 17.985 0 0 0
3190 3 7.194 16.1865 26.9775 0 0 0
2986 3 10.791 34.1715 23.3805 0 0 0
2849 3 10.791 21.582 7.194 0 0 0
221 3 32.373 0.0 17.985 0 0 0
2393 3 14.388 14.388 28.776 0 0 0
3390 3 7.194 34.1715 26.9775 0 0 0
558 3 32.373 30.5745 34.1715 0 0 0
883 3 26.9775 25.179 1.7985 0 0 0
1407 3 19.7835 0.0 5.3955 0 0 0
3066 3 7.194 5.3955 23.3805 0 0 0
2718 3 10.791 8.9925 34.1715 0 0 0
286 3 32.373 8.9925 5.3955 0 0 0
2794 3 10.791 16.1865 30.5745 0 0 0
1142 3 25.179 12.5895 19.7835 0 0 0
3779 3 1.7985 32.373 16.1865 0 0 0
1200 3 23.3805 16.1865 32.373 0 0 0
2700 3 8.9925 8.9925 14.388 0 0 0
3029 3 7.194 0.0 25.179 0 0 0
201 3 32.373 0.0 0.0 0 0 0
3647 3 1.7985 21.582 5.3955 0 0 0
1753 3 21.582 28.776 28.776 0 0 0
1698 3 21.582 26.9775 16.1865 0 0 0
1622 3 21.582 19.7835 19.7835 0 0 0
3302 3 7.194 26.9775 19.7835 0 0 0
1912 3 16.1865 8.9925 25.179 0 0 0
2958 3 10.791 30.5745 34.1715 0 0 0
3062 3 7.194 5.3955 19.7835 0 0 0
1113 3 25.179 7.194 28.776 0 0 0
456 3 30.5745 23.3805 10.791 0 0 0
1287 3 23.3805 25.179 5.3955 0 0 0
1828 3 16.1865 1.7985 21.582 0 0 0
2426 3 14.388 19.7835 23.3805 0 0 0
3878 3 0.0 12.5895 30.5745 0 0 0
3757 3 3.597 28.776 32.373 0 0 0
2992 3 8.9925 34.1715 25.179 0 0 0
569 3 32.373 32.373 7.194 0 0 0
3266 3 7.194 23.3805 23.3805 0 0 0
2786 3 10.791 16.1865 23.3805 0 0 0
956 3 26.9775 30.5745 28.776 0 0 0
3983 3 0.0 32.373 3.597 0 0 0
1278 3 25.179 23.3805 34.1715 0 0 0
722 3 28.776 12.5895 1.7985 0 0 0
2212 3 12.5895 1.7985 7.194 0 0 0
3793 3 3.597 32.373 28.776 0 0 0
2403 3 12.5895 17.985 1.7985 0 0 0
511 3 30.5745 25.179 26.9775 0 0 0
3191 3 5.3955 14.388 26.9775 0 0 0
3068 3 5.3955 5.3955 21.582 0 0 0
2345 3 14.388 10.791 21.582 0 0 0
1884 3 16.1865 8.9925 0.0 0 0 0
2984 3 8.9925 34.1715 17.985 0 0 0
1787 3 19.7835 32.373 23.3805 0 0 0
526 3 32.373 30.5745 5.3955 0 0 0
2283 3 12.5895 7.194 1.7985 0 0 0
1459 3 19.7835 3.597 16.1865 0 0 0
3638 3 3.597 19.7835 34.1715 0 0 0
3020 3 5.3955 1.7985 14.388 0 0 0
2540 3 12.5895 30.5745 14.388 0 0 0
2123 3 16.1865 28.776 1.7985 0 0 0
353 3 32.373 10.791 28.776 0 0 0
1378 3 25.179 34.1715 16.1865 0 0 0
3105 3 7.194 7.194 21.582 0 0 0
2812 3 8.9925 19.7835 7.194 0 0 0
335 3 30.5745 10.791 12.5895 0 0 0
287 3 30.5745 7.194 5.3955 0 0 0
700 3 26.9775 8.9925 14.388 0 0 0
3448 3 1.7985 5.3955 3.597 0 0 0
1558 3 21.582 12.5895 34.1715 0 0 0
3532 3 1.7985 12.5895 7.194 0 0 0
1891 3 16.1865 7.194 8.9925 0 0 0
3436 3 1.7985 1.7985 28.776 0 0 0
3881 3 0.0 14.388 0.0 0 0 0
3382 3 7.194 34.1715 19.7835 0 0 0
36 3 34.1715 5.3955 25.179 0 0 0
2421 3 14.388 17.985 17.985 0 0 0
1368 3 23.3805 34.1715 3.597 0 0 0
779 3 26.9775 14.388 16.1865 0 0 0
3408 3 1.7985 1.7985 3.597 0 0 0
299 3 30.5745 7.194 16.1865 0 0 0
3180 3 5.3955 16.1865 14.388 0 0 0
3373 3 7.194 32.373 10.791 0 0 0
2227 3 12.5895 0.0 23.3805 0 0 0
3024 3 5.3955 1.7985 17.985 0 0 0
1317 3 25.179 25.179 32.373 0 0 0
145 3 34.1715 25.179 8.9925 0 0 0
2171 3 16.1865 32.373 8.9925 0 0 0
1184 3 23.3805 16.1865 17.985 0 0 0
1145 3 25.179 10.791 21.582 0 0 0
1309 3 25.179 25.179 25.179 0 0 0
436 3 30.5745 19.7835 28.776 0 0 0
428 3 30.5745 19.7835 21.582 0 0 0
516 3 30.5745 26.9775 28.776 0 0 0
1204 3 23.3805 19.7835 0.0 0 0 0
2555 3 12.5895 28.776 30.5745 0 0 0
107 3 34.1715 17.985 12.5895 0 0 0
3608 3 1.7985 19.7835 3.597 0 0 0
2341 3 14.388 10.791 17.985 0 0 0
567 3 30.5745 32.373 5.3955 0 0 0
1275 3 23.3805 21.582 30.5745 0 0 0
3046 3 7.194 5.3955 5.3955 0 0 0
1342 3 25.179 30.5745 19.7835 0 0 0
3051 3 5.3955 3.597 8.9925 0 0 0
2057 3 17.985 21.582 14.388 0 0 0
3750 3 3.597 30.5745 26.9775 0 0 0
1408 3 19.7835 1.7985 3.597 0 0 0
3712 3 1.7985 26.9775 25.179 0 0 0
3091 3 5.3955 7.194 8.9925 0 0 0
862 3 28.776 23.3805 19.7835 0 0 0
3306 3 7.194 26.9775 23.3805 0 0 0
3828 3 0.0 5.3955 12.5895 0 0 0
2321 3 14.388 10.791 0.0 0 0 0
2295 3 12.5895 7.194 12.5895 0 0 0
950 3 28.776 30.5745 26.9775 0 0 0
870 3 28.776 23.3805 26.9775 0 0 0
3389 3 7.194 32.373 25.179 0 0 0
897 3 28.776 25.179 14.388 0 0 0
1131 3 23.3805 10.791 8.9925 0 0 0
784 3 26.9775 16.1865 17.985 0 0 0
205 3 32.373 0.0 3.597 0 0 0
1082 3 25.179 8.9925 1.7985 0 0 0
3366 3 7.194 34.1715 5.3955 0 0 0
3315 3 5.3955 25.179 30.5745 0 0 0
2481 3 14.388 25.179 0.0 0 0 0
2281 3 14.388 7.194 0.0 0 0 0
3404 3 1.7985 1.7985 0.0 0 0 0
246 3 32.373 5.3955 5.3955 0 0 0
1656 3 19.7835 23.3805 10.791 0 0 0
3127 3 5.3955 10.791 5.3955 0 0 0
1950 3 17.985 12.5895 26.9775 0 0 0
1515 3 19.7835 7.194 30.5745 0 0 0
195 3 34.1715 32.373 26.9775 0 0 0
844 3 26.9775 23.3805 0.0 0 0 0
2893 3 10.791 25.179 10.791 0 0 0
1115 3 23.3805 7.194 30.5745 0 0 0
1752 3 19.7835 30.5745 25.179 0 0 0
1217 3 25.179 17.985 14.388 0 0 0
3415 3 1.7985 0.0 12.5895 0 0 0
3336 3 5.3955 30.5745 10.791 0 0 0
1712 3 19.7835 26.9775 25.179 0 0 0
1639 3 19.7835 17.985 34.1715 0 0 0
1179 3 23.3805 14.388 16.1865 0 0 0
83 3 34.1715 14.388 5.3955 0 0 0
3545 3 3.597 10.791 21.582 0 0 0
2971 3 8.9925 32.373 8.9925 0 0 0
132 3 34.1715 23.3805 17.985 0 0 0
3930 3 0.0 23.3805 16.1865 0 0 0
2278 3 14.388 5.3955 34.1715 0 0 0
1223 3 23.3805 17.985 19.7835 0 0 0
1652 3 19.7835 23.3805 7.194 0 0 0
2299 3 12.5895 7.194 16.1865 0 0 0
422 3 32.373 19.7835 19.7835 0 0 0
2699 3 8.9925 7.194 16.1865 0 0 0
2119 3 16.1865 25.179 34.1715 0 0 0
1428 3 19.7835 1.7985 21.582 0 0 0
127 3 34.1715 21.582 12.5895 0 0 0
1170 3 25.179 16.1865 8.9925 0 0 0
3600 3 1.7985 16.1865 32.373 0 0 0
685 3 28.776 7.194 3.597 0 0 0
1435 3 19.7835 0.0 30.5745 0 0 0
864 3 26.9775 23.3805 17.985 0 0 0
3980 3 0.0 30.5745 34.1715 0 0 0
3706 3 3.597 26.9775 23.3805 0 0 0
2719 3 8.9925 7.194 34.1715 0 0 0
2973 3 10.791 32.373 10.791 0 0 0
3182 3 7.194 16.1865 19.7835 0 0 0
28 3 34.1715 5.3955 10.791 0 0 0
1676 3 19.7835 23.3805 28.776 0 0 0
3594 3 3.597 16.1865 30.5745 0 0 0
461 3 32.373 21.582 17.985 0 0 0
368 3 30.5745 16.1865 3.597 0 0 0
3112 3 5.3955 8.9925 25.179 0 0 0
2168 3 16.1865 34.1715 3.597 0 0 0
1384 3 23.3805 34.1715 17.985 0 0 0
2562 3 14.388 34.1715 1.7985 0 0 0
2246 3 14.388 5.3955 5.3955 0 0 0
653 3 28.776 3.597 10.791 0 0 0
2818 3 10.791 19.7835 16.1865 0 0 0
1674 3 21.582 23.3805 30.5745 0 0 0
3615 3 1.7985 17.985 12.5895 0 0 0
3876 3 0.0 12.5895 26.9775 0 0 0
2519 3 12.5895 25.179 34.1715 0 0 0
1739 3 19.7835 28.776 16.1865 0 0 0
479 3 30.5745 21.582 34.1715 0 0 0
1053 3 25.179 3.597 10.791 0 0 0
3261 3 7.194 21.582 17.985 0 0 0
3355 3 5.3955 28.776 30.5745 0 0 0
3670 3 3.597 23.3805 26.9775 0 0 0
734 3 28.776 12.5895 12.5895 0 0 0
992 3 26.9775 34.1715 25.179 0 0 0
3237 3 7.194 17.985 32.373 0 0 0
3275 3 5.3955 21.582 30.5745 0 0 0
3092 3 5.3955 8.9925 7.194 0 0 0
15 3 34.1715 0.0 26.9775 0 0 0
2779 3 8.9925 14.388 16.1865 0 0 0
1584 3 19.7835 16.1865 17.985 0 0 0
2754 3 10.791 12.5895 30.5745 0 0 0
1096 3 23.3805 8.9925 10.791 0 0 0
181 3 34.1715 32.373 1.7985 0 0 0
3287 3 5.3955 25.179 5.3955 0 0 0
2551 3 12.5895 28.776 26.9775 0 0 0
3694 3 3.597 26.9775 12.5895 0 0 0
462 3 32.373 23.3805 19.7835 0 0 0
3813 3 0.0 0.0 21.582 0 0 0
3624 3 1.7985 19.7835 17.985 0 0 0
497 3 32.373 25.179 14.388 0 0 0
1186 3 25.179 16.1865 23.3805 0 0 0
1128 3 23.3805 12.5895 3.597 0 0 0
2204 3 12.5895 1.7985 0.0 0 0 0
425 3 32.373 17.985 21.582 0 0 0
3219 3 5.3955 17.985 16.1865 0 0 0
3966 3 0.0 30.5745 8.9925 0 0 0
2518 3 14.388 26.9775 34.1715 0 0 0
2597 3 14.388 32.373 32.373 0 0 0
2010 3 17.985 19.7835 8.9925 0 0 0
2899 3 8.9925 25.179 16.1865 0 0 0
3893 3 0.0 14.388 21.582 0 0 0
3858 3 0.0 8.9925 30.5745 0 0 0
1466 3 21.582 5.3955 23.3805 0 0 0
2747 3 8.9925 10.791 23.3805 0 0 0
2019 3 16.1865 17.985 16.1865 0 0 0
1165 3 25.179 14.388 3.597 0 0 0
3097 3 7.194 7.194 14.388 0 0 0
243 3 30.5745 3.597 1.7985 0 0 0
2343 3 12.5895 10.791 19.7835 0 0 0
2475 3 12.5895 21.582 30.5745 0 0 0
1909 3 17.985 7.194 25.179 0 0 0
1721 3 21.582 28.776 0.0 0 0 0
3903 3 0.0 17.985 3.597 0 0 0
3601 3 3.597 17.985 0.0 0 0 0
2209 3 14.388 0.0 7.194 0 0 0
744 3 26.9775 12.5895 17.985 0 0 0
375 3 30.5745 14.388 12.5895 0 0 0
1608 3 19.7835 19.7835 3.597 0 0 0
1694 3 21.582 26.9775 12.5895 0 0 0
3965 3 0.0 28.776 7.194 0 0 0
1501 3 21.582 7.194 17.985 0 0 0
1647 3 19.7835 21.582 5.3955 0 0 0
230 3 32.373 1.7985 26.9775 0 0 0
453 3 32.373 21.582 10.791 0 0 0
3997 3 0.0 32.373 28.776 0 0 0
3735 3 1.7985 28.776 12.5895 0 0 0
825 3 28.776 17.985 21.582 0 0 0
179 3 34.1715 28.776 34.1715 0 0 0
699 3 26.9775 7.194 16.1865 0 0 0
1669 3 21.582 21.582 25.179 0 0 0
2745 3 10.791 10.791 21.582 0 0 0
387 3 30.5745 14.388 23.3805 0 0 0
49 3 34.1715 7.194 16.1865 0 0 0
788 3 26.9775 16.1865 21.582 0 0 0
3380 3 5.3955 34.1715 14.388 0 0 0
3599 3 1.7985 14.388 34.1715 0 0 0
56 3 34.1715 8.9925 25.179 0 0 0
3260 3 5.3955 23.3805 14.388 0 0 0
1707 3 19.7835 25.179 23.3805 0 0 0
1677 3 21.582 21.582 32.373 0 0 0
1063 3 23.3805 3.597 19.7835 0 0 0
486 3 32.373 26.9775 5.3955 0 0 0
2465 3 14.388 21.582 21.582 0 0 0
2605 3 10.791 0.0 3.597 0 0 0
306 3 32.373 8.9925 23.3805 0 0 0
2905 3 10.791 25.179 21.582 0 0 0
2717 3 10.791 7.194 32.373 0 0 0
1163 3 23.3805 14.388 1.7985 0 0 0
2323 3 12.5895 10.791 1.7985 0 0 0
3971 3 0.0 28.776 17.985 0 0 0
2205 3 14.388 0.0 3.597 0 0 0
3595 3 1.7985 14.388 30.5745 0 0 0
3742 3 3.597 30.5745 19.7835 0 0 0
886 3 28.776 26.9775 5.3955 0 0 0
1792 3 19.7835 34.1715 25.179 0 0 0
1169 3 25.179 14.388 7.194 0 0 0
89 3 34.1715 14.388 16.1865 0 0 0
3116 3 5.3955 8.9925 28.776 0 0 0
3470 3 3.597 5.3955 26.9775 0 0 0
3549 3 3.597 10.791 25.179 0 0 0
829 3 28.776 17.985 25.179 0 0 0
3759 3 1.7985 28.776 34.1715 0 0 0
730 3 28.776 12.5895 8.9925 0 0 0
1568 3 19.7835 16.1865 3.597 0 0 0
816 3 26.9775 19.7835 10.791 0 0 0
3090 3 7.194 8.9925 8.9925 0 0 0
3603 3 1.7985 17.985 1.7985 0 0 0
1068 3 23.3805 5.3955 21.582 0 0 0
3013 3 7.194 0.0 10.791 0 0 0
3536 3 1.7985 12.5895 10.791 0 0 0
3325 3 7.194 28.776 3.597 0 0 0
3264 3 5.3955 23.3805 17.985 0 0 0
692 3 26.9775 8.9925 7.194 0 0 0
1655 3 19.7835 21.582 12.5895 0 0 0
3189 3 7.194 14.388 25.179 0 0 0
1219 3 23.3805 17.985 16.1865 0 0 0
3359 3 5.3955 28.776 34.1715 0 0 0
1746 3 21.582 30.5745 23.3805 0 0 0
2709 3 10.791 7.194 25.179 0 0 0
349 3 32.373 10.791 25.179 0 0 0
518 3 32.373 26.9775 34.1715 0 0 0
260 3 30.5745 5.3955 14.388 0 0 0
871 3 26.9775 21.582 26.9775 0 0 0
3246 3 7.194 23.3805 5.3955 0 0 0
662 3 28.776 5.3955 19.7835 0 0 0
304 3 30.5745 8.9925 17.985 0 0 0
3196 3 5.3955 16.1865 28.776 0 0 0
1870 3 17.985 5.3955 26.9775 0 0 0
3472 3 1.7985 5.3955 25.179 0 0 0
2153 3 17.985 28.776 28.776 0 0 0
44 3 34.1715 8.9925 3.597 0 0 0
278 3 32.373 5.3955 34.1715 0 0 0
2848 3 8.9925 23.3805 3.597 0 0 0
2945 3 10.791 28.776 21.582 0 0 0
767 3 26.9775 14.388 5.3955 0 0 0
2858 3 10.791 23.3805 16.1865 0 0 0
1468 3 19.7835 5.3955 21.582 0 0 0
1237 3 25.179 17.985 32.373 0 0 0
1271 3 23.3805 21.582 26.9775 0 0 0
3497 3 3.597 7.194 14.388 0 0 0
3872 3 0.0 12.5895 19.7835 0 0 0
3317 3 7.194 25.179 32.373 0 0 0
747 3 26.9775 10.791 23.3805 0 0 0
642 3 28.776 5.3955 1.7985 0 0 0
3964 3 0.0 30.5745 5.3955 0 0 0
441 3 32.373 21.582 0.0 0 0 0
1129 3 25.179 10.791 7.194 0 0 0
1932 3 16.1865 12.5895 7.194 0 0 0
2892 3 8.9925 26.9775 7.194 0 0 0
3395 3 5.3955 32.373 30.5745 0 0 0
571 3 30.5745 32.373 8.9925 0 0 0
2690 3 10.791 8.9925 8.9925 0 0 0
1765 3 21.582 32.373 3.597 0 0 0
1180 3 23.3805 16.1865 14.388 0 0 0
3290 3 7.194 26.9775 8.9925 0 0 0
162 3 34.1715 30.5745 0.0 0 0 0
2743 3 8.9925 10.791 19.7835 0 0 0
3178 3 7.194 16.1865 16.1865 0 0 0
2514 3 14.388 26.9775 30.5745 0 0 0
2981 3 10.791 32.373 17.985 0 0 0
465 3 32.373 21.582 21.582 0 0 0
2070 3 17.985 23.3805 26.9775 0 0 0
1026 3 25.179 1.7985 23.3805 0 0 0
2539 3 12.5895 28.776 16.1865 0 0 0
2647 3 8.9925 3.597 5.3955 0 0 0
393 3 32.373 14.388 28.776 0 0 0
667 3 26.9775 3.597 23.3805 0 0 0
976 3 26.9775 34.1715 10.791 0 0 0
3642 3 3.597 23.3805 1.7985 0 0 0
3686 3 3.597 26.9775 5.3955 0 0 0
2881 3 10.791 25.179 0.0 0 0 0
1500 3 19.7835 8.9925 14.388 0 0 0
155 3 34.1715 25.179 26.9775 0 0 0
758 3 28.776 12.5895 34.1715 0 0 0
1643 3 19.7835 21.582 1.7985 0 0 0
1189 3 25.179 14.388 25.179 0 0 0
1902 3 17.985 8.9925 19.7835 0 0 0
2461 3 14.388 21.582 17.985 0 0 0
1205 3 25.179 17.985 3.597 0 0 0
2765 3 10.791 14.388 3.597 0 0 0
650 3 28.776 5.3955 8.9925 0 0 0
696 3 26.9775 8.9925 10.791 0 0 0
2115 3 16.1865 25.179 30.5745 0 0 0
3235 3 5.3955 17.985 30.5745 0 0 0
3674 3 3.597 23.3805 30.5745 0 0 0
2468 3 12.5895 23.3805 21.582 0 0 0
3323 3 5.3955 28.776 1.7985 0 0 0
2668 3 8.9925 5.3955 21.582 0 0 0
2854 3 10.791 23.3805 12.5895 0 0 0
885 3 28.776 25.179 3.597 0 0 0
3248 3 5.3955 23.3805 3.597 0 0 0
1036 3 23.3805 1.7985 28.776 0 0 0
2327 3 12.5895 10.791 5.3955 0 0 0
3698 3 3.597 26.9775 16.1865 0 0 0
350 3 32.373 12.5895 26.9775 0 0 0
549 3 32.373 28.776 25.179 0 0 0
621 3 28.776 0.0 17.985 0 0 0
1225 3 25.179 17.985 21.582 0 0 0
3078 3 7.194 5.3955 34.1715 0 0 0
968 3 26.9775 34.1715 3.597 0 0 0
3982 3 0.0 34.1715 1.7985 0 0 0
1523 3 19.7835 10.791 1.7985 0 0 0
2356 3 12.5895 12.5895 28.776 0 0 0
2728 3 8.9925 12.5895 3.597 0 0 0
2077 3 17.985 21.582 32.373 0 0 0
1315 3 23.3805 25.179 30.5745 0 0 0
2724 3 8.9925 12.5895 0.0 0 0 0
2344 3 12.5895 12.5895 17.985 0 0 0
1319 3 23.3805 25.179 34.1715 0 0 0
3916 3 0.0 19.7835 26.9775 0 0 0
2470 3 14.388 23.3805 26.9775 0 0 0
1619 3 19.7835 17.985 16.1865 0 0 0
2001 3 17.985 17.985 0.0 0 0 0
3511 3 1.7985 7.194 26.9775 0 0 0
2033 3 17.985 17.985 28.776 0 0 0
3958 3 0.0 26.9775 30.5745 0 0 0
2002 3 17.985 19.7835 1.7985 0 0 0
2661 3 10.791 3.597 17.985 0 0 0
1977 3 17.985 14.388 14.388 0 0 0
2429 3 14.388 17.985 25.179 0 0 0
1602 3 21.582 19.7835 1.7985 0 0 0
400 3 30.5745 16.1865 32.373 0 0 0
2991 3 8.9925 32.373 26.9775 0 0 0
1603 3 19.7835 17.985 1.7985 0 0 0
1626 3 21.582 19.7835 23.3805 0 0 0
472 3 30.5745 23.3805 25.179 0 0 0
857 3 28.776 21.582 14.388 0 0 0
2455 3 12.5895 21.582 12.5895 0 0 0
3437 3 3.597 0.0 32.373 0 0 0
1353 3 25.179 28.776 28.776 0 0 0
2404 3 12.5895 19.7835 0.0 0 0 0
3011 3 5.3955 0.0 8.9925 0 0 0
1808 3 16.1865 1.7985 3.597 0 0 0
2712 3 8.9925 8.9925 25.179 0 0 0
3727 3 1.7985 28.776 5.3955 0 0 0
1979 3 16.1865 14.388 16.1865 0 0 0
1823 3 16.1865 0.0 19.7835 0 0 0
3834 3 0.0 5.3955 23.3805 0 0 0
754 3 28.776 12.5895 30.5745 0 0 0
315 3 30.5745 7.194 30.5745 0 0 0
1936 3 16.1865 12.5895 10.791 0 0 0
3912 3 0.0 19.7835 19.7835 0 0 0
1854 3 17.985 5.3955 12.5895 0 0 0
2192 3 16.1865 34.1715 25.179 0 0 0
833 3 28.776 17.985 28.776 0 0 0
3305 3 7.194 25.179 21.582 0 0 0
2879 3 8.9925 21.582 34.1715 0 0 0
3176 3 5.3955 16.1865 10.791 0 0 0
254 3 32.373 5.3955 12.5895 0 0 0
1303 3 23.3805 25.179 19.7835 0 0 0
1644 3 19.7835 23.3805 0.0 0 0 0
3364 3 5.3955 34.1715 0.0 0 0 0
1993 3 17.985 14.388 28.776 0 0 0
1048 3 23.3805 5.3955 3.597 0 0 0
1070 3 25.179 5.3955 26.9775 0 0 0
2594 3 14.388 34.1715 30.5745 0 0 0
1730 3 21.582 30.5745 8.9925 0 0 0
2307 3 12.5895 7.194 23.3805 0 0 0
1756 3 19.7835 30.5745 28.776 0 0 0
187 3 34.1715 32.373 12.5895 0 0 0
3215 3 5.3955 17.985 12.5895 0 0 0
245 3 32.373 3.597 3.597 0 0 0
724 3 26.9775 12.5895 0.0 0 0 0
341 3 32.373 10.791 17.985 0 0 0
3522 3 3.597 12.5895 1.7985 0 0 0
2542 3 14.388 30.5745 19.7835 0 0 0
2170 3 17.985 34.1715 8.9925 0 0 0
3330 3 7.194 30.5745 8.9925 0 0 0
993 3 28.776 32.373 28.776 0 0 0
904 3 26.9775 26.9775 17.985 0 0 0
1473 3 21.582 3.597 28.776 0 0 0
1506 3 21.582 8.9925 23.3805 0 0 0
2049 3 17.985 21.582 7.194 0 0 0
3140 3 5.3955 12.5895 14.388 0 0 0
1771 3 19.7835 32.373 8.9925 0 0 0
740 3 26.9775 12.5895 14.388 0 0 0
2045 3 17.985 21.582 3.597 0 0 0
3332 3 5.3955 30.5745 7.194 0 0 0
1768 3 19.7835 34.1715 3.597 0 0 0
865 3 28.776 21.582 21.582 0 0 0
936 3 26.9775 30.5745 10.791 0 0 0
3767 3 1.7985 32.373 5.3955 0 0 0
190 3 34.1715 34.1715 14.388 0 0 0
1187 3 23.3805 14.388 23.3805 0 0 0
386 3 32.373 16.1865 23.3805 0 0 0
369 3 32.373 14.388 7.194 0 0 0
3734 3 3.597 30.5745 12.5895 0 0 0
2974 3 10.791 34.1715 12.5895 0 0 0
3772 3 1.7985 34.1715 7.194 0 0 0
690 3 28.776 8.9925 8.9925 0 0 0
561 3 32.373 32.373 0.0 0 0 0
2349 3 14.388 10.791 25.179 0 0 0
2367 3 12.5895 14.388 5.3955 0 0 0
282 3 32.373 8.9925 1.7985 0 0 0
2866 3 10.791 23.3805 23.3805 0 0 0
1024 3 23.3805 1.7985 17.985 0 0 0
3886 3 0.0 16.1865 8.9925 0 0 0
2648 3 8.9925 5.3955 3.597 0 0 0
2218 3 14.388 1.7985 16.1865 0 0 0
3193 3 7.194 14.388 28.776 0 0 0
2729 3 10.791 10.791 7.194 0 0 0
3690 3 3.597 26.9775 8.9925 0 0 0
1084 3 23.3805 8.9925 0.0 0 0 0
215 3 30.5745 0.0 12.5895 0 0 0
3887 3 0.0 14.388 10.791 0 0 0
2827 3 8.9925 17.985 23.3805 0 0 0
1427 3 19.7835 0.0 23.3805 0 0 0
678 3 28.776 5.3955 34.1715 0 0 0
2023 3 16.1865 17.985 19.7835 0 0 0
981 3 28.776 32.373 17.985 0 0 0
3480 3 1.7985 5.3955 32.373 0 0 0
2442 3 14.388 23.3805 1.7985 0 0 0
2145 3 17.985 28.776 21.582 0 0 0
3468 3 1.7985 5.3955 21.582 0 0 0
3947 3 0.0 25.179 10.791 0 0 0
522 3 32.373 30.5745 1.7985 0 0 0
3099 3 5.3955 7.194 16.1865 0 0 0
404 3 30.5745 19.7835 0.0 0 0 0
2014 3 17.985 19.7835 12.5895 0 0 0
1613 3 21.582 17.985 10.791 0 0 0
1905 3 17.985 7.194 21.582 0 0 0
743 3 26.9775 10.791 19.7835 0 0 0
1847 3 16.1865 3.597 5.3955 0 0 0
1166 3 25.179 16.1865 5.3955 0 0 0
2428 3 12.5895 19.7835 21.582 0 0 0
1230 3 25.179 19.7835 26.9775 0 0 0
536 3 30.5745 30.5745 10.791 0 0 0
875 3 26.9775 21.582 30.5745 0 0 0
942 3 28.776 30.5745 19.7835 0 0 0
3951 3 0.0 25.179 17.985 0 0 0
297 3 32.373 7.194 14.388 0 0 0
1919 3 16.1865 7.194 34.1715 0 0 0
2483 3 12.5895 25.179 1.7985 0 0 0
1574 3 21.582 16.1865 12.5895 0 0 0
1174 3 25.179 16.1865 12.5895 0 0 0
2346 3 14.388 12.5895 23.3805 0 0 0
2013 3 17.985 17.985 10.791 0 0 0
1901 3 17.985 7.194 17.985 0 0 0
1784 3 19.7835 34.1715 17.985 0 0 0
1742 3 21.582 30.5745 19.7835 0 0 0
1718 3 21.582 26.9775 34.1715 0 0 0
735 3 26.9775 10.791 12.5895 0 0 0
2894 3 10.791 26.9775 12.5895 0 0 0
2322 3 14.388 12.5895 1.7985 0 0 0
3932 3 0.0 23.3805 19.7835 0 0 0
1422 3 21.582 1.7985 19.7835 0 0 0
496 3 30.5745 26.9775 10.791 0 0 0
1300 3 23.3805 26.9775 14.388 0 0 0
2173 3 17.985 32.373 10.791 0 0 0
3077 3 7.194 3.597 32.373 0 0 0
2228 3 12.5895 1.7985 21.582 0 0 0
2887 3 8.9925 25.179 5.3955 0 0 0
1502 3 21.582 8.9925 19.7835 0 0 0
763 3 26.9775 14.388 1.7985 0 0 0
2530 3 14.388 30.5745 8.9925 0 0 0
2739 3 8.9925 10.791 16.1865 0 0 0
1033 3 25.179 0.0 28.776 0 0 0
3539 3 1.7985 10.791 16.1865 0 0 0
1906 3 17.985 8.9925 23.3805 0 0 0
2697 3 10.791 7.194 14.388 0 0 0
3412 3 1.7985 1.7985 7.194 0 0 0
3450 3 3.597 5.3955 8.9925 0 0 0
3349 3 7.194 28.776 25.179 0 0 0
3957 3 0.0 25.179 28.776 0 0 0
1683 3 19.7835 25.179 1.7985 0 0 0
1953 3 17.985 10.791 28.776 0 0 0
3583 3 1.7985 14.388 19.7835 0 0 0
3910 3 0.0 19.7835 16.1865 0 0 0
1138 3 25.179 12.5895 16.1865 0 0 0
2366 3 14.388 16.1865 5.3955 0 0 0
3053 3 7.194 3.597 10.791 0 0 0
3158 3 7.194 12.5895 34.1715 0 0 0
2081 3 17.985 25.179 0.0 0 0 0
1528 3 19.7835 12.5895 3.597 0 0 0
1842 3 17.985 5.3955 1.7985 0 0 0
3278 3 7.194 23.3805 34.1715 0 0 0
272 3 30.5745 5.3955 25.179 0 0 0
3 3 34.1715 0.0 5.3955 0 0 0
648 3 26.9775 5.3955 3.597 0 0 0
673 3 28.776 3.597 28.776 0 0 0
3740 3 1.7985 30.5745 14.388 0 0 0
1086 3 25.179 8.9925 5.3955 0 0 0
3551 3 1.7985 10.791 26.9775 0 0 0
3405 3 3.597 0.0 3.597 0 0 0
67 3 34.1715 10.791 12.5895 0 0 0
2267 3 12.5895 3.597 23.3805 0 0 0
593 3 32.373 32.373 28.776 0 0 0
2195 3 16.1865 32.373 30.5745 0 0 0
3565 3 3.597 14.388 3.597 0 0 0
1989 3 17.985 14.388 25.179 0 0 0
2600 3 12.5895 34.1715 32.373 0 0 0
3327 3 5.3955 28.776 5.3955 0 0 0
1702 3 21.582 26.9775 19.7835 0 0 0
952 3 26.9775 30.5745 25.179 0 0 0
32 3 34.1715 5.3955 17.985 0 0 0
1092 3 23.3805 8.9925 7.194 0 0 0
3560 3 1.7985 12.5895 32.373 0 0 0
142 3 34.1715 26.9775 0.0 0 0 0
931 3 26.9775 28.776 8.9925 0 0 0
359 3 30.5745 10.791 34.1715 0 0 0
1649 3 21.582 21.582 7.194 0 0 0
156 3 34.1715 26.9775 25.179 0 0 0
3173 3 7.194 14.388 10.791 0 0 0
945 3 28.776 28.776 21.582 0 0 0
308 3 30.5745 8.9925 21.582 0 0 0
274 3 32.373 5.3955 30.5745 0 0 0
723 3 26.9775 10.791 1.7985 0 0 0
3502 3 3.597 8.9925 19.7835 0 0 0
739 3 26.9775 10.791 16.1865 0 0 0
3620 3 1.7985 19.7835 14.388 0 0 0
1265 3 25.179 21.582 21.582 0 0 0
2490 3 14.388 26.9775 8.9925 0 0 0
3094 3 7.194 8.9925 12.5895 0 0 0
2263 3 12.5895 3.597 19.7835 0 0 0
3443 3 1.7985 3.597 1.7985 0 0 0
2181 3 17.985 32.373 17.985 0 0 0
1913 3 17.985 7.194 28.776 0 0 0
2357 3 14.388 10.791 32.373 0 0 0
1215 3 23.3805 17.985 12.5895 0 0 0
3720 3 1.7985 26.9775 32.373 0 0 0
3880 3 0.0 12.5895 34.1715 0 0 0
2315 3 12.5895 7.194 30.5745 0 0 0
3259 3 5.3955 21.582 16.1865 0 0 0
2775 3 8.9925 14.388 12.5895 0 0 0
1534 3 21.582 12.5895 12.5895 0 0 0
3251 3 5.3955 21.582 8.9925 0 0 0
961 3 28.776 32.373 0.0 0 0 0
3973 3 0.0 28.776 21.582 0 0 0
3479 3 1.7985 3.597 34.1715 0 0 0
2140 3 16.1865 30.5745 14.388 0 0 0
2820 3 8.9925 19.7835 14.388 0 0 0
1581 3 21.582 14.388 17.985 0 0 0
3162 3 7.194 16.1865 1.7985 0 0 0
2054 3 17.985 23.3805 12.5895 0 0 0
1110 3 25.179 8.9925 26.9775 0 0 0
539 3 30.5745 28.776 16.1865 0 0 0
3212 3 5.3955 19.7835 7.194 0 0 0
255 3 30.5745 3.597 12.5895 0 0 0
3495 3 1.7985 7.194 12.5895 0 0 0
2681 3 10.791 7.194 0.0 0 0 0
2769 3 10.791 14.388 7.194 0 0 0
3207 3 5.3955 17.985 5.3955 0 0 0
3365 3 7.194 32.373 3.597 0 0 0
729 3 28.776 10.791 7.194 0 0 0
1788 3 19.7835 34.1715 21.582 0 0 0
2871 3 8.9925 21.582 26.9775 0 0 0
2532 3 12.5895 30.5745 7.194 0 0 0
2868 3 8.9925 23.3805 21.582 0 0 0
2004 3 16.1865 19.7835 0.0 0 0 0
3926 3 0.0 23.3805 8.9925 0 0 0
1680 3 19.7835 23.3805 32.373 0 0 0
2275 3 12.5895 3.597 30.5745 0 0 0
1244 3 23.3805 23.3805 0.0 0 0 0
808 3 26.9775 19.7835 3.597 0 0 0
1241 3 25.179 21.582 0.0 0 0 0
502 3 32.373 26.9775 19.7835 0 0 0
815 3 26.9775 17.985 12.5895 0 0 0
455 3 30.5745 21.582 12.5895 0 0 0
1888 3 16.1865 8.9925 3.597 0 0 0
1401 3 21.582 0.0 0.0 0 0 0
3375 3 5.3955 32.373 12.5895 0 0 0
3721 3 3.597 28.776 0.0 0 0 0
3258 3 7.194 23.3805 16.1865 0 0 0
1263 3 23.3805 21.582 19.7835 0 0 0
2639 3 8.9925 0.0 34.1715 0 0 0
3775 3 1.7985 32.373 12.5895 0 0 0
3862 3 0.0 12.5895 1.7985 0 0 0
3688 3 1.7985 26.9775 3.597 0 0 0
2856 3 8.9925 23.3805 10.791 0 0 0
695 3 26.9775 7.194 12.5895 0 0 0
2948 3 8.9925 30.5745 21.582 0 0 0
2959 4 8.9925 28.776 34.1715 0 0 0
65 4 34.1715 10.791 8.9925 0 0 0
1994 4 17.985 16.1865 30.5745 0 0 0
3993 4 0.0 32.373 21.582 0 0 0
959 4 26.9775 28.776 34.1715 0 0 0
2921 4 10.791 28.776 0.0 0 0 0
1276 4 23.3805 23.3805 28.776 0 0 0
1678 4 21.582 23.3805 34.1715 0 0 0
2492 4 12.5895 26.9775 7.194 0 0 0
3417 4 3.597 0.0 14.388 0 0 0
3614 4 3.597 19.7835 12.5895 0 0 0
3598 4 3.597 16.1865 34.1715 0 0 0
3561 4 3.597 14.388 0.0 0 0 0
2243 4 12.5895 3.597 1.7985 0 0 0
962 4 28.776 34.1715 1.7985 0 0 0
1935 4 16.1865 10.791 12.5895 0 0 0
3026 4 7.194 1.7985 23.3805 0 0 0
3633 4 3.597 17.985 28.776 0 0 0
2497 4 14.388 25.179 14.388 0 0 0
2059 4 16.1865 21.582 16.1865 0 0 0
3228 4 5.3955 19.7835 21.582 0 0 0
3544 4 1.7985 12.5895 17.985 0 0 0
3043 4 5.3955 3.597 1.7985 0 0 0
430 4 32.373 19.7835 26.9775 0 0 0
3552 4 1.7985 12.5895 25.179 0 0 0
1631 4 19.7835 17.985 26.9775 0 0 0
346 4 32.373 12.5895 23.3805 0 0 0
2415 4 12.5895 17.985 12.5895 0 0 0
98 4 34.1715 16.1865 28.776 0 0 0
3863 4 0.0 10.791 3.597 0 0 0
2972 4 8.9925 34.1715 7.194 0 0 0
594 4 32.373 34.1715 30.5745 0 0 0
3894 4 0.0 16.1865 23.3805 0 0 0
1726 4 21.582 30.5745 5.3955 0 0 0
171 4 34.1715 28.776 19.7835 0 0 0
691 4 26.9775 7.194 8.9925 0 0 0
1416 4 19.7835 1.7985 10.791 0 0 0
3675 4 1.7985 21.582 30.5745 0 0 0
1623 4 19.7835 17.985 19.7835 0 0 0
467 4 30.5745 21.582 23.3805 0 0 0
2224 4 12.5895 1.7985 17.985 0 0 0
1516 4 19.7835 8.9925 28.776 0 0 0
1857 4 17.985 3.597 14.388 0 0 0
1414 4 21.582 1.7985 12.5895 0 0 0
2265 4 14.388 3.597 21.582 0 0 0
2671 4 8.9925 3.597 26.9775 0 0 0
3348 4 5.3955 30.5745 21.582 0 0 0
543 4 30.5745 28.776 19.7835 0 0 0
3217 4 7.194 17.985 14.388 0 0 0
1475 4 19.7835 3.597 30.5745 0 0 0
3574 4 3.597 16.1865 12.5895 0 0 0
449 4 32.373 21.582 7.194 0 0 0
1772 4 19.7835 34.1715 7.194 0 0 0
1508 4 19.7835 8.9925 21.582 0 0 0
1889 4 17.985 7.194 7.194 0 0 0
1442 4 21.582 5.3955 1.7985 0 0 0
1573 4 21.582 14.388 10.791 0 0 0
2009 4 17.985 17.985 7.194 0 0 0
2043 4 16.1865 21.582 1.7985 0 0 0
3563 4 1.7985 14.388 1.7985 0 0 0
3588 4 1.7985 16.1865 21.582 0 0 0
1535 4 19.7835 10.791 12.5895 0 0 0
2496 4 12.5895 26.9775 10.791 0 0 0
3143 4 5.3955 10.791 19.7835 0 0 0
71 4 34.1715 10.791 19.7835 0 0 0
1141 4 25.179 10.791 17.985 0 0 0
3073 4 7.194 3.597 28.776 0 0 0
3109 4 7.194 7.194 25.179 0 0 0
3398 4 7.194 34.1715 34.1715 0 0 0
1625 4 21.582 17.985 21.582 0 0 0
275 4 30.5745 3.597 30.5745 0 0 0
888 4 26.9775 26.9775 3.597 0 0 0
1560 4 19.7835 12.5895 32.373 0 0 0
3913 4 0.0 17.985 21.582 0 0 0
1333 4 25.179 28.776 10.791 0 0 0
61 4 34.1715 10.791 1.7985 0 0 0
1156 4 23.3805 12.5895 28.776 0 0 0
2441 4 14.388 21.582 0.0 0 0 0
90 4 34.1715 16.1865 14.388 0 0 0
3906 4 0.0 19.7835 8.9925 0 0 0
3808 4 0.0 1.7985 12.5895 0 0 0
721 4 28.776 10.791 0.0 0 0 0
1826 4 17.985 1.7985 23.3805 0 0 0
2652 4 8.9925 5.3955 7.194 0 0 0
16 4 34.1715 1.7985 25.179 0 0 0
3911 4 0.0 17.985 17.985 0 0 0
2473 4 14.388 21.582 28.776 0 0 0
1239 4 23.3805 17.985 34.1715 0 0 0
663 4 26.9775 3.597 19.7835 0 0 0
258 4 32.373 5.3955 16.1865 0 0 0
1040 4 23.3805 1.7985 32.373 0 0 0
3678 4 3.597 23.3805 34.1715 0 0 0
1499 4 19.7835 7.194 16.1865 0 0 0
2841 4 10.791 21.582 0.0 0 0 0
3224 4 5.3955 19.7835 17.985 0 0 0
3082 4 7.194 8.9925 1.7985 0 0 0
3281 4 7.194 25.179 0.0 0 0 0
3972 4 0.0 30.5745 19.7835 0 0 0
1397 4 25.179 32.373 32.373 0 0 0
756 4 26.9775 12.5895 28.776 0 0 0
3635 4 1.7985 17.985 30.5745 0 0 0
3338 4 7.194 30.5745 16.1865 0 0 0
3888 4 0.0 16.1865 12.5895 0 0 0
267 4 30.5745 3.597 23.3805 0 0 0
1102 4 25.179 8.9925 19.7835 0 0 0
52 4 34.1715 8.9925 17.985 0 0 0
3622 4 3.597 19.7835 19.7835 0 0 0
257 4 32.373 3.597 14.388 0 0 0
588 4 30.5745 34.1715 21.582 0 0 0
395 4 30.5745 14.388 30.5745 0 0 0
3410 4 3.597 1.7985 8.9925 0 0 0
1650 4 21.582 23.3805 8.9925 0 0 0
1023 4 23.3805 0.0 19.7835 0 0 0
1899 4 16.1865 7.194 16.1865 0 0 0
2758 4 10.791 12.5895 34.1715 0 0 0
2117 4 17.985 25.179 32.373 0 0 0
3241 4 7.194 21.582 0.0 0 0 0
1688 4 19.7835 26.9775 3.597 0 0 0
1532 4 19.7835 12.5895 7.194 0 0 0
3990 4 0.0 34.1715 16.1865 0 0 0
3321 4 7.194 28.776 0.0 0 0 0
3901 4 0.0 17.985 0.0 0 0 0
2909 4 10.791 25.179 25.179 0 0 0
206 4 32.373 1.7985 5.3955 0 0 0
564 4 30.5745 34.1715 0.0 0 0 0
2711 4 8.9925 7.194 26.9775 0 0 0
2016 4 16.1865 19.7835 10.791 0 0 0
372 4 30.5745 16.1865 7.194 0 0 0
781 4 28.776 14.388 17.985 0 0 0
131 4 34.1715 21.582 19.7835 0 0 0
2734 4 10.791 12.5895 12.5895 0 0 0
876 4 26.9775 23.3805 28.776 0 0 0
3292 4 5.3955 26.9775 7.194 0 0 0
488 4 30.5745 26.9775 3.597 0 0 0
3927 4 0.0 21.582 10.791 0 0 0
1667 4 19.7835 21.582 23.3805 0 0 0
2225 4 14.388 0.0 21.582 0 0 0
3816 4 0.0 1.7985 26.9775 0 0 0
3428 4 1.7985 1.7985 21.582 0 0 0
631 4 26.9775 0.0 26.9775 0 0 0
3401 4 3.597 0.0 0.0 0 0 0
868 4 26.9775 23.3805 21.582 0 0 0
2350 4 14.388 12.5895 26.9775 0 0 0
1325 4 25.179 28.776 3.597 0 0 0
147 4 34.1715 25.179 12.5895 0 0 0
3136 4 5.3955 12.5895 10.791 0 0 0
1822 4 17.985 1.7985 19.7835 0 0 0
3115 4 5.3955 7.194 30.5745 0 0 0
2230 4 14.388 1.7985 26.9775 0 0 0
1809 4 17.985 0.0 7.194 0 0 0
2060 4 16.1865 23.3805 14.388 0 0 0
3421 4 3.597 0.0 17.985 0 0 0
2715 4 8.9925 7.194 30.5745 0 0 0
2651 4 8.9925 3.597 8.9925 0 0 0
51 4 34.1715 7.194 19.7835 0 0 0
761 4 28.776 14.388 0.0 0 0 0
2029 4 17.985 17.985 25.179 0 0 0
2405 4 14.388 17.985 3.597 0 0 0
2962 4 10.791 34.1715 1.7985 0 0 0
2674 4 10.791 5.3955 30.5745 0 0 0
643 4 26.9775 3.597 1.7985 0 0 0
3745 4 3.597 28.776 21.582 0 0 0
2851 4 8.9925 21.582 8.9925 0 0 0
607 4 26.9775 0.0 5.3955 0 0 0
582 4 32.373 34.1715 19.7835 0 0 0
324 4 30.5745 12.5895 0.0 0 0 0
3214 4 7.194 19.7835 12.5895 0 0 0
531 4 30.5745 28.776 8.9925 0 0 0
2839 4 8.9925 17.985 34.1715 0 0 0
25 4 34.1715 3.597 8.9925 0 0 0
1274 4 25.179 23.3805 30.5745 0 0 0
541 4 32.373 28.776 17.985 0 0 0
2900 4 8.9925 26.9775 14.388 0 0 0
3785 4 3.597 32.373 21.582 0 0 0
1710 4 21.582 26.9775 26.9775 0 0 0
457 4 32.373 21.582 14.388 0 0 0
2328 4 12.5895 12.5895 3.597 0 0 0
3087 4 5.3955 7.194 5.3955 0 0 0
3900 4 0.0 16.1865 34.1715 0 0 0
3585 4 3.597 14.388 21.582 0 0 0
3160 4 5.3955 12.5895 32.373 0 0 0
2075 4 16.1865 21.582 30.5745 0 0 0
3555 4 1.7985 10.791 30.5745 0 0 0
2832 4 8.9925 19.7835 25.179 0 0 0
3035 4 5.3955 0.0 30.5745 0 0 0
1025 4 25.179 0.0 21.582 0 0 0
3420 4 1.7985 1.7985 14.388 0 0 0
1366 4 25.179 34.1715 5.3955 0 0 0
20 4 34.1715 1.7985 32.373 0 0 0
3809 4 0.0 0.0 14.388 0 0 0
1666 4 21.582 23.3805 23.3805 0 0 0
3426 4 3.597 1.7985 23.3805 0 0 0
280 4 30.5745 5.3955 32.373 0 0 0
220 4 30.5745 1.7985 14.388 0 0 0
1745 4 21.582 28.776 21.582 0 0 0
1209 4 25.179 17.985 7.194 0 0 0
633 4 28.776 0.0 28.776 0 0 0
2408 4 12.5895 19.7835 3.597 0 0 0
586 4 32.373 34.1715 23.3805 0 0 0
2702 4 10.791 8.9925 19.7835 0 0 0
380 4 30.5745 16.1865 14.388 0 0 0
1916 4 16.1865 8.9925 28.776 0 0 0
3736 4 1.7985 30.5745 10.791 0 0 0
490 4 32.373 26.9775 8.9925 0 0 0
55 4 34.1715 7.194 26.9775 0 0 0
3350 4 7.194 30.5745 26.9775 0 0 0
2716 4 8.9925 8.9925 28.776 0 0 0
2221 4 14.388 0.0 17.985 0 0 0
1892 4 16.1865 8.9925 7.194 0 0 0
3798 4 3.597 34.1715 34.1715 0 0 0
458 4 32.373 23.3805 16.1865 0 0 0
1966 4 17.985 16.1865 5.3955 0 0 0
2034 4 17.985 19.7835 30.5745 0 0 0
2625 4 10.791 0.0 21.582 0 0 0
550 4 32.373 30.5745 26.9775 0 0 0
2158 4 17.985 30.5745 34.1715 0 0 0
2995 4 8.9925 32.373 30.5745 0 0 0
228 4 30.5745 1.7985 21.582 0 0 0
363 4 30.5745 14.388 1.7985 0 0 0
1284 4 23.3805 26.9775 0.0 0 0 0
3049 4 7.194 3.597 7.194 0 0 0
3992 4 0.0 34.1715 19.7835 0 0 0
1690 4 21.582 26.9775 8.9925 0 0 0
3841 4 0.0 7.194 0.0 0 0 0
708 4 26.9775 8.9925 21.582 0 0 0
354 4 32.373 12.5895 30.5745 0 0 0
3283 4 5.3955 25.179 1.7985 0 0 0
2689 4 10.791 7.194 7.194 0 0 0
3605 4 3.597 17.985 3.597 0 0 0
3337 4 7.194 28.776 14.388 0 0 0
1946 4 17.985 12.5895 23.3805 0 0 0
884 4 26.9775 26.9775 0.0 0 0 0
157 4 34.1715 25.179 30.5745 0 0 0
43 4 34.1715 7.194 5.3955 0 0 0
2535 4 12.5895 28.776 12.5895 0 0 0
2460 4 12.5895 23.3805 14.388 0 0 0
1486 4 21.582 8.9925 5.3955 0 0 0
345 4 32.373 10.791 21.582 0 0 0
1512 4 19.7835 8.9925 25.179 0 0 0
1660 4 19.7835 23.3805 14.388 0 0 0
1105 4 25.179 7.194 21.582 0 0 0
97 4 34.1715 14.388 30.5745 0 0 0
2789 4 10.791 14.388 25.179 0 0 0
1735 4 19.7835 28.776 12.5895 0 0 0
3206 4 7.194 19.7835 5.3955 0 0 0
1344 4 23.3805 30.5745 17.985 0 0 0
2696 4 8.9925 8.9925 10.791 0 0 0
1566 4 21.582 16.1865 5.3955 0 0 0
213 4 32.373 0.0 10.791 0 0 0
998 4 28.776 34.1715 34.1715 0 0 0
1876 4 16.1865 5.3955 28.776 0 0 0
2306 4 14.388 8.9925 23.3805 0 0 0
2382 4 14.388 16.1865 19.7835 0 0 0
3512 4 1.7985 8.9925 25.179 0 0 0
1679 4 19.7835 21.582 34.1715 0 0 0
2217 4 14.388 0.0 14.388 0 0 0
1052 4 23.3805 5.3955 7.194 0 0 0
2431 4 12.5895 17.985 26.9775 0 0 0
2235 4 12.5895 0.0 30.5745 0 0 0
3429 4 3.597 0.0 25.179 0 0 0
583 4 30.5745 32.373 19.7835 0 0 0
1305 4 25.179 25.179 21.582 0 0 0
1285 4 25.179 25.179 3.597 0 0 0
3651 4 1.7985 21.582 8.9925 0 0 0
970 4 28.776 34.1715 8.9925 0 0 0
1446 4 21.582 5.3955 5.3955 0 0 0
2122 4 17.985 30.5745 1.7985 0 0 0
1302 4 25.179 26.9775 19.7835 0 0 0
2753 4 10.791 10.791 28.776 0 0 0
836 4 26.9775 19.7835 28.776 0 0 0
809 4 28.776 17.985 7.194 0 0 0
459 4 30.5745 21.582 16.1865 0 0 0
3499 4 1.7985 7.194 16.1865 0 0 0
1016 4 23.3805 1.7985 10.791 0 0 0
1394 4 25.179 34.1715 30.5745 0 0 0
3239 4 5.3955 17.985 34.1715 0 0 0
291 4 30.5745 7.194 8.9925 0 0 0
2773 4 10.791 14.388 10.791 0 0 0
3506 4 3.597 8.9925 23.3805 0 0 0
2293 4 14.388 7.194 10.791 0 0 0
85 4 34.1715 14.388 8.9925 0 0 0
284 4 30.5745 8.9925 0.0 0 0 0
86 4 34.1715 16.1865 7.194 0 0 0
2781 4 10.791 14.388 17.985 0 0 0
845 4 28.776 21.582 3.597 0 0 0
1429 4 21.582 0.0 25.179 0 0 0
3604 4 1.7985 19.7835 0.0 0 0 0
3704 4 1.7985 26.9775 17.985 0 0 0
1958 4 17.985 12.5895 34.1715 0 0 0
3806 4 0.0 1.7985 8.9925 0 0 0
3343 4 5.3955 28.776 19.7835 0 0 0
2402 4 14.388 19.7835 1.7985 0 0 0
2416 4 12.5895 19.7835 10.791 0 0 0
319 4 30.5745 7.194 34.1715 0 0 0
919 4 26.9775 25.179 34.1715 0 0 0
636 4 26.9775 1.7985 28.776 0 0 0
2206 4 14.388 1.7985 5.3955 0 0 0
3095 4 5.3955 7.194 12.5895 0 0 0
3853 4 0.0 7.194 21.582 0 0 0
2862 4 10.791 23.3805 19.7835 0 0 0
1728 4 19.7835 30.5745 3.597 0 0 0
910 4 28.776 26.9775 26.9775 0 0 0
3289 4 7.194 25.179 7.194 0 0 0
2464 4 12.5895 23.3805 17.985 0 0 0
826 4 28.776 19.7835 23.3805 0 0 0
2701 4 10.791 7.194 17.985 0 0 0
2784 4 8.9925 16.1865 17.985 0 0 0
1551 4 19.7835 10.791 26.9775 0 0 0
709 4 28.776 7.194 25.179 0 0 0
2088 4 16.1865 26.9775 3.597 0 0 0
271 4 30.5745 3.597 26.9775 0 0 0
2289 4 14.388 7.194 7.194 0 0 0
1537 4 21.582 10.791 14.388 0 0 0
565 4 32.373 32.373 3.597 0 0 0
2944 4 8.9925 30.5745 17.985 0 0 0
1369 4 25.179 32.373 7.194 0 0 0
119 4 34.1715 17.985 34.1715 0 0 0
2996 4 8.9925 34.1715 28.776 0 0 0
191 4 34.1715 32.373 19.7835 0 0 0
1318 4 25.179 26.9775 34.1715 0 0 0
3778 4 3.597 34.1715 16.1865 0 0 0
1941 4 17.985 10.791 17.985 0 0 0
1069 4 25.179 3.597 25.179 0 0 0
3005 4 7.194 0.0 3.597 0 0 0
1934 4 17.985 12.5895 12.5895 0 0 0
1464 4 19.7835 5.3955 17.985 0 0 0
525 4 32.373 28.776 3.597 0 0 0
3393 4 7.194 32.373 28.776 0 0 0
3216 4 5.3955 19.7835 10.791 0 0 0
2949 4 10.791 28.776 25.179 0 0 0
414 4 32.373 19.7835 12.5895 0 0 0
1192 4 23.3805 16.1865 25.179 0 0 0
1458 4 21.582 5.3955 16.1865 0 0 0
3159 4 5.3955 10.791 34.1715 0 0 0
46 4 34.1715 8.9925 7.194 0 0 0
3022 4 7.194 1.7985 19.7835 0 0 0
2527 4 12.5895 28.776 5.3955 0 0 0
2358 4 14.388 12.5895 34.1715 0 0 0
1582 4 21.582 16.1865 19.7835 0 0 0
1799 4 19.7835 32.373 34.1715 0 0 0
3392 4 5.3955 34.1715 25.179 0 0 0
3229 4 7.194 17.985 25.179 0 0 0
58 4 34.1715 8.9925 28.776 0 0 0
3634 4 3.597 19.7835 30.5745 0 0 0
1738 4 21.582 30.5745 16.1865 0 0 0
384 4 30.5745 16.1865 17.985 0 0 0
1591 4 19.7835 14.388 26.9775 0 0 0
2015 4 16.1865 17.985 12.5895 0 0 0
1099 4 23.3805 7.194 16.1865 0 0 0
3646 4 3.597 23.3805 5.3955 0 0 0
2915 4 8.9925 25.179 30.5745 0 0 0
2857 4 10.791 21.582 14.388 0 0 0
793 4 28.776 14.388 28.776 0 0 0
3908 4 0.0 19.7835 12.5895 0 0 0
3263 4 5.3955 21.582 19.7835 0 0 0
1599 4 19.7835 14.388 34.1715 0 0 0
2091 4 16.1865 25.179 8.9925 0 0 0
3714 4 3.597 26.9775 30.5745 0 0 0
1952 4 16.1865 12.5895 25.179 0 0 0
3000 4 8.9925 34.1715 32.373 0 0 0
27 4 34.1715 3.597 12.5895 0 0 0
2136 4 16.1865 30.5745 10.791 0 0 0
3784 4 1.7985 34.1715 17.985 0 0 0
2448 4 12.5895 23.3805 3.597 0 0 0
227 4 30.5745 0.0 23.3805 0 0 0
1722 4 21.582 30.5745 1.7985 0 0 0
81 4 34.1715 14.388 1.7985 0 0 0
340 4 30.5745 12.5895 14.388 0 0 0
1081 4 25.179 7.194 0.0 0 0 0
764 4 26.9775 16.1865 0.0 0 0 0
2144 4 16.1865 30.5745 17.985 0 0 0
3619 4 1.7985 17.985 16.1865 0 0 0
3170 4 7.194 16.1865 8.9925 0 0 0
3478 4 3.597 5.3955 34.1715 0 0 0
2568 4 12.5895 34.1715 3.597 0 0 0
1478 4 21.582 5.3955 34.1715 0 0 0
3934 4 0.0 23.3805 23.3805 0 0 0
1405 4 21.582 0.0 3.597 0 0 0
3075 4 5.3955 3.597 30.5745 0 0 0
2232 4 12.5895 1.7985 25.179 0 0 0
1295 4 23.3805 25.179 12.5895 0 0 0
3227 4 5.3955 17.985 23.3805 0 0 0
551 4 30.5745 28.776 26.9775 0 0 0
1481 4 21.582 7.194 0.0 0 0 0
3587 4 1.7985 14.388 23.3805 0 0 0
2861 4 10.791 21.582 17.985 0 0 0
3542 4 3.597 12.5895 19.7835 0 0 0
185 4 34.1715 32.373 8.9925 0 0 0
1860 4 16.1865 5.3955 14.388 0 0 0
2604 4 8.9925 1.7985 0.0 0 0 0
2875 4 8.9925 21.582 30.5745 0 0 0
2165 4 17.985 32.373 3.597 0 0 0
2619 4 8.9925 0.0 16.1865 0 0 0
184 4 34.1715 34.1715 3.597 0 0 0
2118 4 17.985 26.9775 34.1715 0 0 0
1974 4 17.985 16.1865 12.5895 0 0 0
2301 4 14.388 7.194 17.985 0 0 0
351 4 30.5745 10.791 26.9775 0 0 0
405 4 32.373 17.985 3.597 0 0 0
873 4 28.776 21.582 28.776 0 0 0
2184 4 16.1865 34.1715 17.985 0 0 0
3070 4 7.194 5.3955 26.9775 0 0 0
329 4 32.373 10.791 7.194 0 0 0
1959 4 16.1865 10.791 34.1715 0 0 0
3003 4 5.3955 0.0 1.7985 0 0 0
388 4 30.5745 16.1865 21.582 0 0 0
357 4 32.373 10.791 32.373 0 0 0
2629 4 10.791 0.0 25.179 0 0 0
2396 4 12.5895 16.1865 28.776 0 0 0
590 4 32.373 34.1715 26.9775 0 0 0
1122 4 25.179 12.5895 1.7985 0 0 0
1928 4 16.1865 12.5895 3.597 0 0 0
3577 4 3.597 14.388 14.388 0 0 0
3800 4 1.7985 34.1715 32.373 0 0 0
3737 4 3.597 28.776 14.388 0 0 0
929 4 28.776 28.776 7.194 0 0 0
1017 4 25.179 0.0 14.388 0 0 0
3764 4 1.7985 34.1715 0.0 0 0 0
429 4 32.373 17.985 25.179 0 0 0
3531 4 1.7985 10.791 8.9925 0 0 0
1494 4 21.582 8.9925 12.5895 0 0 0
846 4 28.776 23.3805 5.3955 0 0 0
421 4 32.373 17.985 17.985 0 0 0
2097 4 17.985 25.179 14.388 0 0 0
2363 4 12.5895 14.388 1.7985 0 0 0
1440 4 19.7835 1.7985 32.373 0 0 0
1732 4 19.7835 30.5745 7.194 0 0 0
3137 4 7.194 10.791 14.388 0 0 0
3387 4 5.3955 32.373 23.3805 0 0 0
344 4 30.5745 12.5895 17.985 0 0 0
674 4 28.776 5.3955 30.5745 0 0 0
1125 4 25.179 10.791 3.597 0 0 0
3455 4 1.7985 3.597 12.5895 0 0 0
1554 4 21.582 12.5895 30.5745 0 0 0
1078 4 25.179 5.3955 34.1715 0 0 0
938 4 28.776 30.5745 16.1865 0 0 0
231 4 30.5745 0.0 26.9775 0 0 0
990 4 28.776 34.1715 26.9775 0 0 0
261 4 32.373 3.597 17.985 0 0 0
2488 4 12.5895 26.9775 3.597 0 0 0
1737 4 21.582 28.776 14.388 0 0 0
2686 4 10.791 8.9925 5.3955 0 0 0
1262 4 25.179 23.3805 19.7835 0 0 0
2678 4 10.791 5.3955 34.1715 0 0 0
2430 4 14.388 19.7835 26.9775 0 0 0
3974 4 0.0 30.5745 23.3805 0 0 0
3556 4 1.7985 12.5895 28.776 0 0 0
2311 4 12.5895 7.194 26.9775 0 0 0
2557 4 14.388 28.776 32.373 0 0 0
898 4 28.776 26.9775 16.1865 0 0 0
2626 4 10.791 1.7985 23.3805 0 0 0
1887 4 16.1865 7.194 5.3955 0 0 0
1385 4 25.179 32.373 21.582 0 0 0
2693 4 10.791 7.194 10.791 0 0 0
1967 4 16.1865 14.388 5.3955 0 0 0
1251 4 23.3805 21.582 8.9925 0 0 0
1734 4 21.582 30.5745 12.5895 0 0 0
3430 4 3.597 1.7985 26.9775 0 0 0
895 4 26.9775 25.179 12.5895 0 0 0
1373 4 25.179 32.373 10.791 0 0 0
3045 4 7.194 3.597 3.597 0 0 0
3623 4 1.7985 17.985 19.7835 0 0 0
2197 4 17.985 32.373 32.373 0 0 0
2906 4 10.791 26.9775 23.3805 0 0 0
827 4 26.9775 17.985 23.3805 0 0 0
1335 4 23.3805 28.776 12.5895 0 0 0
1893 4 17.985 7.194 10.791 0 0 0
78 4 34.1715 12.5895 28.776 0 0 0
1689 4 21.582 25.179 7.194 0 0 0
2811 4 8.9925 17.985 8.9925 0 0 0
975 4 26.9775 32.373 12.5895 0 0 0
3679 4 1.7985 21.582 34.1715 0 0 0
2624 4 8.9925 1.7985 17.985 0 0 0
2756 4 8.9925 12.5895 28.776 0 0 0
2565 4 14.388 32.373 3.597 0 0 0
1431 4 19.7835 0.0 26.9775 0 0 0
477 4 32.373 21.582 32.373 0 0 0
3133 4 7.194 10.791 10.791 0 0 0
937 4 28.776 28.776 14.388 0 0 0
2937 4 10.791 28.776 14.388 0 0 0
3792 4 1.7985 34.1715 25.179 0 0 0
3425 4 3.597 0.0 21.582 0 0 0
3846 4 0.0 8.9925 8.9925 0 0 0
1450 4 21.582 5.3955 8.9925 0 0 0
2061 4 17.985 21.582 17.985 0 0 0
584 4 30.5745 34.1715 17.985 0 0 0
3508 4 1.7985 8.9925 21.582 0 0 0
377 4 32.373 14.388 14.388 0 0 0
741 4 28.776 10.791 17.985 0 0 0
188 4 34.1715 34.1715 10.791 0 0 0
3904 4 0.0 19.7835 5.3955 0 0 0
1830 4 17.985 1.7985 26.9775 0 0 0
3874 4 0.0 12.5895 23.3805 0 0 0
1628 4 19.7835 19.7835 21.582 0 0 0
3098 4 7.194 8.9925 16.1865 0 0 0
460 4 30.5745 23.3805 14.388 0 0 0
3456 4 1.7985 5.3955 10.791 0 0 0
3969 4 0.0 28.776 14.388 0 0 0
2804 4 8.9925 19.7835 0.0 0 0 0
1610 4 21.582 19.7835 8.9925 0 0 0
120 4 34.1715 19.7835 32.373 0 0 0
1743 4 19.7835 28.776 19.7835 0 0 0
2714 4 10.791 8.9925 30.5745 0 0 0
3925 4 0.0 21.582 7.194 0 0 0
1798 4 21.582 34.1715 34.1715 0 0 0
1947 4 16.1865 10.791 23.3805 0 0 0
1844 4 16.1865 5.3955 0.0 0 0 0
1910 4 17.985 8.9925 26.9775 0 0 0
2449 4 14.388 21.582 7.194 0 0 0
3877 4 0.0 10.791 28.776 0 0 0
2806 4 10.791 19.7835 5.3955 0 0 0
1955 4 16.1865 10.791 30.5745 0 0 0
1249 4 25.179 21.582 7.194 0 0 0
1810 4 17.985 1.7985 8.9925 0 0 0
2643 4 8.9925 3.597 1.7985 0 0 0
940 4 26.9775 30.5745 14.388 0 0 0
2935 4 8.9925 28.776 12.5895 0 0 0
3708 4 1.7985 26.9775 21.582 0 0 0
1786 4 21.582 34.1715 23.3805 0 0 0
3048 4 5.3955 5.3955 3.597 0 0 0
2127 4 16.1865 28.776 5.3955 0 0 0
3656 4 1.7985 23.3805 10.791 0 0 0
3036 4 5.3955 1.7985 28.776 0 0 0
2837 4 10.791 17.985 32.373 0 0 0
1563 4 19.7835 14.388 1.7985 0 0 0
466 4 32.373 23.3805 23.3805 0 0 0
3339 4 5.3955 28.776 16.1865 0 0 0
3895 4 0.0 14.388 25.179 0 0 0
1578 4 21.582 16.1865 16.1865 0 0 0
1426 4 21.582 1.7985 23.3805 0 0 0
169 4 34.1715 28.776 16.1865 0 0 0
3205 4 7.194 17.985 3.597 0 0 0
3101 4 7.194 7.194 17.985 0 0 0
1990 4 17.985 16.1865 26.9775 0 0 0
1835 4 16.1865 0.0 30.5745 0 0 0
2411 4 12.5895 17.985 8.9925 0 0 0
2172 4 16.1865 34.1715 7.194 0 0 0
307 4 30.5745 7.194 23.3805 0 0 0
1201 4 25.179 17.985 0.0 0 0 0
1320 4 23.3805 26.9775 32.373 0 0 0
2389 4 14.388 14.388 25.179 0 0 0
3357 4 7.194 28.776 32.373 0 0 0
837 4 28.776 17.985 32.373 0 0 0
548 4 30.5745 30.5745 21.582 0 0 0
3504 4 1.7985 8.9925 17.985 0 0 0
1386 4 25.179 34.1715 23.3805 0 0 0
3897 4 0.0 14.388 28.776 0 0 0
1838 4 17.985 1.7985 34.1715 0 0 0
292 4 30.5745 8.9925 7.194 0 0 0
2303 4 12.5895 7.194 19.7835 0 0 0
207 4 30.5745 0.0 5.3955 0 0 0
2601 4 10.791 0.0 0.0 0 0 0
1354 4 25.179 30.5745 30.5745 0 0 0
1764 4 19.7835 34.1715 0.0 0 0 0
1372 4 23.3805 34.1715 7.194 0 0 0
1868 4 16.1865 5.3955 21.582 0 0 0
1007 4 23.3805 0.0 5.3955 0 0 0
867 4 26.9775 21.582 23.3805 0 0 0
2482 4 14.388 26.9775 1.7985 0 0 0
3852 4 0.0 8.9925 19.7835 0 0 0
2707 4 8.9925 7.194 23.3805 0 0 0
1153 4 25.179 10.791 28.776 0 0 0
1812 4 16.1865 1.7985 7.194 0 0 0
1700 4 19.7835 26.9775 14.388 0 0 0
3220 4 5.3955 19.7835 14.388 0 0 0
3130 4 7.194 12.5895 8.9925 0 0 0
701 4 28.776 7.194 17.985 0 0 0
3149 4 7.194 10.791 25.179 0 0 0
3948 4 0.0 26.9775 12.5895 0 0 0
619 4 26.9775 0.0 16.1865 0 0 0
3743 4 1.7985 28.776 19.7835 0 0 0
1561 4 21.582 14.388 0.0 0 0 0
3156 4 5.3955 12.5895 28.776 0 0 0
100 4 34.1715 16.1865 32.373 0 0 0
2940 4 8.9925 30.5745 14.388 0 0 0
3341 4 7.194 28.776 17.985 0 0 0
1140 4 23.3805 12.5895 14.388 0 0 0
2372 4 12.5895 16.1865 7.194 0 0 0
3754 4 3.597 30.5745 30.5745 0 0 0
1432 4 19.7835 1.7985 25.179 0 0 0
392 4 30.5745 16.1865 25.179 0 0 0
223 4 30.5745 0.0 19.7835 0 0 0
1806 4 17.985 1.7985 5.3955 0 0 0
3008 4 5.3955 1.7985 3.597 0 0 0
2138 4 17.985 30.5745 16.1865 0 0 0
2458 4 14.388 23.3805 16.1865 0 0 0
1570 4 21.582 16.1865 8.9925 0 0 0
492 4 30.5745 26.9775 7.194 0 0 0
3172 4 5.3955 16.1865 7.194 0 0 0
232 4 30.5745 1.7985 25.179 0 0 0
3597 4 3.597 14.388 32.373 0 0 0
1058 4 25.179 5.3955 16.1865 0 0 0
1856 4 16.1865 5.3955 10.791 0 0 0
1359 4 23.3805 28.776 34.1715 0 0 0
413 4 32.373 17.985 10.791 0 0 0
839 4 26.9775 17.985 34.1715 0 0 0
1321 4 25.179 28.776 0.0 0 0 0
2966 4 10.791 34.1715 5.3955 0 0 0
35 4 34.1715 3.597 26.9775 0 0 0
1878 4 17.985 5.3955 34.1715 0 0 0
1922 4 17.985 12.5895 1.7985 0 0 0
1172 4 23.3805 16.1865 7.194 0 0 0
3252 4 5.3955 23.3805 7.194 0 0 0
2564 4 12.5895 34.1715 0.0 0 0 0
1605 4 21.582 17.985 3.597 0 0 0
2666 4 10.791 5.3955 23.3805 0 0 0
824 4 26.9775 19.7835 17.985 0 0 0
1863 4 16.1865 3.597 19.7835 0 0 0
91 4 34.1715 14.388 19.7835 0 0 0
2577 4 14.388 32.373 14.388 0 0 0
495 4 30.5745 25.179 12.5895 0 0 0
1530 4 21.582 12.5895 8.9925 0 0 0
2606 4 10.791 1.7985 5.3955 0 0 0
1948 4 16.1865 12.5895 21.582 0 0 0
2836 4 8.9925 19.7835 28.776 0 0 0
2454 4 14.388 23.3805 12.5895 0 0 0
1236 4 23.3805 19.7835 28.776 0 0 0
3666 4 3.597 23.3805 23.3805 0 0 0
656 4 26.9775 5.3955 10.791 0 0 0
2817 4 10.791 17.985 14.388 0 0 0
2466 4 14.388 23.3805 23.3805 0 0 0
1362 4 25.179 34.1715 1.7985 0 0 0
560 4 30.5745 30.5745 32.373 0 0 0
355 4 30.5745 10.791 30.5745 0 0 0
2883 4 8.9925 25.179 1.7985 0 0 0
2056 4 16.1865 23.3805 10.791 0 0 0
3016 4 5.3955 1.7985 10.791 0 0 0
2302 4 14.388 8.9925 19.7835 0 0 0
1304 4 23.3805 26.9775 17.985 0 0 0
2607 4 8.9925 0.0 5.3955 0 0 0
1298 4 25.179 26.9775 16.1865 0 0 0
2627 4 8.9925 0.0 23.3805 0 0 0
2525 4 14.388 28.776 3.597 0 0 0
3517 4 3.597 7.194 32.373 0 0 0
2704 4 8.9925 8.9925 17.985 0 0 0
2878 4 10.791 23.3805 34.1715 0 0 0
323 4 30.5745 10.791 1.7985 0 0 0
2169 4 17.985 32.373 7.194 0 0 0
2336 4 12.5895 12.5895 10.791 0 0 0
2757 4 10.791 10.791 32.373 0 0 0
1699 4 19.7835 25.179 16.1865 0 0 0
3358 4 7.194 30.5745 34.1715 0 0 0
917 4 28.776 25.179 32.373 0 0 0
2333 4 14.388 10.791 10.791 0 0 0
1542 4 21.582 12.5895 19.7835 0 0 0
3054 4 7.194 5.3955 12.5895 0 0 0
2031 4 16.1865 17.985 26.9775 0 0 0
3731 4 1.7985 28.776 8.9925 0 0 0
3831 4 0.0 3.597 17.985 0 0 0
1479 4 19.7835 3.597 34.1715 0 0 0
3794 4 3.597 34.1715 30.5745 0 0 0
718 4 28.776 8.9925 34.1715 0 0 0
3684 4 1.7985 26.9775 0.0 0 0 0
493 4 32.373 25.179 10.791 0 0 0
3007 4 5.3955 0.0 5.3955 0 0 0
3356 4 5.3955 30.5745 28.776 0 0 0
2938 4 10.791 30.5745 16.1865 0 0 0
3307 4 5.3955 25.179 23.3805 0 0 0
1609 4 21.582 17.985 7.194 0 0 0
2901 4 10.791 25.179 17.985 0 0 0
1462 4 21.582 5.3955 19.7835 0 0 0
943 4 26.9775 28.776 19.7835 0 0 0
563 4 30.5745 32.373 1.7985 0 0 0
263 4 30.5745 3.597 19.7835 0 0 0
1439 4 19.7835 0.0 34.1715 0 0 0
1945 4 17.985 10.791 21.582 0 0 0
2826 4 10.791 19.7835 23.3805 0 0 0
2036 4 16.1865 19.7835 28.776 0 0 0
1108 4 23.3805 8.9925 21.582 0 0 0
288 4 30.5745 8.9925 3.597 0 0 0
54 4 34.1715 8.9925 21.582 0 0 0
1195 4 23.3805 14.388 30.5745 0 0 0
174 4 34.1715 30.5745 21.582 0 0 0
2290 4 14.388 8.9925 8.9925 0 0 0
1681 4 21.582 25.179 0.0 0 0 0
2388 4 12.5895 16.1865 21.582 0 0 0
3157 4 7.194 10.791 32.373 0 0 0
152 4 34.1715 26.9775 17.985 0 0 0
3195 4 5.3955 14.388 30.5745 0 0 0
2457 4 14.388 21.582 14.388 0 0 0
682 4 28.776 8.9925 1.7985 0 0 0
3984 4 0.0 34.1715 5.3955 0 0 0
1259 4 23.3805 21.582 16.1865 0 0 0
1049 4 25.179 3.597 7.194 0 0 0
1066 4 25.179 5.3955 23.3805 0 0 0
2584 4 12.5895 34.1715 17.985 0 0 0
3085 4 7.194 7.194 3.597 0 0 0
2264 4 12.5895 5.3955 17.985 0 0 0
2536 4 12.5895 30.5745 10.791 0 0 0
2035 4 16.1865 17.985 30.5745 0 0 0
939 4 26.9775 28.776 16.1865 0 0 0
1594 4 21.582 16.1865 30.5745 0 0 0
3322 4 7.194 30.5745 1.7985 0 0 0
1848 4 16.1865 5.3955 3.597 0 0 0
1938 4 17.985 12.5895 16.1865 0 0 0
3403 4 1.7985 0.0 1.7985 0 0 0
878 4 28.776 23.3805 34.1715 0 0 0
1328 4 23.3805 30.5745 3.597 0 0 0
1463 4 19.7835 3.597 19.7835 0 0 0
2413 4 14.388 17.985 10.791 0 0 0
2022 4 17.985 19.7835 19.7835 0 0 0
2298 4 14.388 8.9925 16.1865 0 0 0
964 4 26.9775 34.1715 0.0 0 0 0
2139 4 16.1865 28.776 16.1865 0 0 0
850 4 28.776 23.3805 8.9925 0 0 0
1341 4 25.179 28.776 17.985 0 0 0
1579 4 19.7835 14.388 16.1865 0 0 0
2148 4 16.1865 30.5745 21.582 0 0 0
3659 4 1.7985 21.582 16.1865 0 0 0
2305 4 14.388 7.194 21.582 0 0 0
2392 4 12.5895 16.1865 25.179 0 0 0
736 4 26.9775 12.5895 10.791 0 0 0
3581 4 3.597 14.388 17.985 0 0 0
3847 4 0.0 7.194 10.791 0 0 0
510 4 32.373 26.9775 26.9775 0 0 0
3844 4 0.0 8.9925 5.3955 0 0 0
6 5 34.1715 1.7985 7.194 0 0 0
7 5 34.1715 0.0 12.5895 0 0 0
8 5 34.1715 1.7985 10.791 0 0 0
9 5 34.1715 0.0 16.1865 0 0 0
13 5 34.1715 0.0 23.3805 0 0 0
14 5 34.1715 1.7985 21.582 0 0 0
18 5 34.1715 1.7985 28.776 0 0 0
23 5 34.1715 3.597 5.3955 0 0 0
26 5 34.1715 5.3955 7.194 0 0 0
29 5 34.1715 3.597 16.1865 0 0 0
30 5 34.1715 5.3955 14.388 0 0 0
33 5 34.1715 3.597 23.3805 0 0 0
34 5 34.1715 5.3955 21.582 0 0 0
45 5 34.1715 7.194 8.9925 0 0 0
47 5 34.1715 7.194 12.5895 0 0 0
53 5 34.1715 7.194 23.3805 0 0 0
57 5 34.1715 7.194 30.5745 0 0 0
60 5 34.1715 8.9925 32.373 0 0 0
63 5 34.1715 10.791 5.3955 0 0 0
70 5 34.1715 12.5895 14.388 0 0 0
73 5 34.1715 10.791 23.3805 0 0 0
74 5 34.1715 12.5895 21.582 0 0 0
75 5 34.1715 10.791 26.9775 0 0 0
76 5 34.1715 12.5895 25.179 0 0 0
77 5 34.1715 10.791 30.5745 0 0 0
79 5 34.1715 10.791 34.1715 0 0 0
82 5 34.1715 16.1865 0.0 0 0 0
88 5 34.1715 16.1865 10.791 0 0 0
93 5 34.1715 14.388 23.3805 0 0 0
95 5 34.1715 14.388 26.9775 0 0 0
104 5 34.1715 19.7835 3.597 0 0 0
106 5 34.1715 19.7835 7.194 0 0 0
109 5 34.1715 17.985 16.1865 0 0 0
113 5 34.1715 17.985 23.3805 0 0 0
114 5 34.1715 19.7835 21.582 0 0 0
116 5 34.1715 19.7835 25.179 0 0 0
118 5 34.1715 19.7835 28.776 0 0 0
121 5 34.1715 21.582 1.7985 0 0 0
123 5 34.1715 21.582 5.3955 0 0 0
126 5 34.1715 23.3805 7.194 0 0 0
128 5 34.1715 23.3805 10.791 0 0 0
129 5 34.1715 21.582 16.1865 0 0 0
144 5 34.1715 26.9775 3.597 0 0 0
150 5 34.1715 26.9775 14.388 0 0 0
153 5 34.1715 25.179 23.3805 0 0 0
161 5 34.1715 28.776 1.7985 0 0 0
163 5 34.1715 28.776 5.3955 0 0 0
166 5 34.1715 30.5745 7.194 0 0 0
167 5 34.1715 28.776 12.5895 0 0 0
175 5 34.1715 28.776 26.9775 0 0 0
176 5 34.1715 30.5745 25.179 0 0 0
178 5 34.1715 30.5745 28.776 0 0 0
186 5 34.1715 34.1715 7.194 0 0 0
194 5 34.1715 34.1715 21.582 0 0 0
196 5 34.1715 34.1715 25.179 0 0 0
198 5 34.1715 34.1715 28.776 0 0 0
199 5 34.1715 32.373 34.1715 0 0 0
200 5 34.1715 34.1715 32.373 0 0 0
202 5 32.373 1.7985 1.7985 0 0 0
212 5 30.5745 1.7985 7.194 0 0 0
217 5 32.373 0.0 14.388 0 0 0
222 5 32.373 1.7985 19.7835 0 0 0
225 5 32.373 0.0 21.582 0 0 0
226 5 32.373 1.7985 23.3805 0 0 0
234 5 32.373 1.7985 30.5745 0 0 0
235 5 30.5745 0.0 30.5745 0 0 0
237 5 32.373 0.0 32.373 0 0 0
247 5 30.5745 3.597 5.3955 0 0 0
249 5 32.373 3.597 7.194 0 0 0
252 5 30.5745 5.3955 7.194 0 0 0
253 5 32.373 3.597 10.791 0 0 0
256 5 30.5745 5.3955 10.791 0 0 0
265 5 32.373 3.597 21.582 0 0 0
268 5 30.5745 5.3955 21.582 0 0 0
269 5 32.373 3.597 25.179 0 0 0
276 5 30.5745 5.3955 28.776 0 0 0
279 5 30.5745 3.597 34.1715 0 0 0
281 5 32.373 7.194 0.0 0 0 0
290 5 32.373 8.9925 8.9925 0 0 0
293 5 32.373 7.194 10.791 0 0 0
296 5 30.5745 8.9925 10.791 0 0 0
298 5 32.373 8.9925 16.1865 0 0 0
301 5 32.373 7.194 17.985 0 0 0
302 5 32.373 8.9925 19.7835 0 0 0
321 5 32.373 10.791 0.0 0 0 0
322 5 32.373 12.5895 1.7985 0 0 0
325 5 32.373 10.791 3.597 0 0 0
327 5 30.5745 10.791 5.3955 0 0 0
328 5 30.5745 12.5895 3.597 0 0 0
336 5 30.5745 12.5895 10.791 0 0 0
352 5 30.5745 12.5895 25.179 0 0 0
361 5 32.373 14.388 0.0 0 0 0
364 5 30.5745 16.1865 0.0 0 0 0
366 5 32.373 16.1865 5.3955 0 0 0
371 5 30.5745 14.388 8.9925 0 0 0
385 5 32.373 14.388 21.582 0 0 0
390 5 32.373 16.1865 26.9775 0 0 0
418 5 32.373 19.7835 16.1865 0 0 0
420 5 30.5745 19.7835 14.388 0 0 0
437 5 32.373 17.985 32.373 0 0 0
439 5 30.5745 17.985 34.1715 0 0 0
442 5 32.373 23.3805 1.7985 0 0 0
447 5 30.5745 21.582 5.3955 0 0 0
451 5 30.5745 21.582 8.9925 0 0 0
452 5 30.5745 23.3805 7.194 0 0 0
463 5 30.5745 21.582 19.7835 0 0 0
464 5 30.5745 23.3805 17.985 0 0 0
470 5 32.373 23.3805 26.9775 0 0 0
471 5 30.5745 21.582 26.9775 0 0 0
475 5 30.5745 21.582 30.5745 0 0 0
476 5 30.5745 23.3805 28.776 0 0 0
480 5 30.5745 23.3805 32.373 0 0 0
487 5 30.5745 25.179 5.3955 0 0 0
489 5 32.373 25.179 7.194 0 0 0
498 5 32.373 26.9775 16.1865 0 0 0
505 5 32.373 25.179 21.582 0 0 0
506 5 32.373 26.9775 23.3805 0 0 0
512 5 30.5745 26.9775 25.179 0 0 0
514 5 32.373 26.9775 30.5745 0 0 0
515 5 30.5745 25.179 30.5745 0 0 0
520 5 30.5745 26.9775 32.373 0 0 0
529 5 32.373 28.776 7.194 0 0 0
530 5 32.373 30.5745 8.9925 0 0 0
532 5 30.5745 30.5745 7.194 0 0 0
533 5 32.373 28.776 10.791 0 0 0
540 5 30.5745 30.5745 14.388 0 0 0
542 5 32.373 30.5745 19.7835 0 0 0
544 5 30.5745 30.5745 17.985 0 0 0
554 5 32.373 30.5745 30.5745 0 0 0
556 5 30.5745 30.5745 28.776 0 0 0
557 5 32.373 28.776 32.373 0 0 0
559 5 30.5745 28.776 34.1715 0 0 0
568 5 30.5745 34.1715 3.597 0 0 0
575 5 30.5745 32.373 12.5895 0 0 0
577 5 32.373 32.373 14.388 0 0 0
580 5 30.5745 34.1715 14.388 0 0 0
581 5 32.373 32.373 17.985 0 0 0
592 5 30.5745 34.1715 25.179 0 0 0
596 5 30.5745 34.1715 28.776 0 0 0
598 5 32.373 34.1715 34.1715 0 0 0
601 5 28.776 0.0 0.0 0 0 0
602 5 28.776 1.7985 1.7985 0 0 0
603 5 26.9775 0.0 1.7985 0 0 0
604 5 26.9775 1.7985 0.0 0 0 0
608 5 26.9775 1.7985 3.597 0 0 0
611 5 26.9775 0.0 8.9925 0 0 0
613 5 28.776 0.0 10.791 0 0 0
615 5 26.9775 0.0 12.5895 0 0 0
616 5 26.9775 1.7985 10.791 0 0 0
622 5 28.776 1.7985 19.7835 0 0 0
624 5 26.9775 1.7985 17.985 0 0 0
625 5 28.776 0.0 21.582 0 0 0
641 5 28.776 3.597 0.0 0 0 0
644 5 26.9775 5.3955 0.0 0 0 0
645 5 28.776 3.597 3.597 0 0 0
646 5 28.776 5.3955 5.3955 0 0 0
647 5 26.9775 3.597 5.3955 0 0 0
651 5 26.9775 3.597 8.9925 0 0 0
657 5 28.776 3.597 14.388 0 0 0
658 5 28.776 5.3955 16.1865 0 0 0
661 5 28.776 3.597 17.985 0 0 0
665 5 28.776 3.597 21.582 0 0 0
666 5 28.776 5.3955 23.3805 0 0 0
668 5 26.9775 5.3955 21.582 0 0 0
679 5 26.9775 3.597 34.1715 0 0 0
680 5 26.9775 5.3955 32.373 0 0 0
681 5 28.776 7.194 0.0 0 0 0
686 5 28.776 8.9925 5.3955 0 0 0
688 5 26.9775 8.9925 3.597 0 0 0
689 5 28.776 7.194 7.194 0 0 0
694 5 28.776 8.9925 12.5895 0 0 0
703 5 26.9775 7.194 19.7835 0 0 0
715 5 26.9775 7.194 30.5745 0 0 0
716 5 26.9775 8.9925 28.776 0 0 0
717 5 28.776 7.194 32.373 0 0 0
725 5 28.776 10.791 3.597 0 0 0
733 5 28.776 10.791 10.791 0 0 0
742 5 28.776 12.5895 19.7835 0 0 0
751 5 26.9775 10.791 26.9775 0 0 0
752 5 26.9775 12.5895 25.179 0 0 0
753 5 28.776 10.791 28.776 0 0 0
762 5 28.776 16.1865 1.7985 0 0 0
765 5 28.776 14.388 3.597 0 0 0
768 5 26.9775 16.1865 3.597 0 0 0
770 5 28.776 16.1865 8.9925 0 0 0
771 5 26.9775 14.388 8.9925 0 0 0
773 5 28.776 14.388 10.791 0 0 0
776 5 26.9775 16.1865 10.791 0 0 0
785 5 28.776 14.388 21.582 0 0 0
786 5 28.776 16.1865 23.3805 0 0 0
789 5 28.776 14.388 25.179 0 0 0
796 5 26.9775 16.1865 28.776 0 0 0
797 5 28.776 14.388 32.373 0 0 0
798 5 28.776 16.1865 34.1715 0 0 0
804 5 26.9775 19.7835 0.0 0 0 0
805 5 28.776 17.985 3.597 0 0 0
818 5 28.776 19.7835 16.1865 0 0 0
819 5 26.9775 17.985 16.1865 0 0 0
828 5 26.9775 19.7835 21.582 0 0 0
830 5 28.776 19.7835 26.9775 0 0 0
834 5 28.776 19.7835 30.5745 0 0 0
835 5 26.9775 17.985 30.5745 0 0 0
838 5 28.776 19.7835 34.1715 0 0 0
848 5 26.9775 23.3805 3.597 0 0 0
849 5 28.776 21.582 7.194 0 0 0
853 5 28.776 21.582 10.791 0 0 0
855 5 26.9775 21.582 12.5895 0 0 0
858 5 28.776 23.3805 16.1865 0 0 0
859 5 26.9775 21.582 16.1865 0 0 0
860 5 26.9775 23.3805 14.388 0 0 0
861 5 28.776 21.582 17.985 0 0 0
869 5 28.776 21.582 25.179 0 0 0
874 5 28.776 23.3805 30.5745 0 0 0
877 5 28.776 21.582 32.373 0 0 0
879 5 26.9775 21.582 34.1715 0 0 0
880 5 26.9775 23.3805 32.373 0 0 0
882 5 28.776 26.9775 1.7985 0 0 0
887 5 26.9775 25.179 5.3955 0 0 0
889 5 28.776 25.179 7.194 0 0 0
891 5 26.9775 25.179 8.9925 0 0 0
893 5 28.776 25.179 10.791 0 0 0
902 5 28.776 26.9775 19.7835 0 0 0
903 5 26.9775 25.179 19.7835 0 0 0
907 5 26.9775 25.179 23.3805 0 0 0
909 5 28.776 25.179 25.179 0 0 0
912 5 26.9775 26.9775 25.179 0 0 0
916 5 26.9775 26.9775 28.776 0 0 0
918 5 28.776 26.9775 34.1715 0 0 0
921 5 28.776 28.776 0.0 0 0 0
922 5 28.776 30.5745 1.7985 0 0 0
926 5 28.776 30.5745 5.3955 0 0 0
927 5 26.9775 28.776 5.3955 0 0 0
928 5 26.9775 30.5745 3.597 0 0 0
933 5 28.776 28.776 10.791 0 0 0
934 5 28.776 30.5745 12.5895 0 0 0
935 5 26.9775 28.776 12.5895 0 0 0
948 5 26.9775 30.5745 21.582 0 0 0
953 5 28.776 28.776 28.776 0 0 0
954 5 28.776 30.5745 30.5745 0 0 0
955 5 26.9775 28.776 30.5745 0 0 0
960 5 26.9775 30.5745 32.373 0 0 0
963 5 26.9775 32.373 1.7985 0 0 0
965 5 28.776 32.373 3.597 0 0 0
967 5 26.9775 32.373 5.3955 0 0 0
969 5 28.776 32.373 7.194 0 0 0
974 5 28.776 34.1715 12.5895 0 0 0
977 5 28.776 32.373 14.388 0 0 0
982 5 28.776 34.1715 19.7835 0 0 0
984 5 26.9775 34.1715 17.985 0 0 0
985 5 28.776 32.373 21.582 0 0 0
987 5 26.9775 32.373 23.3805 0 0 0
997 5 28.776 32.373 32.373 0 0 0
1002 5 25.179 1.7985 1.7985 0 0 0
1006 5 25.179 1.7985 5.3955 0 0 0
1008 5 23.3805 1.7985 3.597 0 0 0
1010 5 25.179 1.7985 8.9925 0 0 0
1027 5 23.3805 0.0 23.3805 0 0 0
1032 5 23.3805 1.7985 25.179 0 0 0
1037 5 25.179 0.0 32.373 0 0 0
1038 5 25.179 1.7985 34.1715 0 0 0
1042 5 25.179 5.3955 1.7985 0 0 0
1045 5 25.179 3.597 3.597 0 0 0
1051 5 23.3805 3.597 8.9925 0 0 0
1062 5 25.179 5.3955 19.7835 0 0 0
1064 5 23.3805 5.3955 17.985 0 0 0
1065 5 25.179 3.597 21.582 0 0 0
1071 5 23.3805 3.597 26.9775 0 0 0
1073 5 25.179 3.597 28.776 0 0 0
1075 5 23.3805 3.597 30.5745 0 0 0
1080 5 23.3805 5.3955 32.373 0 0 0
1085 5 25.179 7.194 3.597 0 0 0
1093 5 25.179 7.194 10.791 0 0 0
1095 5 23.3805 7.194 12.5895 0 0 0
1098 5 25.179 8.9925 16.1865 0 0 0
1100 5 23.3805 8.9925 14.388 0 0 0
1111 5 23.3805 7.194 26.9775 0 0 0
1114 5 25.179 8.9925 30.5745 0 0 0
1116 5 23.3805 8.9925 28.776 0 0 0
1119 5 23.3805 7.194 34.1715 0 0 0
1120 5 23.3805 8.9925 32.373 0 0 0
1143 5 23.3805 10.791 19.7835 0 0 0
1147 5 23.3805 10.791 23.3805 0 0 0
1148 5 23.3805 12.5895 21.582 0 0 0
1150 5 25.179 12.5895 26.9775 0 0 0
1151 5 23.3805 10.791 26.9775 0 0 0
1157 5 25.179 10.791 32.373 0 0 0
1158 5 25.179 12.5895 34.1715 0 0 0
1159 5 23.3805 10.791 34.1715 0 0 0
1161 5 25.179 14.388 0.0 0 0 0
1167 5 23.3805 14.388 5.3955 0 0 0
1168 5 23.3805 16.1865 3.597 0 0 0
1175 5 23.3805 14.388 12.5895 0 0 0
1176 5 23.3805 16.1865 10.791 0 0 0
1177 5 25.179 14.388 14.388 0 0 0
1181 5 25.179 14.388 17.985 0 0 0
1182 5 25.179 16.1865 19.7835 0 0 0
1188 5 23.3805 16.1865 21.582 0 0 0
1191 5 23.3805 14.388 26.9775 0 0 0
1193 5 25.179 14.388 28.776 0 0 0
1196 5 23.3805 16.1865 28.776 0 0 0
1198 5 25.179 16.1865 34.1715 0 0 0
1199 5 23.3805 14.388 34.1715 0 0 0
1202 5 25.179 19.7835 1.7985 0 0 0
1213 5 25.179 17.985 10.791 0 0 0
1218 5 25.179 19.7835 16.1865 0 0 0
1220 5 23.3805 19.7835 14.388 0 0 0
1224 5 23.3805 19.7835 17.985 0 0 0
1228 5 23.3805 19.7835 21.582 0 0 0
1229 5 25.179 17.985 25.179 0 0 0
1232 5 23.3805 19.7835 25.179 0 0 0
1235 5 23.3805 17.985 30.5745 0 0 0
1238 5 25.179 19.7835 34.1715 0 0 0
1245 5 25.179 21.582 3.597 0 0 0
1247 5 23.3805 21.582 5.3955 0 0 0
1258 5 25.179 23.3805 16.1865 0 0 0
1260 5 23.3805 23.3805 14.388 0 0 0
1266 5 25.179 23.3805 23.3805 0 0 0
1268 5 23.3805 23.3805 21.582 0 0 0
1269 5 25.179 21.582 25.179 0 0 0
1273 5 25.179 21.582 28.776 0 0 0
1279 5 23.3805 21.582 34.1715 0 0 0
1281 5 25.179 25.179 0.0 0 0 0
1282 5 25.179 26.9775 1.7985 0 0 0
1283 5 23.3805 25.179 1.7985 0 0 0
1288 5 23.3805 26.9775 3.597 0 0 0
1289 5 25.179 25.179 7.194 0 0 0
1291 5 23.3805 25.179 8.9925 0 0 0
1293 5 25.179 25.179 10.791 0 0 0
1307 5 23.3805 25.179 23.3805 0 0 0
1308 5 23.3805 26.9775 21.582 0 0 0
1310 5 25.179 26.9775 26.9775 0 0 0
1311 5 23.3805 25.179 26.9775 0 0 0
1312 5 23.3805 26.9775 25.179 0 0 0
1313 5 25.179 25.179 28.776 0 0 0
1314 5 25.179 26.9775 30.5745 0 0 0
1323 5 23.3805 28.776 1.7985 0 0 0
1326 5 25.179 30.5745 5.3955 0 0 0
1331 5 23.3805 28.776 8.9925 0 0 0
1332 5 23.3805 30.5745 7.194 0 0 0
1340 5 23.3805 30.5745 14.388 0 0 0
1346 5 25.179 30.5745 23.3805 0 0 0
1347 5 23.3805 28.776 23.3805 0 0 0
1348 5 23.3805 30.5745 21.582 0 0 0
1350 5 25.179 30.5745 26.9775 0 0 0
1356 5 23.3805 30.5745 28.776 0 0 0
1357 5 25.179 28.776 32.373 0 0 0
1360 5 23.3805 30.5745 32.373 0 0 0
1363 5 23.3805 32.373 1.7985 0 0 0
1365 5 25.179 32.373 3.597 0 0 0
1371 5 23.3805 32.373 8.9925 0 0 0
1376 5 23.3805 34.1715 10.791 0 0 0
1377 5 25.179 32.373 14.388 0 0 0
1380 5 23.3805 34.1715 14.388 0 0 0
1382 5 25.179 34.1715 19.7835 0 0 0
1388 5 23.3805 34.1715 21.582 0 0 0
1391 5 23.3805 32.373 26.9775 0 0 0
1396 5 23.3805 34.1715 28.776 0 0 0
1400 5 23.3805 34.1715 32.373 0 0 0
1403 5 19.7835 0.0 1.7985 0 0 0
1404 5 19.7835 1.7985 0.0 0 0 0
1412 5 19.7835 1.7985 7.194 0 0 0
1417 5 21.582 0.0 14.388 0 0 0
1424 5 19.7835 1.7985 17.985 0 0 0
1430 5 21.582 1.7985 26.9775 0 0 0
1433 5 21.582 0.0 28.776 0 0 0
1436 5 19.7835 1.7985 28.776 0 0 0
1437 5 21.582 0.0 32.373 0 0 0
1438 5 21.582 1.7985 34.1715 0 0 0
1441 5 21.582 3.597 0.0 0 0 0
1445 5 21.582 3.597 3.597 0 0 0
1455 5 19.7835 3.597 12.5895 0 0 0
1456 5 19.7835 5.3955 10.791 0 0 0
1457 5 21.582 3.597 14.388 0 0 0
1461 5 21.582 3.597 17.985 0 0 0
1465 5 21.582 3.597 21.582 0 0 0
1480 5 19.7835 5.3955 32.373 0 0 0
1487 5 19.7835 7.194 5.3955 0 0 0
1496 5 19.7835 8.9925 10.791 0 0 0
1503 5 19.7835 7.194 19.7835 0 0 0
1509 5 21.582 7.194 25.179 0 0 0
1517 5 21.582 7.194 32.373 0 0 0
1518 5 21.582 8.9925 34.1715 0 0 0
1521 5 21.582 10.791 0.0 0 0 0
1538 5 21.582 12.5895 16.1865 0 0 0
1540 5 19.7835 12.5895 14.388 0 0 0
1543 5 19.7835 10.791 19.7835 0 0 0
1545 5 21.582 10.791 21.582 0 0 0
1549 5 21.582 10.791 25.179 0 0 0
1557 5 21.582 10.791 32.373 0 0 0
1559 5 19.7835 10.791 34.1715 0 0 0
1571 5 19.7835 14.388 8.9925 0 0 0
1575 5 19.7835 14.388 12.5895 0 0 0
1580 5 19.7835 16.1865 14.388 0 0 0
1583 5 19.7835 14.388 19.7835 0 0 0
1588 5 19.7835 16.1865 21.582 0 0 0
1589 5 21.582 14.388 25.179 0 0 0
1597 5 21.582 14.388 32.373 0 0 0
1598 5 21.582 16.1865 34.1715 0 0 0
1601 5 21.582 17.985 0.0 0 0 0
1615 5 19.7835 17.985 12.5895 0 0 0
1616 5 19.7835 19.7835 10.791 0 0 0
1618 5 21.582 19.7835 16.1865 0 0 0
1621 5 21.582 17.985 17.985 0 0 0
1630 5 21.582 19.7835 26.9775 0 0 0
1636 5 19.7835 19.7835 28.776 0 0 0
1637 5 21.582 17.985 32.373 0 0 0
1641 5 21.582 21.582 0.0 0 0 0
1646 5 21.582 23.3805 5.3955 0 0 0
1654 5 21.582 23.3805 12.5895 0 0 0
1659 5 19.7835 21.582 16.1865 0 0 0
1663 5 19.7835 21.582 19.7835 0 0 0
1670 5 21.582 23.3805 26.9775 0 0 0
1672 5 19.7835 23.3805 25.179 0 0 0
1673 5 21.582 21.582 28.776 0 0 0
1691 5 19.7835 25.179 8.9925 0 0 0
1692 5 19.7835 26.9775 7.194 0 0 0
1705 5 21.582 25.179 21.582 0 0 0
1706 5 21.582 26.9775 23.3805 0 0 0
1709 5 21.582 25.179 25.179 0 0 0
1713 5 21.582 25.179 28.776 0 0 0
1715 5 19.7835 25.179 30.5745 0 0 0
1716 5 19.7835 26.9775 28.776 0 0 0
1717 5 21.582 25.179 32.373 0 0 0
1719 5 19.7835 25.179 34.1715 0 0 0
1720 5 19.7835 26.9775 32.373 0 0 0
1724 5 19.7835 30.5745 0.0 0 0 0
1727 5 19.7835 28.776 5.3955 0 0 0
1733 5 21.582 28.776 10.791 0 0 0
1740 5 19.7835 30.5745 14.388 0 0 0
1744 5 19.7835 30.5745 17.985 0 0 0
1750 5 21.582 30.5745 26.9775 0 0 0
1755 5 19.7835 28.776 30.5745 0 0 0
1763 5 19.7835 32.373 1.7985 0 0 0
1766 5 21.582 34.1715 5.3955 0 0 0
1769 5 21.582 32.373 7.194 0 0 0
1773 5 21.582 32.373 10.791 0 0 0
1775 5 19.7835 32.373 12.5895 0 0 0
1781 5 21.582 32.373 17.985 0 0 0
1791 5 19.7835 32.373 26.9775 0 0 0
1801 5 17.985 0.0 0.0 0 0 0
1802 5 17.985 1.7985 1.7985 0 0 0
1803 5 16.1865 0.0 1.7985 0 0 0
1804 5 16.1865 1.7985 0.0 0 0 0
1811 5 16.1865 0.0 8.9925 0 0 0
1814 5 17.985 1.7985 12.5895 0 0 0
1815 5 16.1865 0.0 12.5895 0 0 0
1817 5 17.985 0.0 14.388 0 0 0
1818 5 17.985 1.7985 16.1865 0 0 0
1819 5 16.1865 0.0 16.1865 0 0 0
1821 5 17.985 0.0 17.985 0 0 0
1829 5 17.985 0.0 25.179 0 0 0
1831 5 16.1865 0.0 26.9775 0 0 0
1833 5 17.985 0.0 28.776 0 0 0
1834 5 17.985 1.7985 30.5745 0 0 0
1839 5 16.1865 0.0 34.1715 0 0 0
1841 5 17.985 3.597 0.0 0 0 0
1846 5 17.985 5.3955 5.3955 0 0 0
1850 5 17.985 5.3955 8.9925 0 0 0
1851 5 16.1865 3.597 8.9925 0 0 0
1852 5 16.1865 5.3955 7.194 0 0 0
1862 5 17.985 5.3955 19.7835 0 0 0
1864 5 16.1865 5.3955 17.985 0 0 0
1867 5 16.1865 3.597 23.3805 0 0 0
1871 5 16.1865 3.597 26.9775 0 0 0
1875 5 16.1865 3.597 30.5745 0 0 0
1877 5 17.985 3.597 32.373 0 0 0
1879 5 16.1865 3.597 34.1715 0 0 0
1881 5 17.985 7.194 0.0 0 0 0
1885 5 17.985 7.194 3.597 0 0 0
1890 5 17.985 8.9925 8.9925 0 0 0
1894 5 17.985 8.9925 12.5895 0 0 0
1920 5 16.1865 8.9925 32.373 0 0 0
1921 5 17.985 10.791 0.0 0 0 0
1923 5 16.1865 10.791 1.7985 0 0 0
1924 5 16.1865 12.5895 0.0 0 0 0
1927 5 16.1865 10.791 5.3955 0 0 0
1929 5 17.985 10.791 7.194 0 0 0
1931 5 16.1865 10.791 8.9925 0 0 0
1933 5 17.985 10.791 10.791 0 0 0
1944 5 16.1865 12.5895 17.985 0 0 0
1951 5 16.1865 10.791 26.9775 0 0 0
1960 5 16.1865 12.5895 32.373 0 0 0
1961 5 17.985 14.388 0.0 0 0 0
1965 5 17.985 14.388 3.597 0 0 0
1970 5 17.985 16.1865 8.9925 0 0 0
1975 5 16.1865 14.388 12.5895 0 0 0
1976 5 16.1865 16.1865 10.791 0 0 0
1984 5 16.1865 16.1865 17.985 0 0 0
1986 5 17.985 16.1865 23.3805 0 0 0
1988 5 16.1865 16.1865 21.582 0 0 0
1996 5 16.1865 16.1865 28.776 0 0 0
1998 5 17.985 16.1865 34.1715 0 0 0
1999 5 16.1865 14.388 34.1715 0 0 0
2005 5 17.985 17.985 3.597 0 0 0
2006 5 17.985 19.7835 5.3955 0 0 0
2007 5 16.1865 17.985 5.3955 0 0 0
2011 5 16.1865 17.985 8.9925 0 0 0
2032 5 16.1865 19.7835 25.179 0 0 0
2037 5 17.985 17.985 32.373 0 0 0
2039 5 16.1865 17.985 34.1715 0 0 0
2040 5 16.1865 19.7835 32.373 0 0 0
2041 5 17.985 21.582 0.0 0 0 0
2044 5 16.1865 23.3805 0.0 0 0 0
2052 5 16.1865 23.3805 7.194 0 0 0
2063 5 16.1865 21.582 19.7835 0 0 0
2065 5 17.985 21.582 21.582 0 0 0
2067 5 16.1865 21.582 23.3805 0 0 0
2076 5 16.1865 23.3805 28.776 0 0 0
2078 5 17.985 23.3805 34.1715 0 0 0
2080 5 16.1865 23.3805 32.373 0 0 0
2083 5 16.1865 25.179 1.7985 0 0 0
2086 5 17.985 26.9775 5.3955 0 0 0
2094 5 17.985 26.9775 12.5895 0 0 0
2099 5 16.1865 25.179 16.1865 0 0 0
2103 5 16.1865 25.179 19.7835 0 0 0
2105 5 17.985 25.179 21.582 0 0 0
2110 5 17.985 26.9775 26.9775 0 0 0
2128 5 16.1865 30.5745 3.597 0 0 0
2137 5 17.985 28.776 14.388 0 0 0
2143 5 16.1865 28.776 19.7835 0 0 0
2147 5 16.1865 28.776 23.3805 0 0 0
2152 5 16.1865 30.5745 25.179 0 0 0
2154 5 17.985 30.5745 30.5745 0 0 0
2155 5 16.1865 28.776 30.5745 0 0 0
2156 5 16.1865 30.5745 28.776 0 0 0
2167 5 16.1865 32.373 5.3955 0 0 0
2175 5 16.1865 32.373 12.5895 0 0 0
2178 5 17.985 34.1715 16.1865 0 0 0
2180 5 16.1865 34.1715 14.388 0 0 0
2185 5 17.985 32.373 21.582 0 0 0
2186 5 17.985 34.1715 23.3805 0 0 0
2188 5 16.1865 34.1715 21.582 0 0 0
2189 5 17.985 32.373 25.179 0 0 0
2190 5 17.985 34.1715 26.9775 0 0 0
2194 5 17.985 34.1715 30.5745 0 0 0
2200 5 16.1865 34.1715 32.373 0 0 0
2203 5 12.5895 0.0 1.7985 0 0 0
2208 5 12.5895 1.7985 3.597 0 0 0
2210 5 14.388 1.7985 8.9925 0 0 0
2211 5 12.5895 0.0 8.9925 0 0 0
2214 5 14.388 1.7985 12.5895 0 0 0
2215 5 12.5895 0.0 12.5895 0 0 0
2226 5 14.388 1.7985 23.3805 0 0 0
2229 5 14.388 0.0 25.179 0 0 0
2233 5 14.388 0.0 28.776 0 0 0
2240 5 12.5895 1.7985 32.373 0 0 0
2241 5 14.388 3.597 0.0 0 0 0
2242 5 14.388 5.3955 1.7985 0 0 0
2244 5 12.5895 5.3955 0.0 0 0 0
2247 5 12.5895 3.597 5.3955 0 0 0
2250 5 14.388 5.3955 8.9925 0 0 0
2255 5 12.5895 3.597 12.5895 0 0 0
2257 5 14.388 3.597 14.388 0 0 0
2259 5 12.5895 3.597 16.1865 0 0 0
2260 5 12.5895 5.3955 14.388 0 0 0
2261 5 14.388 3.597 17.985 0 0 0
2262 5 14.388 5.3955 19.7835 0 0 0
2270 5 14.388 5.3955 26.9775 0 0 0
2271 5 12.5895 3.597 26.9775 0 0 0
2272 5 12.5895 5.3955 25.179 0 0 0
2273 5 14.388 3.597 28.776 0 0 0
2280 5 12.5895 5.3955 32.373 0 0 0
2288 5 12.5895 8.9925 3.597 0 0 0
2292 5 12.5895 8.9925 7.194 0 0 0
2294 5 14.388 8.9925 12.5895 0 0 0
2308 5 12.5895 8.9925 21.582 0 0 0
2313 5 14.388 7.194 28.776 0 0 0
2314 5 14.388 8.9925 30.5745 0 0 0
2317 5 14.388 7.194 32.373 0 0 0
2319 5 12.5895 7.194 34.1715 0 0 0
2325 5 14.388 10.791 3.597 0 0 0
2334 5 14.388 12.5895 12.5895 0 0 0
2338 5 14.388 12.5895 16.1865 0 0 0
2339 5 12.5895 10.791 16.1865 0 0 0
2342 5 14.388 12.5895 19.7835 0 0 0
2347 5 12.5895 10.791 23.3805 0 0 0
2355 5 12.5895 10.791 30.5745 0 0 0
2360 5 12.5895 12.5895 32.373 0 0 0
2362 5 14.388 16.1865 1.7985 0 0 0
2364 5 12.5895 16.1865 0.0 0 0 0
2365 5 14.388 14.388 3.597 0 0 0
2374 5 14.388 16.1865 12.5895 0 0 0
2376 5 12.5895 16.1865 10.791 0 0 0
2377 5 14.388 14.388 14.388 0 0 0
2381 5 14.388 14.388 17.985 0 0 0
2383 5 12.5895 14.388 19.7835 0 0 0
2385 5 14.388 14.388 21.582 0 0 0
2400 5 12.5895 16.1865 32.373 0 0 0
2401 5 14.388 17.985 0.0 0 0 0
2410 5 14.388 19.7835 8.9925 0 0 0
2414 5 14.388 19.7835 12.5895 0 0 0
2419 5 12.5895 17.985 16.1865 0 0 0
2427 5 12.5895 17.985 23.3805 0 0 0
2434 5 14.388 19.7835 30.5745 0 0 0
2436 5 12.5895 19.7835 28.776 0 0 0
2437 5 14.388 17.985 32.373 0 0 0
2439 5 12.5895 17.985 34.1715 0 0 0
2450 5 14.388 23.3805 8.9925 0 0 0
2462 5 14.388 23.3805 19.7835 0 0 0
2469 5 14.388 21.582 25.179 0 0 0
2477 5 14.388 21.582 32.373 0 0 0
2484 5 12.5895 26.9775 0.0 0 0 0
2485 5 14.388 25.179 3.597 0 0 0
2494 5 14.388 26.9775 12.5895 0 0 0
2498 5 14.388 26.9775 16.1865 0 0 0
2500 5 12.5895 26.9775 14.388 0 0 0
2509 5 14.388 25.179 25.179 0 0 0
2515 5 12.5895 25.179 30.5745 0 0 0
2520 5 12.5895 26.9775 32.373 0 0 0
2523 5 12.5895 28.776 1.7985 0 0 0
2528 5 12.5895 30.5745 3.597 0 0 0
2529 5 14.388 28.776 7.194 0 0 0
2538 5 14.388 30.5745 16.1865 0 0 0
2544 5 12.5895 30.5745 17.985 0 0 0
2553 5 14.388 28.776 28.776 0 0 0
2558 5 14.388 30.5745 34.1715 0 0 0
2559 5 12.5895 28.776 34.1715 0 0 0
2560 5 12.5895 30.5745 32.373 0 0 0
2563 5 12.5895 32.373 1.7985 0 0 0
2566 5 14.388 34.1715 5.3955 0 0 0
2576 5 12.5895 34.1715 10.791 0 0 0
2578 5 14.388 34.1715 16.1865 0 0 0
2580 5 12.5895 34.1715 14.388 0 0 0
2585 5 14.388 32.373 21.582 0 0 0
2589 5 14.388 32.373 25.179 0 0 0
2595 5 12.5895 32.373 30.5745 0 0 0
2599 5 12.5895 32.373 34.1715 0 0 0
2603 5 8.9925 0.0 1.7985 0 0 0
2608 5 8.9925 1.7985 3.597 0 0 0
2612 5 8.9925 1.7985 7.194 0 0 0
2614 5 10.791 1.7985 12.5895 0 0 0
2616 5 8.9925 1.7985 10.791 0 0 0
2620 5 8.9925 1.7985 14.388 0 0 0
2622 5 10.791 1.7985 19.7835 0 0 0
2632 5 8.9925 1.7985 25.179 0 0 0
2634 5 10.791 1.7985 30.5745 0 0 0
2637 5 10.791 0.0 32.373 0 0 0
2642 5 10.791 5.3955 1.7985 0 0 0
2644 5 8.9925 5.3955 0.0 0 0 0
2645 5 10.791 3.597 3.597 0 0 0
2650 5 10.791 5.3955 8.9925 0 0 0
2657 5 10.791 3.597 14.388 0 0 0
2663 5 8.9925 3.597 19.7835 0 0 0
2664 5 8.9925 5.3955 17.985 0 0 0
2665 5 10.791 3.597 21.582 0 0 0
2679 5 8.9925 3.597 34.1715 0 0 0
2680 5 8.9925 5.3955 32.373 0 0 0
2683 5 8.9925 7.194 1.7985 0 0 0
2684 5 8.9925 8.9925 0.0 0 0 0
2685 5 10.791 7.194 3.597 0 0 0
2687 5 8.9925 7.194 5.3955 0 0 0
2698 5 10.791 8.9925 16.1865 0 0 0
2706 5 10.791 8.9925 23.3805 0 0 0
2708 5 8.9925 8.9925 21.582 0 0 0
2721 5 10.791 10.791 0.0 0 0 0
2722 5 10.791 12.5895 1.7985 0 0 0
2723 5 8.9925 10.791 1.7985 0 0 0
2725 5 10.791 10.791 3.597 0 0 0
2726 5 10.791 12.5895 5.3955 0 0 0
2731 5 8.9925 10.791 8.9925 0 0 0
2736 5 8.9925 12.5895 10.791 0 0 0
2738 5 10.791 12.5895 16.1865 0 0 0
2740 5 8.9925 12.5895 14.388 0 0 0
2742 5 10.791 12.5895 19.7835 0 0 0
2748 5 8.9925 12.5895 21.582 0 0 0
2755 5 8.9925 10.791 30.5745 0 0 0
2764 5 8.9925 16.1865 0.0 0 0 0
2766 5 10.791 16.1865 5.3955 0 0 0
2767 5 8.9925 14.388 5.3955 0 0 0
2770 5 10.791 16.1865 8.9925 0 0 0
2774 5 10.791 16.1865 12.5895 0 0 0
2776 5 8.9925 16.1865 10.791 0 0 0
2778 5 10.791 16.1865 16.1865 0 0 0
2780 5 8.9925 16.1865 14.388 0 0 0
2782 5 10.791 16.1865 19.7835 0 0 0
2788 5 8.9925 16.1865 21.582 0 0 0
2790 5 10.791 16.1865 26.9775 0 0 0
2791 5 8.9925 14.388 26.9775 0 0 0
2792 5 8.9925 16.1865 25.179 0 0 0
2795 5 8.9925 14.388 30.5745 0 0 0
2796 5 8.9925 16.1865 28.776 0 0 0
2800 5 8.9925 16.1865 32.373 0 0 0
2805 5 10.791 17.985 3.597 0 0 0
2809 5 10.791 17.985 7.194 0 0 0
2810 5 10.791 19.7835 8.9925 0 0 0
2814 5 10.791 19.7835 12.5895 0 0 0
2816 5 8.9925 19.7835 10.791 0 0 0
2821 5 10.791 17.985 17.985 0 0 0
2825 5 10.791 17.985 21.582 0 0 0
2830 5 10.791 19.7835 26.9775 0 0 0
2834 5 10.791 19.7835 30.5745 0 0 0
2842 5 10.791 23.3805 1.7985 0 0 0
2844 5 8.9925 23.3805 0.0 0 0 0
2846 5 10.791 23.3805 5.3955 0 0 0
2852 5 8.9925 23.3805 7.194 0 0 0
2853 5 10.791 21.582 10.791 0 0 0
2865 5 10.791 21.582 21.582 0 0 0
2876 5 8.9925 23.3805 28.776 0 0 0
2884 5 8.9925 26.9775 0.0 0 0 0
2888 5 8.9925 26.9775 3.597 0 0 0
2890 5 10.791 26.9775 8.9925 0 0 0
2898 5 10.791 26.9775 16.1865 0 0 0
2902 5 10.791 26.9775 19.7835 0 0 0
2914 5 10.791 26.9775 30.5745 0 0 0
2917 5 10.791 25.179 32.373 0 0 0
2919 5 8.9925 25.179 34.1715 0 0 0
2925 5 10.791 28.776 3.597 0 0 0
2927 5 8.9925 28.776 5.3955 0 0 0
2928 5 8.9925 30.5745 3.597 0 0 0
2931 5 8.9925 28.776 8.9925 0 0 0
2932 5 8.9925 30.5745 7.194 0 0 0
2933 5 10.791 28.776 10.791 0 0 0
2936 5 8.9925 30.5745 10.791 0 0 0
2941 5 10.791 28.776 17.985 0 0 0
2942 5 10.791 30.5745 19.7835 0 0 0
2943 5 8.9925 28.776 19.7835 0 0 0
2947 5 8.9925 28.776 23.3805 0 0 0
2950 5 10.791 30.5745 26.9775 0 0 0
2951 5 8.9925 28.776 26.9775 0 0 0
2954 5 10.791 30.5745 30.5745 0 0 0
2956 5 8.9925 30.5745 28.776 0 0 0
2970 5 10.791 34.1715 8.9925 0 0 0
2978 5 10.791 34.1715 16.1865 0 0 0
2983 5 8.9925 32.373 19.7835 0 0 0
2985 5 10.791 32.373 21.582 0 0 0
2988 5 8.9925 34.1715 21.582 0 0 0
2989 5 10.791 32.373 25.179 0 0 0
2997 5 10.791 32.373 32.373 0 0 0
3004 5 5.3955 1.7985 0.0 0 0 0
3009 5 7.194 0.0 7.194 0 0 0
3012 5 5.3955 1.7985 7.194 0 0 0
3014 5 7.194 1.7985 12.5895 0 0 0
3018 5 7.194 1.7985 16.1865 0 0 0
3023 5 5.3955 0.0 19.7835 0 0 0
3025 5 7.194 0.0 21.582 0 0 0
3032 5 5.3955 1.7985 25.179 0 0 0
3034 5 7.194 1.7985 30.5745 0 0 0
3037 5 7.194 0.0 32.373 0 0 0
3040 5 5.3955 1.7985 32.373 0 0 0
3041 5 7.194 3.597 0.0 0 0 0
3050 5 7.194 5.3955 8.9925 0 0 0
3052 5 5.3955 5.3955 7.194 0 0 0
3058 5 7.194 5.3955 16.1865 0 0 0
3059 5 5.3955 3.597 16.1865 0 0 0
3060 5 5.3955 5.3955 14.388 0 0 0
3061 5 7.194 3.597 17.985 0 0 0
3064 5 5.3955 5.3955 17.985 0 0 0
3065 5 7.194 3.597 21.582 0 0 0
3067 5 5.3955 3.597 23.3805 0 0 0
3071 5 5.3955 3.597 26.9775 0 0 0
3072 5 5.3955 5.3955 25.179 0 0 0
3093 5 7.194 7.194 10.791 0 0 0
3102 5 7.194 8.9925 19.7835 0 0 0
3103 5 5.3955 7.194 19.7835 0 0 0
3110 5 7.194 8.9925 26.9775 0 0 0
3111 5 5.3955 7.194 26.9775 0 0 0
3117 5 7.194 7.194 32.373 0 0 0
3118 5 7.194 8.9925 34.1715 0 0 0
3119 5 5.3955 7.194 34.1715 0 0 0
3120 5 5.3955 8.9925 32.373 0 0 0
3121 5 7.194 10.791 0.0 0 0 0
3123 5 5.3955 10.791 1.7985 0 0 0
3124 5 5.3955 12.5895 0.0 0 0 0
3126 5 7.194 12.5895 5.3955 0 0 0
3129 5 7.194 10.791 7.194 0 0 0
3135 5 5.3955 10.791 12.5895 0 0 0
3141 5 7.194 10.791 17.985 0 0 0
3144 5 5.3955 12.5895 17.985 0 0 0
3152 5 5.3955 12.5895 25.179 0 0 0
3153 5 7.194 10.791 28.776 0 0 0
3166 5 7.194 16.1865 5.3955 0 0 0
3167 5 5.3955 14.388 5.3955 0 0 0
3169 5 7.194 14.388 7.194 0 0 0
3171 5 5.3955 14.388 8.9925 0 0 0
3174 5 7.194 16.1865 12.5895 0 0 0
3175 5 5.3955 14.388 12.5895 0 0 0
3181 5 7.194 14.388 17.985 0 0 0
3183 5 5.3955 14.388 19.7835 0 0 0
3184 5 5.3955 16.1865 17.985 0 0 0
3185 5 7.194 14.388 21.582 0 0 0
3188 5 5.3955 16.1865 21.582 0 0 0
3192 5 5.3955 16.1865 25.179 0 0 0
3202 5 7.194 19.7835 1.7985 0 0 0
3203 5 5.3955 17.985 1.7985 0 0 0
3211 5 5.3955 17.985 8.9925 0 0 0
3222 5 7.194 19.7835 19.7835 0 0 0
3236 5 5.3955 19.7835 28.776 0 0 0
3238 5 7.194 19.7835 34.1715 0 0 0
3242 5 7.194 23.3805 1.7985 0 0 0
3245 5 7.194 21.582 3.597 0 0 0
3247 5 5.3955 21.582 5.3955 0 0 0
3249 5 7.194 21.582 7.194 0 0 0
3255 5 5.3955 21.582 12.5895 0 0 0
3256 5 5.3955 23.3805 10.791 0 0 0
3257 5 7.194 21.582 14.388 0 0 0
3262 5 7.194 23.3805 19.7835 0 0 0
3265 5 7.194 21.582 21.582 0 0 0
3268 5 5.3955 23.3805 21.582 0 0 0
3271 5 5.3955 21.582 26.9775 0 0 0
3277 5 7.194 21.582 32.373 0 0 0
3288 5 5.3955 26.9775 3.597 0 0 0
3291 5 5.3955 25.179 8.9925 0 0 0
3295 5 5.3955 25.179 12.5895 0 0 0
3297 5 7.194 25.179 14.388 0 0 0
3298 5 7.194 26.9775 16.1865 0 0 0
3301 5 7.194 25.179 17.985 0 0 0
3310 5 7.194 26.9775 26.9775 0 0 0
3311 5 5.3955 25.179 26.9775 0 0 0
3312 5 5.3955 26.9775 25.179 0 0 0
3318 5 7.194 26.9775 34.1715 0 0 0
3319 5 5.3955 25.179 34.1715 0 0 0
3326 5 7.194 30.5745 5.3955 0 0 0
3333 5 7.194 28.776 10.791 0 0 0
3335 5 5.3955 28.776 12.5895 0 0 0
3340 5 5.3955 30.5745 14.388 0 0 0
3342 5 7.194 30.5745 19.7835 0 0 0
3344 5 5.3955 30.5745 17.985 0 0 0
3346 5 7.194 30.5745 23.3805 0 0 0
3347 5 5.3955 28.776 23.3805 0 0 0
3353 5 7.194 28.776 28.776 0 0 0
3354 5 7.194 30.5745 30.5745 0 0 0
3361 5 7.194 32.373 0.0 0 0 0
3371 5 5.3955 32.373 8.9925 0 0 0
3374 5 7.194 34.1715 12.5895 0 0 0
3376 5 5.3955 34.1715 10.791 0 0 0
3383 5 5.3955 32.373 19.7835 0 0 0
3385 5 7.194 32.373 21.582 0 0 0
3388 5 5.3955 34.1715 21.582 0 0 0
3397 5 7.194 32.373 32.373 0 0 0
3400 5 5.3955 34.1715 32.373 0 0 0
3407 5 1.7985 0.0 5.3955 0 0 0
3409 5 3.597 0.0 7.194 0 0 0
3416 5 1.7985 1.7985 10.791 0 0 0
3424 5 1.7985 1.7985 17.985 0 0 0
3431 5 1.7985 0.0 26.9775 0 0 0
3432 5 1.7985 1.7985 25.179 0 0 0
3439 5 1.7985 0.0 34.1715 0 0 0
3441 5 3.597 3.597 0.0 0 0 0
3446 5 3.597 5.3955 5.3955 0 0 0
3447 5 1.7985 3.597 5.3955 0 0 0
3449 5 3.597 3.597 7.194 0 0 0
3451 5 1.7985 3.597 8.9925 0 0 0
3453 5 3.597 3.597 10.791 0 0 0
3454 5 3.597 5.3955 12.5895 0 0 0
3464 5 1.7985 5.3955 17.985 0 0 0
3471 5 1.7985 3.597 26.9775 0 0 0
3473 5 3.597 3.597 28.776 0 0 0
3474 5 3.597 5.3955 30.5745 0 0 0
3477 5 3.597 3.597 32.373 0 0 0
3482 5 3.597 8.9925 1.7985 0 0 0
3484 5 1.7985 8.9925 0.0 0 0 0
3486 5 3.597 8.9925 5.3955 0 0 0
3496 5 1.7985 8.9925 10.791 0 0 0
3510 5 3.597 8.9925 26.9775 0 0 0
3513 5 3.597 7.194 28.776 0 0 0
3519 5 1.7985 7.194 34.1715 0 0 0
3520 5 1.7985 8.9925 32.373 0 0 0
3523 5 1.7985 10.791 1.7985 0 0 0
3525 5 3.597 10.791 3.597 0 0 0
3526 5 3.597 12.5895 5.3955 0 0 0
3527 5 1.7985 10.791 5.3955 0 0 0
3530 5 3.597 12.5895 8.9925 0 0 0
3535 5 1.7985 10.791 12.5895 0 0 0
3537 5 3.597 10.791 14.388 0 0 0
3538 5 3.597 12.5895 16.1865 0 0 0
3541 5 3.597 10.791 17.985 0 0 0
3546 5 3.597 12.5895 23.3805 0 0 0
3547 5 1.7985 10.791 23.3805 0 0 0
3554 5 3.597 12.5895 30.5745 0 0 0
3558 5 3.597 12.5895 34.1715 0 0 0
3559 5 1.7985 10.791 34.1715 0 0 0
3564 5 1.7985 16.1865 0.0 0 0 0
3568 5 1.7985 16.1865 3.597 0 0 0
3571 5 1.7985 14.388 8.9925 0 0 0
3572 5 1.7985 16.1865 7.194 0 0 0
3573 5 3.597 14.388 10.791 0 0 0
3576 5 1.7985 16.1865 10.791 0 0 0
3584 5 1.7985 16.1865 17.985 0 0 0
3586 5 3.597 16.1865 23.3805 0 0 0
3590 5 3.597 16.1865 26.9775 0 0 0
3591 5 1.7985 14.388 26.9775 0 0 0
3592 5 1.7985 16.1865 25.179 0 0 0
3606 5 3.597 19.7835 5.3955 0 0 0
3609 5 3.597 17.985 7.194 0 0 0
3611 5 1.7985 17.985 8.9925 0 0 0
3621 5 3.597 17.985 17.985 0 0 0
3625 5 3.597 17.985 21.582 0 0 0
3630 5 3.597 19.7835 26.9775 0 0 0
3643 5 1.7985 21.582 1.7985 0 0 0
3644 5 1.7985 23.3805 0.0 0 0 0
3654 5 3.597 23.3805 12.5895 0 0 0
3661 5 3.597 21.582 17.985 0 0 0
3665 5 3.597 21.582 21.582 0 0 0
3677 5 3.597 21.582 32.373 0 0 0
3680 5 1.7985 23.3805 32.373 0 0 0
3687 5 1.7985 25.179 5.3955 0 0 0
3691 5 1.7985 25.179 8.9925 0 0 0
3697 5 3.597 25.179 14.388 0 0 0
3699 5 1.7985 25.179 16.1865 0 0 0
3701 5 3.597 25.179 17.985 0 0 0
3702 5 3.597 26.9775 19.7835 0 0 0
3703 5 1.7985 25.179 19.7835 0 0 0
3710 5 3.597 26.9775 26.9775 0 0 0
3713 5 3.597 25.179 28.776 0 0 0
3716 5 1.7985 26.9775 28.776 0 0 0
3719 5 1.7985 25.179 34.1715 0 0 0
3722 5 3.597 30.5745 1.7985 0 0 0
3723 5 1.7985 28.776 1.7985 0 0 0
3729 5 3.597 28.776 7.194 0 0 0
3730 5 3.597 30.5745 8.9925 0 0 0
3732 5 1.7985 30.5745 7.194 0 0 0
3739 5 1.7985 28.776 16.1865 0 0 0
3744 5 1.7985 30.5745 17.985 0 0 0
3746 5 3.597 30.5745 23.3805 0 0 0
3751 5 1.7985 28.776 26.9775 0 0 0
3752 5 1.7985 30.5745 25.179 0 0 0
3753 5 3.597 28.776 28.776 0 0 0
3755 5 1.7985 28.776 30.5745 0 0 0
3756 5 1.7985 30.5745 28.776 0 0 0
3763 5 1.7985 32.373 1.7985 0 0 0
3770 5 3.597 34.1715 8.9925 0 0 0
3780 5 1.7985 34.1715 14.388 0 0 0
3783 5 1.7985 32.373 19.7835 0 0 0
3789 5 3.597 32.373 25.179 0 0 0
3796 5 1.7985 34.1715 28.776 0 0 0
3797 5 3.597 32.373 32.373 0 0 0
3803 5 0.0 0.0 3.597 0 0 0
3805 5 0.0 0.0 7.194 0 0 0
3811 5 0.0 0.0 17.985 0 0 0
3815 5 0.0 0.0 25.179 0 0 0
3818 5 0.0 1.7985 30.5745 0 0 0
3822 5 0.0 5.3955 1.7985 0 0 0
3823 5 0.0 3.597 3.597 0 0 0
3825 5 0.0 3.597 7.194 0 0 0
3832 5 0.0 5.3955 19.7835 0 0 0
3835 5 0.0 3.597 25.179 0 0 0
3837 5 0.0 3.597 28.776 0 0 0
3842 5 0.0 8.9925 1.7985 0 0 0
3850 5 0.0 8.9925 16.1865 0 0 0
3851 5 0.0 7.194 17.985 0 0 0
3856 5 0.0 8.9925 26.9775 0 0 0
3860 5 0.0 8.9925 34.1715 0 0 0
3861 5 0.0 10.791 0.0 0 0 0
3871 5 0.0 10.791 17.985 0 0 0
3875 5 0.0 10.791 25.179 0 0 0
3882 5 0.0 16.1865 1.7985 0 0 0
3884 5 0.0 16.1865 5.3955 0 0 0
3885 5 0.0 14.388 7.194 0 0 0
3889 5 0.0 14.388 14.388 0 0 0
3891 5 0.0 14.388 17.985 0 0 0
3892 5 0.0 16.1865 19.7835 0 0 0
3896 5 0.0 16.1865 26.9775 0 0 0
3898 5 0.0 16.1865 30.5745 0 0 0
3919 5 0.0 17.985 32.373 0 0 0
3921 5 0.0 21.582 0.0 0 0 0
3923 5 0.0 21.582 3.597 0 0 0
3924 5 0.0 23.3805 5.3955 0 0 0
3928 5 0.0 23.3805 12.5895 0 0 0
3933 5 0.0 21.582 21.582 0 0 0
3935 5 0.0 21.582 25.179 0 0 0
3938 5 0.0 23.3805 30.5745 0 0 0
3939 5 0.0 21.582 32.373 0 0 0
3941 5 0.0 25.179 0.0 0 0 0
3944 5 0.0 26.9775 5.3955 0 0 0
3950 5 0.0 26.9775 16.1865 0 0 0
3960 5 0.0 26.9775 34.1715 0 0 0
3961 5 0.0 28.776 0.0 0 0 0
3968 5 0.0 30.5745 12.5895 0 0 0
3978 5 0.0 30.5745 30.5745 0 0 0
3988 5 0.0 34.1715 12.5895 0 0 0
3989 5 0.0 32.373 14.388 0 0 0
3991 5 0.0 32.373 17.985 0 0 0
3995 5 0.0 32.373 25.179 0 0 0
3999 5 0.0 32.373 32.373 0 0 0
