LAMMPS data file via write_data version 30 Jul 2021 timestep = 0
4000 atoms
5 atom types
0 35.97 xlo xhi
0 35.97 ylo yhi
0 35.97 zlo zhi
0.0 0.0 0.0 xy xz yz
 
Masses
 
1 1.0
2 2.0
3 3.0
4 4.0
5 5.0
 
Atoms  # atomic
 
1141 1 25.179 10.791 17.985 0 0 0
1178 1 25.179 16.1865 16.1865 0 0 0
495 1 30.5745 25.179 12.5895 0 0 0
1689 1 21.582 25.179 7.194 0 0 0
2118 1 17.985 26.9775 34.1715 0 0 0
475 1 30.5745 21.582 30.5745 0 0 0
2085 1 17.985 25.179 3.597 0 0 0
1261 1 25.179 21.582 17.985 0 0 0
218 1 32.373 1.7985 16.1865 0 0 0
1697 1 21.582 25.179 14.388 0 0 0
2111 1 16.1865 25.179 26.9775 0 0 0
3970 1 0.0 30.5745 16.1865 0 0 0
3262 1 7.194 23.3805 19.7835 0 0 0
677 1 28.776 3.597 32.373 0 0 0
2477 1 14.388 21.582 32.373 0 0 0
158 1 34.1715 26.9775 28.776 0 0 0
3914 1 0.0 19.7835 23.3805 0 0 0
3800 1 1.7985 34.1715 32.373 0 0 0
413 1 32.373 17.985 10.791 0 0 0
3837 1 0.0 3.597 28.776 0 0 0
3355 1 5.3955 28.776 30.5745 0 0 0
3050 1 7.194 5.3955 8.9925 0 0 0
806 1 28.776 19.7835 5.3955 0 0 0
454 1 32.373 23.3805 12.5895 0 0 0
2410 1 14.388 19.7835 8.9925 0 0 0
1297 1 25.179 25.179 14.388 0 0 0
1127 1 23.3805 10.791 5.3955 0 0 0
2490 1 14.388 26.9775 8.9925 0 0 0
500 1 30.5745 26.9775 14.388 0 0 0
3906 1 0.0 19.7835 8.9925 0 0 0
3101 1 7.194 7.194 17.985 0 0 0
1826 1 17.985 1.7985 23.3805 0 0 0
1907 1 16.1865 7.194 23.3805 0 0 0
2739 1 8.9925 10.791 16.1865 0 0 0
62 1 34.1715 12.5895 0.0 0 0 0
1218 1 25.179 19.7835 16.1865 0 0 0
3886 1 0.0 16.1865 8.9925 0 0 0
3331 1 5.3955 28.776 8.9925 0 0 0
1031 1 23.3805 0.0 26.9775 0 0 0
1755 1 19.7835 28.776 30.5745 0 0 0
19 1 34.1715 0.0 34.1715 0 0 0
930 1 28.776 30.5745 8.9925 0 0 0
2973 1 10.791 32.373 10.791 0 0 0
1848 1 16.1865 5.3955 3.597 0 0 0
1183 1 23.3805 14.388 19.7835 0 0 0
3225 1 7.194 17.985 21.582 0 0 0
2222 1 14.388 1.7985 19.7835 0 0 0
591 1 30.5745 32.373 26.9775 0 0 0
278 1 32.373 5.3955 34.1715 0 0 0
3307 1 5.3955 25.179 23.3805 0 0 0
2635 1 8.9925 0.0 30.5745 0 0 0
35 1 34.1715 3.597 26.9775 0 0 0
1988 1 16.1865 16.1865 21.582 0 0 0
3789 1 3.597 32.373 25.179 0 0 0
2461 1 14.388 21.582 17.985 0 0 0
3449 1 3.597 3.597 7.194 0 0 0
1701 1 21.582 25.179 17.985 0 0 0
1357 1 25.179 28.776 32.373 0 0 0
1878 1 17.985 5.3955 34.1715 0 0 0
2764 1 8.9925 16.1865 0.0 0 0 0
421 1 32.373 17.985 17.985 0 0 0
3509 1 3.597 7.194 25.179 0 0 0
1588 1 19.7835 16.1865 21.582 0 0 0
3499 1 1.7985 7.194 16.1865 0 0 0
2314 1 14.388 8.9925 30.5745 0 0 0
2778 1 10.791 16.1865 16.1865 0 0 0
524 1 30.5745 30.5745 0.0 0 0 0
2982 1 10.791 34.1715 19.7835 0 0 0
3489 1 3.597 7.194 7.194 0 0 0
1288 1 23.3805 26.9775 3.597 0 0 0
21 1 34.1715 3.597 1.7985 0 0 0
1638 1 21.582 19.7835 34.1715 0 0 0
1704 1 19.7835 26.9775 17.985 0 0 0
916 1 26.9775 26.9775 28.776 0 0 0
1293 1 25.179 25.179 10.791 0 0 0
237 1 32.373 0.0 32.373 0 0 0
2803 1 8.9925 17.985 1.7985 0 0 0
3371 1 5.3955 32.373 8.9925 0 0 0
3447 1 1.7985 3.597 5.3955 0 0 0
1398 1 25.179 34.1715 34.1715 0 0 0
2417 1 14.388 17.985 14.388 0 0 0
3243 1 5.3955 21.582 1.7985 0 0 0
2082 1 17.985 26.9775 1.7985 0 0 0
2873 1 10.791 21.582 28.776 0 0 0
863 1 26.9775 21.582 19.7835 0 0 0
1224 1 23.3805 19.7835 17.985 0 0 0
306 1 32.373 8.9925 23.3805 0 0 0
3533 1 3.597 10.791 10.791 0 0 0
30 1 34.1715 5.3955 14.388 0 0 0
1377 1 25.179 32.373 14.388 0 0 0
3976 1 0.0 30.5745 26.9775 0 0 0
3809 1 0.0 0.0 14.388 0 0 0
3280 1 5.3955 23.3805 32.373 0 0 0
2549 1 14.388 28.776 25.179 0 0 0
849 1 28.776 21.582 7.194 0 0 0
426 1 32.373 19.7835 23.3805 0 0 0
1579 1 19.7835 14.388 16.1865 0 0 0
1911 1 16.1865 7.194 26.9775 0 0 0
3755 1 1.7985 28.776 30.5745 0 0 0
2312 1 12.5895 8.9925 25.179 0 0 0
3326 1 7.194 30.5745 5.3955 0 0 0
1130 1 25.179 12.5895 8.9925 0 0 0
3304 1 5.3955 26.9775 17.985 0 0 0
1774 1 21.582 34.1715 12.5895 0 0 0
208 1 30.5745 1.7985 3.597 0 0 0
3453 1 3.597 3.597 10.791 0 0 0
2543 1 12.5895 28.776 19.7835 0 0 0
482 1 32.373 26.9775 1.7985 0 0 0
3362 1 7.194 34.1715 1.7985 0 0 0
202 1 32.373 1.7985 1.7985 0 0 0
2862 1 10.791 23.3805 19.7835 0 0 0
3484 1 1.7985 8.9925 0.0 0 0 0
415 1 30.5745 17.985 12.5895 0 0 0
697 1 28.776 7.194 14.388 0 0 0
990 1 28.776 34.1715 26.9775 0 0 0
143 1 34.1715 25.179 5.3955 0 0 0
3565 1 3.597 14.388 3.597 0 0 0
3665 1 3.597 21.582 21.582 0 0 0
1677 1 21.582 21.582 32.373 0 0 0
443 1 30.5745 21.582 1.7985 0 0 0
1566 1 21.582 16.1865 5.3955 0 0 0
912 1 26.9775 26.9775 25.179 0 0 0
2459 1 12.5895 21.582 16.1865 0 0 0
3446 1 3.597 5.3955 5.3955 0 0 0
3395 1 5.3955 32.373 30.5745 0 0 0
3552 1 1.7985 12.5895 25.179 0 0 0
3692 1 1.7985 26.9775 7.194 0 0 0
1148 1 23.3805 12.5895 21.582 0 0 0
455 1 30.5745 21.582 12.5895 0 0 0
76 1 34.1715 12.5895 25.179 0 0 0
1874 1 17.985 5.3955 30.5745 0 0 0
3127 1 5.3955 10.791 5.3955 0 0 0
3952 1 0.0 26.9775 19.7835 0 0 0
3245 1 7.194 21.582 3.597 0 0 0
3026 1 7.194 1.7985 23.3805 0 0 0
3337 1 7.194 28.776 14.388 0 0 0
3495 1 1.7985 7.194 12.5895 0 0 0
2554 1 14.388 30.5745 30.5745 0 0 0
843 1 26.9775 21.582 1.7985 0 0 0
571 1 30.5745 32.373 8.9925 0 0 0
889 1 28.776 25.179 7.194 0 0 0
2654 1 10.791 5.3955 12.5895 0 0 0
2016 1 16.1865 19.7835 10.791 0 0 0
2536 1 12.5895 30.5745 10.791 0 0 0
33 1 34.1715 3.597 23.3805 0 0 0
3208 1 5.3955 19.7835 3.597 0 0 0
2037 1 17.985 17.985 32.373 0 0 0
1720 1 19.7835 26.9775 32.373 0 0 0
1168 1 23.3805 16.1865 3.597 0 0 0
2019 1 16.1865 17.985 16.1865 0 0 0
2157 1 17.985 28.776 32.373 0 0 0
249 1 32.373 3.597 7.194 0 0 0
3736 1 1.7985 30.5745 10.791 0 0 0
270 1 32.373 5.3955 26.9775 0 0 0
1007 1 23.3805 0.0 5.3955 0 0 0
3941 1 0.0 25.179 0.0 0 0 0
1849 1 17.985 3.597 7.194 0 0 0
3598 1 3.597 16.1865 34.1715 0 0 0
651 1 26.9775 3.597 8.9925 0 0 0
3655 1 1.7985 21.582 12.5895 0 0 0
1114 1 25.179 8.9925 30.5745 0 0 0
3481 1 3.597 7.194 0.0 0 0 0
2193 1 17.985 32.373 28.776 0 0 0
1038 1 25.179 1.7985 34.1715 0 0 0
131 1 34.1715 21.582 19.7835 0 0 0
2797 1 10.791 14.388 32.373 0 0 0
1684 1 19.7835 26.9775 0.0 0 0 0
1759 1 19.7835 28.776 34.1715 0 0 0
1778 1 21.582 34.1715 16.1865 0 0 0
1887 1 16.1865 7.194 5.3955 0 0 0
3839 1 0.0 3.597 32.373 0 0 0
561 1 32.373 32.373 0.0 0 0 0
363 1 30.5745 14.388 1.7985 0 0 0
1648 1 19.7835 23.3805 3.597 0 0 0
2867 1 8.9925 21.582 23.3805 0 0 0
514 1 32.373 26.9775 30.5745 0 0 0
1477 1 21.582 3.597 32.373 0 0 0
2602 1 10.791 1.7985 1.7985 0 0 0
3079 1 5.3955 3.597 34.1715 0 0 0
293 1 32.373 7.194 10.791 0 0 0
3075 1 5.3955 3.597 30.5745 0 0 0
2433 1 14.388 17.985 28.776 0 0 0
3956 1 0.0 26.9775 26.9775 0 0 0
2211 1 12.5895 0.0 8.9925 0 0 0
3972 1 0.0 30.5745 19.7835 0 0 0
3973 1 0.0 28.776 21.582 0 0 0
641 1 28.776 3.597 0.0 0 0 0
3034 1 7.194 1.7985 30.5745 0 0 0
1367 1 23.3805 32.373 5.3955 0 0 0
182 1 34.1715 34.1715 0.0 0 0 0
3974 1 0.0 30.5745 23.3805 0 0 0
2155 1 16.1865 28.776 30.5745 0 0 0
3525 1 3.597 10.791 3.597 0 0 0
1399 1 23.3805 32.373 34.1715 0 0 0
3252 1 5.3955 23.3805 7.194 0 0 0
3591 1 1.7985 14.388 26.9775 0 0 0
417 1 32.373 17.985 14.388 0 0 0
2124 1 16.1865 30.5745 0.0 0 0 0
2599 1 12.5895 32.373 34.1715 0 0 0
2074 1 17.985 23.3805 30.5745 0 0 0
350 2 32.373 12.5895 26.9775 0 0 0
2827 2 8.9925 17.985 23.3805 0 0 0
2200 2 16.1865 34.1715 32.373 0 0 0
2760 2 8.9925 12.5895 32.373 0 0 0
3085 2 7.194 7.194 3.597 0 0 0
3835 2 0.0 3.597 25.179 0 0 0
1664 2 19.7835 23.3805 17.985 0 0 0
3270 2 7.194 23.3805 26.9775 0 0 0
2547 2 12.5895 28.776 23.3805 0 0 0
2393 2 14.388 14.388 28.776 0 0 0
210 2 32.373 1.7985 8.9925 0 0 0
3769 2 3.597 32.373 7.194 0 0 0
1628 2 19.7835 19.7835 21.582 0 0 0
3609 2 3.597 17.985 7.194 0 0 0
3668 2 1.7985 23.3805 21.582 0 0 0
1008 2 23.3805 1.7985 3.597 0 0 0
3421 2 3.597 0.0 17.985 0 0 0
1953 2 17.985 10.791 28.776 0 0 0
1617 2 21.582 17.985 14.388 0 0 0
2594 2 14.388 34.1715 30.5745 0 0 0
3555 2 1.7985 10.791 30.5745 0 0 0
1657 2 21.582 21.582 14.388 0 0 0
3748 2 1.7985 30.5745 21.582 0 0 0
1342 2 25.179 30.5745 19.7835 0 0 0
1961 2 17.985 14.388 0.0 0 0 0
2551 2 12.5895 28.776 26.9775 0 0 0
201 2 32.373 0.0 0.0 0 0 0
3633 2 3.597 17.985 28.776 0 0 0
3094 2 7.194 8.9925 12.5895 0 0 0
2574 2 14.388 34.1715 12.5895 0 0 0
2899 2 8.9925 25.179 16.1865 0 0 0
2282 2 14.388 8.9925 1.7985 0 0 0
1440 2 19.7835 1.7985 32.373 0 0 0
770 2 28.776 16.1865 8.9925 0 0 0
1222 2 25.179 19.7835 19.7835 0 0 0
1717 2 21.582 25.179 32.373 0 0 0
2285 2 14.388 7.194 3.597 0 0 0
1214 2 25.179 19.7835 12.5895 0 0 0
2669 2 10.791 3.597 25.179 0 0 0
3456 2 1.7985 5.3955 10.791 0 0 0
2408 2 12.5895 19.7835 3.597 0 0 0
1552 2 19.7835 12.5895 25.179 0 0 0
2497 2 14.388 25.179 14.388 0 0 0
430 2 32.373 19.7835 26.9775 0 0 0
3497 2 3.597 7.194 14.388 0 0 0
3185 2 7.194 14.388 21.582 0 0 0
936 2 26.9775 30.5745 10.791 0 0 0
22 2 34.1715 5.3955 0.0 0 0 0
3059 2 5.3955 3.597 16.1865 0 0 0
3407 2 1.7985 0.0 5.3955 0 0 0
309 2 32.373 7.194 25.179 0 0 0
2773 2 10.791 14.388 10.791 0 0 0
1543 2 19.7835 10.791 19.7835 0 0 0
506 2 32.373 26.9775 23.3805 0 0 0
1194 2 25.179 16.1865 30.5745 0 0 0
2403 2 12.5895 17.985 1.7985 0 0 0
2047 2 16.1865 21.582 5.3955 0 0 0
685 2 28.776 7.194 3.597 0 0 0
1405 2 21.582 0.0 3.597 0 0 0
3599 2 1.7985 14.388 34.1715 0 0 0
3938 2 0.0 23.3805 30.5745 0 0 0
162 2 34.1715 30.5745 0.0 0 0 0
1661 2 21.582 21.582 17.985 0 0 0
2715 2 8.9925 7.194 30.5745 0 0 0
2080 2 16.1865 23.3805 32.373 0 0 0
2411 2 12.5895 17.985 8.9925 0 0 0
3071 2 5.3955 3.597 26.9775 0 0 0
2287 2 12.5895 7.194 5.3955 0 0 0
470 2 32.373 23.3805 26.9775 0 0 0
1125 2 25.179 10.791 3.597 0 0 0
2353 2 14.388 10.791 28.776 0 0 0
84 2 34.1715 16.1865 3.597 0 0 0
478 2 32.373 23.3805 34.1715 0 0 0
3652 2 1.7985 23.3805 7.194 0 0 0
1665 2 21.582 21.582 21.582 0 0 0
3420 2 1.7985 1.7985 14.388 0 0 0
1158 2 25.179 12.5895 34.1715 0 0 0
3662 2 3.597 23.3805 19.7835 0 0 0
65 2 34.1715 10.791 8.9925 0 0 0
1793 2 21.582 32.373 28.776 0 0 0
1627 2 19.7835 17.985 23.3805 0 0 0
3706 2 3.597 26.9775 23.3805 0 0 0
1733 2 21.582 28.776 10.791 0 0 0
179 2 34.1715 28.776 34.1715 0 0 0
489 2 32.373 25.179 7.194 0 0 0
115 2 34.1715 17.985 26.9775 0 0 0
1475 2 19.7835 3.597 30.5745 0 0 0
3189 2 7.194 14.388 25.179 0 0 0
3303 2 5.3955 25.179 19.7835 0 0 0
2387 2 12.5895 14.388 23.3805 0 0 0
2385 2 14.388 14.388 21.582 0 0 0
313 2 32.373 7.194 28.776 0 0 0
1011 2 23.3805 0.0 8.9925 0 0 0
1698 2 21.582 26.9775 16.1865 0 0 0
703 2 26.9775 7.194 19.7835 0 0 0
3405 2 3.597 0.0 3.597 0 0 0
2437 2 14.388 17.985 32.373 0 0 0
1842 2 17.985 5.3955 1.7985 0 0 0
3479 2 1.7985 3.597 34.1715 0 0 0
2004 2 16.1865 19.7835 0.0 0 0 0
2948 2 8.9925 30.5745 21.582 0 0 0
2280 2 12.5895 5.3955 32.373 0 0 0
2575 2 12.5895 32.373 12.5895 0 0 0
640 2 26.9775 1.7985 32.373 0 0 0
2523 2 12.5895 28.776 1.7985 0 0 0
2407 2 12.5895 17.985 5.3955 0 0 0
1084 2 23.3805 8.9925 0.0 0 0 0
663 2 26.9775 3.597 19.7835 0 0 0
902 2 28.776 26.9775 19.7835 0 0 0
3832 2 0.0 5.3955 19.7835 0 0 0
2116 2 16.1865 26.9775 28.776 0 0 0
3983 2 0.0 32.373 3.597 0 0 0
824 2 26.9775 19.7835 17.985 0 0 0
2560 2 12.5895 30.5745 32.373 0 0 0
466 2 32.373 23.3805 23.3805 0 0 0
1187 2 23.3805 14.388 23.3805 0 0 0
3768 2 1.7985 34.1715 3.597 0 0 0
1610 2 21.582 19.7835 8.9925 0 0 0
1380 2 23.3805 34.1715 14.388 0 0 0
1904 2 16.1865 8.9925 17.985 0 0 0
2167 2 16.1865 32.373 5.3955 0 0 0
2912 2 8.9925 26.9775 25.179 0 0 0
44 2 34.1715 8.9925 3.597 0 0 0
3052 2 5.3955 5.3955 7.194 0 0 0
3092 2 5.3955 8.9925 7.194 0 0 0
1139 2 23.3805 10.791 16.1865 0 0 0
1823 2 16.1865 0.0 19.7835 0 0 0
2496 2 12.5895 26.9775 10.791 0 0 0
319 2 30.5745 7.194 34.1715 0 0 0
1217 2 25.179 17.985 14.388 0 0 0
1385 2 25.179 32.373 21.582 0 0 0
2886 2 10.791 26.9775 5.3955 0 0 0
3636 2 1.7985 19.7835 28.776 0 0 0
3947 2 0.0 25.179 10.791 0 0 0
2278 2 14.388 5.3955 34.1715 0 0 0
732 2 26.9775 12.5895 7.194 0 0 0
1802 2 17.985 1.7985 1.7985 0 0 0
3757 2 3.597 28.776 32.373 0 0 0
3321 2 7.194 28.776 0.0 0 0 0
2625 2 10.791 0.0 21.582 0 0 0
1419 2 19.7835 0.0 16.1865 0 0 0
1037 2 25.179 0.0 32.373 0 0 0
2548 2 12.5895 30.5745 21.582 0 0 0
2960 2 8.9925 30.5745 32.373 0 0 0
3648 2 1.7985 23.3805 3.597 0 0 0
1891 2 16.1865 7.194 8.9925 0 0 0
2876 2 8.9925 23.3805 28.776 0 0 0
261 2 32.373 3.597 17.985 0 0 0
799 2 26.9775 14.388 34.1715 0 0 0
2199 2 16.1865 32.373 34.1715 0 0 0
1601 2 21.582 17.985 0.0 0 0 0
2927 2 8.9925 28.776 5.3955 0 0 0
3341 2 7.194 28.776 17.985 0 0 0
1765 2 21.582 32.373 3.597 0 0 0
345 2 32.373 10.791 21.582 0 0 0
3619 2 1.7985 17.985 16.1865 0 0 0
1282 2 25.179 26.9775 1.7985 0 0 0
3222 2 7.194 19.7835 19.7835 0 0 0
3866 2 0.0 12.5895 8.9925 0 0 0
742 2 28.776 12.5895 19.7835 0 0 0
1947 2 16.1865 10.791 23.3805 0 0 0
519 2 30.5745 25.179 34.1715 0 0 0
897 2 28.776 25.179 14.388 0 0 0
2180 2 16.1865 34.1715 14.388 0 0 0
2729 2 10.791 10.791 7.194 0 0 0
1804 2 16.1865 1.7985 0.0 0 0 0
2071 2 16.1865 21.582 26.9775 0 0 0
836 2 26.9775 19.7835 28.776 0 0 0
2225 2 14.388 0.0 21.582 0 0 0
1923 2 16.1865 10.791 1.7985 0 0 0
1430 2 21.582 1.7985 26.9775 0 0 0
1083 2 23.3805 7.194 1.7985 0 0 0
2970 2 10.791 34.1715 8.9925 0 0 0
367 2 30.5745 14.388 5.3955 0 0 0
3651 2 1.7985 21.582 8.9925 0 0 0
2322 2 14.388 12.5895 1.7985 0 0 0
2081 2 17.985 25.179 0.0 0 0 0
6 2 34.1715 1.7985 7.194 0 0 0
1567 2 19.7835 14.388 5.3955 0 0 0
3221 2 7.194 17.985 17.985 0 0 0
2845 2 10.791 21.582 3.597 0 0 0
2662 2 10.791 5.3955 19.7835 0 0 0
1057 2 25.179 3.597 14.388 0 0 0
679 2 26.9775 3.597 34.1715 0 0 0
1609 2 21.582 17.985 7.194 0 0 0
2032 2 16.1865 19.7835 25.179 0 0 0
1897 2 17.985 7.194 14.388 0 0 0
2320 2 12.5895 8.9925 32.373 0 0 0
2215 2 12.5895 0.0 12.5895 0 0 0
2331 2 12.5895 10.791 8.9925 0 0 0
137 2 34.1715 21.582 30.5745 0 0 0
28 2 34.1715 5.3955 10.791 0 0 0
1791 2 19.7835 32.373 26.9775 0 0 0
3761 2 3.597 32.373 0.0 0 0 0
1276 2 23.3805 23.3805 28.776 0 0 0
322 2 32.373 12.5895 1.7985 0 0 0
580 2 30.5745 34.1715 14.388 0 0 0
2228 2 12.5895 1.7985 21.582 0 0 0
1216 2 23.3805 19.7835 10.791 0 0 0
376 2 30.5745 16.1865 10.791 0 0 0
538 2 32.373 30.5745 16.1865 0 0 0
1294 2 25.179 26.9775 12.5895 0 0 0
1816 2 16.1865 1.7985 10.791 0 0 0
2304 2 12.5895 8.9925 17.985 0 0 0
3904 2 0.0 19.7835 5.3955 0 0 0
1871 2 16.1865 3.597 26.9775 0 0 0
1056 2 23.3805 5.3955 10.791 0 0 0
2005 2 17.985 17.985 3.597 0 0 0
2093 2 17.985 25.179 10.791 0 0 0
2701 2 10.791 7.194 17.985 0 0 0
1725 2 21.582 28.776 3.597 0 0 0
3385 2 7.194 32.373 21.582 0 0 0
1970 2 17.985 16.1865 8.9925 0 0 0
329 2 32.373 10.791 7.194 0 0 0
2050 2 17.985 23.3805 8.9925 0 0 0
170 2 34.1715 30.5745 14.388 0 0 0
51 2 34.1715 7.194 19.7835 0 0 0
3606 2 3.597 19.7835 5.3955 0 0 0
2234 2 14.388 1.7985 30.5745 0 0 0
3428 2 1.7985 1.7985 21.582 0 0 0
1414 2 21.582 1.7985 12.5895 0 0 0
2542 2 14.388 30.5745 19.7835 0 0 0
764 2 26.9775 16.1865 0.0 0 0 0
3403 2 1.7985 0.0 1.7985 0 0 0
3445 2 3.597 3.597 3.597 0 0 0
297 2 32.373 7.194 14.388 0 0 0
3930 2 0.0 23.3805 16.1865 0 0 0
1706 2 21.582 26.9775 23.3805 0 0 0
750 2 28.776 12.5895 26.9775 0 0 0
2057 2 17.985 21.582 14.388 0 0 0
908 2 26.9775 26.9775 21.582 0 0 0
2801 2 10.791 17.985 0.0 0 0 0
387 2 30.5745 14.388 23.3805 0 0 0
1881 2 17.985 7.194 0.0 0 0 0
1913 2 17.985 7.194 28.776 0 0 0
3878 2 0.0 12.5895 30.5745 0 0 0
562 2 32.373 34.1715 1.7985 0 0 0
2023 2 16.1865 17.985 19.7835 0 0 0
476 2 30.5745 23.3805 28.776 0 0 0
1447 2 19.7835 3.597 5.3955 0 0 0
2487 2 12.5895 25.179 5.3955 0 0 0
3556 2 1.7985 12.5895 28.776 0 0 0
3642 2 3.597 23.3805 1.7985 0 0 0
665 2 28.776 3.597 21.582 0 0 0
1359 2 23.3805 28.776 34.1715 0 0 0
1299 2 23.3805 25.179 16.1865 0 0 0
2170 2 17.985 34.1715 8.9925 0 0 0
581 2 32.373 32.373 17.985 0 0 0
3980 2 0.0 30.5745 34.1715 0 0 0
1394 2 25.179 34.1715 30.5745 0 0 0
2257 2 14.388 3.597 14.388 0 0 0
1233 2 25.179 17.985 28.776 0 0 0
343 2 30.5745 10.791 19.7835 0 0 0
3300 2 5.3955 26.9775 14.388 0 0 0
1070 2 25.179 5.3955 26.9775 0 0 0
2172 2 16.1865 34.1715 7.194 0 0 0
2593 2 14.388 32.373 28.776 0 0 0
399 2 30.5745 14.388 34.1715 0 0 0
731 2 26.9775 10.791 8.9925 0 0 0
3501 2 3.597 7.194 17.985 0 0 0
2059 2 16.1865 21.582 16.1865 0 0 0
2469 2 14.388 21.582 25.179 0 0 0
2967 2 8.9925 32.373 5.3955 0 0 0
2881 2 10.791 25.179 0.0 0 0 0
602 2 28.776 1.7985 1.7985 0 0 0
3675 2 1.7985 21.582 30.5745 0 0 0
3492 2 1.7985 8.9925 7.194 0 0 0
1198 2 25.179 16.1865 34.1715 0 0 0
864 2 26.9775 23.3805 17.985 0 0 0
3718 2 3.597 26.9775 34.1715 0 0 0
1780 2 19.7835 34.1715 14.388 0 0 0
2502 2 14.388 26.9775 19.7835 0 0 0
970 2 28.776 34.1715 8.9925 0 0 0
939 2 26.9775 28.776 16.1865 0 0 0
384 2 30.5745 16.1865 17.985 0 0 0
692 2 26.9775 8.9925 7.194 0 0 0
2248 2 12.5895 5.3955 3.597 0 0 0
1361 2 25.179 32.373 0.0 0 0 0
1466 2 21.582 5.3955 23.3805 0 0 0
1279 2 23.3805 21.582 34.1715 0 0 0
300 2 30.5745 8.9925 14.388 0 0 0
2638 2 10.791 1.7985 34.1715 0 0 0
3582 2 3.597 16.1865 19.7835 0 0 0
3286 2 7.194 26.9775 5.3955 0 0 0
3923 2 0.0 21.582 3.597 0 0 0
3927 2 0.0 21.582 10.791 0 0 0
3391 2 5.3955 32.373 26.9775 0 0 0
2389 2 14.388 14.388 25.179 0 0 0
2128 2 16.1865 30.5745 3.597 0 0 0
2424 2 12.5895 19.7835 17.985 0 0 0
615 2 26.9775 0.0 12.5895 0 0 0
958 2 28.776 30.5745 34.1715 0 0 0
2197 2 17.985 32.373 32.373 0 0 0
3965 2 0.0 28.776 7.194 0 0 0
2049 2 17.985 21.582 7.194 0 0 0
3978 2 0.0 30.5745 30.5745 0 0 0
308 2 30.5745 8.9925 21.582 0 0 0
3913 2 0.0 17.985 21.582 0 0 0
3811 2 0.0 0.0 17.985 0 0 0
3635 2 1.7985 17.985 30.5745 0 0 0
2577 2 14.388 32.373 14.388 0 0 0
1771 2 19.7835 32.373 8.9925 0 0 0
1480 2 19.7835 5.3955 32.373 0 0 0
3827 2 0.0 3.597 10.791 0 0 0
1180 2 23.3805 16.1865 14.388 0 0 0
1050 2 25.179 5.3955 8.9925 0 0 0
2120 2 16.1865 26.9775 32.373 0 0 0
2375 2 12.5895 14.388 12.5895 0 0 0
2042 2 17.985 23.3805 1.7985 0 0 0
446 2 32.373 23.3805 5.3955 0 0 0
2156 2 16.1865 30.5745 28.776 0 0 0
1777 2 21.582 32.373 14.388 0 0 0
29 2 34.1715 3.597 16.1865 0 0 0
2737 2 10.791 10.791 14.388 0 0 0
2520 2 12.5895 26.9775 32.373 0 0 0
868 2 26.9775 23.3805 21.582 0 0 0
2958 2 10.791 30.5745 34.1715 0 0 0
537 2 32.373 28.776 14.388 0 0 0
3129 2 7.194 10.791 7.194 0 0 0
3699 2 1.7985 25.179 16.1865 0 0 0
1814 2 17.985 1.7985 12.5895 0 0 0
3384 2 5.3955 34.1715 17.985 0 0 0
3335 2 5.3955 28.776 12.5895 0 0 0
2907 2 8.9925 25.179 23.3805 0 0 0
1841 2 17.985 3.597 0.0 0 0 0
113 2 34.1715 17.985 23.3805 0 0 0
1963 2 16.1865 14.388 1.7985 0 0 0
2598 2 14.388 34.1715 34.1715 0 0 0
3907 2 0.0 17.985 10.791 0 0 0
37 2 34.1715 3.597 30.5745 0 0 0
2129 2 17.985 28.776 7.194 0 0 0
3918 2 0.0 19.7835 30.5745 0 0 0
1584 2 19.7835 16.1865 17.985 0 0 0
2971 2 8.9925 32.373 8.9925 0 0 0
2807 2 8.9925 17.985 5.3955 0 0 0
2788 2 8.9925 16.1865 21.582 0 0 0
3828 2 0.0 5.3955 12.5895 0 0 0
1328 2 23.3805 30.5745 3.597 0 0 0
2931 2 8.9925 28.776 8.9925 0 0 0
200 2 34.1715 34.1715 32.373 0 0 0
1373 2 25.179 32.373 10.791 0 0 0
2914 2 10.791 26.9775 30.5745 0 0 0
3647 2 1.7985 21.582 5.3955 0 0 0
216 2 30.5745 1.7985 10.791 0 0 0
50 2 34.1715 8.9925 14.388 0 0 0
708 2 26.9775 8.9925 21.582 0 0 0
3461 2 3.597 3.597 17.985 0 0 0
3577 2 3.597 14.388 14.388 0 0 0
2058 2 17.985 23.3805 16.1865 0 0 0
837 2 28.776 17.985 32.373 0 0 0
1162 2 25.179 16.1865 1.7985 0 0 0
884 2 26.9775 26.9775 0.0 0 0 0
599 2 30.5745 32.373 34.1715 0 0 0
1171 2 23.3805 14.388 8.9925 0 0 0
485 2 32.373 25.179 3.597 0 0 0
948 2 26.9775 30.5745 21.582 0 0 0
2189 2 17.985 32.373 25.179 0 0 0
518 2 32.373 26.9775 34.1715 0 0 0
3593 2 3.597 14.388 28.776 0 0 0
2516 2 12.5895 26.9775 28.776 0 0 0
1962 2 17.985 16.1865 1.7985 0 0 0
3963 2 0.0 28.776 3.597 0 0 0
3244 2 5.3955 23.3805 0.0 0 0 0
3393 2 7.194 32.373 28.776 0 0 0
569 2 32.373 32.373 7.194 0 0 0
756 2 26.9775 12.5895 28.776 0 0 0
1748 2 19.7835 30.5745 21.582 0 0 0
3345 2 7.194 28.776 21.582 0 0 0
221 2 32.373 0.0 17.985 0 0 0
3946 2 0.0 26.9775 8.9925 0 0 0
555 2 30.5745 28.776 30.5745 0 0 0
3931 2 0.0 21.582 17.985 0 0 0
3680 2 1.7985 23.3805 32.373 0 0 0
969 2 28.776 32.373 7.194 0 0 0
2911 2 8.9925 25.179 26.9775 0 0 0
1735 2 19.7835 28.776 12.5895 0 0 0
3261 2 7.194 21.582 17.985 0 0 0
978 2 28.776 34.1715 16.1865 0 0 0
1534 2 21.582 12.5895 12.5895 0 0 0
947 3 26.9775 28.776 23.3805 0 0 0
1810 3 17.985 1.7985 8.9925 0 0 0
3004 3 5.3955 1.7985 0.0 0 0 0
900 3 26.9775 26.9775 14.388 0 0 0
2659 3 8.9925 3.597 16.1865 0 0 0
3953 3 0.0 25.179 21.582 0 0 0
211 3 30.5745 0.0 8.9925 0 0 0
1639 3 19.7835 17.985 34.1715 0 0 0
486 3 32.373 26.9775 5.3955 0 0 0
3596 3 1.7985 16.1865 28.776 0 0 0
3002 3 7.194 1.7985 1.7985 0 0 0
1472 3 19.7835 5.3955 25.179 0 0 0
3490 3 3.597 8.9925 8.9925 0 0 0
3344 3 5.3955 30.5745 17.985 0 0 0
1737 3 21.582 28.776 14.388 0 0 0
3080 3 5.3955 5.3955 32.373 0 0 0
2036 3 16.1865 19.7835 28.776 0 0 0
217 3 32.373 0.0 14.388 0 0 0
2043 3 16.1865 21.582 1.7985 0 0 0
3496 3 1.7985 8.9925 10.791 0 0 0
1374 3 25.179 34.1715 12.5895 0 0 0
169 3 34.1715 28.776 16.1865 0 0 0
1562 3 21.582 16.1865 1.7985 0 0 0
462 3 32.373 23.3805 19.7835 0 0 0
1522 3 21.582 12.5895 1.7985 0 0 0
414 3 32.373 19.7835 12.5895 0 0 0
1714 3 21.582 26.9775 30.5745 0 0 0
3990 3 0.0 34.1715 16.1865 0 0 0
2583 3 12.5895 32.373 19.7835 0 0 0
2173 3 17.985 32.373 10.791 0 0 0
1745 3 21.582 28.776 21.582 0 0 0
881 3 28.776 25.179 0.0 0 0 0
2194 3 17.985 34.1715 30.5745 0 0 0
3028 3 5.3955 1.7985 21.582 0 0 0
957 3 28.776 28.776 32.373 0 0 0
2377 3 14.388 14.388 14.388 0 0 0
3962 3 0.0 30.5745 1.7985 0 0 0
2039 3 16.1865 17.985 34.1715 0 0 0
228 3 30.5745 1.7985 21.582 0 0 0
1981 3 17.985 14.388 17.985 0 0 0
2513 3 14.388 25.179 28.776 0 0 0
673 3 28.776 3.597 28.776 0 0 0
1047 3 23.3805 3.597 5.3955 0 0 0
101 3 34.1715 17.985 1.7985 0 0 0
1098 3 25.179 8.9925 16.1865 0 0 0
3038 3 7.194 1.7985 34.1715 0 0 0
2142 3 17.985 30.5745 19.7835 0 0 0
1671 3 19.7835 21.582 26.9775 0 0 0
2874 3 10.791 23.3805 30.5745 0 0 0
86 3 34.1715 16.1865 7.194 0 0 0
2355 3 12.5895 10.791 30.5745 0 0 0
2535 3 12.5895 28.776 12.5895 0 0 0
3107 3 5.3955 7.194 23.3805 0 0 0
132 3 34.1715 23.3805 17.985 0 0 0
3203 3 5.3955 17.985 1.7985 0 0 0
2227 3 12.5895 0.0 23.3805 0 0 0
354 3 32.373 12.5895 30.5745 0 0 0
3572 3 1.7985 16.1865 7.194 0 0 0
288 3 30.5745 8.9925 3.597 0 0 0
3015 3 5.3955 0.0 12.5895 0 0 0
2668 3 8.9925 5.3955 21.582 0 0 0
1165 3 25.179 14.388 3.597 0 0 0
3430 3 3.597 1.7985 26.9775 0 0 0
2371 3 12.5895 14.388 8.9925 0 0 0
3285 3 7.194 25.179 3.597 0 0 0
2244 3 12.5895 5.3955 0.0 0 0 0
3260 3 5.3955 23.3805 14.388 0 0 0
1596 3 19.7835 16.1865 28.776 0 0 0
1857 3 17.985 3.597 14.388 0 0 0
1242 3 25.179 23.3805 1.7985 0 0 0
3901 3 0.0 17.985 0.0 0 0 0
1120 3 23.3805 8.9925 32.373 0 0 0
2957 3 10.791 28.776 32.373 0 0 0
727 3 26.9775 10.791 5.3955 0 0 0
3503 3 1.7985 7.194 19.7835 0 0 0
2053 3 17.985 21.582 10.791 0 0 0
1327 3 23.3805 28.776 5.3955 0 0 0
2783 3 8.9925 14.388 19.7835 0 0 0
3218 3 7.194 19.7835 16.1865 0 0 0
2673 3 10.791 3.597 28.776 0 0 0
2684 3 8.9925 8.9925 0.0 0 0 0
2127 3 16.1865 28.776 5.3955 0 0 0
589 3 32.373 32.373 25.179 0 0 0
212 3 30.5745 1.7985 7.194 0 0 0
326 3 32.373 12.5895 5.3955 0 0 0
1459 3 19.7835 3.597 16.1865 0 0 0
4000 3 0.0 34.1715 34.1715 0 0 0
633 3 28.776 0.0 28.776 0 0 0
2937 3 10.791 28.776 14.388 0 0 0
2665 3 10.791 3.597 21.582 0 0 0
2063 3 16.1865 21.582 19.7835 0 0 0
946 3 28.776 30.5745 23.3805 0 0 0
3113 3 7.194 7.194 28.776 0 0 0
2450 3 14.388 23.3805 8.9925 0 0 0
853 3 28.776 21.582 10.791 0 0 0
3436 3 1.7985 1.7985 28.776 0 0 0
3210 3 7.194 19.7835 8.9925 0 0 0
3793 3 3.597 32.373 28.776 0 0 0
1831 3 16.1865 0.0 26.9775 0 0 0
548 3 30.5745 30.5745 21.582 0 0 0
528 3 30.5745 30.5745 3.597 0 0 0
1108 3 23.3805 8.9925 21.582 0 0 0
2991 3 8.9925 32.373 26.9775 0 0 0
2716 3 8.9925 8.9925 28.776 0 0 0
112 3 34.1715 19.7835 17.985 0 0 0
1749 3 21.582 28.776 25.179 0 0 0
3138 3 7.194 12.5895 16.1865 0 0 0
1020 3 23.3805 1.7985 14.388 0 0 0
1792 3 19.7835 34.1715 25.179 0 0 0
3354 3 7.194 30.5745 30.5745 0 0 0
2216 3 12.5895 1.7985 10.791 0 0 0
206 3 32.373 1.7985 5.3955 0 0 0
542 3 32.373 30.5745 19.7835 0 0 0
2238 3 14.388 1.7985 34.1715 0 0 0
1257 3 25.179 21.582 14.388 0 0 0
3441 3 3.597 3.597 0.0 0 0 0
361 3 32.373 14.388 0.0 0 0 0
922 3 28.776 30.5745 1.7985 0 0 0
287 3 30.5745 7.194 5.3955 0 0 0
2483 3 12.5895 25.179 1.7985 0 0 0
1709 3 21.582 25.179 25.179 0 0 0
1645 3 21.582 21.582 3.597 0 0 0
3045 3 7.194 3.597 3.597 0 0 0
822 3 28.776 19.7835 19.7835 0 0 0
1052 3 23.3805 5.3955 7.194 0 0 0
2151 3 16.1865 28.776 26.9775 0 0 0
3710 3 3.597 26.9775 26.9775 0 0 0
3724 3 1.7985 30.5745 0.0 0 0 0
576 3 30.5745 34.1715 10.791 0 0 0
2268 3 12.5895 5.3955 21.582 0 0 0
1560 3 19.7835 12.5895 32.373 0 0 0
17 3 34.1715 0.0 30.5745 0 0 0
1495 3 19.7835 7.194 12.5895 0 0 0
511 3 30.5745 25.179 26.9775 0 0 0
2108 3 16.1865 26.9775 21.582 0 0 0
2415 3 12.5895 17.985 12.5895 0 0 0
999 3 26.9775 32.373 34.1715 0 0 0
3164 3 5.3955 16.1865 0.0 0 0 0
2829 3 10.791 17.985 25.179 0 0 0
3054 3 7.194 5.3955 12.5895 0 0 0
2820 3 8.9925 19.7835 14.388 0 0 0
3764 3 1.7985 34.1715 0.0 0 0 0
145 3 34.1715 25.179 8.9925 0 0 0
707 3 26.9775 7.194 23.3805 0 0 0
2834 3 10.791 19.7835 30.5745 0 0 0
3224 3 5.3955 19.7835 17.985 0 0 0
2247 3 12.5895 3.597 5.3955 0 0 0
2906 3 10.791 26.9775 23.3805 0 0 0
1091 3 23.3805 7.194 8.9925 0 0 0
3617 3 3.597 17.985 14.388 0 0 0
2109 3 17.985 25.179 25.179 0 0 0
2152 3 16.1865 30.5745 25.179 0 0 0
3584 3 1.7985 16.1865 17.985 0 0 0
2253 3 14.388 3.597 10.791 0 0 0
1782 3 21.582 34.1715 19.7835 0 0 0
1337 3 25.179 28.776 14.388 0 0 0
1258 3 25.179 23.3805 16.1865 0 0 0
1787 3 19.7835 32.373 23.3805 0 0 0
81 3 34.1715 14.388 1.7985 0 0 0
2286 3 14.388 8.9925 5.3955 0 0 0
289 3 32.373 7.194 7.194 0 0 0
3122 3 7.194 12.5895 1.7985 0 0 0
3066 3 7.194 5.3955 23.3805 0 0 0
3643 3 1.7985 21.582 1.7985 0 0 0
606 3 28.776 1.7985 5.3955 0 0 0
175 3 34.1715 28.776 26.9775 0 0 0
1910 3 17.985 8.9925 26.9775 0 0 0
1269 3 25.179 21.582 25.179 0 0 0
2685 3 10.791 7.194 3.597 0 0 0
585 3 32.373 32.373 21.582 0 0 0
1331 3 23.3805 28.776 8.9925 0 0 0
3211 3 5.3955 17.985 8.9925 0 0 0
3725 3 3.597 28.776 3.597 0 0 0
1092 3 23.3805 8.9925 7.194 0 0 0
2337 3 14.388 10.791 14.388 0 0 0
1268 3 23.3805 23.3805 21.582 0 0 0
2605 3 10.791 0.0 3.597 0 0 0
646 3 28.776 5.3955 5.3955 0 0 0
180 3 34.1715 30.5745 32.373 0 0 0
744 3 26.9775 12.5895 17.985 0 0 0
1960 3 16.1865 12.5895 32.373 0 0 0
1363 3 23.3805 32.373 1.7985 0 0 0
1388 3 23.3805 34.1715 21.582 0 0 0
831 3 26.9775 17.985 26.9775 0 0 0
1455 3 19.7835 3.597 12.5895 0 0 0
1801 3 17.985 0.0 0.0 0 0 0
3159 3 5.3955 10.791 34.1715 0 0 0
2208 3 12.5895 1.7985 3.597 0 0 0
686 3 28.776 8.9925 5.3955 0 0 0
649 3 28.776 3.597 7.194 0 0 0
3731 3 1.7985 28.776 8.9925 0 0 0
3683 3 1.7985 25.179 1.7985 0 0 0
1188 3 23.3805 16.1865 21.582 0 0 0
512 3 30.5745 26.9775 25.179 0 0 0
2913 3 10.791 25.179 28.776 0 0 0
3704 3 1.7985 26.9775 17.985 0 0 0
859 3 26.9775 21.582 16.1865 0 0 0
160 3 34.1715 26.9775 32.373 0 0 0
277 3 32.373 3.597 32.373 0 0 0
869 3 28.776 21.582 25.179 0 0 0
328 3 30.5745 12.5895 3.597 0 0 0
3986 3 0.0 34.1715 8.9925 0 0 0
3996 3 0.0 34.1715 26.9775 0 0 0
3560 3 1.7985 12.5895 32.373 0 0 0
3512 3 1.7985 8.9925 25.179 0 0 0
1460 3 19.7835 5.3955 14.388 0 0 0
2732 3 8.9925 12.5895 7.194 0 0 0
696 3 26.9775 8.9925 10.791 0 0 0
3476 3 1.7985 5.3955 28.776 0 0 0
648 3 26.9775 5.3955 3.597 0 0 0
2458 3 14.388 23.3805 16.1865 0 0 0
1012 3 23.3805 1.7985 7.194 0 0 0
2073 3 17.985 21.582 28.776 0 0 0
3108 3 5.3955 8.9925 21.582 0 0 0
888 3 26.9775 26.9775 3.597 0 0 0
1595 3 19.7835 14.388 30.5745 0 0 0
914 3 28.776 26.9775 30.5745 0 0 0
2805 3 10.791 17.985 3.597 0 0 0
3944 3 0.0 26.9775 5.3955 0 0 0
3402 3 3.597 1.7985 1.7985 0 0 0
1416 3 19.7835 1.7985 10.791 0 0 0
745 3 28.776 10.791 21.582 0 0 0
3498 3 3.597 8.9925 16.1865 0 0 0
431 3 30.5745 17.985 26.9775 0 0 0
3702 3 3.597 26.9775 19.7835 0 0 0
3006 3 7.194 1.7985 5.3955 0 0 0
3746 3 3.597 30.5745 23.3805 0 0 0
2185 3 17.985 32.373 21.582 0 0 0
1015 3 23.3805 0.0 12.5895 0 0 0
531 3 30.5745 28.776 8.9925 0 0 0
142 3 34.1715 26.9775 0.0 0 0 0
102 3 34.1715 19.7835 0.0 0 0 0
3082 3 7.194 8.9925 1.7985 0 0 0
3910 3 0.0 19.7835 16.1865 0 0 0
1396 3 23.3805 34.1715 28.776 0 0 0
1702 3 21.582 26.9775 19.7835 0 0 0
1324 3 23.3805 30.5745 0.0 0 0 0
913 3 28.776 25.179 28.776 0 0 0
1456 3 19.7835 5.3955 10.791 0 0 0
3415 3 1.7985 0.0 12.5895 0 0 0
79 3 34.1715 10.791 34.1715 0 0 0
2078 3 17.985 23.3805 34.1715 0 0 0
1900 3 16.1865 8.9925 14.388 0 0 0
3450 3 3.597 5.3955 8.9925 0 0 0
205 3 32.373 0.0 3.597 0 0 0
825 3 28.776 17.985 21.582 0 0 0
3412 3 1.7985 1.7985 7.194 0 0 0
3029 3 7.194 0.0 25.179 0 0 0
3400 3 5.3955 34.1715 32.373 0 0 0
740 3 26.9775 12.5895 14.388 0 0 0
2682 3 10.791 8.9925 1.7985 0 0 0
3644 3 1.7985 23.3805 0.0 0 0 0
1267 3 23.3805 21.582 23.3805 0 0 0
1452 3 19.7835 5.3955 7.194 0 0 0
3758 3 3.597 30.5745 34.1715 0 0 0
1215 3 23.3805 17.985 12.5895 0 0 0
1799 3 19.7835 32.373 34.1715 0 0 0
795 3 26.9775 14.388 30.5745 0 0 0
3964 3 0.0 30.5745 5.3955 0 0 0
3790 3 3.597 34.1715 26.9775 0 0 0
2952 3 8.9925 30.5745 25.179 0 0 0
2396 3 12.5895 16.1865 28.776 0 0 0
1763 3 19.7835 32.373 1.7985 0 0 0
2741 3 10.791 10.791 17.985 0 0 0
2601 3 10.791 0.0 0.0 0 0 0
3545 3 3.597 10.791 21.582 0 0 0
2658 3 10.791 5.3955 16.1865 0 0 0
826 3 28.776 19.7835 23.3805 0 0 0
2789 3 10.791 14.388 25.179 0 0 0
2698 3 10.791 8.9925 16.1865 0 0 0
1920 3 16.1865 8.9925 32.373 0 0 0
2419 3 12.5895 17.985 16.1865 0 0 0
2132 3 16.1865 30.5745 7.194 0 0 0
1516 3 19.7835 8.9925 28.776 0 0 0
225 3 32.373 0.0 21.582 0 0 0
3830 3 0.0 5.3955 16.1865 0 0 0
1207 3 23.3805 17.985 5.3955 0 0 0
2777 3 10.791 14.388 14.388 0 0 0
2959 3 8.9925 28.776 34.1715 0 0 0
1949 3 17.985 10.791 25.179 0 0 0
1572 3 19.7835 16.1865 7.194 0 0 0
3708 3 1.7985 26.9775 21.582 0 0 0
2614 3 10.791 1.7985 12.5895 0 0 0
2620 3 8.9925 1.7985 14.388 0 0 0
2623 3 8.9925 0.0 19.7835 0 0 0
1679 3 19.7835 21.582 34.1715 0 0 0
1508 3 19.7835 8.9925 21.582 0 0 0
2724 3 8.9925 12.5895 0.0 0 0 0
2651 3 8.9925 3.597 8.9925 0 0 0
3462 3 3.597 5.3955 19.7835 0 0 0
2572 3 12.5895 34.1715 7.194 0 0 0
2388 3 12.5895 16.1865 21.582 0 0 0
717 3 28.776 7.194 32.373 0 0 0
3439 3 1.7985 0.0 34.1715 0 0 0
3616 3 1.7985 19.7835 10.791 0 0 0
899 3 26.9775 25.179 16.1865 0 0 0
3569 3 3.597 14.388 7.194 0 0 0
2747 3 8.9925 10.791 23.3805 0 0 0
2712 3 8.9925 8.9925 25.179 0 0 0
1055 3 23.3805 3.597 12.5895 0 0 0
1390 3 25.179 34.1715 26.9775 0 0 0
3265 3 7.194 21.582 21.582 0 0 0
1137 3 25.179 10.791 14.388 0 0 0
3095 3 5.3955 7.194 12.5895 0 0 0
1271 3 23.3805 21.582 26.9775 0 0 0
3894 3 0.0 16.1865 23.3805 0 0 0
838 3 28.776 19.7835 34.1715 0 0 0
434 3 32.373 19.7835 30.5745 0 0 0
1821 3 17.985 0.0 17.985 0 0 0
450 3 32.373 23.3805 8.9925 0 0 0
1731 3 19.7835 28.776 8.9925 0 0 0
1546 3 21.582 12.5895 23.3805 0 0 0
1925 3 17.985 10.791 3.597 0 0 0
3753 3 3.597 28.776 28.776 0 0 0
1320 3 23.3805 26.9775 32.373 0 0 0
3879 3 0.0 10.791 32.373 0 0 0
3576 3 1.7985 16.1865 10.791 0 0 0
1734 3 21.582 30.5745 12.5895 0 0 0
327 3 30.5745 10.791 5.3955 0 0 0
2397 3 14.388 14.388 32.373 0 0 0
2075 3 16.1865 21.582 30.5745 0 0 0
1611 3 19.7835 17.985 8.9925 0 0 0
498 3 32.373 26.9775 16.1865 0 0 0
3482 3 3.597 8.9925 1.7985 0 0 0
2357 3 14.388 10.791 32.373 0 0 0
3673 3 3.597 21.582 28.776 0 0 0
2150 3 17.985 30.5745 26.9775 0 0 0
227 3 30.5745 0.0 23.3805 0 0 0
3988 3 0.0 34.1715 12.5895 0 0 0
301 3 32.373 7.194 17.985 0 0 0
3324 3 5.3955 30.5745 0.0 0 0 0
166 3 34.1715 30.5745 7.194 0 0 0
2070 3 17.985 23.3805 26.9775 0 0 0
1775 3 19.7835 32.373 12.5895 0 0 0
1485 3 21.582 7.194 3.597 0 0 0
2531 3 12.5895 28.776 8.9925 0 0 0
1927 3 16.1865 10.791 5.3955 0 0 0
595 3 30.5745 32.373 30.5745 0 0 0
2217 3 14.388 0.0 14.388 0 0 0
1157 3 25.179 10.791 32.373 0 0 0
2 3 34.1715 1.7985 0.0 0 0 0
3259 3 5.3955 21.582 16.1865 0 0 0
460 3 30.5745 23.3805 14.388 0 0 0
1631 3 19.7835 17.985 26.9775 0 0 0
427 3 30.5745 17.985 23.3805 0 0 0
2374 3 14.388 16.1865 12.5895 0 0 0
48 3 34.1715 8.9925 10.791 0 0 0
3863 3 0.0 10.791 3.597 0 0 0
670 3 28.776 5.3955 26.9775 0 0 0
129 3 34.1715 21.582 16.1865 0 0 0
3882 3 0.0 16.1865 1.7985 0 0 0
650 3 28.776 5.3955 8.9925 0 0 0
407 3 30.5745 17.985 5.3955 0 0 0
1066 3 25.179 5.3955 23.3805 0 0 0
1605 3 21.582 17.985 3.597 0 0 0
3937 3 0.0 21.582 28.776 0 0 0
1326 3 25.179 30.5745 5.3955 0 0 0
2846 3 10.791 23.3805 5.3955 0 0 0
3305 3 7.194 25.179 21.582 0 0 0
1042 3 25.179 5.3955 1.7985 0 0 0
1557 3 21.582 10.791 32.373 0 0 0
3949 3 0.0 25.179 14.388 0 0 0
3169 3 7.194 14.388 7.194 0 0 0
614 3 28.776 1.7985 12.5895 0 0 0
2162 3 17.985 34.1715 1.7985 0 0 0
1383 3 23.3805 32.373 19.7835 0 0 0
2164 3 16.1865 34.1715 0.0 0 0 0
2264 3 12.5895 5.3955 17.985 0 0 0
2624 3 8.9925 1.7985 17.985 0 0 0
3340 3 5.3955 30.5745 14.388 0 0 0
1336 3 23.3805 30.5745 10.791 0 0 0
3419 3 1.7985 0.0 16.1865 0 0 0
2504 3 12.5895 26.9775 17.985 0 0 0
2141 3 17.985 28.776 17.985 0 0 0
1776 3 19.7835 34.1715 10.791 0 0 0
3691 3 1.7985 25.179 8.9925 0 0 0
53 3 34.1715 7.194 23.3805 0 0 0
3242 3 7.194 23.3805 1.7985 0 0 0
2784 3 8.9925 16.1865 17.985 0 0 0
1972 3 16.1865 16.1865 7.194 0 0 0
1049 3 25.179 3.597 7.194 0 0 0
3197 3 7.194 14.388 32.373 0 0 0
788 3 26.9775 16.1865 21.582 0 0 0
3333 3 7.194 28.776 10.791 0 0 0
1743 3 19.7835 28.776 19.7835 0 0 0
3093 3 7.194 7.194 10.791 0 0 0
1738 3 21.582 30.5745 16.1865 0 0 0
719 3 26.9775 7.194 34.1715 0 0 0
1997 3 17.985 14.388 32.373 0 0 0
2224 3 12.5895 1.7985 17.985 0 0 0
882 3 28.776 26.9775 1.7985 0 0 0
1244 3 23.3805 23.3805 0.0 0 0 0
2930 3 10.791 30.5745 8.9925 0 0 0
2964 3 8.9925 34.1715 0.0 0 0 0
558 3 32.373 30.5745 34.1715 0 0 0
3339 3 5.3955 28.776 16.1865 0 0 0
187 3 34.1715 32.373 12.5895 0 0 0
2610 3 10.791 1.7985 8.9925 0 0 0
2576 3 12.5895 34.1715 10.791 0 0 0
2955 3 8.9925 28.776 30.5745 0 0 0
1958 3 17.985 12.5895 34.1715 0 0 0
2822 3 10.791 19.7835 19.7835 0 0 0
1292 3 23.3805 26.9775 7.194 0 0 0
3 3 34.1715 0.0 5.3955 0 0 0
885 3 28.776 25.179 3.597 0 0 0
3810 3 0.0 1.7985 16.1865 0 0 0
3958 3 0.0 26.9775 30.5745 0 0 0
246 3 32.373 5.3955 5.3955 0 0 0
516 3 30.5745 26.9775 28.776 0 0 0
3797 3 3.597 32.373 32.373 0 0 0
2342 3 14.388 12.5895 19.7835 0 0 0
2588 3 12.5895 34.1715 21.582 0 0 0
689 3 28.776 7.194 7.194 0 0 0
2568 3 12.5895 34.1715 3.597 0 0 0
3563 3 1.7985 14.388 1.7985 0 0 0
1493 3 21.582 7.194 10.791 0 0 0
1662 3 21.582 23.3805 19.7835 0 0 0
3620 3 1.7985 19.7835 14.388 0 0 0
1045 3 25.179 3.597 3.597 0 0 0
3548 3 1.7985 12.5895 21.582 0 0 0
2021 3 17.985 17.985 17.985 0 0 0
2892 3 8.9925 26.9775 7.194 0 0 0
2890 3 10.791 26.9775 8.9925 0 0 0
1030 3 25.179 1.7985 26.9775 0 0 0
3168 3 5.3955 16.1865 3.597 0 0 0
3580 3 1.7985 16.1865 14.388 0 0 0
2110 3 17.985 26.9775 26.9775 0 0 0
3418 3 3.597 1.7985 16.1865 0 0 0
1692 3 19.7835 26.9775 7.194 0 0 0
2979 3 8.9925 32.373 16.1865 0 0 0
2166 3 17.985 34.1715 5.3955 0 0 0
2175 3 16.1865 32.373 12.5895 0 0 0
2527 3 12.5895 28.776 5.3955 0 0 0
534 3 32.373 30.5745 12.5895 0 0 0
535 3 30.5745 28.776 12.5895 0 0 0
3148 3 5.3955 12.5895 21.582 0 0 0
163 3 34.1715 28.776 5.3955 0 0 0
1715 3 19.7835 25.179 30.5745 0 0 0
1086 3 25.179 8.9925 5.3955 0 0 0
1790 3 21.582 34.1715 26.9775 0 0 0
3336 3 5.3955 30.5745 10.791 0 0 0
3661 3 3.597 21.582 17.985 0 0 0
1053 3 25.179 3.597 10.791 0 0 0
2505 3 14.388 25.179 21.582 0 0 0
577 3 32.373 32.373 14.388 0 0 0
775 3 26.9775 14.388 12.5895 0 0 0
233 3 32.373 0.0 28.776 0 0 0
664 3 26.9775 5.3955 17.985 0 0 0
1107 3 23.3805 7.194 23.3805 0 0 0
3089 3 7.194 7.194 7.194 0 0 0
1150 3 25.179 12.5895 26.9775 0 0 0
933 3 28.776 28.776 10.791 0 0 0
1687 3 19.7835 25.179 5.3955 0 0 0
2382 3 14.388 16.1865 19.7835 0 0 0
2800 3 8.9925 16.1865 32.373 0 0 0
320 3 30.5745 8.9925 32.373 0 0 0
2441 3 14.388 21.582 0.0 0 0 0
1296 3 23.3805 26.9775 10.791 0 0 0
3011 3 5.3955 0.0 8.9925 0 0 0
2617 3 10.791 0.0 14.388 0 0 0
539 3 30.5745 28.776 16.1865 0 0 0
565 3 32.373 32.373 3.597 0 0 0
3256 3 5.3955 23.3805 10.791 0 0 0
2001 3 17.985 17.985 0.0 0 0 0
2779 3 8.9925 14.388 16.1865 0 0 0
1917 3 17.985 7.194 32.373 0 0 0
3666 3 3.597 23.3805 23.3805 0 0 0
1591 3 19.7835 14.388 26.9775 0 0 0
3884 3 0.0 16.1865 5.3955 0 0 0
453 3 32.373 21.582 10.791 0 0 0
3917 3 0.0 17.985 28.776 0 0 0
3588 3 1.7985 16.1865 21.582 0 0 0
2414 3 14.388 19.7835 12.5895 0 0 0
1151 3 23.3805 10.791 26.9775 0 0 0
541 3 32.373 28.776 17.985 0 0 0
3459 3 1.7985 3.597 16.1865 0 0 0
2718 3 10.791 8.9925 34.1715 0 0 0
382 3 32.373 16.1865 19.7835 0 0 0
3505 3 3.597 7.194 21.582 0 0 0
693 3 28.776 7.194 10.791 0 0 0
2671 3 8.9925 3.597 26.9775 0 0 0
1181 3 25.179 14.388 17.985 0 0 0
2889 3 10.791 25.179 7.194 0 0 0
2125 3 17.985 28.776 3.597 0 0 0
1889 3 17.985 7.194 7.194 0 0 0
2691 3 8.9925 7.194 8.9925 0 0 0
2246 3 14.388 5.3955 5.3955 0 0 0
3628 3 1.7985 19.7835 21.582 0 0 0
857 3 28.776 21.582 14.388 0 0 0
473 3 32.373 21.582 28.776 0 0 0
3030 3 7.194 1.7985 26.9775 0 0 0
3779 3 1.7985 32.373 16.1865 0 0 0
769 3 28.776 14.388 7.194 0 0 0
2544 3 12.5895 30.5745 17.985 0 0 0
3117 3 7.194 7.194 32.373 0 0 0
988 3 26.9775 34.1715 21.582 0 0 0
359 3 30.5745 10.791 34.1715 0 0 0
735 3 26.9775 10.791 12.5895 0 0 0
95 3 34.1715 14.388 26.9775 0 0 0
1298 3 25.179 26.9775 16.1865 0 0 0
2310 3 14.388 8.9925 26.9775 0 0 0
2439 3 12.5895 17.985 34.1715 0 0 0
2083 3 16.1865 25.179 1.7985 0 0 0
1311 3 23.3805 25.179 26.9775 0 0 0
3688 3 1.7985 26.9775 3.597 0 0 0
3470 3 3.597 5.3955 26.9775 0 0 0
3610 3 3.597 19.7835 8.9925 0 0 0
2428 3 12.5895 19.7835 21.582 0 0 0
780 3 26.9775 16.1865 14.388 0 0 0
3777 3 3.597 32.373 14.388 0 0 0
389 3 32.373 14.388 25.179 0 0 0
3530 3 3.597 12.5895 8.9925 0 0 0
91 3 34.1715 14.388 19.7835 0 0 0
2112 3 16.1865 26.9775 25.179 0 0 0
3554 3 3.597 12.5895 30.5745 0 0 0
1971 3 16.1865 14.388 8.9925 0 0 0
3723 3 1.7985 28.776 1.7985 0 0 0
1710 3 21.582 26.9775 26.9775 0 0 0
964 3 26.9775 34.1715 0.0 0 0 0
1836 3 16.1865 1.7985 28.776 0 0 0
1940 3 16.1865 12.5895 14.388 0 0 0
226 3 32.373 1.7985 23.3805 0 0 0
1553 3 21.582 10.791 28.776 0 0 0
440 3 30.5745 19.7835 32.373 0 0 0
3143 3 5.3955 10.791 19.7835 0 0 0
2746 3 10.791 12.5895 23.3805 0 0 0
784 3 26.9775 16.1865 17.985 0 0 0
1255 3 23.3805 21.582 12.5895 0 0 0
832 3 26.9775 19.7835 25.179 0 0 0
905 3 28.776 25.179 21.582 0 0 0
2557 3 14.388 28.776 32.373 0 0 0
1894 3 17.985 8.9925 12.5895 0 0 0
1903 3 16.1865 7.194 19.7835 0 0 0
1124 3 23.3805 12.5895 0.0 0 0 0
3327 3 5.3955 28.776 5.3955 0 0 0
2218 3 14.388 1.7985 16.1865 0 0 0
3431 3 1.7985 0.0 26.9775 0 0 0
1686 3 21.582 26.9775 5.3955 0 0 0
523 3 30.5745 28.776 1.7985 0 0 0
2122 3 17.985 30.5745 1.7985 0 0 0
504 3 30.5745 26.9775 17.985 0 0 0
2013 3 17.985 17.985 10.791 0 0 0
636 3 26.9775 1.7985 28.776 0 0 0
2056 3 16.1865 23.3805 10.791 0 0 0
1355 3 23.3805 28.776 30.5745 0 0 0
3860 3 0.0 8.9925 34.1715 0 0 0
3540 3 1.7985 12.5895 14.388 0 0 0
2011 3 16.1865 17.985 8.9925 0 0 0
920 3 26.9775 26.9775 32.373 0 0 0
1576 3 19.7835 16.1865 10.791 0 0 0
1304 3 23.3805 26.9775 17.985 0 0 0
167 3 34.1715 28.776 12.5895 0 0 0
1582 3 21.582 16.1865 19.7835 0 0 0
533 3 32.373 28.776 10.791 0 0 0
1356 3 23.3805 30.5745 28.776 0 0 0
2176 3 16.1865 34.1715 10.791 0 0 0
1699 3 19.7835 25.179 16.1865 0 0 0
3987 3 0.0 32.373 10.791 0 0 0
2925 3 10.791 28.776 3.597 0 0 0
458 3 32.373 23.3805 16.1865 0 0 0
2926 3 10.791 30.5745 5.3955 0 0 0
472 3 30.5745 23.3805 25.179 0 0 0
2259 3 12.5895 3.597 16.1865 0 0 0
2508 3 12.5895 26.9775 21.582 0 0 0
1497 3 21.582 7.194 14.388 0 0 0
266 3 32.373 5.3955 23.3805 0 0 0
567 3 30.5745 32.373 5.3955 0 0 0
314 3 32.373 8.9925 30.5745 0 0 0
1870 3 17.985 5.3955 26.9775 0 0 0
2775 3 8.9925 14.388 12.5895 0 0 0
1982 3 17.985 16.1865 19.7835 0 0 0
2213 3 14.388 0.0 10.791 0 0 0
2842 3 10.791 23.3805 1.7985 0 0 0
186 3 34.1715 34.1715 7.194 0 0 0
144 3 34.1715 26.9775 3.597 0 0 0
3550 3 3.597 12.5895 26.9775 0 0 0
1067 3 23.3805 3.597 23.3805 0 0 0
3855 3 0.0 7.194 25.179 0 0 0
773 3 28.776 14.388 10.791 0 0 0
1829 3 17.985 0.0 25.179 0 0 0
2137 3 17.985 28.776 14.388 0 0 0
3527 3 1.7985 10.791 5.3955 0 0 0
3048 3 5.3955 5.3955 3.597 0 0 0
2626 3 10.791 1.7985 23.3805 0 0 0
1527 3 19.7835 10.791 5.3955 0 0 0
1724 3 19.7835 30.5745 0.0 0 0 0
2367 3 12.5895 14.388 5.3955 0 0 0
3466 3 3.597 5.3955 23.3805 0 0 0
2795 3 8.9925 14.388 30.5745 0 0 0
194 3 34.1715 34.1715 21.582 0 0 0
1348 3 23.3805 30.5745 21.582 0 0 0
3821 3 0.0 3.597 0.0 0 0 0
3330 3 7.194 30.5745 8.9925 0 0 0
932 3 26.9775 30.5745 7.194 0 0 0
2863 3 8.9925 21.582 19.7835 0 0 0
3535 3 1.7985 10.791 12.5895 0 0 0
3429 3 3.597 0.0 25.179 0 0 0
2875 3 8.9925 21.582 30.5745 0 0 0
3955 3 0.0 25.179 25.179 0 0 0
2738 3 10.791 12.5895 16.1865 0 0 0
1206 3 25.179 19.7835 5.3955 0 0 0
3712 3 1.7985 26.9775 25.179 0 0 0
734 3 28.776 12.5895 12.5895 0 0 0
3158 3 7.194 12.5895 34.1715 0 0 0
3156 3 5.3955 12.5895 28.776 0 0 0
1095 3 23.3805 7.194 12.5895 0 0 0
1968 3 16.1865 16.1865 3.597 0 0 0
643 3 26.9775 3.597 1.7985 0 0 0
2121 3 17.985 28.776 0.0 0 0 0
2455 3 12.5895 21.582 12.5895 0 0 0
1338 3 25.179 30.5745 16.1865 0 0 0
1890 3 17.985 8.9925 8.9925 0 0 0
136 3 34.1715 23.3805 25.179 0 0 0
3183 3 5.3955 14.388 19.7835 0 0 0
2798 3 10.791 16.1865 34.1715 0 0 0
3502 3 3.597 8.9925 19.7835 0 0 0
1422 3 21.582 1.7985 19.7835 0 0 0
604 3 26.9775 1.7985 0.0 0 0 0
1062 3 25.179 5.3955 19.7835 0 0 0
3231 3 5.3955 17.985 26.9775 0 0 0
1353 3 25.179 28.776 28.776 0 0 0
2364 3 12.5895 16.1865 0.0 0 0 0
2453 3 14.388 21.582 10.791 0 0 0
416 3 30.5745 19.7835 10.791 0 0 0
362 3 32.373 16.1865 1.7985 0 0 0
1344 3 23.3805 30.5745 17.985 0 0 0
1624 3 19.7835 19.7835 17.985 0 0 0
617 3 28.776 0.0 14.388 0 0 0
1005 3 25.179 0.0 3.597 0 0 0
2440 3 12.5895 19.7835 32.373 0 0 0
856 3 26.9775 23.3805 10.791 0 0 0
2401 3 14.388 17.985 0.0 0 0 0
2438 3 14.388 19.7835 34.1715 0 0 0
57 3 34.1715 7.194 30.5745 0 0 0
2190 3 17.985 34.1715 26.9775 0 0 0
804 3 26.9775 19.7835 0.0 0 0 0
358 3 32.373 12.5895 34.1715 0 0 0
3846 3 0.0 8.9925 8.9925 0 0 0
1742 3 21.582 30.5745 19.7835 0 0 0
3506 3 3.597 8.9925 23.3805 0 0 0
1805 3 17.985 0.0 3.597 0 0 0
1862 3 17.985 5.3955 19.7835 0 0 0
3841 3 0.0 7.194 0.0 0 0 0
2664 3 8.9925 5.3955 17.985 0 0 0
2123 3 16.1865 28.776 1.7985 0 0 0
2999 3 8.9925 32.373 34.1715 0 0 0
1153 3 25.179 10.791 28.776 0 0 0
2708 3 8.9925 8.9925 21.582 0 0 0
1750 3 21.582 30.5745 26.9775 0 0 0
1182 3 25.179 16.1865 19.7835 0 0 0
655 3 26.9775 3.597 12.5895 0 0 0
3926 3 0.0 23.3805 8.9925 0 0 0
436 3 30.5745 19.7835 28.776 0 0 0
1236 3 23.3805 19.7835 28.776 0 0 0
3301 3 7.194 25.179 17.985 0 0 0
230 3 32.373 1.7985 26.9775 0 0 0
631 3 26.9775 0.0 26.9775 0 0 0
3578 3 3.597 16.1865 16.1865 0 0 0
3992 3 0.0 34.1715 19.7835 0 0 0
340 3 30.5745 12.5895 14.388 0 0 0
2891 3 8.9925 25.179 8.9925 0 0 0
3519 3 1.7985 7.194 34.1715 0 0 0
2740 3 8.9925 12.5895 14.388 0 0 0
1655 3 19.7835 21.582 12.5895 0 0 0
1160 3 23.3805 12.5895 32.373 0 0 0
1189 3 25.179 14.388 25.179 0 0 0
1334 3 25.179 30.5745 12.5895 0 0 0
653 3 28.776 3.597 10.791 0 0 0
854 3 28.776 23.3805 12.5895 0 0 0
3014 3 7.194 1.7985 12.5895 0 0 0
845 3 28.776 21.582 3.597 0 0 0
1392 3 23.3805 34.1715 25.179 0 0 0
2878 3 10.791 23.3805 34.1715 0 0 0
1935 3 16.1865 10.791 12.5895 0 0 0
1364 3 23.3805 34.1715 0.0 0 0 0
1063 3 23.3805 3.597 19.7835 0 0 0
2559 3 12.5895 28.776 34.1715 0 0 0
2061 3 17.985 21.582 17.985 0 0 0
781 3 28.776 14.388 17.985 0 0 0
3184 3 5.3955 16.1865 17.985 0 0 0
2939 3 8.9925 28.776 16.1865 0 0 0
3364 3 5.3955 34.1715 0.0 0 0 0
3416 3 1.7985 1.7985 10.791 0 0 0
705 3 28.776 7.194 21.582 0 0 0
2297 3 14.388 7.194 14.388 0 0 0
903 3 26.9775 25.179 19.7835 0 0 0
3266 3 7.194 23.3805 23.3805 0 0 0
865 3 28.776 21.582 21.582 0 0 0
2293 3 14.388 7.194 10.791 0 0 0
3979 3 0.0 28.776 32.373 0 0 0
3881 3 0.0 14.388 0.0 0 0 0
934 3 28.776 30.5745 12.5895 0 0 0
3686 3 3.597 26.9775 5.3955 0 0 0
2813 3 10.791 17.985 10.791 0 0 0
1651 3 19.7835 21.582 8.9925 0 0 0
2861 3 10.791 21.582 17.985 0 0 0
1305 3 25.179 25.179 21.582 0 0 0
626 3 28.776 1.7985 23.3805 0 0 0
1586 3 21.582 16.1865 23.3805 0 0 0
1454 3 21.582 5.3955 12.5895 0 0 0
2949 3 10.791 28.776 25.179 0 0 0
3796 3 1.7985 34.1715 28.776 0 0 0
1360 3 23.3805 30.5745 32.373 0 0 0
353 3 32.373 10.791 28.776 0 0 0
2947 3 8.9925 28.776 23.3805 0 0 0
2854 3 10.791 23.3805 12.5895 0 0 0
956 3 26.9775 30.5745 28.776 0 0 0
2048 3 16.1865 23.3805 3.597 0 0 0
3693 3 3.597 25.179 10.791 0 0 0
1131 3 23.3805 10.791 8.9925 0 0 0
1507 3 19.7835 7.194 23.3805 0 0 0
104 3 34.1715 19.7835 3.597 0 0 0
3891 3 0.0 14.388 17.985 0 0 0
3268 3 5.3955 23.3805 21.582 0 0 0
2910 3 10.791 26.9775 26.9775 0 0 0
2000 3 16.1865 16.1865 32.373 0 0 0
1844 3 16.1865 5.3955 0.0 0 0 0
42 3 34.1715 8.9925 0.0 0 0 0
238 3 32.373 1.7985 34.1715 0 0 0
3608 3 1.7985 19.7835 3.597 0 0 0
371 3 30.5745 14.388 8.9925 0 0 0
2997 3 10.791 32.373 32.373 0 0 0
2126 3 17.985 30.5745 5.3955 0 0 0
3607 3 1.7985 17.985 5.3955 0 0 0
3657 3 3.597 21.582 14.388 0 0 0
1563 3 19.7835 14.388 1.7985 0 0 0
1524 3 19.7835 12.5895 0.0 0 0 0
1753 3 21.582 28.776 28.776 0 0 0
3840 3 0.0 5.3955 34.1715 0 0 0
3151 3 5.3955 10.791 26.9775 0 0 0
2731 3 8.9925 10.791 8.9925 0 0 0
2840 3 8.9925 19.7835 32.373 0 0 0
2339 3 12.5895 10.791 16.1865 0 0 0
2229 3 14.388 0.0 25.179 0 0 0
1467 3 19.7835 3.597 23.3805 0 0 0
3078 3 7.194 5.3955 34.1715 0 0 0
2084 3 16.1865 26.9775 0.0 0 0 0
54 3 34.1715 8.9925 21.582 0 0 0
3877 3 0.0 10.791 28.776 0 0 0
3862 3 0.0 12.5895 1.7985 0 0 0
2209 3 14.388 0.0 7.194 0 0 0
1629 3 21.582 17.985 25.179 0 0 0
3544 3 1.7985 12.5895 17.985 0 0 0
1942 3 17.985 12.5895 19.7835 0 0 0
119 3 34.1715 17.985 34.1715 0 0 0
3229 3 7.194 17.985 25.179 0 0 0
24 3 34.1715 5.3955 3.597 0 0 0
1227 3 23.3805 17.985 23.3805 0 0 0
64 3 34.1715 12.5895 3.597 0 0 0
2808 3 8.9925 19.7835 3.597 0 0 0
1872 3 16.1865 5.3955 25.179 0 0 0
2361 3 14.388 14.388 0.0 0 0 0
2641 3 10.791 3.597 0.0 0 0 0
2354 3 14.388 12.5895 30.5745 0 0 0
2269 3 14.388 3.597 25.179 0 0 0
123 3 34.1715 21.582 5.3955 0 0 0
2580 3 12.5895 34.1715 14.388 0 0 0
2134 3 17.985 30.5745 12.5895 0 0 0
1439 3 19.7835 0.0 34.1715 0 0 0
2556 3 12.5895 30.5745 28.776 0 0 0
1975 3 16.1865 14.388 12.5895 0 0 0
1577 3 21.582 14.388 14.388 0 0 0
2898 3 10.791 26.9775 16.1865 0 0 0
1330 3 25.179 30.5745 8.9925 0 0 0
3717 3 3.597 25.179 32.373 0 0 0
3289 3 7.194 25.179 7.194 0 0 0
1811 3 16.1865 0.0 8.9925 0 0 0
3531 3 1.7985 10.791 8.9925 0 0 0
2117 3 17.985 25.179 32.373 0 0 0
480 3 30.5745 23.3805 32.373 0 0 0
3792 3 1.7985 34.1715 25.179 0 0 0
1926 3 17.985 12.5895 5.3955 0 0 0
2488 3 12.5895 26.9775 3.597 0 0 0
2231 3 12.5895 0.0 26.9775 0 0 0
3605 3 3.597 17.985 3.597 0 0 0
1315 3 23.3805 25.179 30.5745 0 0 0
3775 3 1.7985 32.373 12.5895 0 0 0
2044 3 16.1865 23.3805 0.0 0 0 0
3566 3 3.597 16.1865 5.3955 0 0 0
2262 3 14.388 5.3955 19.7835 0 0 0
683 3 26.9775 7.194 1.7985 0 0 0
609 3 28.776 0.0 7.194 0 0 0
3241 3 7.194 21.582 0.0 0 0 0
3104 3 5.3955 8.9925 17.985 0 0 0
419 3 30.5745 17.985 16.1865 0 0 0
3217 3 7.194 17.985 14.388 0 0 0
3940 3 0.0 23.3805 34.1715 0 0 0
1561 3 21.582 14.388 0.0 0 0 0
3682 3 3.597 26.9775 1.7985 0 0 0
2346 3 14.388 12.5895 23.3805 0 0 0
1058 3 25.179 5.3955 16.1865 0 0 0
517 3 32.373 25.179 32.373 0 0 0
3945 3 0.0 25.179 7.194 0 0 0
1869 3 17.985 3.597 25.179 0 0 0
1408 3 19.7835 1.7985 3.597 0 0 0
2479 3 12.5895 21.582 34.1715 0 0 0
2192 3 16.1865 34.1715 25.179 0 0 0
2758 3 10.791 12.5895 34.1715 0 0 0
2851 3 8.9925 21.582 8.9925 0 0 0
510 3 32.373 26.9775 26.9775 0 0 0
2799 3 8.9925 14.388 34.1715 0 0 0
2645 3 10.791 3.597 3.597 0 0 0
3182 3 7.194 16.1865 19.7835 0 0 0
3752 3 1.7985 30.5745 25.179 0 0 0
2713 3 10.791 7.194 28.776 0 0 0
2390 3 14.388 16.1865 26.9775 0 0 0
2652 3 8.9925 5.3955 7.194 0 0 0
1164 3 23.3805 16.1865 0.0 0 0 0
199 3 34.1715 32.373 34.1715 0 0 0
2510 3 14.388 26.9775 26.9775 0 0 0
3427 3 1.7985 0.0 23.3805 0 0 0
1339 3 23.3805 28.776 16.1865 0 0 0
1203 3 23.3805 17.985 1.7985 0 0 0
583 3 30.5745 32.373 19.7835 0 0 0
1556 3 19.7835 12.5895 28.776 0 0 0
2348 3 12.5895 12.5895 21.582 0 0 0
1307 3 23.3805 25.179 23.3805 0 0 0
2694 3 10.791 8.9925 12.5895 0 0 0
2944 3 8.9925 30.5745 17.985 0 0 0
3564 3 1.7985 16.1865 0.0 0 0 0
3720 3 1.7985 26.9775 32.373 0 0 0
2066 3 17.985 23.3805 23.3805 0 0 0
3056 3 5.3955 5.3955 10.791 0 0 0
2524 3 12.5895 30.5745 0.0 0 0 0
2590 3 14.388 34.1715 26.9775 0 0 0
1329 3 25.179 28.776 7.194 0 0 0
2562 3 14.388 34.1715 1.7985 0 0 0
793 3 28.776 14.388 28.776 0 0 0
334 3 32.373 12.5895 12.5895 0 0 0
3192 3 5.3955 16.1865 25.179 0 0 0
2699 3 8.9925 7.194 16.1865 0 0 0
2276 3 12.5895 5.3955 28.776 0 0 0
2444 3 12.5895 23.3805 0.0 0 0 0
2226 3 14.388 1.7985 23.3805 0 0 0
2726 3 10.791 12.5895 5.3955 0 0 0
1898 3 17.985 8.9925 16.1865 0 0 0
810 3 28.776 19.7835 8.9925 0 0 0
1637 3 21.582 17.985 32.373 0 0 0
1906 3 17.985 8.9925 23.3805 0 0 0
3767 3 1.7985 32.373 5.3955 0 0 0
2020 3 16.1865 19.7835 14.388 0 0 0
2767 3 8.9925 14.388 5.3955 0 0 0
892 3 26.9775 26.9775 7.194 0 0 0
3097 3 7.194 7.194 14.388 0 0 0
1442 3 21.582 5.3955 1.7985 0 0 0
1825 3 17.985 0.0 21.582 0 0 0
941 3 28.776 28.776 17.985 0 0 0
1845 3 17.985 3.597 3.597 0 0 0
2975 3 8.9925 32.373 12.5895 0 0 0
846 3 28.776 23.3805 5.3955 0 0 0
2350 3 14.388 12.5895 26.9775 0 0 0
2734 3 10.791 12.5895 12.5895 0 0 0
3193 3 7.194 14.388 28.776 0 0 0
373 3 32.373 14.388 10.791 0 0 0
1432 3 19.7835 1.7985 25.179 0 0 0
3411 3 1.7985 0.0 8.9925 0 0 0
1075 3 23.3805 3.597 30.5745 0 0 0
2818 3 10.791 19.7835 16.1865 0 0 0
1993 3 17.985 14.388 28.776 0 0 0
3114 3 7.194 8.9925 30.5745 0 0 0
2069 3 17.985 21.582 25.179 0 0 0
2143 3 16.1865 28.776 19.7835 0 0 0
2308 3 12.5895 8.9925 21.582 0 0 0
779 3 26.9775 14.388 16.1865 0 0 0
1167 3 23.3805 14.388 5.3955 0 0 0
3247 3 5.3955 21.582 5.3955 0 0 0
2752 3 8.9925 12.5895 25.179 0 0 0
1252 3 23.3805 23.3805 7.194 0 0 0
1839 3 16.1865 0.0 34.1715 0 0 0
1789 3 21.582 32.373 25.179 0 0 0
1464 3 19.7835 5.3955 17.985 0 0 0
412 3 30.5745 19.7835 7.194 0 0 0
9 3 34.1715 0.0 16.1865 0 0 0
817 3 28.776 17.985 14.388 0 0 0
2119 3 16.1865 25.179 34.1715 0 0 0
364 3 30.5745 16.1865 0.0 0 0 0
2466 3 14.388 23.3805 23.3805 0 0 0
3722 3 3.597 30.5745 1.7985 0 0 0
3679 3 1.7985 21.582 34.1715 0 0 0
477 3 32.373 21.582 32.373 0 0 0
1728 3 19.7835 30.5745 3.597 0 0 0
3299 3 5.3955 25.179 16.1865 0 0 0
2088 3 16.1865 26.9775 3.597 0 0 0
2869 3 10.791 21.582 25.179 0 0 0
3318 3 7.194 26.9775 34.1715 0 0 0
3047 3 5.3955 3.597 5.3955 0 0 0
3166 3 7.194 16.1865 5.3955 0 0 0
3135 3 5.3955 10.791 12.5895 0 0 0
457 3 32.373 21.582 14.388 0 0 0
56 3 34.1715 8.9925 25.179 0 0 0
2962 3 10.791 34.1715 1.7985 0 0 0
3003 3 5.3955 0.0 1.7985 0 0 0
2096 3 16.1865 26.9775 10.791 0 0 0
1796 3 19.7835 34.1715 28.776 0 0 0
3887 3 0.0 14.388 10.791 0 0 0
3404 3 1.7985 1.7985 0.0 0 0 0
1285 3 25.179 25.179 3.597 0 0 0
3115 3 5.3955 7.194 30.5745 0 0 0
501 3 32.373 25.179 17.985 0 0 0
3410 3 3.597 1.7985 8.9925 0 0 0
2632 3 8.9925 1.7985 25.179 0 0 0
1043 3 23.3805 3.597 1.7985 0 0 0
1696 3 19.7835 26.9775 10.791 0 0 0
1145 3 25.179 10.791 21.582 0 0 0
3709 3 3.597 25.179 25.179 0 0 0
138 3 34.1715 23.3805 28.776 0 0 0
1548 3 19.7835 12.5895 21.582 0 0 0
335 3 30.5745 10.791 12.5895 0 0 0
2068 3 16.1865 23.3805 21.582 0 0 0
3223 3 5.3955 17.985 19.7835 0 0 0
2705 3 10.791 7.194 21.582 0 0 0
1033 3 25.179 0.0 28.776 0 0 0
798 3 28.776 16.1865 34.1715 0 0 0
3781 3 3.597 32.373 17.985 0 0 0
2992 3 8.9925 34.1715 25.179 0 0 0
1211 3 23.3805 17.985 8.9925 0 0 0
2147 3 16.1865 28.776 23.3805 0 0 0
1265 3 25.179 21.582 21.582 0 0 0
3474 3 3.597 5.3955 30.5745 0 0 0
26 3 34.1715 5.3955 7.194 0 0 0
3916 3 0.0 19.7835 26.9775 0 0 0
397 3 32.373 14.388 32.373 0 0 0
2896 3 8.9925 26.9775 10.791 0 0 0
107 3 34.1715 17.985 12.5895 0 0 0
3808 3 0.0 1.7985 12.5895 0 0 0
2900 3 8.9925 26.9775 14.388 0 0 0
597 3 32.373 32.373 32.373 0 0 0
901 3 28.776 25.179 17.985 0 0 0
3425 3 3.597 0.0 21.582 0 0 0
1996 3 16.1865 16.1865 28.776 0 0 0
1197 3 25.179 14.388 32.373 0 0 0
2277 3 14.388 3.597 32.373 0 0 0
3105 3 7.194 7.194 21.582 0 0 0
3480 3 1.7985 5.3955 32.373 0 0 0
3035 3 5.3955 0.0 30.5745 0 0 0
3888 3 0.0 16.1865 12.5895 0 0 0
2883 3 8.9925 25.179 1.7985 0 0 0
3568 3 1.7985 16.1865 3.597 0 0 0
3751 3 1.7985 28.776 26.9775 0 0 0
3517 3 3.597 7.194 32.373 0 0 0
1547 3 19.7835 10.791 23.3805 0 0 0
1623 3 19.7835 17.985 19.7835 0 0 0
3801 3 0.0 0.0 0.0 0 0 0
324 3 30.5745 12.5895 0.0 0 0 0
3121 3 7.194 10.791 0.0 0 0 0
3179 3 5.3955 14.388 16.1865 0 0 0
1943 3 16.1865 10.791 19.7835 0 0 0
1676 3 19.7835 23.3805 28.776 0 0 0
2530 3 14.388 30.5745 8.9925 0 0 0
1476 3 19.7835 5.3955 28.776 0 0 0
1471 3 19.7835 3.597 26.9775 0 0 0
1082 3 25.179 8.9925 1.7985 0 0 0
1264 3 23.3805 23.3805 17.985 0 0 0
3597 3 3.597 14.388 32.373 0 0 0
1937 3 17.985 10.791 14.388 0 0 0
1824 3 16.1865 1.7985 17.985 0 0 0
2687 3 8.9925 7.194 5.3955 0 0 0
564 3 30.5745 34.1715 0.0 0 0 0
2267 3 12.5895 3.597 23.3805 0 0 0
3845 3 0.0 7.194 7.194 0 0 0
3212 3 5.3955 19.7835 7.194 0 0 0
1444 3 19.7835 5.3955 0.0 0 0 0
2165 3 17.985 32.373 3.597 0 0 0
2655 3 8.9925 3.597 12.5895 0 0 0
722 3 28.776 12.5895 1.7985 0 0 0
3951 3 0.0 25.179 17.985 0 0 0
1770 3 21.582 34.1715 8.9925 0 0 0
3276 3 5.3955 23.3805 28.776 0 0 0
763 3 26.9775 14.388 1.7985 0 0 0
1040 3 23.3805 1.7985 32.373 0 0 0
68 3 34.1715 12.5895 10.791 0 0 0
3074 3 7.194 5.3955 30.5745 0 0 0
883 3 26.9775 25.179 1.7985 0 0 0
2978 3 10.791 34.1715 16.1865 0 0 0
1707 3 19.7835 25.179 23.3805 0 0 0
1369 3 25.179 32.373 7.194 0 0 0
855 3 26.9775 21.582 12.5895 0 0 0
3942 3 0.0 26.9775 1.7985 0 0 0
3349 3 7.194 28.776 25.179 0 0 0
224 3 30.5745 1.7985 17.985 0 0 0
3889 3 0.0 14.388 14.388 0 0 0
2776 3 8.9925 16.1865 10.791 0 0 0
89 3 34.1715 14.388 16.1865 0 0 0
3738 3 3.597 30.5745 16.1865 0 0 0
2446 3 14.388 23.3805 5.3955 0 0 0
120 3 34.1715 19.7835 32.373 0 0 0
723 3 26.9775 10.791 1.7985 0 0 0
2179 3 16.1865 32.373 16.1865 0 0 0
2100 3 16.1865 26.9775 14.388 0 0 0
3084 3 5.3955 8.9925 0.0 0 0 0
1660 3 19.7835 23.3805 14.388 0 0 0
839 3 26.9775 17.985 34.1715 0 0 0
2301 3 14.388 7.194 17.985 0 0 0
997 3 28.776 32.373 32.373 0 0 0
3144 3 5.3955 12.5895 17.985 0 0 0
3518 3 3.597 8.9925 34.1715 0 0 0
67 3 34.1715 10.791 12.5895 0 0 0
2130 3 17.985 30.5745 8.9925 0 0 0
2608 3 8.9925 1.7985 3.597 0 0 0
1077 3 25.179 3.597 32.373 0 0 0
1856 3 16.1865 5.3955 10.791 0 0 0
536 3 30.5745 30.5745 10.791 0 0 0
1384 3 23.3805 34.1715 17.985 0 0 0
3399 3 5.3955 32.373 34.1715 0 0 0
2618 3 10.791 1.7985 16.1865 0 0 0
1537 3 21.582 10.791 14.388 0 0 0
690 3 28.776 8.9925 8.9925 0 0 0
93 3 34.1715 14.388 23.3805 0 0 0
424 3 30.5745 19.7835 17.985 0 0 0
2183 3 16.1865 32.373 19.7835 0 0 0
807 3 26.9775 17.985 5.3955 0 0 0
2728 3 8.9925 12.5895 3.597 0 0 0
954 3 28.776 30.5745 30.5745 0 0 0
2195 3 16.1865 32.373 30.5745 0 0 0
90 3 34.1715 16.1865 14.388 0 0 0
2010 3 17.985 19.7835 8.9925 0 0 0
2894 3 10.791 26.9775 12.5895 0 0 0
2031 3 16.1865 17.985 26.9775 0 0 0
3443 3 1.7985 3.597 1.7985 0 0 0
1179 3 23.3805 14.388 16.1865 0 0 0
2983 3 8.9925 32.373 19.7835 0 0 0
2493 3 14.388 25.179 10.791 0 0 0
3750 3 3.597 30.5745 26.9775 0 0 0
1888 3 16.1865 8.9925 3.597 0 0 0
2149 3 17.985 28.776 25.179 0 0 0
240 3 30.5745 1.7985 32.373 0 0 0
866 3 28.776 23.3805 23.3805 0 0 0
3360 3 5.3955 30.5745 32.373 0 0 0
3165 3 7.194 14.388 3.597 0 0 0
3171 3 5.3955 14.388 8.9925 0 0 0
390 3 32.373 16.1865 26.9775 0 0 0
1032 3 23.3805 1.7985 25.179 0 0 0
3278 3 7.194 23.3805 34.1715 0 0 0
2204 3 12.5895 1.7985 0.0 0 0 0
1533 3 21.582 10.791 10.791 0 0 0
2872 3 8.9925 23.3805 25.179 0 0 0
1429 3 21.582 0.0 25.179 0 0 0
1590 3 21.582 16.1865 26.9775 0 0 0
706 3 28.776 8.9925 23.3805 0 0 0
1303 3 23.3805 25.179 19.7835 0 0 0
2465 3 14.388 21.582 21.582 0 0 0
70 3 34.1715 12.5895 14.388 0 0 0
1161 3 25.179 14.388 0.0 0 0 0
2903 3 8.9925 25.179 19.7835 0 0 0
725 3 28.776 10.791 3.597 0 0 0
2457 3 14.388 21.582 14.388 0 0 0
2062 3 17.985 23.3805 19.7835 0 0 0
2041 3 17.985 21.582 0.0 0 0 0
688 3 26.9775 8.9925 3.597 0 0 0
3849 3 0.0 7.194 14.388 0 0 0
2332 3 12.5895 12.5895 7.194 0 0 0
766 3 28.776 16.1865 5.3955 0 0 0
106 3 34.1715 19.7835 7.194 0 0 0
2780 3 8.9925 16.1865 14.388 0 0 0
2089 3 17.985 25.179 7.194 0 0 0
2102 3 17.985 26.9775 19.7835 0 0 0
3754 3 3.597 30.5745 30.5745 0 0 0
568 3 30.5745 34.1715 3.597 0 0 0
1433 3 21.582 0.0 28.776 0 0 0
3214 3 7.194 19.7835 12.5895 0 0 0
2384 3 12.5895 16.1865 17.985 0 0 0
2972 3 8.9925 34.1715 7.194 0 0 0
1518 3 21.582 8.9925 34.1715 0 0 0
3854 3 0.0 8.9925 23.3805 0 0 0
3604 3 1.7985 19.7835 0.0 0 0 0
840 3 26.9775 19.7835 32.373 0 0 0
2326 3 14.388 12.5895 5.3955 0 0 0
852 3 26.9775 23.3805 7.194 0 0 0
2250 3 14.388 5.3955 8.9925 0 0 0
3195 3 5.3955 14.388 30.5745 0 0 0
3893 3 0.0 14.388 21.582 0 0 0
2606 3 10.791 1.7985 5.3955 0 0 0
2168 3 16.1865 34.1715 3.597 0 0 0
2628 3 8.9925 1.7985 21.582 0 0 0
3452 3 1.7985 5.3955 7.194 0 0 0
974 3 28.776 34.1715 12.5895 0 0 0
2522 3 14.388 30.5745 1.7985 0 0 0
1806 3 17.985 1.7985 5.3955 0 0 0
563 3 30.5745 32.373 1.7985 0 0 0
2302 3 14.388 8.9925 19.7835 0 0 0
1875 3 16.1865 3.597 30.5745 0 0 0
3422 3 3.597 1.7985 19.7835 0 0 0
3390 3 7.194 34.1715 26.9775 0 0 0
987 3 26.9775 32.373 23.3805 0 0 0
667 3 26.9775 3.597 23.3805 0 0 0
61 3 34.1715 10.791 1.7985 0 0 0
3638 3 3.597 19.7835 34.1715 0 0 0
1142 3 25.179 12.5895 19.7835 0 0 0
647 3 26.9775 3.597 5.3955 0 0 0
265 3 32.373 3.597 21.582 0 0 0
312 3 30.5745 8.9925 25.179 0 0 0
682 3 28.776 8.9925 1.7985 0 0 0
3872 3 0.0 12.5895 19.7835 0 0 0
3017 3 7.194 0.0 14.388 0 0 0
1291 3 23.3805 25.179 8.9925 0 0 0
1149 3 25.179 10.791 25.179 0 0 0
2866 3 10.791 23.3805 23.3805 0 0 0
2657 3 10.791 3.597 14.388 0 0 0
1502 3 21.582 8.9925 19.7835 0 0 0
2402 3 14.388 19.7835 1.7985 0 0 0
823 3 26.9775 17.985 19.7835 0 0 0
3557 3 3.597 10.791 32.373 0 0 0
271 3 30.5745 3.597 26.9775 0 0 0
2232 3 12.5895 1.7985 25.179 0 0 0
2584 3 12.5895 34.1715 17.985 0 0 0
1290 3 25.179 26.9775 8.9925 0 0 0
3902 3 0.0 19.7835 1.7985 0 0 0
3123 3 5.3955 10.791 1.7985 0 0 0
172 3 34.1715 30.5745 17.985 0 0 0
2351 3 12.5895 10.791 26.9775 0 0 0
1885 3 17.985 7.194 3.597 0 0 0
3281 3 7.194 25.179 0.0 0 0 0
3905 3 0.0 17.985 7.194 0 0 0
1174 3 25.179 16.1865 12.5895 0 0 0
1287 3 23.3805 25.179 5.3955 0 0 0
2386 3 14.388 16.1865 23.3805 0 0 0
2619 3 8.9925 0.0 16.1865 0 0 0
811 3 26.9775 17.985 8.9925 0 0 0
2473 3 14.388 21.582 28.776 0 0 0
3343 3 5.3955 28.776 19.7835 0 0 0
630 3 28.776 1.7985 26.9775 0 0 0
3302 3 7.194 26.9775 19.7835 0 0 0
3511 3 1.7985 7.194 26.9775 0 0 0
3380 3 5.3955 34.1715 14.388 0 0 0
3728 3 1.7985 30.5745 3.597 0 0 0
1263 3 23.3805 21.582 19.7835 0 0 0
2680 3 8.9925 5.3955 32.373 0 0 0
2392 3 12.5895 16.1865 25.179 0 0 0
2711 3 8.9925 7.194 26.9775 0 0 0
3594 3 3.597 16.1865 30.5745 0 0 0
639 3 26.9775 0.0 34.1715 0 0 0
3528 3 1.7985 12.5895 3.597 0 0 0
3803 3 0.0 0.0 3.597 0 0 0
1695 3 19.7835 25.179 12.5895 0 0 0
2621 3 10.791 0.0 17.985 0 0 0
1531 3 19.7835 10.791 8.9925 0 0 0
292 3 30.5745 8.9925 7.194 0 0 0
341 3 32.373 10.791 17.985 0 0 0
768 3 26.9775 16.1865 3.597 0 0 0
1411 3 19.7835 0.0 8.9925 0 0 0
1995 3 16.1865 14.388 30.5745 0 0 0
2885 3 10.791 25.179 3.597 0 0 0
250 3 32.373 5.3955 8.9925 0 0 0
803 3 26.9775 17.985 1.7985 0 0 0
2240 3 12.5895 1.7985 32.373 0 0 0
3417 3 3.597 0.0 14.388 0 0 0
525 3 32.373 28.776 3.597 0 0 0
420 3 30.5745 19.7835 14.388 0 0 0
191 3 34.1715 32.373 19.7835 0 0 0
3969 3 0.0 28.776 14.388 0 0 0
1615 3 19.7835 17.985 12.5895 0 0 0
2159 3 16.1865 28.776 34.1715 0 0 0
3068 3 5.3955 5.3955 21.582 0 0 0
666 3 28.776 5.3955 23.3805 0 0 0
1486 3 21.582 8.9925 5.3955 0 0 0
1470 3 21.582 5.3955 26.9775 0 0 0
3749 3 3.597 28.776 25.179 0 0 0
1713 3 21.582 25.179 28.776 0 0 0
3118 3 7.194 8.9925 34.1715 0 0 0
3847 3 0.0 7.194 10.791 0 0 0
3971 3 0.0 28.776 17.985 0 0 0
2435 3 12.5895 17.985 30.5745 0 0 0
317 3 32.373 7.194 32.373 0 0 0
243 3 30.5745 3.597 1.7985 0 0 0
189 3 34.1715 32.373 16.1865 0 0 0
627 3 26.9775 0.0 23.3805 0 0 0
1643 3 19.7835 21.582 1.7985 0 0 0
3387 3 5.3955 32.373 23.3805 0 0 0
1798 3 21.582 34.1715 34.1715 0 0 0
976 3 26.9775 34.1715 10.791 0 0 0
2879 3 8.9925 21.582 34.1715 0 0 0
1064 3 23.3805 5.3955 17.985 0 0 0
716 3 26.9775 8.9925 28.776 0 0 0
1754 3 21.582 30.5745 30.5745 0 0 0
2850 3 10.791 23.3805 8.9925 0 0 0
3689 3 3.597 25.179 7.194 0 0 0
3504 3 1.7985 8.9925 17.985 0 0 0
808 3 26.9775 19.7835 3.597 0 0 0
566 3 32.373 34.1715 5.3955 0 0 0
294 3 32.373 8.9925 12.5895 0 0 0
1636 3 19.7835 19.7835 28.776 0 0 0
1426 3 21.582 1.7985 23.3805 0 0 0
1018 3 25.179 1.7985 16.1865 0 0 0
2281 3 14.388 7.194 0.0 0 0 0
1172 3 23.3805 16.1865 7.194 0 0 0
2343 3 12.5895 10.791 19.7835 0 0 0
2177 3 17.985 32.373 14.388 0 0 0
656 3 26.9775 5.3955 10.791 0 0 0
134 3 34.1715 23.3805 21.582 0 0 0
611 3 26.9775 0.0 8.9925 0 0 0
607 3 26.9775 0.0 5.3955 0 0 0
850 3 28.776 23.3805 8.9925 0 0 0
2923 3 8.9925 28.776 1.7985 0 0 0
3051 3 5.3955 3.597 8.9925 0 0 0
1966 3 17.985 16.1865 5.3955 0 0 0
2252 3 12.5895 5.3955 7.194 0 0 0
3205 3 7.194 17.985 3.597 0 0 0
1090 3 25.179 8.9925 8.9925 0 0 0
3190 3 7.194 16.1865 26.9775 0 0 0
950 3 28.776 30.5745 26.9775 0 0 0
1088 3 23.3805 8.9925 3.597 0 0 0
3134 3 7.194 12.5895 12.5895 0 0 0
2425 3 14.388 17.985 21.582 0 0 0
851 3 26.9775 21.582 8.9925 0 0 0
55 3 34.1715 7.194 26.9775 0 0 0
1721 3 21.582 28.776 0.0 0 0 0
2974 3 10.791 34.1715 12.5895 0 0 0
109 3 34.1715 17.985 16.1865 0 0 0
1352 3 23.3805 30.5745 25.179 0 0 0
2274 3 14.388 5.3955 30.5745 0 0 0
2518 3 14.388 26.9775 34.1715 0 0 0
2595 3 12.5895 32.373 30.5745 0 0 0
1945 3 17.985 10.791 21.582 0 0 0
1435 3 19.7835 0.0 30.5745 0 0 0
2500 3 12.5895 26.9775 14.388 0 0 0
3375 3 5.3955 32.373 12.5895 0 0 0
1908 3 16.1865 8.9925 21.582 0 0 0
3187 3 5.3955 14.388 23.3805 0 0 0
1835 3 16.1865 0.0 30.5745 0 0 0
3036 3 5.3955 1.7985 28.776 0 0 0
1868 3 16.1865 5.3955 21.582 0 0 0
660 3 26.9775 5.3955 14.388 0 0 0
715 3 26.9775 7.194 30.5745 0 0 0
251 3 30.5745 3.597 8.9925 0 0 0
1210 3 25.179 19.7835 8.9925 0 0 0
1087 3 23.3805 7.194 5.3955 0 0 0
556 3 30.5745 30.5745 28.776 0 0 0
1950 3 17.985 12.5895 26.9775 0 0 0
3227 3 5.3955 17.985 23.3805 0 0 0
2239 3 12.5895 0.0 34.1715 0 0 0
3826 3 0.0 5.3955 8.9925 0 0 0
310 3 32.373 8.9925 26.9775 0 0 0
2835 3 8.9925 17.985 30.5745 0 0 0
126 3 34.1715 23.3805 7.194 0 0 0
778 3 28.776 16.1865 16.1865 0 0 0
3257 3 7.194 21.582 14.388 0 0 0
108 3 34.1715 19.7835 10.791 0 0 0
3067 3 5.3955 3.597 23.3805 0 0 0
1930 3 17.985 12.5895 8.9925 0 0 0
479 3 30.5745 21.582 34.1715 0 0 0
99 3 34.1715 14.388 34.1715 0 0 0
1450 3 21.582 5.3955 8.9925 0 0 0
2744 3 8.9925 12.5895 17.985 0 0 0
1251 3 23.3805 21.582 8.9925 0 0 0
468 3 30.5745 23.3805 21.582 0 0 0
2030 3 17.985 19.7835 26.9775 0 0 0
3313 3 7.194 25.179 28.776 0 0 0
1794 3 21.582 34.1715 30.5745 0 0 0
1143 3 23.3805 10.791 19.7835 0 0 0
1129 3 25.179 10.791 7.194 0 0 0
895 3 26.9775 25.179 12.5895 0 0 0
986 3 28.776 34.1715 23.3805 0 0 0
1196 3 23.3805 16.1865 28.776 0 0 0
1021 3 25.179 0.0 17.985 0 0 0
1034 3 25.179 1.7985 30.5745 0 0 0
1652 3 19.7835 23.3805 7.194 0 0 0
1526 3 21.582 12.5895 5.3955 0 0 0
3695 3 1.7985 25.179 12.5895 0 0 0
782 3 28.776 16.1865 19.7835 0 0 0
3255 3 5.3955 21.582 12.5895 0 0 0
3111 3 5.3955 7.194 26.9775 0 0 0
1152 3 23.3805 12.5895 25.179 0 0 0
1934 3 17.985 12.5895 12.5895 0 0 0
1964 3 16.1865 16.1865 0.0 0 0 0
621 3 28.776 0.0 17.985 0 0 0
1308 3 23.3805 26.9775 21.582 0 0 0
3784 3 1.7985 34.1715 17.985 0 0 0
2065 3 17.985 21.582 21.582 0 0 0
80 3 34.1715 12.5895 32.373 0 0 0
3240 3 5.3955 19.7835 32.373 0 0 0
1420 3 19.7835 1.7985 14.388 0 0 0
2597 3 14.388 32.373 32.373 0 0 0
1319 3 23.3805 25.179 34.1715 0 0 0
700 3 26.9775 8.9925 14.388 0 0 0
1939 3 16.1865 10.791 16.1865 0 0 0
1059 3 23.3805 3.597 16.1865 0 0 0
2395 3 12.5895 14.388 30.5745 0 0 0
1473 3 21.582 3.597 28.776 0 0 0
461 3 32.373 21.582 17.985 0 0 0
311 3 30.5745 7.194 26.9775 0 0 0
1228 3 23.3805 19.7835 21.582 0 0 0
2860 3 8.9925 23.3805 14.388 0 0 0
3814 3 0.0 1.7985 23.3805 0 0 0
3579 3 1.7985 14.388 16.1865 0 0 0
195 3 34.1715 32.373 26.9775 0 0 0
1736 3 19.7835 30.5745 10.791 0 0 0
1573 3 21.582 14.388 10.791 0 0 0
2495 3 12.5895 25.179 12.5895 0 0 0
1110 3 25.179 8.9925 26.9775 0 0 0
3288 3 5.3955 26.9775 3.597 0 0 0
962 3 28.776 34.1715 1.7985 0 0 0
213 3 32.373 0.0 10.791 0 0 0
2133 3 17.985 28.776 10.791 0 0 0
3176 3 5.3955 16.1865 10.791 0 0 0
1136 3 23.3805 12.5895 10.791 0 0 0
2464 3 12.5895 23.3805 17.985 0 0 0
1555 3 19.7835 10.791 30.5745 0 0 0
3271 3 5.3955 21.582 26.9775 0 0 0
2294 3 14.388 8.9925 12.5895 0 0 0
1788 3 19.7835 34.1715 21.582 0 0 0
1226 3 25.179 19.7835 23.3805 0 0 0
1602 3 21.582 19.7835 1.7985 0 0 0
785 3 28.776 14.388 21.582 0 0 0
3853 3 0.0 7.194 21.582 0 0 0
2335 3 12.5895 10.791 12.5895 0 0 0
1490 3 21.582 8.9925 8.9925 0 0 0
1779 3 19.7835 32.373 16.1865 0 0 0
789 3 28.776 14.388 25.179 0 0 0
3850 3 0.0 8.9925 16.1865 0 0 0
1571 3 19.7835 14.388 8.9925 0 0 0
2816 3 8.9925 19.7835 10.791 0 0 0
654 3 28.776 5.3955 12.5895 0 0 0
2427 3 12.5895 17.985 23.3805 0 0 0
1641 3 21.582 21.582 0.0 0 0 0
1156 3 23.3805 12.5895 28.776 0 0 0
834 3 28.776 19.7835 30.5745 0 0 0
2811 3 8.9925 17.985 8.9925 0 0 0
336 3 30.5745 12.5895 10.791 0 0 0
3314 3 7.194 26.9775 30.5745 0 0 0
381 3 32.373 14.388 17.985 0 0 0
117 3 34.1715 17.985 30.5745 0 0 0
1350 3 25.179 30.5745 26.9775 0 0 0
1240 3 23.3805 19.7835 32.373 0 0 0
695 3 26.9775 7.194 12.5895 0 0 0
526 3 32.373 30.5745 5.3955 0 0 0
2733 3 10.791 10.791 10.791 0 0 0
3348 3 5.3955 30.5745 21.582 0 0 0
3207 3 5.3955 17.985 5.3955 0 0 0
3943 3 0.0 25.179 3.597 0 0 0
730 3 28.776 12.5895 8.9925 0 0 0
3959 3 0.0 25.179 32.373 0 0 0
1998 3 17.985 16.1865 34.1715 0 0 0
375 3 30.5745 14.388 12.5895 0 0 0
2814 3 10.791 19.7835 12.5895 0 0 0
2153 3 17.985 28.776 28.776 0 0 0
2249 3 14.388 3.597 7.194 0 0 0
2017 3 17.985 17.985 14.388 0 0 0
467 3 30.5745 21.582 23.3805 0 0 0
82 3 34.1715 16.1865 0.0 0 0 0
3413 3 3.597 0.0 10.791 0 0 0
3561 3 3.597 14.388 0.0 0 0 0
1219 3 23.3805 17.985 16.1865 0 0 0
3081 3 7.194 7.194 0.0 0 0 0
152 3 34.1715 26.9775 17.985 0 0 0
20 3 34.1715 1.7985 32.373 0 0 0
2566 3 14.388 34.1715 5.3955 0 0 0
2012 3 16.1865 19.7835 7.194 0 0 0
286 3 32.373 8.9925 5.3955 0 0 0
173 3 34.1715 28.776 23.3805 0 0 0
3547 3 1.7985 10.791 23.3805 0 0 0
1772 3 19.7835 34.1715 7.194 0 0 0
3743 3 1.7985 28.776 19.7835 0 0 0
2040 3 16.1865 19.7835 32.373 0 0 0
3377 3 7.194 32.373 14.388 0 0 0
3357 3 7.194 28.776 32.373 0 0 0
464 3 30.5745 23.3805 17.985 0 0 0
1089 3 25.179 7.194 7.194 0 0 0
1948 3 16.1865 12.5895 21.582 0 0 0
945 3 28.776 28.776 21.582 0 0 0
432 3 30.5745 19.7835 25.179 0 0 0
3188 3 5.3955 16.1865 21.582 0 0 0
2742 3 10.791 12.5895 19.7835 0 0 0
709 3 28.776 7.194 25.179 0 0 0
2852 3 8.9925 23.3805 7.194 0 0 0
2076 3 16.1865 23.3805 28.776 0 0 0
937 3 28.776 28.776 14.388 0 0 0
3806 3 0.0 1.7985 8.9925 0 0 0
253 3 32.373 3.597 10.791 0 0 0
3898 3 0.0 16.1865 30.5745 0 0 0
3140 3 5.3955 12.5895 14.388 0 0 0
3670 3 3.597 23.3805 26.9775 0 0 0
269 3 32.373 3.597 25.179 0 0 0
2637 3 10.791 0.0 32.373 0 0 0
3867 3 0.0 10.791 10.791 0 0 0
1284 3 23.3805 26.9775 0.0 0 0 0
2186 3 17.985 34.1715 23.3805 0 0 0
2451 3 12.5895 21.582 8.9925 0 0 0
3442 3 3.597 5.3955 1.7985 0 0 0
1027 3 23.3805 0.0 23.3805 0 0 0
1425 3 21.582 0.0 21.582 0 0 0
2436 3 12.5895 19.7835 28.776 0 0 0
1879 3 16.1865 3.597 34.1715 0 0 0
2529 3 14.388 28.776 7.194 0 0 0
2901 3 10.791 25.179 17.985 0 0 0
2507 3 12.5895 25.179 23.3805 0 0 0
3019 3 5.3955 0.0 16.1865 0 0 0
2578 3 14.388 34.1715 16.1865 0 0 0
760 3 26.9775 12.5895 32.373 0 0 0
3116 3 5.3955 8.9925 28.776 0 0 0
1313 3 25.179 25.179 28.776 0 0 0
1944 3 16.1865 12.5895 17.985 0 0 0
185 3 34.1715 32.373 8.9925 0 0 0
1407 3 19.7835 0.0 5.3955 0 0 0
87 3 34.1715 14.388 12.5895 0 0 0
3858 3 0.0 8.9925 30.5745 0 0 0
3146 3 7.194 12.5895 23.3805 0 0 0
3690 3 3.597 26.9775 8.9925 0 0 0
907 4 26.9775 25.179 23.3805 0 0 0
14 4 34.1715 1.7985 21.582 0 0 0
41 4 34.1715 7.194 1.7985 0 0 0
1929 4 17.985 10.791 7.194 0 0 0
2719 4 8.9925 7.194 34.1715 0 0 0
1915 4 16.1865 7.194 30.5745 0 0 0
3110 4 7.194 8.9925 26.9775 0 0 0
1621 4 21.582 17.985 17.985 0 0 0
2674 4 10.791 5.3955 30.5745 0 0 0
441 4 32.373 21.582 0.0 0 0 0
339 4 30.5745 10.791 16.1865 0 0 0
971 4 26.9775 32.373 8.9925 0 0 0
3401 4 3.597 0.0 0.0 0 0 0
254 4 32.373 5.3955 12.5895 0 0 0
2245 4 14.388 3.597 3.597 0 0 0
3534 4 3.597 12.5895 12.5895 0 0 0
816 4 26.9775 19.7835 10.791 0 0 0
1989 4 17.985 14.388 25.179 0 0 0
809 4 28.776 17.985 7.194 0 0 0
1893 4 17.985 7.194 10.791 0 0 0
1532 4 19.7835 12.5895 7.194 0 0 0
616 4 26.9775 1.7985 10.791 0 0 0
2258 4 14.388 5.3955 16.1865 0 0 0
1613 4 21.582 17.985 10.791 0 0 0
3993 4 0.0 32.373 21.582 0 0 0
1306 4 25.179 26.9775 23.3805 0 0 0
1828 4 16.1865 1.7985 21.582 0 0 0
332 4 30.5745 12.5895 7.194 0 0 0
2836 4 8.9925 19.7835 28.776 0 0 0
3178 4 7.194 16.1865 16.1865 0 0 0
3457 4 3.597 3.597 14.388 0 0 0
3935 4 0.0 21.582 25.179 0 0 0
2009 4 17.985 17.985 7.194 0 0 0
3787 4 1.7985 32.373 23.3805 0 0 0
3625 4 3.597 17.985 21.582 0 0 0
981 4 28.776 32.373 17.985 0 0 0
3432 4 1.7985 1.7985 25.179 0 0 0
2693 4 10.791 7.194 10.791 0 0 0
1597 4 21.582 14.388 32.373 0 0 0
2324 4 12.5895 12.5895 0.0 0 0 0
1683 4 19.7835 25.179 1.7985 0 0 0
2046 4 17.985 23.3805 5.3955 0 0 0
3234 4 7.194 19.7835 30.5745 0 0 0
797 4 28.776 14.388 32.373 0 0 0
92 4 34.1715 16.1865 17.985 0 0 0
1883 4 16.1865 7.194 1.7985 0 0 0
2570 4 14.388 34.1715 8.9925 0 0 0
3294 4 7.194 26.9775 12.5895 0 0 0
2631 4 8.9925 0.0 26.9775 0 0 0
3574 4 3.597 16.1865 12.5895 0 0 0
32 4 34.1715 5.3955 17.985 0 0 0
1635 4 19.7835 17.985 30.5745 0 0 0
3392 4 5.3955 34.1715 25.179 0 0 0
872 4 26.9775 23.3805 25.179 0 0 0
3139 4 5.3955 10.791 16.1865 0 0 0
3027 4 5.3955 0.0 23.3805 0 0 0
1931 4 16.1865 10.791 8.9925 0 0 0
181 4 34.1715 32.373 1.7985 0 0 0
3981 4 0.0 32.373 0.0 0 0 0
1669 4 21.582 21.582 25.179 0 0 0
1314 4 25.179 26.9775 30.5745 0 0 0
3319 4 5.3955 25.179 34.1715 0 0 0
1441 4 21.582 3.597 0.0 0 0 0
1483 4 19.7835 7.194 1.7985 0 0 0
2833 4 10.791 17.985 28.776 0 0 0
3653 4 3.597 21.582 10.791 0 0 0
1956 4 16.1865 12.5895 28.776 0 0 0
1521 4 21.582 10.791 0.0 0 0 0
2472 4 12.5895 23.3805 25.179 0 0 0
1575 4 19.7835 14.388 12.5895 0 0 0
3929 4 0.0 21.582 14.388 0 0 0
3424 4 1.7985 1.7985 17.985 0 0 0
2667 4 8.9925 3.597 23.3805 0 0 0
1658 4 21.582 23.3805 16.1865 0 0 0
247 4 30.5745 3.597 5.3955 0 0 0
1797 4 21.582 32.373 32.373 0 0 0
1619 4 19.7835 17.985 16.1865 0 0 0
983 4 26.9775 32.373 19.7835 0 0 0
1389 4 25.179 32.373 25.179 0 0 0
3697 4 3.597 25.179 14.388 0 0 0
220 4 30.5745 1.7985 14.388 0 0 0
2432 4 12.5895 19.7835 25.179 0 0 0
1489 4 21.582 7.194 7.194 0 0 0
2727 4 8.9925 10.791 5.3955 0 0 0
844 4 26.9775 23.3805 0.0 0 0 0
3206 4 7.194 19.7835 5.3955 0 0 0
1712 4 19.7835 26.9775 25.179 0 0 0
800 4 26.9775 16.1865 32.373 0 0 0
1847 4 16.1865 3.597 5.3955 0 0 0
2434 4 14.388 19.7835 30.5745 0 0 0
3119 4 5.3955 7.194 34.1715 0 0 0
2714 4 10.791 8.9925 30.5745 0 0 0
3991 4 0.0 32.373 17.985 0 0 0
3358 4 7.194 30.5745 34.1715 0 0 0
3437 4 3.597 0.0 32.373 0 0 0
3824 4 0.0 5.3955 5.3955 0 0 0
1901 4 17.985 7.194 17.985 0 0 0
1909 4 17.985 7.194 25.179 0 0 0
2812 4 8.9925 19.7835 7.194 0 0 0
1310 4 25.179 26.9775 26.9775 0 0 0
2360 4 12.5895 12.5895 32.373 0 0 0
2770 4 10.791 16.1865 8.9925 0 0 0
2255 4 12.5895 3.597 12.5895 0 0 0
575 4 30.5745 32.373 12.5895 0 0 0
2649 4 10.791 3.597 7.194 0 0 0
3064 4 5.3955 5.3955 17.985 0 0 0
758 4 28.776 12.5895 34.1715 0 0 0
1640 4 19.7835 19.7835 32.373 0 0 0
3334 4 7.194 30.5745 12.5895 0 0 0
2938 4 10.791 30.5745 16.1865 0 0 0
3676 4 1.7985 23.3805 28.776 0 0 0
3381 4 7.194 32.373 17.985 0 0 0
2837 4 10.791 17.985 32.373 0 0 0
1587 4 19.7835 14.388 23.3805 0 0 0
3250 4 7.194 23.3805 8.9925 0 0 0
1349 4 25.179 28.776 25.179 0 0 0
841 4 28.776 21.582 0.0 0 0 0
3468 4 1.7985 5.3955 21.582 0 0 0
3782 4 3.597 34.1715 19.7835 0 0 0
3472 4 1.7985 5.3955 25.179 0 0 0
1343 4 23.3805 28.776 19.7835 0 0 0
1766 4 21.582 34.1715 5.3955 0 0 0
307 4 30.5745 7.194 23.3805 0 0 0
2002 4 17.985 19.7835 1.7985 0 0 0
1983 4 16.1865 14.388 19.7835 0 0 0
1670 4 21.582 23.3805 26.9775 0 0 0
3007 4 5.3955 0.0 5.3955 0 0 0
662 4 28.776 5.3955 19.7835 0 0 0
428 4 30.5745 19.7835 21.582 0 0 0
2677 4 10.791 3.597 32.373 0 0 0
3091 4 5.3955 7.194 8.9925 0 0 0
1100 4 23.3805 8.9925 14.388 0 0 0
2877 4 10.791 21.582 32.373 0 0 0
2298 4 14.388 8.9925 16.1865 0 0 0
122 4 34.1715 23.3805 0.0 0 0 0
2378 4 14.388 16.1865 16.1865 0 0 0
924 4 26.9775 30.5745 0.0 0 0 0
3520 4 1.7985 8.9925 32.373 0 0 0
239 4 30.5745 0.0 34.1715 0 0 0
2935 4 8.9925 28.776 12.5895 0 0 0
2532 4 12.5895 30.5745 7.194 0 0 0
887 4 26.9775 25.179 5.3955 0 0 0
590 4 32.373 34.1715 26.9775 0 0 0
1026 4 25.179 1.7985 23.3805 0 0 0
171 4 34.1715 28.776 19.7835 0 0 0
2443 4 12.5895 21.582 1.7985 0 0 0
3342 4 7.194 30.5745 19.7835 0 0 0
2666 4 10.791 5.3955 23.3805 0 0 0
3794 4 3.597 34.1715 30.5745 0 0 0
3589 4 3.597 14.388 25.179 0 0 0
1249 4 25.179 21.582 7.194 0 0 0
3043 4 5.3955 3.597 1.7985 0 0 0
681 4 28.776 7.194 0.0 0 0 0
3626 4 3.597 19.7835 23.3805 0 0 0
3968 4 0.0 30.5745 12.5895 0 0 0
3957 4 0.0 25.179 28.776 0 0 0
2611 4 8.9925 0.0 8.9925 0 0 0
2095 4 16.1865 25.179 12.5895 0 0 0
2936 4 8.9925 30.5745 10.791 0 0 0
738 4 28.776 12.5895 16.1865 0 0 0
827 4 26.9775 17.985 23.3805 0 0 0
2482 4 14.388 26.9775 1.7985 0 0 0
2315 4 12.5895 7.194 30.5745 0 0 0
234 4 32.373 1.7985 30.5745 0 0 0
3714 4 3.597 26.9775 30.5745 0 0 0
1614 4 21.582 19.7835 12.5895 0 0 0
463 4 30.5745 21.582 19.7835 0 0 0
598 4 32.373 34.1715 34.1715 0 0 0
1992 4 16.1865 16.1865 25.179 0 0 0
2284 4 12.5895 8.9925 0.0 0 0 0
2187 4 16.1865 32.373 23.3805 0 0 0
1371 4 23.3805 32.373 8.9925 0 0 0
3174 4 7.194 16.1865 12.5895 0 0 0
3802 4 0.0 1.7985 1.7985 0 0 0
338 4 32.373 12.5895 16.1865 0 0 0
3713 4 3.597 25.179 28.776 0 0 0
3475 4 1.7985 3.597 30.5745 0 0 0
1559 4 19.7835 10.791 34.1715 0 0 0
1277 4 25.179 21.582 32.373 0 0 0
3386 4 7.194 34.1715 23.3805 0 0 0
1974 4 17.985 16.1865 12.5895 0 0 0
3160 4 5.3955 12.5895 32.373 0 0 0
3570 4 3.597 16.1865 8.9925 0 0 0
1830 4 17.985 1.7985 26.9775 0 0 0
3383 4 5.3955 32.373 19.7835 0 0 0
1820 4 16.1865 1.7985 14.388 0 0 0
236 4 30.5745 1.7985 28.776 0 0 0
949 4 28.776 28.776 25.179 0 0 0
1496 4 19.7835 8.9925 10.791 0 0 0
886 4 28.776 26.9775 5.3955 0 0 0
2864 4 8.9925 23.3805 17.985 0 0 0
3791 4 1.7985 32.373 26.9775 0 0 0
3275 4 5.3955 21.582 30.5745 0 0 0
1140 4 23.3805 12.5895 14.388 0 0 0
39 4 34.1715 3.597 34.1715 0 0 0
1434 4 21.582 1.7985 30.5745 0 0 0
1867 4 16.1865 3.597 23.3805 0 0 0
1006 4 25.179 1.7985 5.3955 0 0 0
3347 4 5.3955 28.776 23.3805 0 0 0
2709 4 10.791 7.194 25.179 0 0 0
613 4 28.776 0.0 10.791 0 0 0
1817 4 17.985 0.0 14.388 0 0 0
154 4 34.1715 26.9775 21.582 0 0 0
2447 4 12.5895 21.582 5.3955 0 0 0
3538 4 3.597 12.5895 16.1865 0 0 0
2203 4 12.5895 0.0 1.7985 0 0 0
2146 4 17.985 30.5745 23.3805 0 0 0
3201 4 7.194 17.985 0.0 0 0 0
1017 4 25.179 0.0 14.388 0 0 0
2648 4 8.9925 5.3955 3.597 0 0 0
1984 4 16.1865 16.1865 17.985 0 0 0
3196 4 5.3955 16.1865 28.776 0 0 0
2429 4 14.388 17.985 25.179 0 0 0
2951 4 8.9925 28.776 26.9775 0 0 0
714 4 28.776 8.9925 30.5745 0 0 0
3573 4 3.597 14.388 10.791 0 0 0
3040 4 5.3955 1.7985 32.373 0 0 0
720 4 26.9775 8.9925 32.373 0 0 0
2819 4 8.9925 17.985 16.1865 0 0 0
2966 4 10.791 34.1715 5.3955 0 0 0
952 4 26.9775 30.5745 25.179 0 0 0
2018 4 17.985 19.7835 16.1865 0 0 0
3202 4 7.194 19.7835 1.7985 0 0 0
749 4 28.776 10.791 25.179 0 0 0
1199 4 23.3805 14.388 34.1715 0 0 0
2980 4 8.9925 34.1715 14.388 0 0 0
3820 4 0.0 1.7985 34.1715 0 0 0
52 4 34.1715 8.9925 17.985 0 0 0
330 4 32.373 12.5895 8.9925 0 0 0
1511 4 19.7835 7.194 26.9775 0 0 0
2573 4 14.388 32.373 10.791 0 0 0
2279 4 12.5895 3.597 34.1715 0 0 0
1341 4 25.179 28.776 17.985 0 0 0
3842 4 0.0 8.9925 1.7985 0 0 0
1003 4 23.3805 0.0 1.7985 0 0 0
2055 4 16.1865 21.582 12.5895 0 0 0
1068 4 23.3805 5.3955 21.582 0 0 0
1666 4 21.582 23.3805 23.3805 0 0 0
747 4 26.9775 10.791 23.3805 0 0 0
704 4 26.9775 8.9925 17.985 0 0 0
1221 4 25.179 17.985 17.985 0 0 0
3871 4 0.0 10.791 17.985 0 0 0
74 4 34.1715 12.5895 21.582 0 0 0
992 4 26.9775 34.1715 25.179 0 0 0
2210 4 14.388 1.7985 8.9925 0 0 0
27 4 34.1715 3.597 12.5895 0 0 0
658 4 28.776 5.3955 16.1865 0 0 0
1812 4 16.1865 1.7985 7.194 0 0 0
304 4 30.5745 8.9925 17.985 0 0 0
794 4 28.776 16.1865 30.5745 0 0 0
148 4 34.1715 26.9775 10.791 0 0 0
2627 4 8.9925 0.0 23.3805 0 0 0
43 4 34.1715 7.194 5.3955 0 0 0
207 4 30.5745 0.0 5.3955 0 0 0
2295 4 12.5895 7.194 12.5895 0 0 0
3833 4 0.0 3.597 21.582 0 0 0
321 4 32.373 10.791 0.0 0 0 0
1318 4 25.179 26.9775 34.1715 0 0 0
2768 4 8.9925 16.1865 3.597 0 0 0
2263 4 12.5895 3.597 19.7835 0 0 0
2241 4 14.388 3.597 0.0 0 0 0
3536 4 1.7985 12.5895 10.791 0 0 0
2336 4 12.5895 12.5895 10.791 0 0 0
3267 4 5.3955 21.582 23.3805 0 0 0
1550 4 21.582 12.5895 26.9775 0 0 0
1029 4 25.179 0.0 25.179 0 0 0
1409 4 21.582 0.0 7.194 0 0 0
2409 4 14.388 17.985 7.194 0 0 0
1544 4 19.7835 12.5895 17.985 0 0 0
2848 4 8.9925 23.3805 3.597 0 0 0
2870 4 10.791 23.3805 26.9775 0 0 0
3922 4 0.0 23.3805 1.7985 0 0 0
346 4 32.373 12.5895 23.3805 0 0 0
2311 4 12.5895 7.194 26.9775 0 0 0
3369 4 7.194 32.373 7.194 0 0 0
1370 4 25.179 34.1715 8.9925 0 0 0
503 4 30.5745 25.179 19.7835 0 0 0
927 4 26.9775 28.776 5.3955 0 0 0
532 4 30.5745 30.5745 7.194 0 0 0
2790 4 10.791 16.1865 26.9775 0 0 0
3537 4 3.597 10.791 14.388 0 0 0
3309 4 7.194 25.179 25.179 0 0 0
2131 4 16.1865 28.776 8.9925 0 0 0
2223 4 12.5895 0.0 19.7835 0 0 0
2661 4 10.791 3.597 17.985 0 0 0
150 4 34.1715 26.9775 14.388 0 0 0
2965 4 10.791 32.373 3.597 0 0 0
812 4 26.9775 19.7835 7.194 0 0 0
713 4 28.776 7.194 28.776 0 0 0
953 4 28.776 28.776 28.776 0 0 0
1193 4 25.179 14.388 28.776 0 0 0
223 4 30.5745 0.0 19.7835 0 0 0
488 4 30.5745 26.9775 3.597 0 0 0
553 4 32.373 28.776 28.776 0 0 0
2307 4 12.5895 7.194 23.3805 0 0 0
3995 4 0.0 32.373 25.179 0 0 0
197 4 34.1715 32.373 30.5745 0 0 0
3630 4 3.597 19.7835 26.9775 0 0 0
3961 4 0.0 28.776 0.0 0 0 0
3005 4 7.194 0.0 3.597 0 0 0
2478 4 14.388 23.3805 34.1715 0 0 0
3423 4 1.7985 0.0 19.7835 0 0 0
2607 4 8.9925 0.0 5.3955 0 0 0
1501 4 21.582 7.194 17.985 0 0 0
3491 4 1.7985 7.194 8.9925 0 0 0
262 4 32.373 5.3955 19.7835 0 0 0
318 4 32.373 8.9925 34.1715 0 0 0
1722 4 21.582 30.5745 1.7985 0 0 0
2494 4 14.388 26.9775 12.5895 0 0 0
1295 4 23.3805 25.179 12.5895 0 0 0
3876 4 0.0 12.5895 26.9775 0 0 0
273 4 32.373 3.597 28.776 0 0 0
2646 4 10.791 5.3955 5.3955 0 0 0
1200 4 23.3805 16.1865 32.373 0 0 0
3817 4 0.0 0.0 28.776 0 0 0
2750 4 10.791 12.5895 26.9775 0 0 0
3700 4 1.7985 26.9775 14.388 0 0 0
3967 4 0.0 28.776 10.791 0 0 0
1886 4 17.985 8.9925 5.3955 0 0 0
2943 4 8.9925 28.776 19.7835 0 0 0
365 4 32.373 14.388 3.597 0 0 0
612 4 26.9775 1.7985 7.194 0 0 0
1672 4 19.7835 23.3805 25.179 0 0 0
193 4 34.1715 32.373 23.3805 0 0 0
1245 4 25.179 21.582 3.597 0 0 0
2809 4 10.791 17.985 7.194 0 0 0
552 4 30.5745 30.5745 25.179 0 0 0
1957 4 17.985 10.791 32.373 0 0 0
5 4 34.1715 0.0 8.9925 0 0 0
1009 4 25.179 0.0 7.194 0 0 0
155 4 34.1715 25.179 26.9775 0 0 0
1673 4 21.582 21.582 28.776 0 0 0
2541 4 14.388 28.776 17.985 0 0 0
2707 4 8.9925 7.194 23.3805 0 0 0
1256 4 23.3805 23.3805 10.791 0 0 0
3960 4 0.0 26.9775 34.1715 0 0 0
2782 4 10.791 16.1865 19.7835 0 0 0
232 4 30.5745 1.7985 25.179 0 0 0
1663 4 19.7835 21.582 19.7835 0 0 0
754 4 28.776 12.5895 30.5745 0 0 0
3356 4 5.3955 30.5745 28.776 0 0 0
878 4 28.776 23.3805 34.1715 0 0 0
2904 4 8.9925 26.9775 17.985 0 0 0
3658 4 3.597 23.3805 16.1865 0 0 0
3136 4 5.3955 12.5895 10.791 0 0 0
601 4 28.776 0.0 0.0 0 0 0
1204 4 23.3805 19.7835 0.0 0 0 0
3317 4 7.194 25.179 32.373 0 0 0
1589 4 21.582 14.388 25.179 0 0 0
465 4 32.373 21.582 21.582 0 0 0
2369 4 14.388 14.388 7.194 0 0 0
505 4 32.373 25.179 21.582 0 0 0
1800 4 19.7835 34.1715 32.373 0 0 0
515 4 30.5745 25.179 30.5745 0 0 0
2283 4 12.5895 7.194 1.7985 0 0 0
1451 4 19.7835 3.597 8.9925 0 0 0
1528 4 19.7835 12.5895 3.597 0 0 0
1919 4 16.1865 7.194 34.1715 0 0 0
893 4 28.776 25.179 10.791 0 0 0
1302 4 25.179 26.9775 19.7835 0 0 0
3142 4 7.194 12.5895 19.7835 0 0 0
2456 4 12.5895 23.3805 10.791 0 0 0
1372 4 23.3805 34.1715 7.194 0 0 0
921 4 28.776 28.776 0.0 0 0 0
771 4 26.9775 14.388 8.9925 0 0 0
3053 4 7.194 3.597 10.791 0 0 0
257 4 32.373 3.597 14.388 0 0 0
16 4 34.1715 1.7985 25.179 0 0 0
276 4 30.5745 5.3955 28.776 0 0 0
1247 4 23.3805 21.582 5.3955 0 0 0
1479 4 19.7835 3.597 34.1715 0 0 0
3058 4 7.194 5.3955 16.1865 0 0 0
1262 4 25.179 23.3805 19.7835 0 0 0
3473 4 3.597 3.597 28.776 0 0 0
1840 4 16.1865 1.7985 32.373 0 0 0
222 4 32.373 1.7985 19.7835 0 0 0
2452 4 12.5895 23.3805 7.194 0 0 0
1126 4 25.179 12.5895 5.3955 0 0 0
2300 4 12.5895 8.9925 14.388 0 0 0
2622 4 10.791 1.7985 19.7835 0 0 0
3529 4 3.597 10.791 7.194 0 0 0
1173 4 25.179 14.388 10.791 0 0 0
490 4 32.373 26.9775 8.9925 0 0 0
3464 4 1.7985 5.3955 17.985 0 0 0
2765 4 10.791 14.388 3.597 0 0 0
3984 4 0.0 34.1715 5.3955 0 0 0
1122 4 25.179 12.5895 1.7985 0 0 0
2634 4 10.791 1.7985 30.5745 0 0 0
2917 4 10.791 25.179 32.373 0 0 0
860 4 26.9775 23.3805 14.388 0 0 0
694 4 28.776 8.9925 12.5895 0 0 0
3090 4 7.194 8.9925 8.9925 0 0 0
3624 4 1.7985 19.7835 17.985 0 0 0
2969 4 10.791 32.373 7.194 0 0 0
3487 4 1.7985 7.194 5.3955 0 0 0
128 4 34.1715 23.3805 10.791 0 0 0
1620 4 19.7835 19.7835 14.388 0 0 0
1076 4 23.3805 5.3955 28.776 0 0 0
3172 4 5.3955 16.1865 7.194 0 0 0
1325 4 25.179 28.776 3.597 0 0 0
1019 4 23.3805 0.0 16.1865 0 0 0
255 4 30.5745 3.597 12.5895 0 0 0
1321 4 25.179 28.776 0.0 0 0 0
3934 4 0.0 23.3805 23.3805 0 0 0
1458 4 21.582 5.3955 16.1865 0 0 0
1421 4 21.582 0.0 17.985 0 0 0
543 4 30.5745 28.776 19.7835 0 0 0
422 4 32.373 19.7835 19.7835 0 0 0
344 4 30.5745 12.5895 17.985 0 0 0
2022 4 17.985 19.7835 19.7835 0 0 0
1973 4 17.985 14.388 10.791 0 0 0
492 4 30.5745 26.9775 7.194 0 0 0
2028 4 16.1865 19.7835 21.582 0 0 0
2006 4 17.985 19.7835 5.3955 0 0 0
3249 4 7.194 21.582 7.194 0 0 0
1428 4 19.7835 1.7985 21.582 0 0 0
2029 4 17.985 17.985 25.179 0 0 0
3126 4 7.194 12.5895 5.3955 0 0 0
3778 4 3.597 34.1715 16.1865 0 0 0
3639 4 1.7985 17.985 34.1715 0 0 0
728 4 26.9775 12.5895 3.597 0 0 0
3322 4 7.194 30.5745 1.7985 0 0 0
1105 4 25.179 7.194 21.582 0 0 0
1985 4 17.985 14.388 21.582 0 0 0
2823 4 8.9925 17.985 19.7835 0 0 0
1016 4 23.3805 1.7985 10.791 0 0 0
2380 4 12.5895 16.1865 14.388 0 0 0
2474 4 14.388 23.3805 30.5745 0 0 0
2710 4 10.791 8.9925 26.9775 0 0 0
2702 4 10.791 8.9925 19.7835 0 0 0
1517 4 21.582 7.194 32.373 0 0 0
2288 4 12.5895 8.9925 3.597 0 0 0
2920 4 8.9925 26.9775 32.373 0 0 0
1827 4 16.1865 0.0 23.3805 0 0 0
3408 4 1.7985 1.7985 3.597 0 0 0
1254 4 25.179 23.3805 12.5895 0 0 0
2757 4 10.791 10.791 32.373 0 0 0
701 4 28.776 7.194 17.985 0 0 0
2929 4 10.791 28.776 7.194 0 0 0
1846 4 17.985 5.3955 5.3955 0 0 0
1379 4 23.3805 32.373 16.1865 0 0 0
2928 4 8.9925 30.5745 3.597 0 0 0
3583 4 1.7985 14.388 19.7835 0 0 0
984 4 26.9775 34.1715 17.985 0 0 0
497 4 32.373 25.179 14.388 0 0 0
496 4 30.5745 26.9775 10.791 0 0 0
3235 4 5.3955 17.985 30.5745 0 0 0
229 4 32.373 0.0 25.179 0 0 0
2406 4 14.388 19.7835 5.3955 0 0 0
573 4 32.373 32.373 10.791 0 0 0
2303 4 12.5895 7.194 19.7835 0 0 0
242 4 32.373 5.3955 1.7985 0 0 0
3287 4 5.3955 25.179 5.3955 0 0 0
2299 4 12.5895 7.194 16.1865 0 0 0
1362 4 25.179 34.1715 1.7985 0 0 0
1278 4 25.179 23.3805 34.1715 0 0 0
2934 4 10.791 30.5745 12.5895 0 0 0
337 4 32.373 10.791 14.388 0 0 0
3745 4 3.597 28.776 21.582 0 0 0
2086 4 17.985 26.9775 5.3955 0 0 0
3374 4 7.194 34.1715 12.5895 0 0 0
2272 4 12.5895 5.3955 25.179 0 0 0
3698 4 3.597 26.9775 16.1865 0 0 0
3049 4 7.194 3.597 7.194 0 0 0
2956 4 8.9925 30.5745 28.776 0 0 0
3585 4 3.597 14.388 21.582 0 0 0
796 4 26.9775 16.1865 28.776 0 0 0
411 4 30.5745 17.985 8.9925 0 0 0
1184 4 23.3805 16.1865 17.985 0 0 0
2689 4 10.791 7.194 7.194 0 0 0
1608 4 19.7835 19.7835 3.597 0 0 0
3831 4 0.0 3.597 17.985 0 0 0
1604 4 19.7835 19.7835 0.0 0 0 0
1413 4 21.582 0.0 10.791 0 0 0
256 4 30.5745 5.3955 10.791 0 0 0
2051 4 16.1865 21.582 8.9925 0 0 0
164 4 34.1715 30.5745 3.597 0 0 0
3786 4 3.597 34.1715 23.3805 0 0 0
2893 4 10.791 25.179 10.791 0 0 0
996 4 26.9775 34.1715 28.776 0 0 0
2996 4 8.9925 34.1715 28.776 0 0 0
274 4 32.373 5.3955 30.5745 0 0 0
3844 4 0.0 8.9925 5.3955 0 0 0
3087 4 5.3955 7.194 5.3955 0 0 0
2471 4 12.5895 21.582 26.9775 0 0 0
2908 4 8.9925 26.9775 21.582 0 0 0
118 4 34.1715 19.7835 28.776 0 0 0
1551 4 19.7835 10.791 26.9775 0 0 0
1448 4 19.7835 5.3955 3.597 0 0 0
3297 4 7.194 25.179 14.388 0 0 0
71 4 34.1715 10.791 19.7835 0 0 0
3125 4 7.194 10.791 3.597 0 0 0
1074 4 25.179 5.3955 30.5745 0 0 0
861 4 28.776 21.582 17.985 0 0 0
2345 4 14.388 10.791 21.582 0 0 0
1630 4 21.582 19.7835 26.9775 0 0 0
1300 4 23.3805 26.9775 14.388 0 0 0
698 4 28.776 8.9925 16.1865 0 0 0
2989 4 10.791 32.373 25.179 0 0 0
1169 4 25.179 14.388 7.194 0 0 0
429 4 32.373 17.985 25.179 0 0 0
3469 4 3.597 3.597 25.179 0 0 0
141 4 34.1715 25.179 1.7985 0 0 0
1231 4 23.3805 17.985 26.9775 0 0 0
2880 4 8.9925 23.3805 32.373 0 0 0
2511 4 12.5895 25.179 26.9775 0 0 0
3039 4 5.3955 0.0 34.1715 0 0 0
34 4 34.1715 5.3955 21.582 0 0 0
736 4 26.9775 12.5895 10.791 0 0 0
2678 4 10.791 5.3955 34.1715 0 0 0
1054 4 25.179 5.3955 12.5895 0 0 0
2219 4 12.5895 0.0 16.1865 0 0 0
3677 4 3.597 21.582 32.373 0 0 0
1646 4 21.582 23.3805 5.3955 0 0 0
2895 4 8.9925 25.179 12.5895 0 0 0
1705 4 21.582 25.179 21.582 0 0 0
2748 4 8.9925 12.5895 21.582 0 0 0
1317 4 25.179 25.179 32.373 0 0 0
2538 4 14.388 30.5745 16.1865 0 0 0
2723 4 8.9925 10.791 1.7985 0 0 0
1515 4 19.7835 7.194 30.5745 0 0 0
3727 4 1.7985 28.776 5.3955 0 0 0
2650 4 10.791 5.3955 8.9925 0 0 0
2480 4 12.5895 23.3805 32.373 0 0 0
1936 4 16.1865 12.5895 10.791 0 0 0
2106 4 17.985 26.9775 23.3805 0 0 0
3703 4 1.7985 25.179 19.7835 0 0 0
2612 4 8.9925 1.7985 7.194 0 0 0
3394 4 7.194 34.1715 30.5745 0 0 0
2793 4 10.791 14.388 28.776 0 0 0
3515 4 1.7985 7.194 30.5745 0 0 0
3772 4 1.7985 34.1715 7.194 0 0 0
3603 4 1.7985 17.985 1.7985 0 0 0
3672 4 1.7985 23.3805 25.179 0 0 0
545 4 32.373 28.776 21.582 0 0 0
2207 4 12.5895 0.0 5.3955 0 0 0
1028 4 23.3805 1.7985 21.582 0 0 0
3112 4 5.3955 8.9925 25.179 0 0 0
3868 4 0.0 12.5895 12.5895 0 0 0
3141 4 7.194 10.791 17.985 0 0 0
1819 4 16.1865 0.0 16.1865 0 0 0
46 4 34.1715 8.9925 7.194 0 0 0
2857 4 10.791 21.582 14.388 0 0 0
1773 4 21.582 32.373 10.791 0 0 0
1468 4 19.7835 5.3955 21.582 0 0 0
1726 4 21.582 30.5745 5.3955 0 0 0
3120 4 5.3955 8.9925 32.373 0 0 0
3815 4 0.0 0.0 25.179 0 0 0
2686 4 10.791 8.9925 5.3955 0 0 0
1650 4 21.582 23.3805 8.9925 0 0 0
1365 4 25.179 32.373 3.597 0 0 0
2865 4 10.791 21.582 21.582 0 0 0
484 4 30.5745 26.9775 0.0 0 0 0
3306 4 7.194 26.9775 23.3805 0 0 0
691 4 26.9775 7.194 8.9925 0 0 0
1243 4 23.3805 21.582 1.7985 0 0 0
3454 4 3.597 5.3955 12.5895 0 0 0
159 4 34.1715 25.179 34.1715 0 0 0
2940 4 8.9925 30.5745 14.388 0 0 0
1510 4 21.582 8.9925 26.9775 0 0 0
1102 4 25.179 8.9925 19.7835 0 0 0
69 4 34.1715 10.791 16.1865 0 0 0
2423 4 12.5895 17.985 19.7835 0 0 0
767 4 26.9775 14.388 5.3955 0 0 0
1545 4 21.582 10.791 21.582 0 0 0
3493 4 3.597 7.194 10.791 0 0 0
1237 4 25.179 17.985 32.373 0 0 0
1818 4 17.985 1.7985 16.1865 0 0 0
669 4 28.776 3.597 25.179 0 0 0
356 4 30.5745 12.5895 28.776 0 0 0
3890 4 0.0 16.1865 16.1865 0 0 0
3732 4 1.7985 30.5745 7.194 0 0 0
1212 4 23.3805 19.7835 7.194 0 0 0
1071 4 23.3805 3.597 26.9775 0 0 0
918 4 28.776 26.9775 34.1715 0 0 0
600 4 30.5745 34.1715 32.373 0 0 0
2045 4 17.985 21.582 3.597 0 0 0
755 4 26.9775 10.791 30.5745 0 0 0
2815 4 8.9925 17.985 12.5895 0 0 0
23 4 34.1715 3.597 5.3955 0 0 0
1680 4 19.7835 23.3805 32.373 0 0 0
2950 4 10.791 30.5745 26.9775 0 0 0
891 4 26.9775 25.179 8.9925 0 0 0
3063 4 5.3955 3.597 19.7835 0 0 0
3008 4 5.3955 1.7985 3.597 0 0 0
3069 4 7.194 3.597 25.179 0 0 0
3721 4 3.597 28.776 0.0 0 0 0
1401 4 21.582 0.0 0.0 0 0 0
85 4 34.1715 14.388 8.9925 0 0 0
391 4 30.5745 14.388 26.9775 0 0 0
459 4 30.5745 21.582 16.1865 0 0 0
1632 4 19.7835 19.7835 25.179 0 0 0
2663 4 8.9925 3.597 19.7835 0 0 0
3032 4 5.3955 1.7985 25.179 0 0 0
1376 4 23.3805 34.1715 10.791 0 0 0
302 4 32.373 8.9925 19.7835 0 0 0
3152 4 5.3955 12.5895 25.179 0 0 0
3900 4 0.0 16.1865 34.1715 0 0 0
398 4 32.373 16.1865 34.1715 0 0 0
629 4 28.776 0.0 25.179 0 0 0
3664 4 1.7985 23.3805 17.985 0 0 0
3667 4 1.7985 21.582 23.3805 0 0 0
77 4 34.1715 10.791 30.5745 0 0 0
554 4 32.373 30.5745 30.5745 0 0 0
2182 4 17.985 34.1715 19.7835 0 0 0
1175 4 23.3805 14.388 12.5895 0 0 0
544 4 30.5745 30.5745 17.985 0 0 0
1965 4 17.985 14.388 3.597 0 0 0
1864 4 16.1865 5.3955 17.985 0 0 0
3073 4 7.194 3.597 28.776 0 0 0
1205 4 25.179 17.985 3.597 0 0 0
1834 4 17.985 1.7985 30.5745 0 0 0
1474 4 21.582 5.3955 30.5745 0 0 0
1656 4 19.7835 23.3805 10.791 0 0 0
3632 4 1.7985 19.7835 25.179 0 0 0
1266 4 25.179 23.3805 23.3805 0 0 0
3186 4 7.194 16.1865 23.3805 0 0 0
2656 4 8.9925 5.3955 10.791 0 0 0
2640 4 8.9925 1.7985 32.373 0 0 0
1649 4 21.582 21.582 7.194 0 0 0
31 4 34.1715 3.597 19.7835 0 0 0
3312 4 5.3955 26.9775 25.179 0 0 0
645 4 28.776 3.597 3.597 0 0 0
1103 4 23.3805 7.194 19.7835 0 0 0
3928 4 0.0 23.3805 12.5895 0 0 0
1246 4 25.179 23.3805 5.3955 0 0 0
3932 4 0.0 23.3805 19.7835 0 0 0
529 4 32.373 28.776 7.194 0 0 0
1410 4 21.582 1.7985 8.9925 0 0 0
2034 4 17.985 19.7835 30.5745 0 0 0
423 4 30.5745 17.985 19.7835 0 0 0
2256 4 12.5895 5.3955 10.791 0 0 0
998 4 28.776 34.1715 34.1715 0 0 0
3631 4 1.7985 17.985 26.9775 0 0 0
1933 4 17.985 10.791 10.791 0 0 0
3954 4 0.0 26.9775 23.3805 0 0 0
1097 4 25.179 7.194 14.388 0 0 0
2717 4 10.791 7.194 32.373 0 0 0
1094 4 25.179 8.9925 12.5895 0 0 0
2235 4 12.5895 0.0 30.5745 0 0 0
3042 4 7.194 5.3955 1.7985 0 0 0
2639 4 8.9925 0.0 34.1715 0 0 0
1569 4 21.582 14.388 7.194 0 0 0
366 4 32.373 16.1865 5.3955 0 0 0
1046 4 25.179 5.3955 5.3955 0 0 0
435 4 30.5745 17.985 30.5745 0 0 0
2160 4 16.1865 30.5745 32.373 0 0 0
388 4 30.5745 16.1865 21.582 0 0 0
3637 4 3.597 17.985 32.373 0 0 0
2475 4 12.5895 21.582 30.5745 0 0 0
3590 4 3.597 16.1865 26.9775 0 0 0
124 4 34.1715 23.3805 3.597 0 0 0
3370 4 7.194 34.1715 8.9925 0 0 0
2537 4 14.388 28.776 14.388 0 0 0
2821 4 10.791 17.985 17.985 0 0 0
680 4 26.9775 5.3955 32.373 0 0 0
493 4 32.373 25.179 10.791 0 0 0
396 4 30.5745 16.1865 28.776 0 0 0
880 4 26.9775 23.3805 32.373 0 0 0
3444 4 1.7985 5.3955 0.0 0 0 0
494 4 32.373 26.9775 12.5895 0 0 0
3615 4 1.7985 17.985 12.5895 0 0 0
3674 4 3.597 23.3805 30.5745 0 0 0
762 4 28.776 16.1865 1.7985 0 0 0
652 4 26.9775 5.3955 7.194 0 0 0
3581 4 3.597 14.388 17.985 0 0 0
668 4 26.9775 5.3955 21.582 0 0 0
993 4 28.776 32.373 28.776 0 0 0
1784 4 19.7835 34.1715 17.985 0 0 0
2868 4 8.9925 23.3805 21.582 0 0 0
474 4 32.373 23.3805 30.5745 0 0 0
214 4 32.373 1.7985 12.5895 0 0 0
1599 4 19.7835 14.388 34.1715 0 0 0
873 4 28.776 21.582 28.776 0 0 0
2804 4 8.9925 19.7835 0.0 0 0 0
2688 4 8.9925 8.9925 3.597 0 0 0
3239 4 5.3955 17.985 34.1715 0 0 0
2273 4 14.388 3.597 28.776 0 0 0
1 4 34.1715 0.0 1.7985 0 0 0
761 4 28.776 14.388 0.0 0 0 0
3209 4 7.194 17.985 7.194 0 0 0
2025 4 17.985 17.985 21.582 0 0 0
7 4 34.1715 0.0 12.5895 0 0 0
819 4 26.9775 17.985 16.1865 0 0 0
3426 4 3.597 1.7985 23.3805 0 0 0
1449 4 21.582 3.597 7.194 0 0 0
3611 4 1.7985 17.985 8.9925 0 0 0
3460 4 1.7985 5.3955 14.388 0 0 0
1366 4 25.179 34.1715 5.3955 0 0 0
1013 4 25.179 0.0 10.791 0 0 0
1509 4 21.582 7.194 25.179 0 0 0
2499 4 12.5895 25.179 16.1865 0 0 0
1877 4 17.985 3.597 32.373 0 0 0
3485 4 3.597 7.194 3.597 0 0 0
36 4 34.1715 5.3955 25.179 0 0 0
110 4 34.1715 19.7835 14.388 0 0 0
1484 4 19.7835 8.9925 0.0 0 0 0
161 4 34.1715 28.776 1.7985 0 0 0
1069 4 25.179 3.597 25.179 0 0 0
3175 4 5.3955 14.388 12.5895 0 0 0
1865 4 17.985 3.597 21.582 0 0 0
149 4 34.1715 25.179 16.1865 0 0 0
3818 4 0.0 1.7985 30.5745 0 0 0
1322 4 25.179 30.5745 1.7985 0 0 0
2841 4 10.791 21.582 0.0 0 0 0
3316 4 5.3955 26.9775 28.776 0 0 0
3246 4 7.194 23.3805 5.3955 0 0 0
40 4 34.1715 5.3955 32.373 0 0 0
729 4 28.776 10.791 7.194 0 0 0
2198 4 17.985 34.1715 34.1715 0 0 0
1711 4 19.7835 25.179 26.9775 0 0 0
743 4 26.9775 10.791 19.7835 0 0 0
1708 4 19.7835 26.9775 21.582 0 0 0
111 4 34.1715 17.985 19.7835 0 0 0
582 4 32.373 34.1715 19.7835 0 0 0
1453 4 21.582 3.597 10.791 0 0 0
1186 4 25.179 16.1865 23.3805 0 0 0
4 5 34.1715 1.7985 3.597 0 0 0
8 5 34.1715 1.7985 10.791 0 0 0
10 5 34.1715 1.7985 14.388 0 0 0
11 5 34.1715 0.0 19.7835 0 0 0
12 5 34.1715 1.7985 17.985 0 0 0
13 5 34.1715 0.0 23.3805 0 0 0
15 5 34.1715 0.0 26.9775 0 0 0
18 5 34.1715 1.7985 28.776 0 0 0
25 5 34.1715 3.597 8.9925 0 0 0
38 5 34.1715 5.3955 28.776 0 0 0
45 5 34.1715 7.194 8.9925 0 0 0
47 5 34.1715 7.194 12.5895 0 0 0
49 5 34.1715 7.194 16.1865 0 0 0
58 5 34.1715 8.9925 28.776 0 0 0
59 5 34.1715 7.194 34.1715 0 0 0
60 5 34.1715 8.9925 32.373 0 0 0
63 5 34.1715 10.791 5.3955 0 0 0
66 5 34.1715 12.5895 7.194 0 0 0
72 5 34.1715 12.5895 17.985 0 0 0
73 5 34.1715 10.791 23.3805 0 0 0
75 5 34.1715 10.791 26.9775 0 0 0
78 5 34.1715 12.5895 28.776 0 0 0
83 5 34.1715 14.388 5.3955 0 0 0
88 5 34.1715 16.1865 10.791 0 0 0
94 5 34.1715 16.1865 21.582 0 0 0
96 5 34.1715 16.1865 25.179 0 0 0
97 5 34.1715 14.388 30.5745 0 0 0
98 5 34.1715 16.1865 28.776 0 0 0
100 5 34.1715 16.1865 32.373 0 0 0
103 5 34.1715 17.985 5.3955 0 0 0
105 5 34.1715 17.985 8.9925 0 0 0
114 5 34.1715 19.7835 21.582 0 0 0
116 5 34.1715 19.7835 25.179 0 0 0
121 5 34.1715 21.582 1.7985 0 0 0
125 5 34.1715 21.582 8.9925 0 0 0
127 5 34.1715 21.582 12.5895 0 0 0
130 5 34.1715 23.3805 14.388 0 0 0
133 5 34.1715 21.582 23.3805 0 0 0
135 5 34.1715 21.582 26.9775 0 0 0
139 5 34.1715 21.582 34.1715 0 0 0
140 5 34.1715 23.3805 32.373 0 0 0
146 5 34.1715 26.9775 7.194 0 0 0
147 5 34.1715 25.179 12.5895 0 0 0
151 5 34.1715 25.179 19.7835 0 0 0
153 5 34.1715 25.179 23.3805 0 0 0
156 5 34.1715 26.9775 25.179 0 0 0
157 5 34.1715 25.179 30.5745 0 0 0
165 5 34.1715 28.776 8.9925 0 0 0
168 5 34.1715 30.5745 10.791 0 0 0
174 5 34.1715 30.5745 21.582 0 0 0
176 5 34.1715 30.5745 25.179 0 0 0
177 5 34.1715 28.776 30.5745 0 0 0
178 5 34.1715 30.5745 28.776 0 0 0
183 5 34.1715 32.373 5.3955 0 0 0
184 5 34.1715 34.1715 3.597 0 0 0
188 5 34.1715 34.1715 10.791 0 0 0
190 5 34.1715 34.1715 14.388 0 0 0
192 5 34.1715 34.1715 17.985 0 0 0
196 5 34.1715 34.1715 25.179 0 0 0
198 5 34.1715 34.1715 28.776 0 0 0
203 5 30.5745 0.0 1.7985 0 0 0
204 5 30.5745 1.7985 0.0 0 0 0
209 5 32.373 0.0 7.194 0 0 0
215 5 30.5745 0.0 12.5895 0 0 0
219 5 30.5745 0.0 16.1865 0 0 0
231 5 30.5745 0.0 26.9775 0 0 0
235 5 30.5745 0.0 30.5745 0 0 0
241 5 32.373 3.597 0.0 0 0 0
244 5 30.5745 5.3955 0.0 0 0 0
245 5 32.373 3.597 3.597 0 0 0
248 5 30.5745 5.3955 3.597 0 0 0
252 5 30.5745 5.3955 7.194 0 0 0
258 5 32.373 5.3955 16.1865 0 0 0
259 5 30.5745 3.597 16.1865 0 0 0
260 5 30.5745 5.3955 14.388 0 0 0
263 5 30.5745 3.597 19.7835 0 0 0
264 5 30.5745 5.3955 17.985 0 0 0
267 5 30.5745 3.597 23.3805 0 0 0
268 5 30.5745 5.3955 21.582 0 0 0
272 5 30.5745 5.3955 25.179 0 0 0
275 5 30.5745 3.597 30.5745 0 0 0
279 5 30.5745 3.597 34.1715 0 0 0
280 5 30.5745 5.3955 32.373 0 0 0
281 5 32.373 7.194 0.0 0 0 0
282 5 32.373 8.9925 1.7985 0 0 0
283 5 30.5745 7.194 1.7985 0 0 0
284 5 30.5745 8.9925 0.0 0 0 0
285 5 32.373 7.194 3.597 0 0 0
290 5 32.373 8.9925 8.9925 0 0 0
291 5 30.5745 7.194 8.9925 0 0 0
295 5 30.5745 7.194 12.5895 0 0 0
296 5 30.5745 8.9925 10.791 0 0 0
298 5 32.373 8.9925 16.1865 0 0 0
299 5 30.5745 7.194 16.1865 0 0 0
303 5 30.5745 7.194 19.7835 0 0 0
305 5 32.373 7.194 21.582 0 0 0
315 5 30.5745 7.194 30.5745 0 0 0
316 5 30.5745 8.9925 28.776 0 0 0
323 5 30.5745 10.791 1.7985 0 0 0
325 5 32.373 10.791 3.597 0 0 0
331 5 30.5745 10.791 8.9925 0 0 0
333 5 32.373 10.791 10.791 0 0 0
342 5 32.373 12.5895 19.7835 0 0 0
347 5 30.5745 10.791 23.3805 0 0 0
348 5 30.5745 12.5895 21.582 0 0 0
349 5 32.373 10.791 25.179 0 0 0
351 5 30.5745 10.791 26.9775 0 0 0
352 5 30.5745 12.5895 25.179 0 0 0
355 5 30.5745 10.791 30.5745 0 0 0
357 5 32.373 10.791 32.373 0 0 0
360 5 30.5745 12.5895 32.373 0 0 0
368 5 30.5745 16.1865 3.597 0 0 0
369 5 32.373 14.388 7.194 0 0 0
370 5 32.373 16.1865 8.9925 0 0 0
372 5 30.5745 16.1865 7.194 0 0 0
374 5 32.373 16.1865 12.5895 0 0 0
377 5 32.373 14.388 14.388 0 0 0
378 5 32.373 16.1865 16.1865 0 0 0
379 5 30.5745 14.388 16.1865 0 0 0
380 5 30.5745 16.1865 14.388 0 0 0
383 5 30.5745 14.388 19.7835 0 0 0
385 5 32.373 14.388 21.582 0 0 0
386 5 32.373 16.1865 23.3805 0 0 0
392 5 30.5745 16.1865 25.179 0 0 0
393 5 32.373 14.388 28.776 0 0 0
394 5 32.373 16.1865 30.5745 0 0 0
395 5 30.5745 14.388 30.5745 0 0 0
400 5 30.5745 16.1865 32.373 0 0 0
401 5 32.373 17.985 0.0 0 0 0
402 5 32.373 19.7835 1.7985 0 0 0
403 5 30.5745 17.985 1.7985 0 0 0
404 5 30.5745 19.7835 0.0 0 0 0
405 5 32.373 17.985 3.597 0 0 0
406 5 32.373 19.7835 5.3955 0 0 0
408 5 30.5745 19.7835 3.597 0 0 0
409 5 32.373 17.985 7.194 0 0 0
410 5 32.373 19.7835 8.9925 0 0 0
418 5 32.373 19.7835 16.1865 0 0 0
425 5 32.373 17.985 21.582 0 0 0
433 5 32.373 17.985 28.776 0 0 0
437 5 32.373 17.985 32.373 0 0 0
438 5 32.373 19.7835 34.1715 0 0 0
439 5 30.5745 17.985 34.1715 0 0 0
442 5 32.373 23.3805 1.7985 0 0 0
444 5 30.5745 23.3805 0.0 0 0 0
445 5 32.373 21.582 3.597 0 0 0
447 5 30.5745 21.582 5.3955 0 0 0
448 5 30.5745 23.3805 3.597 0 0 0
449 5 32.373 21.582 7.194 0 0 0
451 5 30.5745 21.582 8.9925 0 0 0
452 5 30.5745 23.3805 7.194 0 0 0
456 5 30.5745 23.3805 10.791 0 0 0
469 5 32.373 21.582 25.179 0 0 0
471 5 30.5745 21.582 26.9775 0 0 0
481 5 32.373 25.179 0.0 0 0 0
483 5 30.5745 25.179 1.7985 0 0 0
487 5 30.5745 25.179 5.3955 0 0 0
491 5 30.5745 25.179 8.9925 0 0 0
499 5 30.5745 25.179 16.1865 0 0 0
502 5 32.373 26.9775 19.7835 0 0 0
507 5 30.5745 25.179 23.3805 0 0 0
508 5 30.5745 26.9775 21.582 0 0 0
509 5 32.373 25.179 25.179 0 0 0
513 5 32.373 25.179 28.776 0 0 0
520 5 30.5745 26.9775 32.373 0 0 0
521 5 32.373 28.776 0.0 0 0 0
522 5 32.373 30.5745 1.7985 0 0 0
527 5 30.5745 28.776 5.3955 0 0 0
530 5 32.373 30.5745 8.9925 0 0 0
540 5 30.5745 30.5745 14.388 0 0 0
546 5 32.373 30.5745 23.3805 0 0 0
547 5 30.5745 28.776 23.3805 0 0 0
549 5 32.373 28.776 25.179 0 0 0
550 5 32.373 30.5745 26.9775 0 0 0
551 5 30.5745 28.776 26.9775 0 0 0
557 5 32.373 28.776 32.373 0 0 0
559 5 30.5745 28.776 34.1715 0 0 0
560 5 30.5745 30.5745 32.373 0 0 0
570 5 32.373 34.1715 8.9925 0 0 0
572 5 30.5745 34.1715 7.194 0 0 0
574 5 32.373 34.1715 12.5895 0 0 0
578 5 32.373 34.1715 16.1865 0 0 0
579 5 30.5745 32.373 16.1865 0 0 0
584 5 30.5745 34.1715 17.985 0 0 0
586 5 32.373 34.1715 23.3805 0 0 0
587 5 30.5745 32.373 23.3805 0 0 0
588 5 30.5745 34.1715 21.582 0 0 0
592 5 30.5745 34.1715 25.179 0 0 0
593 5 32.373 32.373 28.776 0 0 0
594 5 32.373 34.1715 30.5745 0 0 0
596 5 30.5745 34.1715 28.776 0 0 0
603 5 26.9775 0.0 1.7985 0 0 0
605 5 28.776 0.0 3.597 0 0 0
608 5 26.9775 1.7985 3.597 0 0 0
610 5 28.776 1.7985 8.9925 0 0 0
618 5 28.776 1.7985 16.1865 0 0 0
619 5 26.9775 0.0 16.1865 0 0 0
620 5 26.9775 1.7985 14.388 0 0 0
622 5 28.776 1.7985 19.7835 0 0 0
623 5 26.9775 0.0 19.7835 0 0 0
624 5 26.9775 1.7985 17.985 0 0 0
625 5 28.776 0.0 21.582 0 0 0
628 5 26.9775 1.7985 21.582 0 0 0
632 5 26.9775 1.7985 25.179 0 0 0
634 5 28.776 1.7985 30.5745 0 0 0
635 5 26.9775 0.0 30.5745 0 0 0
637 5 28.776 0.0 32.373 0 0 0
638 5 28.776 1.7985 34.1715 0 0 0
642 5 28.776 5.3955 1.7985 0 0 0
644 5 26.9775 5.3955 0.0 0 0 0
657 5 28.776 3.597 14.388 0 0 0
659 5 26.9775 3.597 16.1865 0 0 0
661 5 28.776 3.597 17.985 0 0 0
671 5 26.9775 3.597 26.9775 0 0 0
672 5 26.9775 5.3955 25.179 0 0 0
674 5 28.776 5.3955 30.5745 0 0 0
675 5 26.9775 3.597 30.5745 0 0 0
676 5 26.9775 5.3955 28.776 0 0 0
678 5 28.776 5.3955 34.1715 0 0 0
684 5 26.9775 8.9925 0.0 0 0 0
687 5 26.9775 7.194 5.3955 0 0 0
699 5 26.9775 7.194 16.1865 0 0 0
702 5 28.776 8.9925 19.7835 0 0 0
710 5 28.776 8.9925 26.9775 0 0 0
711 5 26.9775 7.194 26.9775 0 0 0
712 5 26.9775 8.9925 25.179 0 0 0
718 5 28.776 8.9925 34.1715 0 0 0
721 5 28.776 10.791 0.0 0 0 0
724 5 26.9775 12.5895 0.0 0 0 0
726 5 28.776 12.5895 5.3955 0 0 0
733 5 28.776 10.791 10.791 0 0 0
737 5 28.776 10.791 14.388 0 0 0
739 5 26.9775 10.791 16.1865 0 0 0
741 5 28.776 10.791 17.985 0 0 0
746 5 28.776 12.5895 23.3805 0 0 0
748 5 26.9775 12.5895 21.582 0 0 0
751 5 26.9775 10.791 26.9775 0 0 0
752 5 26.9775 12.5895 25.179 0 0 0
753 5 28.776 10.791 28.776 0 0 0
757 5 28.776 10.791 32.373 0 0 0
759 5 26.9775 10.791 34.1715 0 0 0
765 5 28.776 14.388 3.597 0 0 0
772 5 26.9775 16.1865 7.194 0 0 0
774 5 28.776 16.1865 12.5895 0 0 0
776 5 26.9775 16.1865 10.791 0 0 0
777 5 28.776 14.388 14.388 0 0 0
783 5 26.9775 14.388 19.7835 0 0 0
786 5 28.776 16.1865 23.3805 0 0 0
787 5 26.9775 14.388 23.3805 0 0 0
790 5 28.776 16.1865 26.9775 0 0 0
791 5 26.9775 14.388 26.9775 0 0 0
792 5 26.9775 16.1865 25.179 0 0 0
801 5 28.776 17.985 0.0 0 0 0
802 5 28.776 19.7835 1.7985 0 0 0
805 5 28.776 17.985 3.597 0 0 0
813 5 28.776 17.985 10.791 0 0 0
814 5 28.776 19.7835 12.5895 0 0 0
815 5 26.9775 17.985 12.5895 0 0 0
818 5 28.776 19.7835 16.1865 0 0 0
820 5 26.9775 19.7835 14.388 0 0 0
821 5 28.776 17.985 17.985 0 0 0
828 5 26.9775 19.7835 21.582 0 0 0
829 5 28.776 17.985 25.179 0 0 0
830 5 28.776 19.7835 26.9775 0 0 0
833 5 28.776 17.985 28.776 0 0 0
835 5 26.9775 17.985 30.5745 0 0 0
842 5 28.776 23.3805 1.7985 0 0 0
847 5 26.9775 21.582 5.3955 0 0 0
848 5 26.9775 23.3805 3.597 0 0 0
858 5 28.776 23.3805 16.1865 0 0 0
862 5 28.776 23.3805 19.7835 0 0 0
867 5 26.9775 21.582 23.3805 0 0 0
870 5 28.776 23.3805 26.9775 0 0 0
871 5 26.9775 21.582 26.9775 0 0 0
874 5 28.776 23.3805 30.5745 0 0 0
875 5 26.9775 21.582 30.5745 0 0 0
876 5 26.9775 23.3805 28.776 0 0 0
877 5 28.776 21.582 32.373 0 0 0
879 5 26.9775 21.582 34.1715 0 0 0
890 5 28.776 26.9775 8.9925 0 0 0
894 5 28.776 26.9775 12.5895 0 0 0
896 5 26.9775 26.9775 10.791 0 0 0
898 5 28.776 26.9775 16.1865 0 0 0
904 5 26.9775 26.9775 17.985 0 0 0
906 5 28.776 26.9775 23.3805 0 0 0
909 5 28.776 25.179 25.179 0 0 0
910 5 28.776 26.9775 26.9775 0 0 0
911 5 26.9775 25.179 26.9775 0 0 0
915 5 26.9775 25.179 30.5745 0 0 0
917 5 28.776 25.179 32.373 0 0 0
919 5 26.9775 25.179 34.1715 0 0 0
923 5 26.9775 28.776 1.7985 0 0 0
925 5 28.776 28.776 3.597 0 0 0
926 5 28.776 30.5745 5.3955 0 0 0
928 5 26.9775 30.5745 3.597 0 0 0
929 5 28.776 28.776 7.194 0 0 0
931 5 26.9775 28.776 8.9925 0 0 0
935 5 26.9775 28.776 12.5895 0 0 0
938 5 28.776 30.5745 16.1865 0 0 0
940 5 26.9775 30.5745 14.388 0 0 0
942 5 28.776 30.5745 19.7835 0 0 0
943 5 26.9775 28.776 19.7835 0 0 0
944 5 26.9775 30.5745 17.985 0 0 0
951 5 26.9775 28.776 26.9775 0 0 0
955 5 26.9775 28.776 30.5745 0 0 0
959 5 26.9775 28.776 34.1715 0 0 0
960 5 26.9775 30.5745 32.373 0 0 0
961 5 28.776 32.373 0.0 0 0 0
963 5 26.9775 32.373 1.7985 0 0 0
965 5 28.776 32.373 3.597 0 0 0
966 5 28.776 34.1715 5.3955 0 0 0
967 5 26.9775 32.373 5.3955 0 0 0
968 5 26.9775 34.1715 3.597 0 0 0
972 5 26.9775 34.1715 7.194 0 0 0
973 5 28.776 32.373 10.791 0 0 0
975 5 26.9775 32.373 12.5895 0 0 0
977 5 28.776 32.373 14.388 0 0 0
979 5 26.9775 32.373 16.1865 0 0 0
980 5 26.9775 34.1715 14.388 0 0 0
982 5 28.776 34.1715 19.7835 0 0 0
985 5 28.776 32.373 21.582 0 0 0
989 5 28.776 32.373 25.179 0 0 0
991 5 26.9775 32.373 26.9775 0 0 0
994 5 28.776 34.1715 30.5745 0 0 0
995 5 26.9775 32.373 30.5745 0 0 0
1000 5 26.9775 34.1715 32.373 0 0 0
1001 5 25.179 0.0 0.0 0 0 0
1002 5 25.179 1.7985 1.7985 0 0 0
1004 5 23.3805 1.7985 0.0 0 0 0
1010 5 25.179 1.7985 8.9925 0 0 0
1014 5 25.179 1.7985 12.5895 0 0 0
1022 5 25.179 1.7985 19.7835 0 0 0
1023 5 23.3805 0.0 19.7835 0 0 0
1024 5 23.3805 1.7985 17.985 0 0 0
1025 5 25.179 0.0 21.582 0 0 0
1035 5 23.3805 0.0 30.5745 0 0 0
1036 5 23.3805 1.7985 28.776 0 0 0
1039 5 23.3805 0.0 34.1715 0 0 0
1041 5 25.179 3.597 0.0 0 0 0
1044 5 23.3805 5.3955 0.0 0 0 0
1048 5 23.3805 5.3955 3.597 0 0 0
1051 5 23.3805 3.597 8.9925 0 0 0
1060 5 23.3805 5.3955 14.388 0 0 0
1061 5 25.179 3.597 17.985 0 0 0
1065 5 25.179 3.597 21.582 0 0 0
1072 5 23.3805 5.3955 25.179 0 0 0
1073 5 25.179 3.597 28.776 0 0 0
1078 5 25.179 5.3955 34.1715 0 0 0
1079 5 23.3805 3.597 34.1715 0 0 0
1080 5 23.3805 5.3955 32.373 0 0 0
1081 5 25.179 7.194 0.0 0 0 0
1085 5 25.179 7.194 3.597 0 0 0
1093 5 25.179 7.194 10.791 0 0 0
1096 5 23.3805 8.9925 10.791 0 0 0
1099 5 23.3805 7.194 16.1865 0 0 0
1101 5 25.179 7.194 17.985 0 0 0
1104 5 23.3805 8.9925 17.985 0 0 0
1106 5 25.179 8.9925 23.3805 0 0 0
1109 5 25.179 7.194 25.179 0 0 0
1111 5 23.3805 7.194 26.9775 0 0 0
1112 5 23.3805 8.9925 25.179 0 0 0
1113 5 25.179 7.194 28.776 0 0 0
1115 5 23.3805 7.194 30.5745 0 0 0
1116 5 23.3805 8.9925 28.776 0 0 0
1117 5 25.179 7.194 32.373 0 0 0
1118 5 25.179 8.9925 34.1715 0 0 0
1119 5 23.3805 7.194 34.1715 0 0 0
1121 5 25.179 10.791 0.0 0 0 0
1123 5 23.3805 10.791 1.7985 0 0 0
1128 5 23.3805 12.5895 3.597 0 0 0
1132 5 23.3805 12.5895 7.194 0 0 0
1133 5 25.179 10.791 10.791 0 0 0
1134 5 25.179 12.5895 12.5895 0 0 0
1135 5 23.3805 10.791 12.5895 0 0 0
1138 5 25.179 12.5895 16.1865 0 0 0
1144 5 23.3805 12.5895 17.985 0 0 0
1146 5 25.179 12.5895 23.3805 0 0 0
1147 5 23.3805 10.791 23.3805 0 0 0
1154 5 25.179 12.5895 30.5745 0 0 0
1155 5 23.3805 10.791 30.5745 0 0 0
1159 5 23.3805 10.791 34.1715 0 0 0
1163 5 23.3805 14.388 1.7985 0 0 0
1166 5 25.179 16.1865 5.3955 0 0 0
1170 5 25.179 16.1865 8.9925 0 0 0
1176 5 23.3805 16.1865 10.791 0 0 0
1177 5 25.179 14.388 14.388 0 0 0
1185 5 25.179 14.388 21.582 0 0 0
1190 5 25.179 16.1865 26.9775 0 0 0
1191 5 23.3805 14.388 26.9775 0 0 0
1192 5 23.3805 16.1865 25.179 0 0 0
1195 5 23.3805 14.388 30.5745 0 0 0
1201 5 25.179 17.985 0.0 0 0 0
1202 5 25.179 19.7835 1.7985 0 0 0
1208 5 23.3805 19.7835 3.597 0 0 0
1209 5 25.179 17.985 7.194 0 0 0
1213 5 25.179 17.985 10.791 0 0 0
1220 5 23.3805 19.7835 14.388 0 0 0
1223 5 23.3805 17.985 19.7835 0 0 0
1225 5 25.179 17.985 21.582 0 0 0
1229 5 25.179 17.985 25.179 0 0 0
1230 5 25.179 19.7835 26.9775 0 0 0
1232 5 23.3805 19.7835 25.179 0 0 0
1234 5 25.179 19.7835 30.5745 0 0 0
1235 5 23.3805 17.985 30.5745 0 0 0
1238 5 25.179 19.7835 34.1715 0 0 0
1239 5 23.3805 17.985 34.1715 0 0 0
1241 5 25.179 21.582 0.0 0 0 0
1248 5 23.3805 23.3805 3.597 0 0 0
1250 5 25.179 23.3805 8.9925 0 0 0
1253 5 25.179 21.582 10.791 0 0 0
1259 5 23.3805 21.582 16.1865 0 0 0
1260 5 23.3805 23.3805 14.388 0 0 0
1270 5 25.179 23.3805 26.9775 0 0 0
1272 5 23.3805 23.3805 25.179 0 0 0
1273 5 25.179 21.582 28.776 0 0 0
1274 5 25.179 23.3805 30.5745 0 0 0
1275 5 23.3805 21.582 30.5745 0 0 0
1280 5 23.3805 23.3805 32.373 0 0 0
1281 5 25.179 25.179 0.0 0 0 0
1283 5 23.3805 25.179 1.7985 0 0 0
1286 5 25.179 26.9775 5.3955 0 0 0
1289 5 25.179 25.179 7.194 0 0 0
1301 5 25.179 25.179 17.985 0 0 0
1309 5 25.179 25.179 25.179 0 0 0
1312 5 23.3805 26.9775 25.179 0 0 0
1316 5 23.3805 26.9775 28.776 0 0 0
1323 5 23.3805 28.776 1.7985 0 0 0
1332 5 23.3805 30.5745 7.194 0 0 0
1333 5 25.179 28.776 10.791 0 0 0
1335 5 23.3805 28.776 12.5895 0 0 0
1340 5 23.3805 30.5745 14.388 0 0 0
1345 5 25.179 28.776 21.582 0 0 0
1346 5 25.179 30.5745 23.3805 0 0 0
1347 5 23.3805 28.776 23.3805 0 0 0
1351 5 23.3805 28.776 26.9775 0 0 0
1354 5 25.179 30.5745 30.5745 0 0 0
1358 5 25.179 30.5745 34.1715 0 0 0
1368 5 23.3805 34.1715 3.597 0 0 0
1375 5 23.3805 32.373 12.5895 0 0 0
1378 5 25.179 34.1715 16.1865 0 0 0
1381 5 25.179 32.373 17.985 0 0 0
1382 5 25.179 34.1715 19.7835 0 0 0
1386 5 25.179 34.1715 23.3805 0 0 0
1387 5 23.3805 32.373 23.3805 0 0 0
1391 5 23.3805 32.373 26.9775 0 0 0
1393 5 25.179 32.373 28.776 0 0 0
1395 5 23.3805 32.373 30.5745 0 0 0
1397 5 25.179 32.373 32.373 0 0 0
1400 5 23.3805 34.1715 32.373 0 0 0
1402 5 21.582 1.7985 1.7985 0 0 0
1403 5 19.7835 0.0 1.7985 0 0 0
1404 5 19.7835 1.7985 0.0 0 0 0
1406 5 21.582 1.7985 5.3955 0 0 0
1412 5 19.7835 1.7985 7.194 0 0 0
1415 5 19.7835 0.0 12.5895 0 0 0
1417 5 21.582 0.0 14.388 0 0 0
1418 5 21.582 1.7985 16.1865 0 0 0
1423 5 19.7835 0.0 19.7835 0 0 0
1424 5 19.7835 1.7985 17.985 0 0 0
1427 5 19.7835 0.0 23.3805 0 0 0
1431 5 19.7835 0.0 26.9775 0 0 0
1436 5 19.7835 1.7985 28.776 0 0 0
1437 5 21.582 0.0 32.373 0 0 0
1438 5 21.582 1.7985 34.1715 0 0 0
1443 5 19.7835 3.597 1.7985 0 0 0
1445 5 21.582 3.597 3.597 0 0 0
1446 5 21.582 5.3955 5.3955 0 0 0
1457 5 21.582 3.597 14.388 0 0 0
1461 5 21.582 3.597 17.985 0 0 0
1462 5 21.582 5.3955 19.7835 0 0 0
1463 5 19.7835 3.597 19.7835 0 0 0
1465 5 21.582 3.597 21.582 0 0 0
1469 5 21.582 3.597 25.179 0 0 0
1478 5 21.582 5.3955 34.1715 0 0 0
1481 5 21.582 7.194 0.0 0 0 0
1482 5 21.582 8.9925 1.7985 0 0 0
1487 5 19.7835 7.194 5.3955 0 0 0
1488 5 19.7835 8.9925 3.597 0 0 0
1491 5 19.7835 7.194 8.9925 0 0 0
1492 5 19.7835 8.9925 7.194 0 0 0
1494 5 21.582 8.9925 12.5895 0 0 0
1498 5 21.582 8.9925 16.1865 0 0 0
1499 5 19.7835 7.194 16.1865 0 0 0
1500 5 19.7835 8.9925 14.388 0 0 0
1503 5 19.7835 7.194 19.7835 0 0 0
1504 5 19.7835 8.9925 17.985 0 0 0
1505 5 21.582 7.194 21.582 0 0 0
1506 5 21.582 8.9925 23.3805 0 0 0
1512 5 19.7835 8.9925 25.179 0 0 0
1513 5 21.582 7.194 28.776 0 0 0
1514 5 21.582 8.9925 30.5745 0 0 0
1519 5 19.7835 7.194 34.1715 0 0 0
1520 5 19.7835 8.9925 32.373 0 0 0
1523 5 19.7835 10.791 1.7985 0 0 0
1525 5 21.582 10.791 3.597 0 0 0
1529 5 21.582 10.791 7.194 0 0 0
1530 5 21.582 12.5895 8.9925 0 0 0
1535 5 19.7835 10.791 12.5895 0 0 0
1536 5 19.7835 12.5895 10.791 0 0 0
1538 5 21.582 12.5895 16.1865 0 0 0
1539 5 19.7835 10.791 16.1865 0 0 0
1540 5 19.7835 12.5895 14.388 0 0 0
1541 5 21.582 10.791 17.985 0 0 0
1542 5 21.582 12.5895 19.7835 0 0 0
1549 5 21.582 10.791 25.179 0 0 0
1554 5 21.582 12.5895 30.5745 0 0 0
1558 5 21.582 12.5895 34.1715 0 0 0
1564 5 19.7835 16.1865 0.0 0 0 0
1565 5 21.582 14.388 3.597 0 0 0
1568 5 19.7835 16.1865 3.597 0 0 0
1570 5 21.582 16.1865 8.9925 0 0 0
1574 5 21.582 16.1865 12.5895 0 0 0
1578 5 21.582 16.1865 16.1865 0 0 0
1580 5 19.7835 16.1865 14.388 0 0 0
1581 5 21.582 14.388 17.985 0 0 0
1583 5 19.7835 14.388 19.7835 0 0 0
1585 5 21.582 14.388 21.582 0 0 0
1592 5 19.7835 16.1865 25.179 0 0 0
1593 5 21.582 14.388 28.776 0 0 0
1594 5 21.582 16.1865 30.5745 0 0 0
1598 5 21.582 16.1865 34.1715 0 0 0
1600 5 19.7835 16.1865 32.373 0 0 0
1603 5 19.7835 17.985 1.7985 0 0 0
1606 5 21.582 19.7835 5.3955 0 0 0
1607 5 19.7835 17.985 5.3955 0 0 0
1612 5 19.7835 19.7835 7.194 0 0 0
1616 5 19.7835 19.7835 10.791 0 0 0
1618 5 21.582 19.7835 16.1865 0 0 0
1622 5 21.582 19.7835 19.7835 0 0 0
1625 5 21.582 17.985 21.582 0 0 0
1626 5 21.582 19.7835 23.3805 0 0 0
1633 5 21.582 17.985 28.776 0 0 0
1634 5 21.582 19.7835 30.5745 0 0 0
1642 5 21.582 23.3805 1.7985 0 0 0
1644 5 19.7835 23.3805 0.0 0 0 0
1647 5 19.7835 21.582 5.3955 0 0 0
1653 5 21.582 21.582 10.791 0 0 0
1654 5 21.582 23.3805 12.5895 0 0 0
1659 5 19.7835 21.582 16.1865 0 0 0
1667 5 19.7835 21.582 23.3805 0 0 0
1668 5 19.7835 23.3805 21.582 0 0 0
1674 5 21.582 23.3805 30.5745 0 0 0
1675 5 19.7835 21.582 30.5745 0 0 0
1678 5 21.582 23.3805 34.1715 0 0 0
1681 5 21.582 25.179 0.0 0 0 0
1682 5 21.582 26.9775 1.7985 0 0 0
1685 5 21.582 25.179 3.597 0 0 0
1688 5 19.7835 26.9775 3.597 0 0 0
1690 5 21.582 26.9775 8.9925 0 0 0
1691 5 19.7835 25.179 8.9925 0 0 0
1693 5 21.582 25.179 10.791 0 0 0
1694 5 21.582 26.9775 12.5895 0 0 0
1700 5 19.7835 26.9775 14.388 0 0 0
1703 5 19.7835 25.179 19.7835 0 0 0
1716 5 19.7835 26.9775 28.776 0 0 0
1718 5 21.582 26.9775 34.1715 0 0 0
1719 5 19.7835 25.179 34.1715 0 0 0
1723 5 19.7835 28.776 1.7985 0 0 0
1727 5 19.7835 28.776 5.3955 0 0 0
1729 5 21.582 28.776 7.194 0 0 0
1730 5 21.582 30.5745 8.9925 0 0 0
1732 5 19.7835 30.5745 7.194 0 0 0
1739 5 19.7835 28.776 16.1865 0 0 0
1740 5 19.7835 30.5745 14.388 0 0 0
1741 5 21.582 28.776 17.985 0 0 0
1744 5 19.7835 30.5745 17.985 0 0 0
1746 5 21.582 30.5745 23.3805 0 0 0
1747 5 19.7835 28.776 23.3805 0 0 0
1751 5 19.7835 28.776 26.9775 0 0 0
1752 5 19.7835 30.5745 25.179 0 0 0
1756 5 19.7835 30.5745 28.776 0 0 0
1757 5 21.582 28.776 32.373 0 0 0
1758 5 21.582 30.5745 34.1715 0 0 0
1760 5 19.7835 30.5745 32.373 0 0 0
1761 5 21.582 32.373 0.0 0 0 0
1762 5 21.582 34.1715 1.7985 0 0 0
1764 5 19.7835 34.1715 0.0 0 0 0
1767 5 19.7835 32.373 5.3955 0 0 0
1768 5 19.7835 34.1715 3.597 0 0 0
1769 5 21.582 32.373 7.194 0 0 0
1781 5 21.582 32.373 17.985 0 0 0
1783 5 19.7835 32.373 19.7835 0 0 0
1785 5 21.582 32.373 21.582 0 0 0
1786 5 21.582 34.1715 23.3805 0 0 0
1795 5 19.7835 32.373 30.5745 0 0 0
1803 5 16.1865 0.0 1.7985 0 0 0
1807 5 16.1865 0.0 5.3955 0 0 0
1808 5 16.1865 1.7985 3.597 0 0 0
1809 5 17.985 0.0 7.194 0 0 0
1813 5 17.985 0.0 10.791 0 0 0
1815 5 16.1865 0.0 12.5895 0 0 0
1822 5 17.985 1.7985 19.7835 0 0 0
1832 5 16.1865 1.7985 25.179 0 0 0
1833 5 17.985 0.0 28.776 0 0 0
1837 5 17.985 0.0 32.373 0 0 0
1838 5 17.985 1.7985 34.1715 0 0 0
1843 5 16.1865 3.597 1.7985 0 0 0
1850 5 17.985 5.3955 8.9925 0 0 0
1851 5 16.1865 3.597 8.9925 0 0 0
1852 5 16.1865 5.3955 7.194 0 0 0
1853 5 17.985 3.597 10.791 0 0 0
1854 5 17.985 5.3955 12.5895 0 0 0
1855 5 16.1865 3.597 12.5895 0 0 0
1858 5 17.985 5.3955 16.1865 0 0 0
1859 5 16.1865 3.597 16.1865 0 0 0
1860 5 16.1865 5.3955 14.388 0 0 0
1861 5 17.985 3.597 17.985 0 0 0
1863 5 16.1865 3.597 19.7835 0 0 0
1866 5 17.985 5.3955 23.3805 0 0 0
1873 5 17.985 3.597 28.776 0 0 0
1876 5 16.1865 5.3955 28.776 0 0 0
1880 5 16.1865 5.3955 32.373 0 0 0
1882 5 17.985 8.9925 1.7985 0 0 0
1884 5 16.1865 8.9925 0.0 0 0 0
1892 5 16.1865 8.9925 7.194 0 0 0
1895 5 16.1865 7.194 12.5895 0 0 0
1896 5 16.1865 8.9925 10.791 0 0 0
1899 5 16.1865 7.194 16.1865 0 0 0
1902 5 17.985 8.9925 19.7835 0 0 0
1905 5 17.985 7.194 21.582 0 0 0
1912 5 16.1865 8.9925 25.179 0 0 0
1914 5 17.985 8.9925 30.5745 0 0 0
1916 5 16.1865 8.9925 28.776 0 0 0
1918 5 17.985 8.9925 34.1715 0 0 0
1921 5 17.985 10.791 0.0 0 0 0
1922 5 17.985 12.5895 1.7985 0 0 0
1924 5 16.1865 12.5895 0.0 0 0 0
1928 5 16.1865 12.5895 3.597 0 0 0
1932 5 16.1865 12.5895 7.194 0 0 0
1938 5 17.985 12.5895 16.1865 0 0 0
1941 5 17.985 10.791 17.985 0 0 0
1946 5 17.985 12.5895 23.3805 0 0 0
1951 5 16.1865 10.791 26.9775 0 0 0
1952 5 16.1865 12.5895 25.179 0 0 0
1954 5 17.985 12.5895 30.5745 0 0 0
1955 5 16.1865 10.791 30.5745 0 0 0
1959 5 16.1865 10.791 34.1715 0 0 0
1967 5 16.1865 14.388 5.3955 0 0 0
1969 5 17.985 14.388 7.194 0 0 0
1976 5 16.1865 16.1865 10.791 0 0 0
1977 5 17.985 14.388 14.388 0 0 0
1978 5 17.985 16.1865 16.1865 0 0 0
1979 5 16.1865 14.388 16.1865 0 0 0
1980 5 16.1865 16.1865 14.388 0 0 0
1986 5 17.985 16.1865 23.3805 0 0 0
1987 5 16.1865 14.388 23.3805 0 0 0
1990 5 17.985 16.1865 26.9775 0 0 0
1991 5 16.1865 14.388 26.9775 0 0 0
1994 5 17.985 16.1865 30.5745 0 0 0
1999 5 16.1865 14.388 34.1715 0 0 0
2003 5 16.1865 17.985 1.7985 0 0 0
2007 5 16.1865 17.985 5.3955 0 0 0
2008 5 16.1865 19.7835 3.597 0 0 0
2014 5 17.985 19.7835 12.5895 0 0 0
2015 5 16.1865 17.985 12.5895 0 0 0
2024 5 16.1865 19.7835 17.985 0 0 0
2026 5 17.985 19.7835 23.3805 0 0 0
2027 5 16.1865 17.985 23.3805 0 0 0
2033 5 17.985 17.985 28.776 0 0 0
2035 5 16.1865 17.985 30.5745 0 0 0
2038 5 17.985 19.7835 34.1715 0 0 0
2052 5 16.1865 23.3805 7.194 0 0 0
2054 5 17.985 23.3805 12.5895 0 0 0
2060 5 16.1865 23.3805 14.388 0 0 0
2064 5 16.1865 23.3805 17.985 0 0 0
2067 5 16.1865 21.582 23.3805 0 0 0
2072 5 16.1865 23.3805 25.179 0 0 0
2077 5 17.985 21.582 32.373 0 0 0
2079 5 16.1865 21.582 34.1715 0 0 0
2087 5 16.1865 25.179 5.3955 0 0 0
2090 5 17.985 26.9775 8.9925 0 0 0
2091 5 16.1865 25.179 8.9925 0 0 0
2092 5 16.1865 26.9775 7.194 0 0 0
2094 5 17.985 26.9775 12.5895 0 0 0
2097 5 17.985 25.179 14.388 0 0 0
2098 5 17.985 26.9775 16.1865 0 0 0
2099 5 16.1865 25.179 16.1865 0 0 0
2101 5 17.985 25.179 17.985 0 0 0
2103 5 16.1865 25.179 19.7835 0 0 0
2104 5 16.1865 26.9775 17.985 0 0 0
2105 5 17.985 25.179 21.582 0 0 0
2107 5 16.1865 25.179 23.3805 0 0 0
2113 5 17.985 25.179 28.776 0 0 0
2114 5 17.985 26.9775 30.5745 0 0 0
2115 5 16.1865 25.179 30.5745 0 0 0
2135 5 16.1865 28.776 12.5895 0 0 0
2136 5 16.1865 30.5745 10.791 0 0 0
2138 5 17.985 30.5745 16.1865 0 0 0
2139 5 16.1865 28.776 16.1865 0 0 0
2140 5 16.1865 30.5745 14.388 0 0 0
2144 5 16.1865 30.5745 17.985 0 0 0
2145 5 17.985 28.776 21.582 0 0 0
2148 5 16.1865 30.5745 21.582 0 0 0
2154 5 17.985 30.5745 30.5745 0 0 0
2158 5 17.985 30.5745 34.1715 0 0 0
2161 5 17.985 32.373 0.0 0 0 0
2163 5 16.1865 32.373 1.7985 0 0 0
2169 5 17.985 32.373 7.194 0 0 0
2171 5 16.1865 32.373 8.9925 0 0 0
2174 5 17.985 34.1715 12.5895 0 0 0
2178 5 17.985 34.1715 16.1865 0 0 0
2181 5 17.985 32.373 17.985 0 0 0
2184 5 16.1865 34.1715 17.985 0 0 0
2188 5 16.1865 34.1715 21.582 0 0 0
2191 5 16.1865 32.373 26.9775 0 0 0
2196 5 16.1865 34.1715 28.776 0 0 0
2201 5 14.388 0.0 0.0 0 0 0
2202 5 14.388 1.7985 1.7985 0 0 0
2205 5 14.388 0.0 3.597 0 0 0
2206 5 14.388 1.7985 5.3955 0 0 0
2212 5 12.5895 1.7985 7.194 0 0 0
2214 5 14.388 1.7985 12.5895 0 0 0
2220 5 12.5895 1.7985 14.388 0 0 0
2221 5 14.388 0.0 17.985 0 0 0
2230 5 14.388 1.7985 26.9775 0 0 0
2233 5 14.388 0.0 28.776 0 0 0
2236 5 12.5895 1.7985 28.776 0 0 0
2237 5 14.388 0.0 32.373 0 0 0
2242 5 14.388 5.3955 1.7985 0 0 0
2243 5 12.5895 3.597 1.7985 0 0 0
2251 5 12.5895 3.597 8.9925 0 0 0
2254 5 14.388 5.3955 12.5895 0 0 0
2260 5 12.5895 5.3955 14.388 0 0 0
2261 5 14.388 3.597 17.985 0 0 0
2265 5 14.388 3.597 21.582 0 0 0
2266 5 14.388 5.3955 23.3805 0 0 0
2270 5 14.388 5.3955 26.9775 0 0 0
2271 5 12.5895 3.597 26.9775 0 0 0
2275 5 12.5895 3.597 30.5745 0 0 0
2289 5 14.388 7.194 7.194 0 0 0
2290 5 14.388 8.9925 8.9925 0 0 0
2291 5 12.5895 7.194 8.9925 0 0 0
2292 5 12.5895 8.9925 7.194 0 0 0
2296 5 12.5895 8.9925 10.791 0 0 0
2305 5 14.388 7.194 21.582 0 0 0
2306 5 14.388 8.9925 23.3805 0 0 0
2309 5 14.388 7.194 25.179 0 0 0
2313 5 14.388 7.194 28.776 0 0 0
2316 5 12.5895 8.9925 28.776 0 0 0
2317 5 14.388 7.194 32.373 0 0 0
2318 5 14.388 8.9925 34.1715 0 0 0
2319 5 12.5895 7.194 34.1715 0 0 0
2321 5 14.388 10.791 0.0 0 0 0
2323 5 12.5895 10.791 1.7985 0 0 0
2325 5 14.388 10.791 3.597 0 0 0
2327 5 12.5895 10.791 5.3955 0 0 0
2328 5 12.5895 12.5895 3.597 0 0 0
2329 5 14.388 10.791 7.194 0 0 0
2330 5 14.388 12.5895 8.9925 0 0 0
2333 5 14.388 10.791 10.791 0 0 0
2334 5 14.388 12.5895 12.5895 0 0 0
2338 5 14.388 12.5895 16.1865 0 0 0
2340 5 12.5895 12.5895 14.388 0 0 0
2341 5 14.388 10.791 17.985 0 0 0
2344 5 12.5895 12.5895 17.985 0 0 0
2347 5 12.5895 10.791 23.3805 0 0 0
2349 5 14.388 10.791 25.179 0 0 0
2352 5 12.5895 12.5895 25.179 0 0 0
2356 5 12.5895 12.5895 28.776 0 0 0
2358 5 14.388 12.5895 34.1715 0 0 0
2359 5 12.5895 10.791 34.1715 0 0 0
2362 5 14.388 16.1865 1.7985 0 0 0
2363 5 12.5895 14.388 1.7985 0 0 0
2365 5 14.388 14.388 3.597 0 0 0
2366 5 14.388 16.1865 5.3955 0 0 0
2368 5 12.5895 16.1865 3.597 0 0 0
2370 5 14.388 16.1865 8.9925 0 0 0
2372 5 12.5895 16.1865 7.194 0 0 0
2373 5 14.388 14.388 10.791 0 0 0
2376 5 12.5895 16.1865 10.791 0 0 0
2379 5 12.5895 14.388 16.1865 0 0 0
2381 5 14.388 14.388 17.985 0 0 0
2383 5 12.5895 14.388 19.7835 0 0 0
2391 5 12.5895 14.388 26.9775 0 0 0
2394 5 14.388 16.1865 30.5745 0 0 0
2398 5 14.388 16.1865 34.1715 0 0 0
2399 5 12.5895 14.388 34.1715 0 0 0
2400 5 12.5895 16.1865 32.373 0 0 0
2404 5 12.5895 19.7835 0.0 0 0 0
2405 5 14.388 17.985 3.597 0 0 0
2412 5 12.5895 19.7835 7.194 0 0 0
2413 5 14.388 17.985 10.791 0 0 0
2416 5 12.5895 19.7835 10.791 0 0 0
2418 5 14.388 19.7835 16.1865 0 0 0
2420 5 12.5895 19.7835 14.388 0 0 0
2421 5 14.388 17.985 17.985 0 0 0
2422 5 14.388 19.7835 19.7835 0 0 0
2426 5 14.388 19.7835 23.3805 0 0 0
2430 5 14.388 19.7835 26.9775 0 0 0
2431 5 12.5895 17.985 26.9775 0 0 0
2442 5 14.388 23.3805 1.7985 0 0 0
2445 5 14.388 21.582 3.597 0 0 0
2448 5 12.5895 23.3805 3.597 0 0 0
2449 5 14.388 21.582 7.194 0 0 0
2454 5 14.388 23.3805 12.5895 0 0 0
2460 5 12.5895 23.3805 14.388 0 0 0
2462 5 14.388 23.3805 19.7835 0 0 0
2463 5 12.5895 21.582 19.7835 0 0 0
2467 5 12.5895 21.582 23.3805 0 0 0
2468 5 12.5895 23.3805 21.582 0 0 0
2470 5 14.388 23.3805 26.9775 0 0 0
2476 5 12.5895 23.3805 28.776 0 0 0
2481 5 14.388 25.179 0.0 0 0 0
2484 5 12.5895 26.9775 0.0 0 0 0
2485 5 14.388 25.179 3.597 0 0 0
2486 5 14.388 26.9775 5.3955 0 0 0
2489 5 14.388 25.179 7.194 0 0 0
2491 5 12.5895 25.179 8.9925 0 0 0
2492 5 12.5895 26.9775 7.194 0 0 0
2498 5 14.388 26.9775 16.1865 0 0 0
2501 5 14.388 25.179 17.985 0 0 0
2503 5 12.5895 25.179 19.7835 0 0 0
2506 5 14.388 26.9775 23.3805 0 0 0
2509 5 14.388 25.179 25.179 0 0 0
2512 5 12.5895 26.9775 25.179 0 0 0
2514 5 14.388 26.9775 30.5745 0 0 0
2515 5 12.5895 25.179 30.5745 0 0 0
2517 5 14.388 25.179 32.373 0 0 0
2519 5 12.5895 25.179 34.1715 0 0 0
2521 5 14.388 28.776 0.0 0 0 0
2525 5 14.388 28.776 3.597 0 0 0
2526 5 14.388 30.5745 5.3955 0 0 0
2528 5 12.5895 30.5745 3.597 0 0 0
2533 5 14.388 28.776 10.791 0 0 0
2534 5 14.388 30.5745 12.5895 0 0 0
2539 5 12.5895 28.776 16.1865 0 0 0
2540 5 12.5895 30.5745 14.388 0 0 0
2545 5 14.388 28.776 21.582 0 0 0
2546 5 14.388 30.5745 23.3805 0 0 0
2550 5 14.388 30.5745 26.9775 0 0 0
2552 5 12.5895 30.5745 25.179 0 0 0
2553 5 14.388 28.776 28.776 0 0 0
2555 5 12.5895 28.776 30.5745 0 0 0
2558 5 14.388 30.5745 34.1715 0 0 0
2561 5 14.388 32.373 0.0 0 0 0
2563 5 12.5895 32.373 1.7985 0 0 0
2564 5 12.5895 34.1715 0.0 0 0 0
2565 5 14.388 32.373 3.597 0 0 0
2567 5 12.5895 32.373 5.3955 0 0 0
2569 5 14.388 32.373 7.194 0 0 0
2571 5 12.5895 32.373 8.9925 0 0 0
2579 5 12.5895 32.373 16.1865 0 0 0
2581 5 14.388 32.373 17.985 0 0 0
2582 5 14.388 34.1715 19.7835 0 0 0
2585 5 14.388 32.373 21.582 0 0 0
2586 5 14.388 34.1715 23.3805 0 0 0
2587 5 12.5895 32.373 23.3805 0 0 0
2589 5 14.388 32.373 25.179 0 0 0
2591 5 12.5895 32.373 26.9775 0 0 0
2592 5 12.5895 34.1715 25.179 0 0 0
2596 5 12.5895 34.1715 28.776 0 0 0
2600 5 12.5895 34.1715 32.373 0 0 0
2603 5 8.9925 0.0 1.7985 0 0 0
2604 5 8.9925 1.7985 0.0 0 0 0
2609 5 10.791 0.0 7.194 0 0 0
2613 5 10.791 0.0 10.791 0 0 0
2615 5 8.9925 0.0 12.5895 0 0 0
2616 5 8.9925 1.7985 10.791 0 0 0
2629 5 10.791 0.0 25.179 0 0 0
2630 5 10.791 1.7985 26.9775 0 0 0
2633 5 10.791 0.0 28.776 0 0 0
2636 5 8.9925 1.7985 28.776 0 0 0
2642 5 10.791 5.3955 1.7985 0 0 0
2643 5 8.9925 3.597 1.7985 0 0 0
2644 5 8.9925 5.3955 0.0 0 0 0
2647 5 8.9925 3.597 5.3955 0 0 0
2653 5 10.791 3.597 10.791 0 0 0
2660 5 8.9925 5.3955 14.388 0 0 0
2670 5 10.791 5.3955 26.9775 0 0 0
2672 5 8.9925 5.3955 25.179 0 0 0
2675 5 8.9925 3.597 30.5745 0 0 0
2676 5 8.9925 5.3955 28.776 0 0 0
2679 5 8.9925 3.597 34.1715 0 0 0
2681 5 10.791 7.194 0.0 0 0 0
2683 5 8.9925 7.194 1.7985 0 0 0
2690 5 10.791 8.9925 8.9925 0 0 0
2692 5 8.9925 8.9925 7.194 0 0 0
2695 5 8.9925 7.194 12.5895 0 0 0
2696 5 8.9925 8.9925 10.791 0 0 0
2697 5 10.791 7.194 14.388 0 0 0
2700 5 8.9925 8.9925 14.388 0 0 0
2703 5 8.9925 7.194 19.7835 0 0 0
2704 5 8.9925 8.9925 17.985 0 0 0
2706 5 10.791 8.9925 23.3805 0 0 0
2720 5 8.9925 8.9925 32.373 0 0 0
2721 5 10.791 10.791 0.0 0 0 0
2722 5 10.791 12.5895 1.7985 0 0 0
2725 5 10.791 10.791 3.597 0 0 0
2730 5 10.791 12.5895 8.9925 0 0 0
2735 5 8.9925 10.791 12.5895 0 0 0
2736 5 8.9925 12.5895 10.791 0 0 0
2743 5 8.9925 10.791 19.7835 0 0 0
2745 5 10.791 10.791 21.582 0 0 0
2749 5 10.791 10.791 25.179 0 0 0
2751 5 8.9925 10.791 26.9775 0 0 0
2753 5 10.791 10.791 28.776 0 0 0
2754 5 10.791 12.5895 30.5745 0 0 0
2755 5 8.9925 10.791 30.5745 0 0 0
2756 5 8.9925 12.5895 28.776 0 0 0
2759 5 8.9925 10.791 34.1715 0 0 0
2761 5 10.791 14.388 0.0 0 0 0
2762 5 10.791 16.1865 1.7985 0 0 0
2763 5 8.9925 14.388 1.7985 0 0 0
2766 5 10.791 16.1865 5.3955 0 0 0
2769 5 10.791 14.388 7.194 0 0 0
2771 5 8.9925 14.388 8.9925 0 0 0
2772 5 8.9925 16.1865 7.194 0 0 0
2774 5 10.791 16.1865 12.5895 0 0 0
2781 5 10.791 14.388 17.985 0 0 0
2785 5 10.791 14.388 21.582 0 0 0
2786 5 10.791 16.1865 23.3805 0 0 0
2787 5 8.9925 14.388 23.3805 0 0 0
2791 5 8.9925 14.388 26.9775 0 0 0
2792 5 8.9925 16.1865 25.179 0 0 0
2794 5 10.791 16.1865 30.5745 0 0 0
2796 5 8.9925 16.1865 28.776 0 0 0
2802 5 10.791 19.7835 1.7985 0 0 0
2806 5 10.791 19.7835 5.3955 0 0 0
2810 5 10.791 19.7835 8.9925 0 0 0
2817 5 10.791 17.985 14.388 0 0 0
2824 5 8.9925 19.7835 17.985 0 0 0
2825 5 10.791 17.985 21.582 0 0 0
2826 5 10.791 19.7835 23.3805 0 0 0
2828 5 8.9925 19.7835 21.582 0 0 0
2830 5 10.791 19.7835 26.9775 0 0 0
2831 5 8.9925 17.985 26.9775 0 0 0
2832 5 8.9925 19.7835 25.179 0 0 0
2838 5 10.791 19.7835 34.1715 0 0 0
2839 5 8.9925 17.985 34.1715 0 0 0
2843 5 8.9925 21.582 1.7985 0 0 0
2844 5 8.9925 23.3805 0.0 0 0 0
2847 5 8.9925 21.582 5.3955 0 0 0
2849 5 10.791 21.582 7.194 0 0 0
2853 5 10.791 21.582 10.791 0 0 0
2855 5 8.9925 21.582 12.5895 0 0 0
2856 5 8.9925 23.3805 10.791 0 0 0
2858 5 10.791 23.3805 16.1865 0 0 0
2859 5 8.9925 21.582 16.1865 0 0 0
2871 5 8.9925 21.582 26.9775 0 0 0
2882 5 10.791 26.9775 1.7985 0 0 0
2884 5 8.9925 26.9775 0.0 0 0 0
2887 5 8.9925 25.179 5.3955 0 0 0
2888 5 8.9925 26.9775 3.597 0 0 0
2897 5 10.791 25.179 14.388 0 0 0
2902 5 10.791 26.9775 19.7835 0 0 0
2905 5 10.791 25.179 21.582 0 0 0
2909 5 10.791 25.179 25.179 0 0 0
2915 5 8.9925 25.179 30.5745 0 0 0
2916 5 8.9925 26.9775 28.776 0 0 0
2918 5 10.791 26.9775 34.1715 0 0 0
2919 5 8.9925 25.179 34.1715 0 0 0
2921 5 10.791 28.776 0.0 0 0 0
2922 5 10.791 30.5745 1.7985 0 0 0
2924 5 8.9925 30.5745 0.0 0 0 0
2932 5 8.9925 30.5745 7.194 0 0 0
2933 5 10.791 28.776 10.791 0 0 0
2941 5 10.791 28.776 17.985 0 0 0
2942 5 10.791 30.5745 19.7835 0 0 0
2945 5 10.791 28.776 21.582 0 0 0
2946 5 10.791 30.5745 23.3805 0 0 0
2953 5 10.791 28.776 28.776 0 0 0
2954 5 10.791 30.5745 30.5745 0 0 0
2961 5 10.791 32.373 0.0 0 0 0
2963 5 8.9925 32.373 1.7985 0 0 0
2968 5 8.9925 34.1715 3.597 0 0 0
2976 5 8.9925 34.1715 10.791 0 0 0
2977 5 10.791 32.373 14.388 0 0 0
2981 5 10.791 32.373 17.985 0 0 0
2984 5 8.9925 34.1715 17.985 0 0 0
2985 5 10.791 32.373 21.582 0 0 0
2986 5 10.791 34.1715 23.3805 0 0 0
2987 5 8.9925 32.373 23.3805 0 0 0
2988 5 8.9925 34.1715 21.582 0 0 0
2990 5 10.791 34.1715 26.9775 0 0 0
2993 5 10.791 32.373 28.776 0 0 0
2994 5 10.791 34.1715 30.5745 0 0 0
2995 5 8.9925 32.373 30.5745 0 0 0
2998 5 10.791 34.1715 34.1715 0 0 0
3000 5 8.9925 34.1715 32.373 0 0 0
3001 5 7.194 0.0 0.0 0 0 0
3009 5 7.194 0.0 7.194 0 0 0
3010 5 7.194 1.7985 8.9925 0 0 0
3012 5 5.3955 1.7985 7.194 0 0 0
3013 5 7.194 0.0 10.791 0 0 0
3016 5 5.3955 1.7985 10.791 0 0 0
3018 5 7.194 1.7985 16.1865 0 0 0
3020 5 5.3955 1.7985 14.388 0 0 0
3021 5 7.194 0.0 17.985 0 0 0
3022 5 7.194 1.7985 19.7835 0 0 0
3023 5 5.3955 0.0 19.7835 0 0 0
3024 5 5.3955 1.7985 17.985 0 0 0
3025 5 7.194 0.0 21.582 0 0 0
3031 5 5.3955 0.0 26.9775 0 0 0
3033 5 7.194 0.0 28.776 0 0 0
3037 5 7.194 0.0 32.373 0 0 0
3041 5 7.194 3.597 0.0 0 0 0
3044 5 5.3955 5.3955 0.0 0 0 0
3046 5 7.194 5.3955 5.3955 0 0 0
3055 5 5.3955 3.597 12.5895 0 0 0
3057 5 7.194 3.597 14.388 0 0 0
3060 5 5.3955 5.3955 14.388 0 0 0
3061 5 7.194 3.597 17.985 0 0 0
3062 5 7.194 5.3955 19.7835 0 0 0
3065 5 7.194 3.597 21.582 0 0 0
3070 5 7.194 5.3955 26.9775 0 0 0
3072 5 5.3955 5.3955 25.179 0 0 0
3076 5 5.3955 5.3955 28.776 0 0 0
3077 5 7.194 3.597 32.373 0 0 0
3083 5 5.3955 7.194 1.7985 0 0 0
3086 5 7.194 8.9925 5.3955 0 0 0
3088 5 5.3955 8.9925 3.597 0 0 0
3096 5 5.3955 8.9925 10.791 0 0 0
3098 5 7.194 8.9925 16.1865 0 0 0
3099 5 5.3955 7.194 16.1865 0 0 0
3100 5 5.3955 8.9925 14.388 0 0 0
3102 5 7.194 8.9925 19.7835 0 0 0
3103 5 5.3955 7.194 19.7835 0 0 0
3106 5 7.194 8.9925 23.3805 0 0 0
3109 5 7.194 7.194 25.179 0 0 0
3124 5 5.3955 12.5895 0.0 0 0 0
3128 5 5.3955 12.5895 3.597 0 0 0
3130 5 7.194 12.5895 8.9925 0 0 0
3131 5 5.3955 10.791 8.9925 0 0 0
3132 5 5.3955 12.5895 7.194 0 0 0
3133 5 7.194 10.791 10.791 0 0 0
3137 5 7.194 10.791 14.388 0 0 0
3145 5 7.194 10.791 21.582 0 0 0
3147 5 5.3955 10.791 23.3805 0 0 0
3149 5 7.194 10.791 25.179 0 0 0
3150 5 7.194 12.5895 26.9775 0 0 0
3153 5 7.194 10.791 28.776 0 0 0
3154 5 7.194 12.5895 30.5745 0 0 0
3155 5 5.3955 10.791 30.5745 0 0 0
3157 5 7.194 10.791 32.373 0 0 0
3161 5 7.194 14.388 0.0 0 0 0
3162 5 7.194 16.1865 1.7985 0 0 0
3163 5 5.3955 14.388 1.7985 0 0 0
3167 5 5.3955 14.388 5.3955 0 0 0
3170 5 7.194 16.1865 8.9925 0 0 0
3173 5 7.194 14.388 10.791 0 0 0
3177 5 7.194 14.388 14.388 0 0 0
3180 5 5.3955 16.1865 14.388 0 0 0
3181 5 7.194 14.388 17.985 0 0 0
3191 5 5.3955 14.388 26.9775 0 0 0
3194 5 7.194 16.1865 30.5745 0 0 0
3198 5 7.194 16.1865 34.1715 0 0 0
3199 5 5.3955 14.388 34.1715 0 0 0
3200 5 5.3955 16.1865 32.373 0 0 0
3204 5 5.3955 19.7835 0.0 0 0 0
3213 5 7.194 17.985 10.791 0 0 0
3215 5 5.3955 17.985 12.5895 0 0 0
3216 5 5.3955 19.7835 10.791 0 0 0
3219 5 5.3955 17.985 16.1865 0 0 0
3220 5 5.3955 19.7835 14.388 0 0 0
3226 5 7.194 19.7835 23.3805 0 0 0
3228 5 5.3955 19.7835 21.582 0 0 0
3230 5 7.194 19.7835 26.9775 0 0 0
3232 5 5.3955 19.7835 25.179 0 0 0
3233 5 7.194 17.985 28.776 0 0 0
3236 5 5.3955 19.7835 28.776 0 0 0
3237 5 7.194 17.985 32.373 0 0 0
3238 5 7.194 19.7835 34.1715 0 0 0
3248 5 5.3955 23.3805 3.597 0 0 0
3251 5 5.3955 21.582 8.9925 0 0 0
3253 5 7.194 21.582 10.791 0 0 0
3254 5 7.194 23.3805 12.5895 0 0 0
3258 5 7.194 23.3805 16.1865 0 0 0
3263 5 5.3955 21.582 19.7835 0 0 0
3264 5 5.3955 23.3805 17.985 0 0 0
3269 5 7.194 21.582 25.179 0 0 0
3272 5 5.3955 23.3805 25.179 0 0 0
3273 5 7.194 21.582 28.776 0 0 0
3274 5 7.194 23.3805 30.5745 0 0 0
3277 5 7.194 21.582 32.373 0 0 0
3279 5 5.3955 21.582 34.1715 0 0 0
3282 5 7.194 26.9775 1.7985 0 0 0
3283 5 5.3955 25.179 1.7985 0 0 0
3284 5 5.3955 26.9775 0.0 0 0 0
3290 5 7.194 26.9775 8.9925 0 0 0
3291 5 5.3955 25.179 8.9925 0 0 0
3292 5 5.3955 26.9775 7.194 0 0 0
3293 5 7.194 25.179 10.791 0 0 0
3295 5 5.3955 25.179 12.5895 0 0 0
3296 5 5.3955 26.9775 10.791 0 0 0
3298 5 7.194 26.9775 16.1865 0 0 0
3308 5 5.3955 26.9775 21.582 0 0 0
3310 5 7.194 26.9775 26.9775 0 0 0
3311 5 5.3955 25.179 26.9775 0 0 0
3315 5 5.3955 25.179 30.5745 0 0 0
3320 5 5.3955 26.9775 32.373 0 0 0
3323 5 5.3955 28.776 1.7985 0 0 0
3325 5 7.194 28.776 3.597 0 0 0
3328 5 5.3955 30.5745 3.597 0 0 0
3329 5 7.194 28.776 7.194 0 0 0
3332 5 5.3955 30.5745 7.194 0 0 0
3338 5 7.194 30.5745 16.1865 0 0 0
3346 5 7.194 30.5745 23.3805 0 0 0
3350 5 7.194 30.5745 26.9775 0 0 0
3351 5 5.3955 28.776 26.9775 0 0 0
3352 5 5.3955 30.5745 25.179 0 0 0
3353 5 7.194 28.776 28.776 0 0 0
3359 5 5.3955 28.776 34.1715 0 0 0
3361 5 7.194 32.373 0.0 0 0 0
3363 5 5.3955 32.373 1.7985 0 0 0
3365 5 7.194 32.373 3.597 0 0 0
3366 5 7.194 34.1715 5.3955 0 0 0
3367 5 5.3955 32.373 5.3955 0 0 0
3368 5 5.3955 34.1715 3.597 0 0 0
3372 5 5.3955 34.1715 7.194 0 0 0
3373 5 7.194 32.373 10.791 0 0 0
3376 5 5.3955 34.1715 10.791 0 0 0
3378 5 7.194 34.1715 16.1865 0 0 0
3379 5 5.3955 32.373 16.1865 0 0 0
3382 5 7.194 34.1715 19.7835 0 0 0
3388 5 5.3955 34.1715 21.582 0 0 0
3389 5 7.194 32.373 25.179 0 0 0
3396 5 5.3955 34.1715 28.776 0 0 0
3397 5 7.194 32.373 32.373 0 0 0
3398 5 7.194 34.1715 34.1715 0 0 0
3406 5 3.597 1.7985 5.3955 0 0 0
3409 5 3.597 0.0 7.194 0 0 0
3414 5 3.597 1.7985 12.5895 0 0 0
3433 5 3.597 0.0 28.776 0 0 0
3434 5 3.597 1.7985 30.5745 0 0 0
3435 5 1.7985 0.0 30.5745 0 0 0
3438 5 3.597 1.7985 34.1715 0 0 0
3440 5 1.7985 1.7985 32.373 0 0 0
3448 5 1.7985 5.3955 3.597 0 0 0
3451 5 1.7985 3.597 8.9925 0 0 0
3455 5 1.7985 3.597 12.5895 0 0 0
3458 5 3.597 5.3955 16.1865 0 0 0
3463 5 1.7985 3.597 19.7835 0 0 0
3465 5 3.597 3.597 21.582 0 0 0
3467 5 1.7985 3.597 23.3805 0 0 0
3471 5 1.7985 3.597 26.9775 0 0 0
3477 5 3.597 3.597 32.373 0 0 0
3478 5 3.597 5.3955 34.1715 0 0 0
3483 5 1.7985 7.194 1.7985 0 0 0
3486 5 3.597 8.9925 5.3955 0 0 0
3488 5 1.7985 8.9925 3.597 0 0 0
3494 5 3.597 8.9925 12.5895 0 0 0
3500 5 1.7985 8.9925 14.388 0 0 0
3507 5 1.7985 7.194 23.3805 0 0 0
3508 5 1.7985 8.9925 21.582 0 0 0
3510 5 3.597 8.9925 26.9775 0 0 0
3513 5 3.597 7.194 28.776 0 0 0
3514 5 3.597 8.9925 30.5745 0 0 0
3516 5 1.7985 8.9925 28.776 0 0 0
3521 5 3.597 10.791 0.0 0 0 0
3522 5 3.597 12.5895 1.7985 0 0 0
3523 5 1.7985 10.791 1.7985 0 0 0
3524 5 1.7985 12.5895 0.0 0 0 0
3526 5 3.597 12.5895 5.3955 0 0 0
3532 5 1.7985 12.5895 7.194 0 0 0
3539 5 1.7985 10.791 16.1865 0 0 0
3541 5 3.597 10.791 17.985 0 0 0
3542 5 3.597 12.5895 19.7835 0 0 0
3543 5 1.7985 10.791 19.7835 0 0 0
3546 5 3.597 12.5895 23.3805 0 0 0
3549 5 3.597 10.791 25.179 0 0 0
3551 5 1.7985 10.791 26.9775 0 0 0
3553 5 3.597 10.791 28.776 0 0 0
3558 5 3.597 12.5895 34.1715 0 0 0
3559 5 1.7985 10.791 34.1715 0 0 0
3562 5 3.597 16.1865 1.7985 0 0 0
3567 5 1.7985 14.388 5.3955 0 0 0
3571 5 1.7985 14.388 8.9925 0 0 0
3575 5 1.7985 14.388 12.5895 0 0 0
3586 5 3.597 16.1865 23.3805 0 0 0
3587 5 1.7985 14.388 23.3805 0 0 0
3592 5 1.7985 16.1865 25.179 0 0 0
3595 5 1.7985 14.388 30.5745 0 0 0
3600 5 1.7985 16.1865 32.373 0 0 0
3601 5 3.597 17.985 0.0 0 0 0
3602 5 3.597 19.7835 1.7985 0 0 0
3612 5 1.7985 19.7835 7.194 0 0 0
3613 5 3.597 17.985 10.791 0 0 0
3614 5 3.597 19.7835 12.5895 0 0 0
3618 5 3.597 19.7835 16.1865 0 0 0
3621 5 3.597 17.985 17.985 0 0 0
3622 5 3.597 19.7835 19.7835 0 0 0
3623 5 1.7985 17.985 19.7835 0 0 0
3627 5 1.7985 17.985 23.3805 0 0 0
3629 5 3.597 17.985 25.179 0 0 0
3634 5 3.597 19.7835 30.5745 0 0 0
3640 5 1.7985 19.7835 32.373 0 0 0
3641 5 3.597 21.582 0.0 0 0 0
3645 5 3.597 21.582 3.597 0 0 0
3646 5 3.597 23.3805 5.3955 0 0 0
3649 5 3.597 21.582 7.194 0 0 0
3650 5 3.597 23.3805 8.9925 0 0 0
3654 5 3.597 23.3805 12.5895 0 0 0
3656 5 1.7985 23.3805 10.791 0 0 0
3659 5 1.7985 21.582 16.1865 0 0 0
3660 5 1.7985 23.3805 14.388 0 0 0
3663 5 1.7985 21.582 19.7835 0 0 0
3669 5 3.597 21.582 25.179 0 0 0
3671 5 1.7985 21.582 26.9775 0 0 0
3678 5 3.597 23.3805 34.1715 0 0 0
3681 5 3.597 25.179 0.0 0 0 0
3684 5 1.7985 26.9775 0.0 0 0 0
3685 5 3.597 25.179 3.597 0 0 0
3687 5 1.7985 25.179 5.3955 0 0 0
3694 5 3.597 26.9775 12.5895 0 0 0
3696 5 1.7985 26.9775 10.791 0 0 0
3701 5 3.597 25.179 17.985 0 0 0
3705 5 3.597 25.179 21.582 0 0 0
3707 5 1.7985 25.179 23.3805 0 0 0
3711 5 1.7985 25.179 26.9775 0 0 0
3715 5 1.7985 25.179 30.5745 0 0 0
3716 5 1.7985 26.9775 28.776 0 0 0
3719 5 1.7985 25.179 34.1715 0 0 0
3726 5 3.597 30.5745 5.3955 0 0 0
3729 5 3.597 28.776 7.194 0 0 0
3730 5 3.597 30.5745 8.9925 0 0 0
3733 5 3.597 28.776 10.791 0 0 0
3734 5 3.597 30.5745 12.5895 0 0 0
3735 5 1.7985 28.776 12.5895 0 0 0
3737 5 3.597 28.776 14.388 0 0 0
3739 5 1.7985 28.776 16.1865 0 0 0
3740 5 1.7985 30.5745 14.388 0 0 0
3741 5 3.597 28.776 17.985 0 0 0
3742 5 3.597 30.5745 19.7835 0 0 0
3744 5 1.7985 30.5745 17.985 0 0 0
3747 5 1.7985 28.776 23.3805 0 0 0
3756 5 1.7985 30.5745 28.776 0 0 0
3759 5 1.7985 28.776 34.1715 0 0 0
3760 5 1.7985 30.5745 32.373 0 0 0
3762 5 3.597 34.1715 1.7985 0 0 0
3763 5 1.7985 32.373 1.7985 0 0 0
3765 5 3.597 32.373 3.597 0 0 0
3766 5 3.597 34.1715 5.3955 0 0 0
3770 5 3.597 34.1715 8.9925 0 0 0
3771 5 1.7985 32.373 8.9925 0 0 0
3773 5 3.597 32.373 10.791 0 0 0
3774 5 3.597 34.1715 12.5895 0 0 0
3776 5 1.7985 34.1715 10.791 0 0 0
3780 5 1.7985 34.1715 14.388 0 0 0
3783 5 1.7985 32.373 19.7835 0 0 0
3785 5 3.597 32.373 21.582 0 0 0
3788 5 1.7985 34.1715 21.582 0 0 0
3795 5 1.7985 32.373 30.5745 0 0 0
3798 5 3.597 34.1715 34.1715 0 0 0
3799 5 1.7985 32.373 34.1715 0 0 0
3804 5 0.0 1.7985 5.3955 0 0 0
3805 5 0.0 0.0 7.194 0 0 0
3807 5 0.0 0.0 10.791 0 0 0
3812 5 0.0 1.7985 19.7835 0 0 0
3813 5 0.0 0.0 21.582 0 0 0
3816 5 0.0 1.7985 26.9775 0 0 0
3819 5 0.0 0.0 32.373 0 0 0
3822 5 0.0 5.3955 1.7985 0 0 0
3823 5 0.0 3.597 3.597 0 0 0
3825 5 0.0 3.597 7.194 0 0 0
3829 5 0.0 3.597 14.388 0 0 0
3834 5 0.0 5.3955 23.3805 0 0 0
3836 5 0.0 5.3955 26.9775 0 0 0
3838 5 0.0 5.3955 30.5745 0 0 0
3843 5 0.0 7.194 3.597 0 0 0
3848 5 0.0 8.9925 12.5895 0 0 0
3851 5 0.0 7.194 17.985 0 0 0
3852 5 0.0 8.9925 19.7835 0 0 0
3856 5 0.0 8.9925 26.9775 0 0 0
3857 5 0.0 7.194 28.776 0 0 0
3859 5 0.0 7.194 32.373 0 0 0
3861 5 0.0 10.791 0.0 0 0 0
3864 5 0.0 12.5895 5.3955 0 0 0
3865 5 0.0 10.791 7.194 0 0 0
3869 5 0.0 10.791 14.388 0 0 0
3870 5 0.0 12.5895 16.1865 0 0 0
3873 5 0.0 10.791 21.582 0 0 0
3874 5 0.0 12.5895 23.3805 0 0 0
3875 5 0.0 10.791 25.179 0 0 0
3880 5 0.0 12.5895 34.1715 0 0 0
3883 5 0.0 14.388 3.597 0 0 0
3885 5 0.0 14.388 7.194 0 0 0
3892 5 0.0 16.1865 19.7835 0 0 0
3895 5 0.0 14.388 25.179 0 0 0
3896 5 0.0 16.1865 26.9775 0 0 0
3897 5 0.0 14.388 28.776 0 0 0
3899 5 0.0 14.388 32.373 0 0 0
3903 5 0.0 17.985 3.597 0 0 0
3908 5 0.0 19.7835 12.5895 0 0 0
3909 5 0.0 17.985 14.388 0 0 0
3911 5 0.0 17.985 17.985 0 0 0
3912 5 0.0 19.7835 19.7835 0 0 0
3915 5 0.0 17.985 25.179 0 0 0
3919 5 0.0 17.985 32.373 0 0 0
3920 5 0.0 19.7835 34.1715 0 0 0
3921 5 0.0 21.582 0.0 0 0 0
3924 5 0.0 23.3805 5.3955 0 0 0
3925 5 0.0 21.582 7.194 0 0 0
3933 5 0.0 21.582 21.582 0 0 0
3936 5 0.0 23.3805 26.9775 0 0 0
3939 5 0.0 21.582 32.373 0 0 0
3948 5 0.0 26.9775 12.5895 0 0 0
3950 5 0.0 26.9775 16.1865 0 0 0
3966 5 0.0 30.5745 8.9925 0 0 0
3975 5 0.0 28.776 25.179 0 0 0
3977 5 0.0 28.776 28.776 0 0 0
3982 5 0.0 34.1715 1.7985 0 0 0
3985 5 0.0 32.373 7.194 0 0 0
3989 5 0.0 32.373 14.388 0 0 0
3994 5 0.0 34.1715 23.3805 0 0 0
3997 5 0.0 32.373 28.776 0 0 0
3998 5 0.0 34.1715 30.5745 0 0 0
3999 5 0.0 32.373 32.373 0 0 0
