LAMMPS data file via write_data version 30 Jul 2021 timestep = 0
4000 atoms
5 atom types
0 35.97 xlo xhi
0 35.97 ylo yhi
0 35.97 zlo zhi
0.0 0.0 0.0 xy xz yz
 
Masses
 
1 1.0
2 2.0
3 3.0
4 4.0
5 5.0
 
Atoms  # atomic
 
1878 1 17.985 5.3955 34.1715 0 0 0
3617 1 3.597 17.985 14.388 0 0 0
1360 1 23.3805 30.5745 32.373 0 0 0
3939 1 0.0 21.582 32.373 0 0 0
2968 1 8.9925 34.1715 3.597 0 0 0
291 1 30.5745 7.194 8.9925 0 0 0
2743 1 8.9925 10.791 19.7835 0 0 0
603 1 26.9775 0.0 1.7985 0 0 0
3649 1 3.597 21.582 7.194 0 0 0
851 1 26.9775 21.582 8.9925 0 0 0
1420 1 19.7835 1.7985 14.388 0 0 0
421 1 32.373 17.985 17.985 0 0 0
3830 1 0.0 5.3955 16.1865 0 0 0
85 1 34.1715 14.388 8.9925 0 0 0
436 1 30.5745 19.7835 28.776 0 0 0
972 1 26.9775 34.1715 7.194 0 0 0
1079 1 23.3805 3.597 34.1715 0 0 0
3351 1 5.3955 28.776 26.9775 0 0 0
3405 1 3.597 0.0 3.597 0 0 0
2179 1 16.1865 32.373 16.1865 0 0 0
1790 1 21.582 34.1715 26.9775 0 0 0
286 1 32.373 8.9925 5.3955 0 0 0
219 1 30.5745 0.0 16.1865 0 0 0
55 1 34.1715 7.194 26.9775 0 0 0
3508 1 1.7985 8.9925 21.582 0 0 0
468 1 30.5745 23.3805 21.582 0 0 0
8 1 34.1715 1.7985 10.791 0 0 0
915 1 26.9775 25.179 30.5745 0 0 0
3531 1 1.7985 10.791 8.9925 0 0 0
2215 1 12.5895 0.0 12.5895 0 0 0
3886 1 0.0 16.1865 8.9925 0 0 0
1417 1 21.582 0.0 14.388 0 0 0
3473 1 3.597 3.597 28.776 0 0 0
3121 1 7.194 10.791 0.0 0 0 0
3845 1 0.0 7.194 7.194 0 0 0
3392 1 5.3955 34.1715 25.179 0 0 0
2188 1 16.1865 34.1715 21.582 0 0 0
353 1 32.373 10.791 28.776 0 0 0
1259 1 23.3805 21.582 16.1865 0 0 0
503 1 30.5745 25.179 19.7835 0 0 0
1996 1 16.1865 16.1865 28.776 0 0 0
3049 1 7.194 3.597 7.194 0 0 0
1945 1 17.985 10.791 21.582 0 0 0
3358 1 7.194 30.5745 34.1715 0 0 0
1043 1 23.3805 3.597 1.7985 0 0 0
3391 1 5.3955 32.373 26.9775 0 0 0
3343 1 5.3955 28.776 19.7835 0 0 0
2609 1 10.791 0.0 7.194 0 0 0
2419 1 12.5895 17.985 16.1865 0 0 0
3966 1 0.0 30.5745 8.9925 0 0 0
21 1 34.1715 3.597 1.7985 0 0 0
1927 1 16.1865 10.791 5.3955 0 0 0
2380 1 12.5895 16.1865 14.388 0 0 0
1038 1 25.179 1.7985 34.1715 0 0 0
3639 1 1.7985 17.985 34.1715 0 0 0
3474 1 3.597 5.3955 30.5745 0 0 0
3409 1 3.597 0.0 7.194 0 0 0
3630 1 3.597 19.7835 26.9775 0 0 0
593 1 32.373 32.373 28.776 0 0 0
3422 1 3.597 1.7985 19.7835 0 0 0
3956 1 0.0 26.9775 26.9775 0 0 0
1909 1 17.985 7.194 25.179 0 0 0
204 1 30.5745 1.7985 0.0 0 0 0
3231 1 5.3955 17.985 26.9775 0 0 0
3896 1 0.0 16.1865 26.9775 0 0 0
2722 1 10.791 12.5895 1.7985 0 0 0
592 1 30.5745 34.1715 25.179 0 0 0
2586 1 14.388 34.1715 23.3805 0 0 0
267 1 30.5745 3.597 23.3805 0 0 0
1479 1 19.7835 3.597 34.1715 0 0 0
1897 1 17.985 7.194 14.388 0 0 0
2838 1 10.791 19.7835 34.1715 0 0 0
3858 1 0.0 8.9925 30.5745 0 0 0
1863 1 16.1865 3.597 19.7835 0 0 0
3415 1 1.7985 0.0 12.5895 0 0 0
3893 1 0.0 14.388 21.582 0 0 0
2644 1 8.9925 5.3955 0.0 0 0 0
664 1 26.9775 5.3955 17.985 0 0 0
1914 1 17.985 8.9925 30.5745 0 0 0
3460 1 1.7985 5.3955 14.388 0 0 0
743 1 26.9775 10.791 19.7835 0 0 0
510 1 32.373 26.9775 26.9775 0 0 0
2499 1 12.5895 25.179 16.1865 0 0 0
2088 1 16.1865 26.9775 3.597 0 0 0
3555 1 1.7985 10.791 30.5745 0 0 0
2346 1 14.388 12.5895 23.3805 0 0 0
2398 1 14.388 16.1865 34.1715 0 0 0
1013 1 25.179 0.0 10.791 0 0 0
1954 1 17.985 12.5895 30.5745 0 0 0
882 1 28.776 26.9775 1.7985 0 0 0
3761 1 3.597 32.373 0.0 0 0 0
3850 1 0.0 8.9925 16.1865 0 0 0
2708 1 8.9925 8.9925 21.582 0 0 0
2024 1 16.1865 19.7835 17.985 0 0 0
2973 1 10.791 32.373 10.791 0 0 0
2351 1 12.5895 10.791 26.9775 0 0 0
3010 1 7.194 1.7985 8.9925 0 0 0
94 1 34.1715 16.1865 21.582 0 0 0
1915 1 16.1865 7.194 30.5745 0 0 0
1189 1 25.179 14.388 25.179 0 0 0
487 1 30.5745 25.179 5.3955 0 0 0
2194 1 17.985 34.1715 30.5745 0 0 0
3008 1 5.3955 1.7985 3.597 0 0 0
1400 1 23.3805 34.1715 32.373 0 0 0
80 1 34.1715 12.5895 32.373 0 0 0
3952 1 0.0 26.9775 19.7835 0 0 0
2325 1 14.388 10.791 3.597 0 0 0
2459 1 12.5895 21.582 16.1865 0 0 0
788 1 26.9775 16.1865 21.582 0 0 0
697 1 28.776 7.194 14.388 0 0 0
3963 1 0.0 28.776 3.597 0 0 0
1684 1 19.7835 26.9775 0.0 0 0 0
2423 1 12.5895 17.985 19.7835 0 0 0
2104 1 16.1865 26.9775 17.985 0 0 0
1055 1 23.3805 3.597 12.5895 0 0 0
2665 1 10.791 3.597 21.582 0 0 0
315 1 30.5745 7.194 30.5745 0 0 0
2640 1 8.9925 1.7985 32.373 0 0 0
265 1 32.373 3.597 21.582 0 0 0
777 1 28.776 14.388 14.388 0 0 0
578 1 32.373 34.1715 16.1865 0 0 0
1619 1 19.7835 17.985 16.1865 0 0 0
3395 1 5.3955 32.373 30.5745 0 0 0
1714 1 21.582 26.9775 30.5745 0 0 0
1673 1 21.582 21.582 28.776 0 0 0
2736 1 8.9925 12.5895 10.791 0 0 0
1529 1 21.582 10.791 7.194 0 0 0
3769 1 3.597 32.373 7.194 0 0 0
1196 1 23.3805 16.1865 28.776 0 0 0
565 1 32.373 32.373 3.597 0 0 0
133 1 34.1715 21.582 23.3805 0 0 0
1640 1 19.7835 19.7835 32.373 0 0 0
2759 1 8.9925 10.791 34.1715 0 0 0
3095 1 5.3955 7.194 12.5895 0 0 0
172 1 34.1715 30.5745 17.985 0 0 0
1387 1 23.3805 32.373 23.3805 0 0 0
269 1 32.373 3.597 25.179 0 0 0
3228 1 5.3955 19.7835 21.582 0 0 0
544 1 30.5745 30.5745 17.985 0 0 0
218 1 32.373 1.7985 16.1865 0 0 0
349 1 32.373 10.791 25.179 0 0 0
2430 1 14.388 19.7835 26.9775 0 0 0
1378 1 25.179 34.1715 16.1865 0 0 0
3601 1 3.597 17.985 0.0 0 0 0
916 1 26.9775 26.9775 28.776 0 0 0
3938 1 0.0 23.3805 30.5745 0 0 0
606 1 28.776 1.7985 5.3955 0 0 0
3227 1 5.3955 17.985 23.3805 0 0 0
2714 1 10.791 8.9925 30.5745 0 0 0
143 1 34.1715 25.179 5.3955 0 0 0
453 1 32.373 21.582 10.791 0 0 0
70 1 34.1715 12.5895 14.388 0 0 0
553 1 32.373 28.776 28.776 0 0 0
174 1 34.1715 30.5745 21.582 0 0 0
1953 1 17.985 10.791 28.776 0 0 0
1894 1 17.985 8.9925 12.5895 0 0 0
369 1 32.373 14.388 7.194 0 0 0
2290 1 14.388 8.9925 8.9925 0 0 0
2771 1 8.9925 14.388 8.9925 0 0 0
2754 1 10.791 12.5895 30.5745 0 0 0
3576 1 1.7985 16.1865 10.791 0 0 0
2309 1 14.388 7.194 25.179 0 0 0
1540 1 19.7835 12.5895 14.388 0 0 0
828 1 26.9775 19.7835 21.582 0 0 0
3770 1 3.597 34.1715 8.9925 0 0 0
1539 1 19.7835 10.791 16.1865 0 0 0
1164 1 23.3805 16.1865 0.0 0 0 0
3744 1 1.7985 30.5745 17.985 0 0 0
562 1 32.373 34.1715 1.7985 0 0 0
3732 1 1.7985 30.5745 7.194 0 0 0
975 1 26.9775 32.373 12.5895 0 0 0
2608 1 8.9925 1.7985 3.597 0 0 0
3594 1 3.597 16.1865 30.5745 0 0 0
1455 1 19.7835 3.597 12.5895 0 0 0
1803 1 16.1865 0.0 1.7985 0 0 0
3319 1 5.3955 25.179 34.1715 0 0 0
1682 1 21.582 26.9775 1.7985 0 0 0
3554 1 3.597 12.5895 30.5745 0 0 0
1824 1 16.1865 1.7985 17.985 0 0 0
2072 1 16.1865 23.3805 25.179 0 0 0
448 1 30.5745 23.3805 3.597 0 0 0
2560 1 12.5895 30.5745 32.373 0 0 0
1547 1 19.7835 10.791 23.3805 0 0 0
1047 1 23.3805 3.597 5.3955 0 0 0
69 1 34.1715 10.791 16.1865 0 0 0
682 1 28.776 8.9925 1.7985 0 0 0
3527 1 1.7985 10.791 5.3955 0 0 0
237 1 32.373 0.0 32.373 0 0 0
1311 1 23.3805 25.179 26.9775 0 0 0
2163 1 16.1865 32.373 1.7985 0 0 0
2303 1 12.5895 7.194 19.7835 0 0 0
2723 1 8.9925 10.791 1.7985 0 0 0
770 1 28.776 16.1865 8.9925 0 0 0
830 1 28.776 19.7835 26.9775 0 0 0
351 1 30.5745 10.791 26.9775 0 0 0
2682 1 10.791 8.9925 1.7985 0 0 0
3944 1 0.0 26.9775 5.3955 0 0 0
2103 1 16.1865 25.179 19.7835 0 0 0
2815 1 8.9925 17.985 12.5895 0 0 0
3911 1 0.0 17.985 17.985 0 0 0
1463 1 19.7835 3.597 19.7835 0 0 0
1173 1 25.179 14.388 10.791 0 0 0
3958 1 0.0 26.9775 30.5745 0 0 0
2639 1 8.9925 0.0 34.1715 0 0 0
3465 1 3.597 3.597 21.582 0 0 0
1340 1 23.3805 30.5745 14.388 0 0 0
2233 1 14.388 0.0 28.776 0 0 0
923 1 26.9775 28.776 1.7985 0 0 0
3723 1 1.7985 28.776 1.7985 0 0 0
2678 1 10.791 5.3955 34.1715 0 0 0
2937 1 10.791 28.776 14.388 0 0 0
1811 1 16.1865 0.0 8.9925 0 0 0
171 1 34.1715 28.776 19.7835 0 0 0
1390 1 25.179 34.1715 26.9775 0 0 0
1326 1 25.179 30.5745 5.3955 0 0 0
3629 1 3.597 17.985 25.179 0 0 0
3491 1 1.7985 7.194 8.9925 0 0 0
30 1 34.1715 5.3955 14.388 0 0 0
2267 1 12.5895 3.597 23.3805 0 0 0
863 1 26.9775 21.582 19.7835 0 0 0
1363 1 23.3805 32.373 1.7985 0 0 0
324 1 30.5745 12.5895 0.0 0 0 0
3550 1 3.597 12.5895 26.9775 0 0 0
332 1 30.5745 12.5895 7.194 0 0 0
115 1 34.1715 17.985 26.9775 0 0 0
527 1 30.5745 28.776 5.3955 0 0 0
792 1 26.9775 16.1865 25.179 0 0 0
2983 1 8.9925 32.373 19.7835 0 0 0
1166 1 25.179 16.1865 5.3955 0 0 0
3859 1 0.0 7.194 32.373 0 0 0
119 1 34.1715 17.985 34.1715 0 0 0
188 1 34.1715 34.1715 10.791 0 0 0
2130 1 17.985 30.5745 8.9925 0 0 0
2284 1 12.5895 8.9925 0.0 0 0 0
1432 1 19.7835 1.7985 25.179 0 0 0
2636 1 8.9925 1.7985 28.776 0 0 0
3763 1 1.7985 32.373 1.7985 0 0 0
3885 1 0.0 14.388 7.194 0 0 0
51 1 34.1715 7.194 19.7835 0 0 0
2614 1 10.791 1.7985 12.5895 0 0 0
2029 1 17.985 17.985 25.179 0 0 0
3862 1 0.0 12.5895 1.7985 0 0 0
901 1 28.776 25.179 17.985 0 0 0
1832 1 16.1865 1.7985 25.179 0 0 0
1531 1 19.7835 10.791 8.9925 0 0 0
3293 1 7.194 25.179 10.791 0 0 0
875 1 26.9775 21.582 30.5745 0 0 0
2374 1 14.388 16.1865 12.5895 0 0 0
893 1 28.776 25.179 10.791 0 0 0
3506 1 3.597 8.9925 23.3805 0 0 0
3431 1 1.7985 0.0 26.9775 0 0 0
465 1 32.373 21.582 21.582 0 0 0
1906 1 17.985 8.9925 23.3805 0 0 0
588 1 30.5745 34.1715 21.582 0 0 0
122 1 34.1715 23.3805 0.0 0 0 0
605 1 28.776 0.0 3.597 0 0 0
2803 1 8.9925 17.985 1.7985 0 0 0
537 1 32.373 28.776 14.388 0 0 0
3992 1 0.0 34.1715 19.7835 0 0 0
2278 1 14.388 5.3955 34.1715 0 0 0
3722 1 3.597 30.5745 1.7985 0 0 0
1107 1 23.3805 7.194 23.3805 0 0 0
877 1 28.776 21.582 32.373 0 0 0
1394 1 25.179 34.1715 30.5745 0 0 0
3950 1 0.0 26.9775 16.1865 0 0 0
2329 1 14.388 10.791 7.194 0 0 0
54 1 34.1715 8.9925 21.582 0 0 0
1337 1 25.179 28.776 14.388 0 0 0
1933 1 17.985 10.791 10.791 0 0 0
3668 1 1.7985 23.3805 21.582 0 0 0
2645 1 10.791 3.597 3.597 0 0 0
2533 1 14.388 28.776 10.791 0 0 0
3905 1 0.0 17.985 7.194 0 0 0
3278 1 7.194 23.3805 34.1715 0 0 0
1842 1 17.985 5.3955 1.7985 0 0 0
395 1 30.5745 14.388 30.5745 0 0 0
833 1 28.776 17.985 28.776 0 0 0
2332 1 12.5895 12.5895 7.194 0 0 0
1910 1 17.985 8.9925 26.9775 0 0 0
1434 1 21.582 1.7985 30.5745 0 0 0
2623 1 8.9925 0.0 19.7835 0 0 0
327 1 30.5745 10.791 5.3955 0 0 0
2275 1 12.5895 3.597 30.5745 0 0 0
1231 1 23.3805 17.985 26.9775 0 0 0
855 1 26.9775 21.582 12.5895 0 0 0
83 1 34.1715 14.388 5.3955 0 0 0
385 1 32.373 14.388 21.582 0 0 0
350 1 32.373 12.5895 26.9775 0 0 0
1697 1 21.582 25.179 14.388 0 0 0
2369 1 14.388 14.388 7.194 0 0 0
2764 1 8.9925 16.1865 0.0 0 0 0
3303 1 5.3955 25.179 19.7835 0 0 0
530 1 32.373 30.5745 8.9925 0 0 0
2792 1 8.9925 16.1865 25.179 0 0 0
1729 1 21.582 28.776 7.194 0 0 0
2859 1 8.9925 21.582 16.1865 0 0 0
44 1 34.1715 8.9925 3.597 0 0 0
3104 1 5.3955 8.9925 17.985 0 0 0
1222 1 25.179 19.7835 19.7835 0 0 0
2522 1 14.388 30.5745 1.7985 0 0 0
573 1 32.373 32.373 10.791 0 0 0
3215 1 5.3955 17.985 12.5895 0 0 0
1357 1 25.179 28.776 32.373 0 0 0
511 1 30.5745 25.179 26.9775 0 0 0
1135 1 23.3805 10.791 12.5895 0 0 0
1769 1 21.582 32.373 7.194 0 0 0
3312 1 5.3955 26.9775 25.179 0 0 0
3936 1 0.0 23.3805 26.9775 0 0 0
2265 1 14.388 3.597 21.582 0 0 0
3707 1 1.7985 25.179 23.3805 0 0 0
295 1 30.5745 7.194 12.5895 0 0 0
1612 1 19.7835 19.7835 7.194 0 0 0
3543 1 1.7985 10.791 19.7835 0 0 0
3874 1 0.0 12.5895 23.3805 0 0 0
2231 1 12.5895 0.0 26.9775 0 0 0
186 1 34.1715 34.1715 7.194 0 0 0
2691 1 8.9925 7.194 8.9925 0 0 0
1959 1 16.1865 10.791 34.1715 0 0 0
3021 1 7.194 0.0 17.985 0 0 0
659 1 26.9775 3.597 16.1865 0 0 0
2627 1 8.9925 0.0 23.3805 0 0 0
699 1 26.9775 7.194 16.1865 0 0 0
3151 1 5.3955 10.791 26.9775 0 0 0
1234 1 25.179 19.7835 30.5745 0 0 0
1370 1 25.179 34.1715 8.9925 0 0 0
458 1 32.373 23.3805 16.1865 0 0 0
3194 1 7.194 16.1865 30.5745 0 0 0
1341 1 25.179 28.776 17.985 0 0 0
1795 1 19.7835 32.373 30.5745 0 0 0
1279 1 23.3805 21.582 34.1715 0 0 0
2277 1 14.388 3.597 32.373 0 0 0
3523 1 1.7985 10.791 1.7985 0 0 0
3046 1 7.194 5.3955 5.3955 0 0 0
2157 1 17.985 28.776 32.373 0 0 0
1421 1 21.582 0.0 17.985 0 0 0
1273 1 25.179 21.582 28.776 0 0 0
784 1 26.9775 16.1865 17.985 0 0 0
3160 1 5.3955 12.5895 32.373 0 0 0
3919 1 0.0 17.985 32.373 0 0 0
3915 1 0.0 17.985 25.179 0 0 0
2588 1 12.5895 34.1715 21.582 0 0 0
2170 1 17.985 34.1715 8.9925 0 0 0
981 1 28.776 32.373 17.985 0 0 0
1075 1 23.3805 3.597 30.5745 0 0 0
2739 1 8.9925 10.791 16.1865 0 0 0
1922 1 17.985 12.5895 1.7985 0 0 0
1626 1 21.582 19.7835 23.3805 0 0 0
1351 1 23.3805 28.776 26.9775 0 0 0
164 1 34.1715 30.5745 3.597 0 0 0
2557 1 14.388 28.776 32.373 0 0 0
3088 1 5.3955 8.9925 3.597 0 0 0
1328 1 23.3805 30.5745 3.597 0 0 0
2269 1 14.388 3.597 25.179 0 0 0
858 1 28.776 23.3805 16.1865 0 0 0
991 1 26.9775 32.373 26.9775 0 0 0
2066 1 17.985 23.3805 23.3805 0 0 0
1232 1 23.3805 19.7835 25.179 0 0 0
1501 1 21.582 7.194 17.985 0 0 0
1603 1 19.7835 17.985 1.7985 0 0 0
1081 1 25.179 7.194 0.0 0 0 0
124 1 34.1715 23.3805 3.597 0 0 0
729 1 28.776 10.791 7.194 0 0 0
2242 1 14.388 5.3955 1.7985 0 0 0
3945 1 0.0 25.179 7.194 0 0 0
762 1 28.776 16.1865 1.7985 0 0 0
2597 1 14.388 32.373 32.373 0 0 0
2206 1 14.388 1.7985 5.3955 0 0 0
3864 1 0.0 12.5895 5.3955 0 0 0
3229 1 7.194 17.985 25.179 0 0 0
3518 1 3.597 8.9925 34.1715 0 0 0
34 1 34.1715 5.3955 21.582 0 0 0
403 1 30.5745 17.985 1.7985 0 0 0
1942 1 17.985 12.5895 19.7835 0 0 0
3201 1 7.194 17.985 0.0 0 0 0
1314 1 25.179 26.9775 30.5745 0 0 0
1263 1 23.3805 21.582 19.7835 0 0 0
1180 1 23.3805 16.1865 14.388 0 0 0
1620 1 19.7835 19.7835 14.388 0 0 0
1891 1 16.1865 7.194 8.9925 0 0 0
1763 1 19.7835 32.373 1.7985 0 0 0
3476 1 1.7985 5.3955 28.776 0 0 0
2709 1 10.791 7.194 25.179 0 0 0
926 1 28.776 30.5745 5.3955 0 0 0
1093 1 25.179 7.194 10.791 0 0 0
2696 1 8.9925 8.9925 10.791 0 0 0
2144 1 16.1865 30.5745 17.985 0 0 0
2235 1 12.5895 0.0 30.5745 0 0 0
758 1 28.776 12.5895 34.1715 0 0 0
375 1 30.5745 14.388 12.5895 0 0 0
3035 1 5.3955 0.0 30.5745 0 0 0
1096 1 23.3805 8.9925 10.791 0 0 0
3065 1 7.194 3.597 21.582 0 0 0
2705 1 10.791 7.194 21.582 0 0 0
1078 1 25.179 5.3955 34.1715 0 0 0
568 1 30.5745 34.1715 3.597 0 0 0
546 1 32.373 30.5745 23.3805 0 0 0
340 1 30.5745 12.5895 14.388 0 0 0
2883 1 8.9925 25.179 1.7985 0 0 0
2229 1 14.388 0.0 25.179 0 0 0
1145 1 25.179 10.791 21.582 0 0 0
847 1 26.9775 21.582 5.3955 0 0 0
2507 1 12.5895 25.179 23.3805 0 0 0
3564 1 1.7985 16.1865 0.0 0 0 0
604 1 26.9775 1.7985 0.0 0 0 0
3178 1 7.194 16.1865 16.1865 0 0 0
1566 1 21.582 16.1865 5.3955 0 0 0
3334 1 7.194 30.5745 12.5895 0 0 0
2965 1 10.791 32.373 3.597 0 0 0
594 1 32.373 34.1715 30.5745 0 0 0
640 1 26.9775 1.7985 32.373 0 0 0
284 1 30.5745 8.9925 0.0 0 0 0
178 1 34.1715 30.5745 28.776 0 0 0
920 1 26.9775 26.9775 32.373 0 0 0
2969 1 10.791 32.373 7.194 0 0 0
1577 1 21.582 14.388 14.388 0 0 0
2592 1 12.5895 34.1715 25.179 0 0 0
27 1 34.1715 3.597 12.5895 0 0 0
1902 1 17.985 8.9925 19.7835 0 0 0
1392 1 23.3805 34.1715 25.179 0 0 0
918 1 28.776 26.9775 34.1715 0 0 0
3044 1 5.3955 5.3955 0.0 0 0 0
1816 1 16.1865 1.7985 10.791 0 0 0
1401 1 21.582 0.0 0.0 0 0 0
2132 1 16.1865 30.5745 7.194 0 0 0
2698 1 10.791 8.9925 16.1865 0 0 0
2617 1 10.791 0.0 14.388 0 0 0
2381 1 14.388 14.388 17.985 0 0 0
3881 1 0.0 14.388 0.0 0 0 0
3364 1 5.3955 34.1715 0.0 0 0 0
1526 1 21.582 12.5895 5.3955 0 0 0
341 1 32.373 10.791 17.985 0 0 0
2126 1 17.985 30.5745 5.3955 0 0 0
250 1 32.373 5.3955 8.9925 0 0 0
1904 1 16.1865 8.9925 17.985 0 0 0
1752 1 19.7835 30.5745 25.179 0 0 0
676 1 26.9775 5.3955 28.776 0 0 0
2701 1 10.791 7.194 17.985 0 0 0
1656 1 19.7835 23.3805 10.791 0 0 0
1895 1 16.1865 7.194 12.5895 0 0 0
680 1 26.9775 5.3955 32.373 0 0 0
1913 1 17.985 7.194 28.776 0 0 0
2545 1 14.388 28.776 21.582 0 0 0
1245 1 25.179 21.582 3.597 0 0 0
1917 1 17.985 7.194 32.373 0 0 0
1556 1 19.7835 12.5895 28.776 0 0 0
2675 1 8.9925 3.597 30.5745 0 0 0
1510 1 21.582 8.9925 26.9775 0 0 0
180 1 34.1715 30.5745 32.373 0 0 0
1518 1 21.582 8.9925 34.1715 0 0 0
2987 1 8.9925 32.373 23.3805 0 0 0
2894 1 10.791 26.9775 12.5895 0 0 0
3622 1 3.597 19.7835 19.7835 0 0 0
2993 1 10.791 32.373 28.776 0 0 0
3863 1 0.0 10.791 3.597 0 0 0
1480 1 19.7835 5.3955 32.373 0 0 0
1825 1 17.985 0.0 21.582 0 0 0
2753 1 10.791 10.791 28.776 0 0 0
2008 1 16.1865 19.7835 3.597 0 0 0
1213 1 25.179 17.985 10.791 0 0 0
1514 1 21.582 8.9925 30.5745 0 0 0
56 1 34.1715 8.9925 25.179 0 0 0
302 1 32.373 8.9925 19.7835 0 0 0
669 1 28.776 3.597 25.179 0 0 0
1990 1 17.985 16.1865 26.9775 0 0 0
1528 1 19.7835 12.5895 3.597 0 0 0
2316 1 12.5895 8.9925 28.776 0 0 0
300 1 30.5745 8.9925 14.388 0 0 0
1545 1 21.582 10.791 21.582 0 0 0
2827 1 8.9925 17.985 23.3805 0 0 0
472 1 30.5745 23.3805 25.179 0 0 0
1054 1 25.179 5.3955 12.5895 0 0 0
431 1 30.5745 17.985 26.9775 0 0 0
886 1 28.776 26.9775 5.3955 0 0 0
139 1 34.1715 21.582 34.1715 0 0 0
2511 1 12.5895 25.179 26.9775 0 0 0
3786 1 3.597 34.1715 23.3805 0 0 0
840 1 26.9775 19.7835 32.373 0 0 0
3959 1 0.0 25.179 32.373 0 0 0
1153 1 25.179 10.791 28.776 0 0 0
2796 1 8.9925 16.1865 28.776 0 0 0
2905 1 10.791 25.179 21.582 0 0 0
3136 1 5.3955 12.5895 10.791 0 0 0
2795 1 8.9925 14.388 30.5745 0 0 0
2005 1 17.985 17.985 3.597 0 0 0
907 1 26.9775 25.179 23.3805 0 0 0
1928 1 16.1865 12.5895 3.597 0 0 0
3256 1 5.3955 23.3805 10.791 0 0 0
3296 1 5.3955 26.9775 10.791 0 0 0
2599 1 12.5895 32.373 34.1715 0 0 0
200 1 34.1715 34.1715 32.373 0 0 0
1520 1 19.7835 8.9925 32.373 0 0 0
2492 1 12.5895 26.9775 7.194 0 0 0
1442 1 21.582 5.3955 1.7985 0 0 0
3432 1 1.7985 1.7985 25.179 0 0 0
3011 1 5.3955 0.0 8.9925 0 0 0
3170 1 7.194 16.1865 8.9925 0 0 0
694 1 28.776 8.9925 12.5895 0 0 0
3746 1 3.597 30.5745 23.3805 0 0 0
3660 1 1.7985 23.3805 14.388 0 0 0
259 1 30.5745 3.597 16.1865 0 0 0
1294 1 25.179 26.9775 12.5895 0 0 0
1912 1 16.1865 8.9925 25.179 0 0 0
835 1 26.9775 17.985 30.5745 0 0 0
2135 1 16.1865 28.776 12.5895 0 0 0
2732 1 8.9925 12.5895 7.194 0 0 0
3852 1 0.0 8.9925 19.7835 0 0 0
357 1 32.373 10.791 32.373 0 0 0
1188 1 23.3805 16.1865 21.582 0 0 0
3236 1 5.3955 19.7835 28.776 0 0 0
3930 1 0.0 23.3805 16.1865 0 0 0
87 1 34.1715 14.388 12.5895 0 0 0
1588 1 19.7835 16.1865 21.582 0 0 0
2204 1 12.5895 1.7985 0.0 0 0 0
2249 1 14.388 3.597 7.194 0 0 0
2822 1 10.791 19.7835 19.7835 0 0 0
1040 1 23.3805 1.7985 32.373 0 0 0
823 1 26.9775 17.985 19.7835 0 0 0
1689 1 21.582 25.179 7.194 0 0 0
1647 1 19.7835 21.582 5.3955 0 0 0
480 1 30.5745 23.3805 32.373 0 0 0
1693 1 21.582 25.179 10.791 0 0 0
2555 1 12.5895 28.776 30.5745 0 0 0
1533 1 21.582 10.791 10.791 0 0 0
2449 1 14.388 21.582 7.194 0 0 0
903 1 26.9775 25.179 19.7835 0 0 0
540 1 30.5745 30.5745 14.388 0 0 0
2062 1 17.985 23.3805 19.7835 0 0 0
2989 1 10.791 32.373 25.179 0 0 0
1130 1 25.179 12.5895 8.9925 0 0 0
2850 1 10.791 23.3805 8.9925 0 0 0
3735 1 1.7985 28.776 12.5895 0 0 0
631 1 26.9775 0.0 26.9775 0 0 0
1354 1 25.179 30.5745 30.5745 0 0 0
1186 1 25.179 16.1865 23.3805 0 0 0
2568 1 12.5895 34.1715 3.597 0 0 0
3741 1 3.597 28.776 17.985 0 0 0
1114 1 25.179 8.9925 30.5745 0 0 0
1687 1 19.7835 25.179 5.3955 0 0 0
718 1 28.776 8.9925 34.1715 0 0 0
993 1 28.776 32.373 28.776 0 0 0
3967 1 0.0 28.776 10.791 0 0 0
1088 1 23.3805 8.9925 3.597 0 0 0
1677 1 21.582 21.582 32.373 0 0 0
1840 1 16.1865 1.7985 32.373 0 0 0
2921 1 10.791 28.776 0.0 0 0 0
2026 1 17.985 19.7835 23.3805 0 0 0
3973 1 0.0 28.776 21.582 0 0 0
490 1 32.373 26.9775 8.9925 0 0 0
1889 1 17.985 7.194 7.194 0 0 0
2001 1 17.985 17.985 0.0 0 0 0
3826 1 0.0 5.3955 8.9925 0 0 0
1350 1 25.179 30.5745 26.9775 0 0 0
2734 1 10.791 12.5895 12.5895 0 0 0
1737 1 21.582 28.776 14.388 0 0 0
1397 1 25.179 32.373 32.373 0 0 0
2110 1 17.985 26.9775 26.9775 0 0 0
279 1 30.5745 3.597 34.1715 0 0 0
2421 1 14.388 17.985 17.985 0 0 0
2847 1 8.9925 21.582 5.3955 0 0 0
103 1 34.1715 17.985 5.3955 0 0 0
6 1 34.1715 1.7985 7.194 0 0 0
621 1 28.776 0.0 17.985 0 0 0
3604 1 1.7985 19.7835 0.0 0 0 0
1944 1 16.1865 12.5895 17.985 0 0 0
3248 1 5.3955 23.3805 3.597 0 0 0
1490 1 21.582 8.9925 8.9925 0 0 0
208 1 30.5745 1.7985 3.597 0 0 0
1364 1 23.3805 34.1715 0.0 0 0 0
2570 1 14.388 34.1715 8.9925 0 0 0
2481 1 14.388 25.179 0.0 0 0 0
2986 1 10.791 34.1715 23.3805 0 0 0
3854 1 0.0 8.9925 23.3805 0 0 0
187 1 34.1715 32.373 12.5895 0 0 0
1430 1 21.582 1.7985 26.9775 0 0 0
2904 1 8.9925 26.9775 17.985 0 0 0
1062 1 25.179 5.3955 19.7835 0 0 0
2642 1 10.791 5.3955 1.7985 0 0 0
1964 1 16.1865 16.1865 0.0 0 0 0
3942 1 0.0 26.9775 1.7985 0 0 0
2358 1 14.388 12.5895 34.1715 0 0 0
1867 1 16.1865 3.597 23.3805 0 0 0
3681 1 3.597 25.179 0.0 0 0 0
3721 1 3.597 28.776 0.0 0 0 0
3098 1 7.194 8.9925 16.1865 0 0 0
2494 1 14.388 26.9775 12.5895 0 0 0
745 1 28.776 10.791 21.582 0 0 0
3162 1 7.194 16.1865 1.7985 0 0 0
1278 1 25.179 23.3805 34.1715 0 0 0
3066 1 7.194 5.3955 23.3805 0 0 0
3704 1 1.7985 26.9775 17.985 0 0 0
3437 1 3.597 0.0 32.373 0 0 0
1699 1 19.7835 25.179 16.1865 0 0 0
1908 1 16.1865 8.9925 21.582 0 0 0
1147 1 23.3805 10.791 23.3805 0 0 0
2241 1 14.388 3.597 0.0 0 0 0
3666 1 3.597 23.3805 23.3805 0 0 0
2402 1 14.388 19.7835 1.7985 0 0 0
444 1 30.5745 23.3805 0.0 0 0 0
974 1 28.776 34.1715 12.5895 0 0 0
3050 1 7.194 5.3955 8.9925 0 0 0
1760 1 19.7835 30.5745 32.373 0 0 0
3225 1 7.194 17.985 21.582 0 0 0
2149 1 17.985 28.776 25.179 0 0 0
3901 1 0.0 17.985 0.0 0 0 0
2672 1 8.9925 5.3955 25.179 0 0 0
1219 1 23.3805 17.985 16.1865 0 0 0
2789 1 10.791 14.388 25.179 0 0 0
2016 1 16.1865 19.7835 10.791 0 0 0
3287 1 5.3955 25.179 5.3955 0 0 0
256 1 30.5745 5.3955 10.791 0 0 0
2192 1 16.1865 34.1715 25.179 0 0 0
1972 1 16.1865 16.1865 7.194 0 0 0
46 1 34.1715 8.9925 7.194 0 0 0
50 1 34.1715 8.9925 14.388 0 0 0
2217 1 14.388 0.0 14.388 0 0 0
471 1 30.5745 21.582 26.9775 0 0 0
1967 1 16.1865 14.388 5.3955 0 0 0
2720 1 8.9925 8.9925 32.373 0 0 0
334 1 32.373 12.5895 12.5895 0 0 0
2432 1 12.5895 19.7835 25.179 0 0 0
1968 1 16.1865 16.1865 3.597 0 0 0
2884 1 8.9925 26.9775 0.0 0 0 0
1119 1 23.3805 7.194 34.1715 0 0 0
1375 1 23.3805 32.373 12.5895 0 0 0
2469 1 14.388 21.582 25.179 0 0 0
1129 1 25.179 10.791 7.194 0 0 0
1557 1 21.582 10.791 32.373 0 0 0
3530 1 3.597 12.5895 8.9925 0 0 0
1267 1 23.3805 21.582 23.3805 0 0 0
2716 1 8.9925 8.9925 28.776 0 0 0
512 1 30.5745 26.9775 25.179 0 0 0
1274 1 25.179 23.3805 30.5745 0 0 0
1095 1 23.3805 7.194 12.5895 0 0 0
285 1 32.373 7.194 3.597 0 0 0
2400 1 12.5895 16.1865 32.373 0 0 0
1162 1 25.179 16.1865 1.7985 0 0 0
2395 1 12.5895 14.388 30.5745 0 0 0
1220 1 23.3805 19.7835 14.388 0 0 0
2058 1 17.985 23.3805 16.1865 0 0 0
801 1 28.776 17.985 0.0 0 0 0
3038 1 7.194 1.7985 34.1715 0 0 0
3101 1 7.194 7.194 17.985 0 0 0
900 1 26.9775 26.9775 14.388 0 0 0
294 1 32.373 8.9925 12.5895 0 0 0
2914 1 10.791 26.9775 30.5745 0 0 0
3069 1 7.194 3.597 25.179 0 0 0
1109 1 25.179 7.194 25.179 0 0 0
3742 1 3.597 30.5745 19.7835 0 0 0
2108 1 16.1865 26.9775 21.582 0 0 0
871 1 26.9775 21.582 26.9775 0 0 0
768 1 26.9775 16.1865 3.597 0 0 0
2478 1 14.388 23.3805 34.1715 0 0 0
1007 1 23.3805 0.0 5.3955 0 0 0
3068 1 5.3955 5.3955 21.582 0 0 0
394 1 32.373 16.1865 30.5745 0 0 0
1583 1 19.7835 14.388 19.7835 0 0 0
526 1 32.373 30.5745 5.3955 0 0 0
3113 1 7.194 7.194 28.776 0 0 0
1639 1 19.7835 17.985 34.1715 0 0 0
3080 1 5.3955 5.3955 32.373 0 0 0
2 1 34.1715 1.7985 0.0 0 0 0
2239 1 12.5895 0.0 34.1715 0 0 0
1881 1 17.985 7.194 0.0 0 0 0
3262 1 7.194 23.3805 19.7835 0 0 0
214 1 32.373 1.7985 12.5895 0 0 0
661 1 28.776 3.597 17.985 0 0 0
2728 1 8.9925 12.5895 3.597 0 0 0
2201 1 14.388 0.0 0.0 0 0 0
854 1 28.776 23.3805 12.5895 0 0 0
2741 1 10.791 10.791 17.985 0 0 0
3416 1 1.7985 1.7985 10.791 0 0 0
1198 1 25.179 16.1865 34.1715 0 0 0
2658 1 10.791 5.3955 16.1865 0 0 0
2368 1 12.5895 16.1865 3.597 0 0 0
3587 1 1.7985 14.388 23.3805 0 0 0
1812 1 16.1865 1.7985 7.194 0 0 0
3672 1 1.7985 23.3805 25.179 0 0 0
2142 1 17.985 30.5745 19.7835 0 0 0
89 1 34.1715 14.388 16.1865 0 0 0
750 1 28.776 12.5895 26.9775 0 0 0
3977 1 0.0 28.776 28.776 0 0 0
946 1 28.776 30.5745 23.3805 0 0 0
473 1 32.373 21.582 28.776 0 0 0
2034 1 17.985 19.7835 30.5745 0 0 0
3912 1 0.0 19.7835 19.7835 0 0 0
1486 1 21.582 8.9925 5.3955 0 0 0
157 1 34.1715 25.179 30.5745 0 0 0
846 1 28.776 23.3805 5.3955 0 0 0
1041 1 25.179 3.597 0.0 0 0 0
3559 1 1.7985 10.791 34.1715 0 0 0
1435 1 19.7835 0.0 30.5745 0 0 0
2166 1 17.985 34.1715 5.3955 0 0 0
2141 1 17.985 28.776 17.985 0 0 0
3047 1 5.3955 3.597 5.3955 0 0 0
233 1 32.373 0.0 28.776 0 0 0
586 1 32.373 34.1715 23.3805 0 0 0
927 1 26.9775 28.776 5.3955 0 0 0
377 1 32.373 14.388 14.388 0 0 0
1935 1 16.1865 10.791 12.5895 0 0 0
2591 1 12.5895 32.373 26.9775 0 0 0
2169 1 17.985 32.373 7.194 0 0 0
3976 1 0.0 30.5745 26.9775 0 0 0
1523 1 19.7835 10.791 1.7985 0 0 0
794 1 28.776 16.1865 30.5745 0 0 0
1108 1 23.3805 8.9925 21.582 0 0 0
883 1 26.9775 25.179 1.7985 0 0 0
3492 1 1.7985 8.9925 7.194 0 0 0
2031 1 16.1865 17.985 26.9775 0 0 0
75 1 34.1715 10.791 26.9775 0 0 0
2513 1 14.388 25.179 28.776 0 0 0
3189 1 7.194 14.388 25.179 0 0 0
1329 1 25.179 28.776 7.194 0 0 0
2312 1 12.5895 8.9925 25.179 0 0 0
2366 1 14.388 16.1865 5.3955 0 0 0
1248 1 23.3805 23.3805 3.597 0 0 0
404 1 30.5745 19.7835 0.0 0 0 0
2164 1 16.1865 34.1715 0.0 0 0 0
3937 1 0.0 21.582 28.776 0 0 0
2805 1 10.791 17.985 3.597 0 0 0
2313 1 14.388 7.194 28.776 0 0 0
2003 1 16.1865 17.985 1.7985 0 0 0
3686 1 3.597 26.9775 5.3955 0 0 0
2445 1 14.388 21.582 3.597 0 0 0
1548 1 19.7835 12.5895 21.582 0 0 0
423 1 30.5745 17.985 19.7835 0 0 0
741 1 28.776 10.791 17.985 0 0 0
466 1 32.373 23.3805 23.3805 0 0 0
692 1 26.9775 8.9925 7.194 0 0 0
3829 1 0.0 3.597 14.388 0 0 0
979 1 26.9775 32.373 16.1865 0 0 0
579 1 30.5745 32.373 16.1865 0 0 0
2845 1 10.791 21.582 3.597 0 0 0
255 1 30.5745 3.597 12.5895 0 0 0
3783 1 1.7985 32.373 19.7835 0 0 0
3238 1 7.194 19.7835 34.1715 0 0 0
2253 1 14.388 3.597 10.791 0 0 0
1286 1 25.179 26.9775 5.3955 0 0 0
1408 1 19.7835 1.7985 3.597 0 0 0
1667 1 19.7835 21.582 23.3805 0 0 0
2631 1 8.9925 0.0 26.9775 0 0 0
2532 1 12.5895 30.5745 7.194 0 0 0
2651 1 8.9925 3.597 8.9925 0 0 0
2873 1 10.791 21.582 28.776 0 0 0
504 1 30.5745 26.9775 17.985 0 0 0
1060 1 23.3805 5.3955 14.388 0 0 0
3179 1 5.3955 14.388 16.1865 0 0 0
1255 1 23.3805 21.582 12.5895 0 0 0
3464 1 1.7985 5.3955 17.985 0 0 0
1782 1 21.582 34.1715 19.7835 0 0 0
2573 1 14.388 32.373 10.791 0 0 0
2037 1 17.985 17.985 32.373 0 0 0
2444 1 12.5895 23.3805 0.0 0 0 0
3789 1 3.597 32.373 25.179 0 0 0
637 1 28.776 0.0 32.373 0 0 0
3612 1 1.7985 19.7835 7.194 0 0 0
3252 1 5.3955 23.3805 7.194 0 0 0
3114 1 7.194 8.9925 30.5745 0 0 0
90 1 34.1715 16.1865 14.388 0 0 0
1405 1 21.582 0.0 3.597 0 0 0
14 1 34.1715 1.7985 21.582 0 0 0
3978 1 0.0 30.5745 30.5745 0 0 0
2010 1 17.985 19.7835 8.9925 0 0 0
1150 1 25.179 12.5895 26.9775 0 0 0
2718 1 10.791 8.9925 34.1715 0 0 0
746 1 28.776 12.5895 23.3805 0 0 0
2063 1 16.1865 21.582 19.7835 0 0 0
20 1 34.1715 1.7985 32.373 0 0 0
26 1 34.1715 5.3955 7.194 0 0 0
1264 1 23.3805 23.3805 17.985 0 0 0
2929 1 10.791 28.776 7.194 0 0 0
2854 1 10.791 23.3805 12.5895 0 0 0
2209 1 14.388 0.0 7.194 0 0 0
3971 1 0.0 28.776 17.985 0 0 0
3261 1 7.194 21.582 17.985 0 0 0
3677 1 3.597 21.582 32.373 0 0 0
389 1 32.373 14.388 25.179 0 0 0
3128 1 5.3955 12.5895 3.597 0 0 0
418 1 32.373 19.7835 16.1865 0 0 0
3619 1 1.7985 17.985 16.1865 0 0 0
3718 1 3.597 26.9775 34.1715 0 0 0
983 1 26.9775 32.373 19.7835 0 0 0
1103 1 23.3805 7.194 19.7835 0 0 0
496 1 30.5745 26.9775 10.791 0 0 0
3171 1 5.3955 14.388 8.9925 0 0 0
3584 1 1.7985 16.1865 17.985 0 0 0
2384 1 12.5895 16.1865 17.985 0 0 0
1983 1 16.1865 14.388 19.7835 0 0 0
1669 1 21.582 21.582 25.179 0 0 0
939 1 26.9775 28.776 16.1865 0 0 0
1053 1 25.179 3.597 10.791 0 0 0
104 1 34.1715 19.7835 3.597 0 0 0
71 1 34.1715 10.791 19.7835 0 0 0
1642 1 21.582 23.3805 1.7985 0 0 0
3782 1 3.597 34.1715 19.7835 0 0 0
2036 1 16.1865 19.7835 28.776 0 0 0
1347 1 23.3805 28.776 23.3805 0 0 0
1285 1 25.179 25.179 3.597 0 0 0
767 1 26.9775 14.388 5.3955 0 0 0
113 1 34.1715 17.985 23.3805 0 0 0
2205 1 14.388 0.0 3.597 0 0 0
3583 1 1.7985 14.388 19.7835 0 0 0
968 1 26.9775 34.1715 3.597 0 0 0
502 1 32.373 26.9775 19.7835 0 0 0
1690 1 21.582 26.9775 8.9925 0 0 0
1157 1 25.179 10.791 32.373 0 0 0
2604 1 8.9925 1.7985 0.0 0 0 0
3616 1 1.7985 19.7835 10.791 0 0 0
3497 1 3.597 7.194 14.388 0 0 0
287 1 30.5745 7.194 5.3955 0 0 0
805 1 28.776 17.985 3.597 0 0 0
3218 1 7.194 19.7835 16.1865 0 0 0
3724 1 1.7985 30.5745 0.0 0 0 0
1986 1 17.985 16.1865 23.3805 0 0 0
3524 1 1.7985 12.5895 0.0 0 0 0
2376 1 12.5895 16.1865 10.791 0 0 0
3290 1 7.194 26.9775 8.9925 0 0 0
3579 1 1.7985 14.388 16.1865 0 0 0
1142 2 25.179 12.5895 19.7835 0 0 0
2906 2 10.791 26.9775 23.3805 0 0 0
1284 2 23.3805 26.9775 0.0 0 0 0
3688 2 1.7985 26.9775 3.597 0 0 0
2195 2 16.1865 32.373 30.5745 0 0 0
3067 2 5.3955 3.597 23.3805 0 0 0
715 2 26.9775 7.194 30.5745 0 0 0
1487 2 19.7835 7.194 5.3955 0 0 0
2777 2 10.791 14.388 14.388 0 0 0
2176 2 16.1865 34.1715 10.791 0 0 0
912 2 26.9775 26.9775 25.179 0 0 0
3849 2 0.0 7.194 14.388 0 0 0
1781 2 21.582 32.373 17.985 0 0 0
1128 2 23.3805 12.5895 3.597 0 0 0
3059 2 5.3955 3.597 16.1865 0 0 0
3097 2 7.194 7.194 14.388 0 0 0
1433 2 21.582 0.0 28.776 0 0 0
902 2 28.776 26.9775 19.7835 0 0 0
1643 2 19.7835 21.582 1.7985 0 0 0
2296 2 12.5895 8.9925 10.791 0 0 0
355 2 30.5745 10.791 30.5745 0 0 0
175 2 34.1715 28.776 26.9775 0 0 0
2465 2 14.388 21.582 21.582 0 0 0
3856 2 0.0 8.9925 26.9775 0 0 0
1521 2 21.582 10.791 0.0 0 0 0
644 2 26.9775 5.3955 0.0 0 0 0
2559 2 12.5895 28.776 34.1715 0 0 0
2289 2 14.388 7.194 7.194 0 0 0
417 2 32.373 17.985 14.388 0 0 0
3159 2 5.3955 10.791 34.1715 0 0 0
601 2 28.776 0.0 0.0 0 0 0
3490 2 3.597 8.9925 8.9925 0 0 0
426 2 32.373 19.7835 23.3805 0 0 0
1658 2 21.582 23.3805 16.1865 0 0 0
3680 2 1.7985 23.3805 32.373 0 0 0
2780 2 8.9925 16.1865 14.388 0 0 0
1770 2 21.582 34.1715 8.9925 0 0 0
572 2 30.5745 34.1715 7.194 0 0 0
1589 2 21.582 14.388 25.179 0 0 0
702 2 28.776 8.9925 19.7835 0 0 0
1082 2 25.179 8.9925 1.7985 0 0 0
613 2 28.776 0.0 10.791 0 0 0
1374 2 25.179 34.1715 12.5895 0 0 0
2585 2 14.388 32.373 21.582 0 0 0
2002 2 17.985 19.7835 1.7985 0 0 0
3817 2 0.0 0.0 28.776 0 0 0
2797 2 10.791 14.388 32.373 0 0 0
619 2 26.9775 0.0 16.1865 0 0 0
1247 2 23.3805 21.582 5.3955 0 0 0
898 2 28.776 26.9775 16.1865 0 0 0
319 2 30.5745 7.194 34.1715 0 0 0
930 2 28.776 30.5745 8.9925 0 0 0
508 2 30.5745 26.9775 21.582 0 0 0
1509 2 21.582 7.194 25.179 0 0 0
3807 2 0.0 0.0 10.791 0 0 0
1655 2 19.7835 21.582 12.5895 0 0 0
1538 2 21.582 12.5895 16.1865 0 0 0
2790 2 10.791 16.1865 26.9775 0 0 0
2731 2 8.9925 10.791 8.9925 0 0 0
3653 2 3.597 21.582 10.791 0 0 0
1271 2 23.3805 21.582 26.9775 0 0 0
3986 2 0.0 34.1715 8.9925 0 0 0
1884 2 16.1865 8.9925 0.0 0 0 0
3644 2 1.7985 23.3805 0.0 0 0 0
1177 2 25.179 14.388 14.388 0 0 0
488 2 30.5745 26.9775 3.597 0 0 0
3545 2 3.597 10.791 21.582 0 0 0
3183 2 5.3955 14.388 19.7835 0 0 0
3147 2 5.3955 10.791 23.3805 0 0 0
2541 2 14.388 28.776 17.985 0 0 0
1778 2 21.582 34.1715 16.1865 0 0 0
3335 2 5.3955 28.776 12.5895 0 0 0
580 2 30.5745 34.1715 14.388 0 0 0
684 2 26.9775 8.9925 0.0 0 0 0
1331 2 23.3805 28.776 8.9925 0 0 0
2813 2 10.791 17.985 10.791 0 0 0
3297 2 7.194 25.179 14.388 0 0 0
2019 2 16.1865 17.985 16.1865 0 0 0
3865 2 0.0 10.791 7.194 0 0 0
1413 2 21.582 0.0 10.791 0 0 0
3699 2 1.7985 25.179 16.1865 0 0 0
3031 2 5.3955 0.0 26.9775 0 0 0
3064 2 5.3955 5.3955 17.985 0 0 0
2603 2 8.9925 0.0 1.7985 0 0 0
2871 2 8.9925 21.582 26.9775 0 0 0
2373 2 14.388 14.388 10.791 0 0 0
162 2 34.1715 30.5745 0.0 0 0 0
589 2 32.373 32.373 25.179 0 0 0
2355 2 12.5895 10.791 30.5745 0 0 0
1003 2 23.3805 0.0 1.7985 0 0 0
1696 2 19.7835 26.9775 10.791 0 0 0
751 2 26.9775 10.791 26.9775 0 0 0
2525 2 14.388 28.776 3.597 0 0 0
3427 2 1.7985 0.0 23.3805 0 0 0
671 2 26.9775 3.597 26.9775 0 0 0
1692 2 19.7835 26.9775 7.194 0 0 0
3032 2 5.3955 1.7985 25.179 0 0 0
3890 2 0.0 16.1865 16.1865 0 0 0
647 2 26.9775 3.597 5.3955 0 0 0
1169 2 25.179 14.388 7.194 0 0 0
1786 2 21.582 34.1715 23.3805 0 0 0
1883 2 16.1865 7.194 1.7985 0 0 0
2216 2 12.5895 1.7985 10.791 0 0 0
2823 2 8.9925 17.985 19.7835 0 0 0
1365 2 25.179 32.373 3.597 0 0 0
610 2 28.776 1.7985 8.9925 0 0 0
1184 2 23.3805 16.1865 17.985 0 0 0
433 2 32.373 17.985 28.776 0 0 0
1856 2 16.1865 5.3955 10.791 0 0 0
1187 2 23.3805 14.388 23.3805 0 0 0
2911 2 8.9925 25.179 26.9775 0 0 0
3872 2 0.0 12.5895 19.7835 0 0 0
2322 2 14.388 12.5895 1.7985 0 0 0
1478 2 21.582 5.3955 34.1715 0 0 0
1052 2 23.3805 5.3955 7.194 0 0 0
584 2 30.5745 34.1715 17.985 0 0 0
2534 2 14.388 30.5745 12.5895 0 0 0
3089 2 7.194 7.194 7.194 0 0 0
2544 2 12.5895 30.5745 17.985 0 0 0
2038 2 17.985 19.7835 34.1715 0 0 0
102 2 34.1715 19.7835 0.0 0 0 0
2611 2 8.9925 0.0 8.9925 0 0 0
2833 2 10.791 17.985 28.776 0 0 0
3748 2 1.7985 30.5745 21.582 0 0 0
2540 2 12.5895 30.5745 14.388 0 0 0
2386 2 14.388 16.1865 23.3805 0 0 0
1423 2 19.7835 0.0 19.7835 0 0 0
2456 2 12.5895 23.3805 10.791 0 0 0
2330 2 14.388 12.5895 8.9925 0 0 0
885 2 28.776 25.179 3.597 0 0 0
2466 2 14.388 23.3805 23.3805 0 0 0
2516 2 12.5895 26.9775 28.776 0 0 0
142 2 34.1715 26.9775 0.0 0 0 0
3082 2 7.194 8.9925 1.7985 0 0 0
1886 2 17.985 8.9925 5.3955 0 0 0
2625 2 10.791 0.0 21.582 0 0 0
2425 2 14.388 17.985 21.582 0 0 0
3436 2 1.7985 1.7985 28.776 0 0 0
1527 2 19.7835 10.791 5.3955 0 0 0
2793 2 10.791 14.388 28.776 0 0 0
1335 2 23.3805 28.776 12.5895 0 0 0
3970 2 0.0 30.5745 16.1865 0 0 0
3771 2 1.7985 32.373 8.9925 0 0 0
935 2 26.9775 28.776 12.5895 0 0 0
2724 2 8.9925 12.5895 0.0 0 0 0
2210 2 14.388 1.7985 8.9925 0 0 0
2991 2 8.9925 32.373 26.9775 0 0 0
2985 2 10.791 32.373 21.582 0 0 0
2506 2 14.388 26.9775 23.3805 0 0 0
333 2 32.373 10.791 10.791 0 0 0
2587 2 12.5895 32.373 23.3805 0 0 0
3513 2 3.597 7.194 28.776 0 0 0
3224 2 5.3955 19.7835 17.985 0 0 0
2146 2 17.985 30.5745 23.3805 0 0 0
2404 2 12.5895 19.7835 0.0 0 0 0
874 2 28.776 23.3805 30.5745 0 0 0
3752 2 1.7985 30.5745 25.179 0 0 0
3366 2 7.194 34.1715 5.3955 0 0 0
2669 2 10.791 3.597 25.179 0 0 0
486 2 32.373 26.9775 5.3955 0 0 0
1892 2 16.1865 8.9925 7.194 0 0 0
686 2 28.776 8.9925 5.3955 0 0 0
1151 2 23.3805 10.791 26.9775 0 0 0
693 2 28.776 7.194 10.791 0 0 0
849 2 28.776 21.582 7.194 0 0 0
642 2 28.776 5.3955 1.7985 0 0 0
3467 2 1.7985 3.597 23.3805 0 0 0
2818 2 10.791 19.7835 16.1865 0 0 0
3528 2 1.7985 12.5895 3.597 0 0 0
3390 2 7.194 34.1715 26.9775 0 0 0
276 2 30.5745 5.3955 28.776 0 0 0
415 2 30.5745 17.985 12.5895 0 0 0
37 2 34.1715 3.597 30.5745 0 0 0
1458 2 21.582 5.3955 16.1865 0 0 0
2662 2 10.791 5.3955 19.7835 0 0 0
1685 2 21.582 25.179 3.597 0 0 0
1395 2 23.3805 32.373 30.5745 0 0 0
1638 2 21.582 19.7835 34.1715 0 0 0
3012 2 5.3955 1.7985 7.194 0 0 0
1307 2 23.3805 25.179 23.3805 0 0 0
1414 2 21.582 1.7985 12.5895 0 0 0
1012 2 23.3805 1.7985 7.194 0 0 0
450 2 32.373 23.3805 8.9925 0 0 0
2263 2 12.5895 3.597 19.7835 0 0 0
782 2 28.776 16.1865 19.7835 0 0 0
216 2 30.5745 1.7985 10.791 0 0 0
3638 2 3.597 19.7835 34.1715 0 0 0
1175 2 23.3805 14.388 12.5895 0 0 0
3797 2 3.597 32.373 32.373 0 0 0
1398 2 25.179 34.1715 34.1715 0 0 0
2899 2 8.9925 25.179 16.1865 0 0 0
2359 2 12.5895 10.791 34.1715 0 0 0
1034 2 25.179 1.7985 30.5745 0 0 0
2735 2 8.9925 10.791 12.5895 0 0 0
1402 2 21.582 1.7985 1.7985 0 0 0
260 2 30.5745 5.3955 14.388 0 0 0
3062 2 7.194 5.3955 19.7835 0 0 0
658 2 28.776 5.3955 16.1865 0 0 0
535 2 30.5745 28.776 12.5895 0 0 0
1372 2 23.3805 34.1715 7.194 0 0 0
463 2 30.5745 21.582 19.7835 0 0 0
2518 2 14.388 26.9775 34.1715 0 0 0
348 2 30.5745 12.5895 21.582 0 0 0
1584 2 19.7835 16.1865 17.985 0 0 0
3307 2 5.3955 25.179 23.3805 0 0 0
2740 2 8.9925 12.5895 14.388 0 0 0
1445 2 21.582 3.597 3.597 0 0 0
2835 2 8.9925 17.985 30.5745 0 0 0
2064 2 16.1865 23.3805 17.985 0 0 0
1879 2 16.1865 3.597 34.1715 0 0 0
581 2 32.373 32.373 17.985 0 0 0
1739 2 19.7835 28.776 16.1865 0 0 0
3780 2 1.7985 34.1715 14.388 0 0 0
1058 2 25.179 5.3955 16.1865 0 0 0
1246 2 25.179 23.3805 5.3955 0 0 0
2426 2 14.388 19.7835 23.3805 0 0 0
3739 2 1.7985 28.776 16.1865 0 0 0
1645 2 21.582 21.582 3.597 0 0 0
3426 2 3.597 1.7985 23.3805 0 0 0
599 2 30.5745 32.373 34.1715 0 0 0
963 2 26.9775 32.373 1.7985 0 0 0
509 2 32.373 25.179 25.179 0 0 0
36 2 34.1715 5.3955 25.179 0 0 0
888 2 26.9775 26.9775 3.597 0 0 0
2360 2 12.5895 12.5895 32.373 0 0 0
759 2 26.9775 10.791 34.1715 0 0 0
3674 2 3.597 23.3805 30.5745 0 0 0
2401 2 14.388 17.985 0.0 0 0 0
3108 2 5.3955 8.9925 21.582 0 0 0
910 2 28.776 26.9775 26.9775 0 0 0
2502 2 14.388 26.9775 19.7835 0 0 0
429 2 32.373 17.985 25.179 0 0 0
569 2 32.373 32.373 7.194 0 0 0
2390 2 14.388 16.1865 26.9775 0 0 0
2537 2 14.388 28.776 14.388 0 0 0
2177 2 17.985 32.373 14.388 0 0 0
1388 2 23.3805 34.1715 21.582 0 0 0
412 2 30.5745 19.7835 7.194 0 0 0
1634 2 21.582 19.7835 30.5745 0 0 0
1002 2 25.179 1.7985 1.7985 0 0 0
1441 2 21.582 3.597 0.0 0 0 0
1014 2 25.179 1.7985 12.5895 0 0 0
2280 2 12.5895 5.3955 32.373 0 0 0
3381 2 7.194 32.373 17.985 0 0 0
665 2 28.776 3.597 21.582 0 0 0
96 2 34.1715 16.1865 25.179 0 0 0
3776 2 1.7985 34.1715 10.791 0 0 0
3413 2 3.597 0.0 10.791 0 0 0
2528 2 12.5895 30.5745 3.597 0 0 0
2598 2 14.388 34.1715 34.1715 0 0 0
3706 2 3.597 26.9775 23.3805 0 0 0
2086 2 17.985 26.9775 5.3955 0 0 0
2821 2 10.791 17.985 17.985 0 0 0
227 2 30.5745 0.0 23.3805 0 0 0
2676 2 8.9925 5.3955 28.776 0 0 0
2224 2 12.5895 1.7985 17.985 0 0 0
3821 2 0.0 3.597 0.0 0 0 0
2236 2 12.5895 1.7985 28.776 0 0 0
701 2 28.776 7.194 17.985 0 0 0
344 2 30.5745 12.5895 17.985 0 0 0
943 2 26.9775 28.776 19.7835 0 0 0
818 2 28.776 19.7835 16.1865 0 0 0
397 2 32.373 14.388 32.373 0 0 0
3091 2 5.3955 7.194 8.9925 0 0 0
2794 2 10.791 16.1865 30.5745 0 0 0
873 2 28.776 21.582 28.776 0 0 0
2865 2 10.791 21.582 21.582 0 0 0
3118 2 7.194 8.9925 34.1715 0 0 0
2293 2 14.388 7.194 10.791 0 0 0
1171 2 23.3805 14.388 8.9925 0 0 0
2490 2 14.388 26.9775 8.9925 0 0 0
3665 2 3.597 21.582 21.582 0 0 0
3618 2 3.597 19.7835 16.1865 0 0 0
114 2 34.1715 19.7835 21.582 0 0 0
1926 2 17.985 12.5895 5.3955 0 0 0
1489 2 21.582 7.194 7.194 0 0 0
1543 2 19.7835 10.791 19.7835 0 0 0
2596 2 12.5895 34.1715 28.776 0 0 0
1287 2 23.3805 25.179 5.3955 0 0 0
2145 2 17.985 28.776 21.582 0 0 0
2455 2 12.5895 21.582 12.5895 0 0 0
1572 2 19.7835 16.1865 7.194 0 0 0
1976 2 16.1865 16.1865 10.791 0 0 0
3669 2 3.597 21.582 25.179 0 0 0
3599 2 1.7985 14.388 34.1715 0 0 0
24 2 34.1715 5.3955 3.597 0 0 0
635 2 26.9775 0.0 30.5745 0 0 0
1468 2 19.7835 5.3955 21.582 0 0 0
125 2 34.1715 21.582 8.9925 0 0 0
1399 2 23.3805 32.373 34.1715 0 0 0
3822 2 0.0 5.3955 1.7985 0 0 0
1683 2 19.7835 25.179 1.7985 0 0 0
760 2 26.9775 12.5895 32.373 0 0 0
234 2 32.373 1.7985 30.5745 0 0 0
1415 2 19.7835 0.0 12.5895 0 0 0
2067 2 16.1865 21.582 23.3805 0 0 0
2975 2 8.9925 32.373 12.5895 0 0 0
149 2 34.1715 25.179 16.1865 0 0 0
1821 2 17.985 0.0 17.985 0 0 0
1497 2 21.582 7.194 14.388 0 0 0
832 2 26.9775 19.7835 25.179 0 0 0
194 2 34.1715 34.1715 21.582 0 0 0
3768 2 1.7985 34.1715 3.597 0 0 0
3547 2 1.7985 10.791 23.3805 0 0 0
3511 2 1.7985 7.194 26.9775 0 0 0
2258 2 14.388 5.3955 16.1865 0 0 0
596 2 30.5745 34.1715 28.776 0 0 0
247 2 30.5745 3.597 5.3955 0 0 0
330 2 32.373 12.5895 8.9925 0 0 0
2409 2 14.388 17.985 7.194 0 0 0
2659 2 8.9925 3.597 16.1865 0 0 0
1657 2 21.582 21.582 14.388 0 0 0
3804 2 0.0 1.7985 5.3955 0 0 0
1726 2 21.582 30.5745 5.3955 0 0 0
2171 2 16.1865 32.373 8.9925 0 0 0
3421 2 3.597 0.0 17.985 0 0 0
2657 2 10.791 3.597 14.388 0 0 0
3152 2 5.3955 12.5895 25.179 0 0 0
559 2 30.5745 28.776 34.1715 0 0 0
2550 2 14.388 30.5745 26.9775 0 0 0
1009 2 25.179 0.0 7.194 0 0 0
905 2 28.776 25.179 21.582 0 0 0
744 2 26.9775 12.5895 17.985 0 0 0
1553 2 21.582 10.791 28.776 0 0 0
1651 2 19.7835 21.582 8.9925 0 0 0
3156 2 5.3955 12.5895 28.776 0 0 0
955 2 26.9775 28.776 30.5745 0 0 0
3092 2 5.3955 8.9925 7.194 0 0 0
2752 2 8.9925 12.5895 25.179 0 0 0
556 2 30.5745 30.5745 28.776 0 0 0
1000 3 26.9775 34.1715 32.373 0 0 0
1551 3 19.7835 10.791 26.9775 0 0 0
1191 3 23.3805 14.388 26.9775 0 0 0
1094 3 25.179 8.9925 12.5895 0 0 0
3642 3 3.597 23.3805 1.7985 0 0 0
2738 3 10.791 12.5895 16.1865 0 0 0
2051 3 16.1865 21.582 8.9925 0 0 0
2237 3 14.388 0.0 32.373 0 0 0
3445 3 3.597 3.597 3.597 0 0 0
3150 3 7.194 12.5895 26.9775 0 0 0
695 3 26.9775 7.194 12.5895 0 0 0
1117 3 25.179 7.194 32.373 0 0 0
2114 3 17.985 26.9775 30.5745 0 0 0
3153 3 7.194 10.791 28.776 0 0 0
1984 3 16.1865 16.1865 17.985 0 0 0
2333 3 14.388 10.791 10.791 0 0 0
700 3 26.9775 8.9925 14.388 0 0 0
705 3 28.776 7.194 21.582 0 0 0
733 3 28.776 10.791 10.791 0 0 0
3045 3 7.194 3.597 3.597 0 0 0
1958 3 17.985 12.5895 34.1715 0 0 0
2339 3 12.5895 10.791 16.1865 0 0 0
203 3 30.5745 0.0 1.7985 0 0 0
2094 3 17.985 26.9775 12.5895 0 0 0
534 3 32.373 30.5745 12.5895 0 0 0
2697 3 10.791 7.194 14.388 0 0 0
1668 3 19.7835 23.3805 21.582 0 0 0
1411 3 19.7835 0.0 8.9925 0 0 0
1771 3 19.7835 32.373 8.9925 0 0 0
2281 3 14.388 7.194 0.0 0 0 0
3323 3 5.3955 28.776 1.7985 0 0 0
677 3 28.776 3.597 32.373 0 0 0
3246 3 7.194 23.3805 5.3955 0 0 0
652 3 26.9775 5.3955 7.194 0 0 0
3454 3 3.597 5.3955 12.5895 0 0 0
1474 3 21.582 5.3955 30.5745 0 0 0
2212 3 12.5895 1.7985 7.194 0 0 0
3020 3 5.3955 1.7985 14.388 0 0 0
1861 3 17.985 3.597 17.985 0 0 0
864 3 26.9775 23.3805 17.985 0 0 0
2980 3 8.9925 34.1715 14.388 0 0 0
2117 3 17.985 25.179 32.373 0 0 0
1495 3 19.7835 7.194 12.5895 0 0 0
1266 3 25.179 23.3805 23.3805 0 0 0
2581 3 14.388 32.373 17.985 0 0 0
1228 3 23.3805 19.7835 21.582 0 0 0
3995 3 0.0 32.373 25.179 0 0 0
1836 3 16.1865 1.7985 28.776 0 0 0
2238 3 14.388 1.7985 34.1715 0 0 0
2286 3 14.388 8.9925 5.3955 0 0 0
352 3 30.5745 12.5895 25.179 0 0 0
359 3 30.5745 10.791 34.1715 0 0 0
2085 3 17.985 25.179 3.597 0 0 0
1546 3 21.582 12.5895 23.3805 0 0 0
3549 3 3.597 10.791 25.179 0 0 0
2844 3 8.9925 23.3805 0.0 0 0 0
182 3 34.1715 34.1715 0.0 0 0 0
3058 3 7.194 5.3955 16.1865 0 0 0
992 3 26.9775 34.1715 25.179 0 0 0
25 3 34.1715 3.597 8.9925 0 0 0
2448 3 12.5895 23.3805 3.597 0 0 0
3534 3 3.597 12.5895 12.5895 0 0 0
2484 3 12.5895 26.9775 0.0 0 0 0
1617 3 21.582 17.985 14.388 0 0 0
1039 3 23.3805 0.0 34.1715 0 0 0
3233 3 7.194 17.985 28.776 0 0 0
3018 3 7.194 1.7985 16.1865 0 0 0
370 3 32.373 16.1865 8.9925 0 0 0
151 3 34.1715 25.179 19.7835 0 0 0
2415 3 12.5895 17.985 12.5895 0 0 0
3071 3 5.3955 3.597 26.9775 0 0 0
911 3 26.9775 25.179 26.9775 0 0 0
2362 3 14.388 16.1865 1.7985 0 0 0
2595 3 12.5895 32.373 30.5745 0 0 0
3525 3 3.597 10.791 3.597 0 0 0
111 3 34.1715 17.985 19.7835 0 0 0
1918 3 17.985 8.9925 34.1715 0 0 0
360 3 30.5745 12.5895 32.373 0 0 0
1083 3 23.3805 7.194 1.7985 0 0 0
2033 3 17.985 17.985 28.776 0 0 0
2234 3 14.388 1.7985 30.5745 0 0 0
634 3 28.776 1.7985 30.5745 0 0 0
2501 3 14.388 25.179 17.985 0 0 0
3887 3 0.0 14.388 10.791 0 0 0
3129 3 7.194 10.791 7.194 0 0 0
364 3 30.5745 16.1865 0.0 0 0 0
3651 3 1.7985 21.582 8.9925 0 0 0
1965 3 17.985 14.388 3.597 0 0 0
3899 3 0.0 14.388 32.373 0 0 0
2934 3 10.791 30.5745 12.5895 0 0 0
2427 3 12.5895 17.985 23.3805 0 0 0
3245 3 7.194 21.582 3.597 0 0 0
1511 3 19.7835 7.194 26.9775 0 0 0
3820 3 0.0 1.7985 34.1715 0 0 0
2344 3 12.5895 12.5895 17.985 0 0 0
1028 3 23.3805 1.7985 21.582 0 0 0
1270 3 25.179 23.3805 26.9775 0 0 0
3205 3 7.194 17.985 3.597 0 0 0
1925 3 17.985 10.791 3.597 0 0 0
977 3 28.776 32.373 14.388 0 0 0
740 3 26.9775 12.5895 14.388 0 0 0
3410 3 3.597 1.7985 8.9925 0 0 0
1412 3 19.7835 1.7985 7.194 0 0 0
1033 3 25.179 0.0 28.776 0 0 0
1124 3 23.3805 12.5895 0.0 0 0 0
2082 3 17.985 26.9775 1.7985 0 0 0
3745 3 3.597 28.776 21.582 0 0 0
3006 3 7.194 1.7985 5.3955 0 0 0
2561 3 14.388 32.373 0.0 0 0 0
2081 3 17.985 25.179 0.0 0 0 0
3809 3 0.0 0.0 14.388 0 0 0
2399 3 12.5895 14.388 34.1715 0 0 0
1025 3 25.179 0.0 21.582 0 0 0
1163 3 23.3805 14.388 1.7985 0 0 0
3470 3 3.597 5.3955 26.9775 0 0 0
654 3 28.776 5.3955 12.5895 0 0 0
1549 3 21.582 10.791 25.179 0 0 0
3438 3 3.597 1.7985 34.1715 0 0 0
2685 3 10.791 7.194 3.597 0 0 0
2091 3 16.1865 25.179 8.9925 0 0 0
551 3 30.5745 28.776 26.9775 0 0 0
1087 3 23.3805 7.194 5.3955 0 0 0
3360 3 5.3955 30.5745 32.373 0 0 0
1661 3 21.582 21.582 17.985 0 0 0
1846 3 17.985 5.3955 5.3955 0 0 0
576 3 30.5745 34.1715 10.791 0 0 0
1195 3 23.3805 14.388 30.5745 0 0 0
2549 3 14.388 28.776 25.179 0 0 0
2909 3 10.791 25.179 25.179 0 0 0
1872 3 16.1865 5.3955 25.179 0 0 0
1808 3 16.1865 1.7985 3.597 0 0 0
2514 3 14.388 26.9775 30.5745 0 0 0
97 3 34.1715 14.388 30.5745 0 0 0
380 3 30.5745 16.1865 14.388 0 0 0
2486 3 14.388 26.9775 5.3955 0 0 0
434 3 32.373 19.7835 30.5745 0 0 0
2562 3 14.388 34.1715 1.7985 0 0 0
3892 3 0.0 16.1865 19.7835 0 0 0
3687 3 1.7985 25.179 5.3955 0 0 0
3199 3 5.3955 14.388 34.1715 0 0 0
2787 3 8.9925 14.388 23.3805 0 0 0
3458 3 3.597 5.3955 16.1865 0 0 0
1156 3 23.3805 12.5895 28.776 0 0 0
313 3 32.373 7.194 28.776 0 0 0
492 3 30.5745 26.9775 7.194 0 0 0
379 3 30.5745 14.388 16.1865 0 0 0
3459 3 1.7985 3.597 16.1865 0 0 0
356 3 30.5745 12.5895 28.776 0 0 0
2719 3 8.9925 7.194 34.1715 0 0 0
2352 3 12.5895 12.5895 25.179 0 0 0
470 3 32.373 23.3805 26.9775 0 0 0
938 3 28.776 30.5745 16.1865 0 0 0
2433 3 14.388 17.985 28.776 0 0 0
1823 3 16.1865 0.0 19.7835 0 0 0
2440 3 12.5895 19.7835 32.373 0 0 0
2137 3 17.985 28.776 14.388 0 0 0
1750 3 21.582 30.5745 26.9775 0 0 0
206 3 32.373 1.7985 5.3955 0 0 0
2035 3 16.1865 17.985 30.5745 0 0 0
3593 3 3.597 14.388 28.776 0 0 0
1679 3 19.7835 21.582 34.1715 0 0 0
3727 3 1.7985 28.776 5.3955 0 0 0
1141 3 25.179 10.791 17.985 0 0 0
2100 3 16.1865 26.9775 14.388 0 0 0
2959 3 8.9925 28.776 34.1715 0 0 0
228 3 30.5745 1.7985 21.582 0 0 0
756 3 26.9775 12.5895 28.776 0 0 0
2497 3 14.388 25.179 14.388 0 0 0
3374 3 7.194 34.1715 12.5895 0 0 0
2297 3 14.388 7.194 14.388 0 0 0
803 3 26.9775 17.985 1.7985 0 0 0
909 3 28.776 25.179 25.179 0 0 0
1819 3 16.1865 0.0 16.1865 0 0 0
959 3 26.9775 28.776 34.1715 0 0 0
1253 3 25.179 21.582 10.791 0 0 0
2417 3 14.388 17.985 14.388 0 0 0
3615 3 1.7985 17.985 12.5895 0 0 0
2232 3 12.5895 1.7985 25.179 0 0 0
1339 3 23.3805 28.776 16.1865 0 0 0
3253 3 7.194 21.582 10.791 0 0 0
1102 3 25.179 8.9925 19.7835 0 0 0
1091 3 23.3805 7.194 8.9925 0 0 0
2910 3 10.791 26.9775 26.9775 0 0 0
1446 3 21.582 5.3955 5.3955 0 0 0
12 3 34.1715 1.7985 17.985 0 0 0
1456 3 19.7835 5.3955 10.791 0 0 0
1784 3 19.7835 34.1715 17.985 0 0 0
3572 3 1.7985 16.1865 7.194 0 0 0
3726 3 3.597 30.5745 5.3955 0 0 0
1290 3 25.179 26.9775 8.9925 0 0 0
1570 3 21.582 16.1865 8.9925 0 0 0
1706 3 21.582 26.9775 23.3805 0 0 0
2711 3 8.9925 7.194 26.9775 0 0 0
297 3 32.373 7.194 14.388 0 0 0
3292 3 5.3955 26.9775 7.194 0 0 0
928 3 26.9775 30.5745 3.597 0 0 0
2203 3 12.5895 0.0 1.7985 0 0 0
3196 3 5.3955 16.1865 28.776 0 0 0
311 3 30.5745 7.194 26.9775 0 0 0
2422 3 14.388 19.7835 19.7835 0 0 0
1110 3 25.179 8.9925 26.9775 0 0 0
3076 3 5.3955 5.3955 28.776 0 0 0
1309 3 25.179 25.179 25.179 0 0 0
3486 3 3.597 8.9925 5.3955 0 0 0
2416 3 12.5895 19.7835 10.791 0 0 0
2074 3 17.985 23.3805 30.5745 0 0 0
383 3 30.5745 14.388 19.7835 0 0 0
3387 3 5.3955 32.373 23.3805 0 0 0
919 3 26.9775 25.179 34.1715 0 0 0
138 3 34.1715 23.3805 28.776 0 0 0
2745 3 10.791 10.791 21.582 0 0 0
798 3 28.776 16.1865 34.1715 0 0 0
721 3 28.776 10.791 0.0 0 0 0
3990 3 0.0 34.1715 16.1865 0 0 0
3842 3 0.0 8.9925 1.7985 0 0 0
3841 3 0.0 7.194 0.0 0 0 0
626 3 28.776 1.7985 23.3805 0 0 0
3866 3 0.0 12.5895 8.9925 0 0 0
2247 3 12.5895 3.597 5.3955 0 0 0
624 3 26.9775 1.7985 17.985 0 0 0
895 3 26.9775 25.179 12.5895 0 0 0
1500 3 19.7835 8.9925 14.388 0 0 0
181 3 34.1715 32.373 1.7985 0 0 0
1065 3 25.179 3.597 21.582 0 0 0
1204 3 23.3805 19.7835 0.0 0 0 0
3441 3 3.597 3.597 0.0 0 0 0
3659 3 1.7985 21.582 16.1865 0 0 0
2389 3 14.388 14.388 25.179 0 0 0
967 3 26.9775 32.373 5.3955 0 0 0
1818 3 17.985 1.7985 16.1865 0 0 0
2090 3 17.985 26.9775 8.9925 0 0 0
570 3 32.373 34.1715 8.9925 0 0 0
3457 3 3.597 3.597 14.388 0 0 0
2876 3 8.9925 23.3805 28.776 0 0 0
3485 3 3.597 7.194 3.597 0 0 0
809 3 28.776 17.985 7.194 0 0 0
3029 3 7.194 0.0 25.179 0 0 0
2641 3 10.791 3.597 0.0 0 0 0
494 3 32.373 26.9775 12.5895 0 0 0
1941 3 17.985 10.791 17.985 0 0 0
1460 3 19.7835 5.3955 14.388 0 0 0
2477 3 14.388 21.582 32.373 0 0 0
3137 3 7.194 10.791 14.388 0 0 0
2307 3 12.5895 7.194 23.3805 0 0 0
1650 3 21.582 23.3805 8.9925 0 0 0
2099 3 16.1865 25.179 16.1865 0 0 0
3443 3 1.7985 3.597 1.7985 0 0 0
970 3 28.776 34.1715 8.9925 0 0 0
1366 3 25.179 34.1715 5.3955 0 0 0
1783 3 19.7835 32.373 19.7835 0 0 0
454 3 32.373 23.3805 12.5895 0 0 0
1265 3 25.179 21.582 21.582 0 0 0
2788 3 8.9925 16.1865 21.582 0 0 0
3107 3 5.3955 7.194 23.3805 0 0 0
1698 3 21.582 26.9775 16.1865 0 0 0
924 3 26.9775 30.5745 0.0 0 0 0
3645 3 3.597 21.582 3.597 0 0 0
778 3 28.776 16.1865 16.1865 0 0 0
2175 3 16.1865 32.373 12.5895 0 0 0
3701 3 3.597 25.179 17.985 0 0 0
3931 3 0.0 21.582 17.985 0 0 0
3623 3 1.7985 17.985 19.7835 0 0 0
1734 3 21.582 30.5745 12.5895 0 0 0
2032 3 16.1865 19.7835 25.179 0 0 0
3036 3 5.3955 1.7985 28.776 0 0 0
3533 3 3.597 10.791 10.791 0 0 0
479 3 30.5745 21.582 34.1715 0 0 0
317 3 32.373 7.194 32.373 0 0 0
373 3 32.373 14.388 10.791 0 0 0
2955 3 8.9925 28.776 30.5745 0 0 0
3596 3 1.7985 16.1865 28.776 0 0 0
1491 3 19.7835 7.194 8.9925 0 0 0
266 3 32.373 5.3955 23.3805 0 0 0
3556 3 1.7985 12.5895 28.776 0 0 0
3799 3 1.7985 32.373 34.1715 0 0 0
239 3 30.5745 0.0 34.1715 0 0 0
2785 3 10.791 14.388 21.582 0 0 0
435 3 30.5745 17.985 30.5745 0 0 0
1948 3 16.1865 12.5895 21.582 0 0 0
1210 3 25.179 19.7835 8.9925 0 0 0
1098 3 25.179 8.9925 16.1865 0 0 0
1306 3 25.179 26.9775 23.3805 0 0 0
2684 3 8.9925 8.9925 0.0 0 0 0
1132 3 23.3805 12.5895 7.194 0 0 0
1732 3 19.7835 30.5745 7.194 0 0 0
132 3 34.1715 23.3805 17.985 0 0 0
2435 3 12.5895 17.985 30.5745 0 0 0
519 3 30.5745 25.179 34.1715 0 0 0
1020 3 23.3805 1.7985 14.388 0 0 0
1920 3 16.1865 8.9925 32.373 0 0 0
1929 3 17.985 10.791 7.194 0 0 0
3000 3 8.9925 34.1715 32.373 0 0 0
2153 3 17.985 28.776 28.776 0 0 0
3404 3 1.7985 1.7985 0.0 0 0 0
3182 3 7.194 16.1865 19.7835 0 0 0
522 3 32.373 30.5745 1.7985 0 0 0
3667 3 1.7985 21.582 23.3805 0 0 0
2155 3 16.1865 28.776 30.5745 0 0 0
3670 3 3.597 23.3805 26.9775 0 0 0
3628 3 1.7985 19.7835 21.582 0 0 0
1979 3 16.1865 14.388 16.1865 0 0 0
146 3 34.1715 26.9775 7.194 0 0 0
1905 3 17.985 7.194 21.582 0 0 0
542 3 32.373 30.5745 19.7835 0 0 0
629 3 28.776 0.0 25.179 0 0 0
2781 3 10.791 14.388 17.985 0 0 0
1615 3 19.7835 17.985 12.5895 0 0 0
3663 3 1.7985 21.582 19.7835 0 0 0
199 3 34.1715 32.373 34.1715 0 0 0
1594 3 21.582 16.1865 30.5745 0 0 0
1785 3 21.582 32.373 21.582 0 0 0
2853 3 10.791 21.582 10.791 0 0 0
690 3 28.776 8.9925 8.9925 0 0 0
1018 3 25.179 1.7985 16.1865 0 0 0
1880 3 16.1865 5.3955 32.373 0 0 0
1901 3 17.985 7.194 17.985 0 0 0
1168 3 23.3805 16.1865 3.597 0 0 0
410 3 32.373 19.7835 8.9925 0 0 0
860 3 26.9775 23.3805 14.388 0 0 0
57 3 34.1715 7.194 30.5745 0 0 0
3634 3 3.597 19.7835 30.5745 0 0 0
660 3 26.9775 5.3955 14.388 0 0 0
3712 3 1.7985 26.9775 25.179 0 0 0
2660 3 8.9925 5.3955 14.388 0 0 0
66 3 34.1715 12.5895 7.194 0 0 0
1 3 34.1715 0.0 1.7985 0 0 0
1646 3 21.582 23.3805 5.3955 0 0 0
3001 3 7.194 0.0 0.0 0 0 0
2704 3 8.9925 8.9925 17.985 0 0 0
931 3 26.9775 28.776 8.9925 0 0 0
1050 3 25.179 5.3955 8.9925 0 0 0
3496 3 1.7985 8.9925 10.791 0 0 0
3708 3 1.7985 26.9775 21.582 0 0 0
1243 3 23.3805 21.582 1.7985 0 0 0
469 3 32.373 21.582 25.179 0 0 0
222 3 32.373 1.7985 19.7835 0 0 0
1032 3 23.3805 1.7985 25.179 0 0 0
1764 3 19.7835 34.1715 0.0 0 0 0
2159 3 16.1865 28.776 34.1715 0 0 0
3478 3 3.597 5.3955 34.1715 0 0 0
1792 3 19.7835 34.1715 25.179 0 0 0
1505 3 21.582 7.194 21.582 0 0 0
3456 3 1.7985 5.3955 10.791 0 0 0
2655 3 8.9925 3.597 12.5895 0 0 0
3812 3 0.0 1.7985 19.7835 0 0 0
1499 3 19.7835 7.194 16.1865 0 0 0
3801 3 0.0 0.0 0.0 0 0 0
1031 3 23.3805 0.0 26.9775 0 0 0
2060 3 16.1865 23.3805 14.388 0 0 0
1860 3 16.1865 5.3955 14.388 0 0 0
432 3 30.5745 19.7835 25.179 0 0 0
1258 3 25.179 23.3805 16.1865 0 0 0
3191 3 5.3955 14.388 26.9775 0 0 0
1327 3 23.3805 28.776 5.3955 0 0 0
1606 3 21.582 19.7835 5.3955 0 0 0
3793 3 3.597 32.373 28.776 0 0 0
3377 3 7.194 32.373 14.388 0 0 0
2552 3 12.5895 30.5745 25.179 0 0 0
3632 3 1.7985 19.7835 25.179 0 0 0
283 3 30.5745 7.194 1.7985 0 0 0
3633 3 3.597 17.985 28.776 0 0 0
1015 3 23.3805 0.0 12.5895 0 0 0
1262 3 25.179 23.3805 19.7835 0 0 0
1864 3 16.1865 5.3955 17.985 0 0 0
3463 3 1.7985 3.597 19.7835 0 0 0
3187 3 5.3955 14.388 23.3805 0 0 0
1240 3 23.3805 19.7835 32.373 0 0 0
1762 3 21.582 34.1715 1.7985 0 0 0
442 3 32.373 23.3805 1.7985 0 0 0
1283 3 23.3805 25.179 1.7985 0 0 0
1301 3 25.179 25.179 17.985 0 0 0
3925 3 0.0 21.582 7.194 0 0 0
961 3 28.776 32.373 0.0 0 0 0
1730 3 21.582 30.5745 8.9925 0 0 0
3582 3 3.597 16.1865 19.7835 0 0 0
3072 3 5.3955 5.3955 25.179 0 0 0
2816 3 8.9925 19.7835 10.791 0 0 0
2547 3 12.5895 28.776 23.3805 0 0 0
3254 3 7.194 23.3805 12.5895 0 0 0
17 3 34.1715 0.0 30.5745 0 0 0
984 3 26.9775 34.1715 17.985 0 0 0
452 3 30.5745 23.3805 7.194 0 0 0
2305 3 14.388 7.194 21.582 0 0 0
2727 3 8.9925 10.791 5.3955 0 0 0
3086 3 7.194 8.9925 5.3955 0 0 0
2364 3 12.5895 16.1865 0.0 0 0 0
838 3 28.776 19.7835 34.1715 0 0 0
1371 3 23.3805 32.373 8.9925 0 0 0
1185 3 25.179 14.388 21.582 0 0 0
425 3 32.373 17.985 21.582 0 0 0
3184 3 5.3955 16.1865 17.985 0 0 0
2259 3 12.5895 3.597 16.1865 0 0 0
141 3 34.1715 25.179 1.7985 0 0 0
1439 3 19.7835 0.0 34.1715 0 0 0
3927 3 0.0 21.582 10.791 0 0 0
783 3 26.9775 14.388 19.7835 0 0 0
653 3 28.776 3.597 10.791 0 0 0
2583 3 12.5895 32.373 19.7835 0 0 0
1356 3 23.3805 30.5745 28.776 0 0 0
2836 3 8.9925 19.7835 28.776 0 0 0
1608 3 19.7835 19.7835 3.597 0 0 0
1858 3 17.985 5.3955 16.1865 0 0 0
689 3 28.776 7.194 7.194 0 0 0
1200 3 23.3805 16.1865 32.373 0 0 0
1631 3 19.7835 17.985 26.9775 0 0 0
990 3 28.776 34.1715 26.9775 0 0 0
1700 3 19.7835 26.9775 14.388 0 0 0
2769 3 10.791 14.388 7.194 0 0 0
2450 3 14.388 23.3805 8.9925 0 0 0
2350 3 14.388 12.5895 26.9775 0 0 0
3281 3 7.194 25.179 0.0 0 0 0
2198 3 17.985 34.1715 34.1715 0 0 0
1116 3 23.3805 8.9925 28.776 0 0 0
3988 3 0.0 34.1715 12.5895 0 0 0
3433 3 3.597 0.0 28.776 0 0 0
3143 3 5.3955 10.791 19.7835 0 0 0
3908 3 0.0 19.7835 12.5895 0 0 0
1813 3 17.985 0.0 10.791 0 0 0
3275 3 5.3955 21.582 30.5745 0 0 0
74 3 34.1715 12.5895 21.582 0 0 0
2715 3 8.9925 7.194 30.5745 0 0 0
489 3 32.373 25.179 7.194 0 0 0
3378 3 7.194 34.1715 16.1865 0 0 0
3636 3 1.7985 19.7835 28.776 0 0 0
323 3 30.5745 10.791 1.7985 0 0 0
3494 3 3.597 8.9925 12.5895 0 0 0
2984 3 8.9925 34.1715 17.985 0 0 0
3558 3 3.597 12.5895 34.1715 0 0 0
2546 3 14.388 30.5745 23.3805 0 0 0
951 3 26.9775 28.776 26.9775 0 0 0
2747 3 8.9925 10.791 23.3805 0 0 0
3498 3 3.597 8.9925 16.1865 0 0 0
3968 3 0.0 30.5745 12.5895 0 0 0
3591 3 1.7985 14.388 26.9775 0 0 0
1503 3 19.7835 7.194 19.7835 0 0 0
3482 3 3.597 8.9925 1.7985 0 0 0
3993 3 0.0 32.373 21.582 0 0 0
1023 3 23.3805 0.0 19.7835 0 0 0
1035 3 23.3805 0.0 30.5745 0 0 0
1568 3 19.7835 16.1865 3.597 0 0 0
2630 3 10.791 1.7985 26.9775 0 0 0
3678 3 3.597 23.3805 34.1715 0 0 0
2802 3 10.791 19.7835 1.7985 0 0 0
1070 3 25.179 5.3955 26.9775 0 0 0
1691 3 19.7835 25.179 8.9925 0 0 0
2977 3 10.791 32.373 14.388 0 0 0
242 3 32.373 5.3955 1.7985 0 0 0
3816 3 0.0 1.7985 26.9775 0 0 0
1804 3 16.1865 1.7985 0.0 0 0 0
3370 3 7.194 34.1715 8.9925 0 0 0
3276 3 5.3955 23.3805 28.776 0 0 0
3598 3 3.597 16.1865 34.1715 0 0 0
1850 3 17.985 5.3955 8.9925 0 0 0
1237 3 25.179 17.985 32.373 0 0 0
2324 3 12.5895 12.5895 0.0 0 0 0
2302 3 14.388 8.9925 19.7835 0 0 0
2567 3 12.5895 32.373 5.3955 0 0 0
2624 3 8.9925 1.7985 17.985 0 0 0
1122 3 25.179 12.5895 1.7985 0 0 0
1211 3 23.3805 17.985 8.9925 0 0 0
101 3 34.1715 17.985 1.7985 0 0 0
1063 3 23.3805 3.597 19.7835 0 0 0
2580 3 12.5895 34.1715 14.388 0 0 0
45 3 34.1715 7.194 8.9925 0 0 0
3538 3 3.597 12.5895 16.1865 0 0 0
1344 3 23.3805 30.5745 17.985 0 0 0
2107 3 16.1865 25.179 23.3805 0 0 0
2319 3 12.5895 7.194 34.1715 0 0 0
411 3 30.5745 17.985 8.9925 0 0 0
1066 3 25.179 5.3955 23.3805 0 0 0
3962 3 0.0 30.5745 1.7985 0 0 0
2014 3 17.985 19.7835 12.5895 0 0 0
427 3 30.5745 17.985 23.3805 0 0 0
2686 3 10.791 8.9925 5.3955 0 0 0
1841 3 17.985 3.597 0.0 0 0 0
3197 3 7.194 14.388 32.373 0 0 0
1193 3 25.179 14.388 28.776 0 0 0
117 3 34.1715 17.985 30.5745 0 0 0
550 3 32.373 30.5745 26.9775 0 0 0
786 3 28.776 16.1865 23.3805 0 0 0
3207 3 5.3955 17.985 5.3955 0 0 0
2556 3 12.5895 30.5745 28.776 0 0 0
2317 3 14.388 7.194 32.373 0 0 0
3509 3 3.597 7.194 25.179 0 0 0
476 3 30.5745 23.3805 28.776 0 0 0
1623 3 19.7835 17.985 19.7835 0 0 0
1221 3 25.179 17.985 17.985 0 0 0
457 3 32.373 21.582 14.388 0 0 0
154 3 34.1715 26.9775 21.582 0 0 0
2021 3 17.985 17.985 17.985 0 0 0
1085 3 25.179 7.194 3.597 0 0 0
481 3 32.373 25.179 0.0 0 0 0
1839 3 16.1865 0.0 34.1715 0 0 0
1449 3 21.582 3.597 7.194 0 0 0
780 3 26.9775 16.1865 14.388 0 0 0
3393 3 7.194 32.373 28.776 0 0 0
3795 3 1.7985 32.373 30.5745 0 0 0
3314 3 7.194 26.9775 30.5745 0 0 0
595 3 30.5745 32.373 30.5745 0 0 0
2927 3 8.9925 28.776 5.3955 0 0 0
3982 3 0.0 34.1715 1.7985 0 0 0
802 3 28.776 19.7835 1.7985 0 0 0
2184 3 16.1865 34.1715 17.985 0 0 0
3532 3 1.7985 12.5895 7.194 0 0 0
2834 3 10.791 19.7835 30.5745 0 0 0
3109 3 7.194 7.194 25.179 0 0 0
1410 3 21.582 1.7985 8.9925 0 0 0
3051 3 5.3955 3.597 8.9925 0 0 0
1578 3 21.582 16.1865 16.1865 0 0 0
3204 3 5.3955 19.7835 0.0 0 0 0
1938 3 17.985 12.5895 16.1865 0 0 0
1882 3 17.985 8.9925 1.7985 0 0 0
1709 3 21.582 25.179 25.179 0 0 0
2902 3 10.791 26.9775 19.7835 0 0 0
2936 3 8.9925 30.5745 10.791 0 0 0
3251 3 5.3955 21.582 8.9925 0 0 0
896 3 26.9775 26.9775 10.791 0 0 0
3546 3 3.597 12.5895 23.3805 0 0 0
3818 3 0.0 1.7985 30.5745 0 0 0
3286 3 7.194 26.9775 5.3955 0 0 0
1121 3 25.179 10.791 0.0 0 0 0
169 3 34.1715 28.776 16.1865 0 0 0
2266 3 14.388 5.3955 23.3805 0 0 0
691 3 26.9775 7.194 8.9925 0 0 0
249 3 32.373 3.597 7.194 0 0 0
3133 3 7.194 10.791 10.791 0 0 0
3362 3 7.194 34.1715 1.7985 0 0 0
3190 3 7.194 16.1865 26.9775 0 0 0
1158 3 25.179 12.5895 34.1715 0 0 0
2811 3 8.9925 17.985 8.9925 0 0 0
205 3 32.373 0.0 3.597 0 0 0
3705 3 3.597 25.179 21.582 0 0 0
1416 3 19.7835 1.7985 10.791 0 0 0
1315 3 23.3805 25.179 30.5745 0 0 0
2800 3 8.9925 16.1865 32.373 0 0 0
819 3 26.9775 17.985 16.1865 0 0 0
1133 3 25.179 10.791 10.791 0 0 0
3206 3 7.194 19.7835 5.3955 0 0 0
532 3 30.5745 30.5745 7.194 0 0 0
3921 3 0.0 21.582 0.0 0 0 0
3588 3 1.7985 16.1865 21.582 0 0 0
2012 3 16.1865 19.7835 7.194 0 0 0
1471 3 19.7835 3.597 26.9775 0 0 0
2202 3 14.388 1.7985 1.7985 0 0 0
2092 3 16.1865 26.9775 7.194 0 0 0
3876 3 0.0 12.5895 26.9775 0 0 0
422 3 32.373 19.7835 19.7835 0 0 0
2196 3 16.1865 34.1715 28.776 0 0 0
868 3 26.9775 23.3805 21.582 0 0 0
722 3 28.776 12.5895 1.7985 0 0 0
3073 3 7.194 3.597 28.776 0 0 0
2879 3 8.9925 21.582 34.1715 0 0 0
3788 3 1.7985 34.1715 21.582 0 0 0
3074 3 7.194 5.3955 30.5745 0 0 0
3631 3 1.7985 17.985 26.9775 0 0 0
1876 3 16.1865 5.3955 28.776 0 0 0
135 3 34.1715 21.582 26.9775 0 0 0
3333 3 7.194 28.776 10.791 0 0 0
1073 3 25.179 3.597 28.776 0 0 0
1115 3 23.3805 7.194 30.5745 0 0 0
3790 3 3.597 34.1715 26.9775 0 0 0
1089 3 25.179 7.194 7.194 0 0 0
1183 3 23.3805 14.388 19.7835 0 0 0
2589 3 14.388 32.373 25.179 0 0 0
1276 3 23.3805 23.3805 28.776 0 0 0
872 3 26.9775 23.3805 25.179 0 0 0
1789 3 21.582 32.373 25.179 0 0 0
1260 3 23.3805 23.3805 14.388 0 0 0
1454 3 21.582 5.3955 12.5895 0 0 0
2761 3 10.791 14.388 0.0 0 0 0
1537 3 21.582 10.791 14.388 0 0 0
3519 3 1.7985 7.194 34.1715 0 0 0
2167 3 16.1865 32.373 5.3955 0 0 0
3860 3 0.0 8.9925 34.1715 0 0 0
92 3 34.1715 16.1865 17.985 0 0 0
861 3 28.776 21.582 17.985 0 0 0
475 3 30.5745 21.582 30.5745 0 0 0
2300 3 12.5895 8.9925 14.388 0 0 0
1994 3 17.985 16.1865 30.5745 0 0 0
3439 3 1.7985 0.0 34.1715 0 0 0
3356 3 5.3955 30.5745 28.776 0 0 0
1080 3 23.3805 5.3955 32.373 0 0 0
1853 3 17.985 3.597 10.791 0 0 0
2120 3 16.1865 26.9775 32.373 0 0 0
3048 3 5.3955 5.3955 3.597 0 0 0
3102 3 7.194 8.9925 19.7835 0 0 0
2288 3 12.5895 8.9925 3.597 0 0 0
2707 3 8.9925 7.194 23.3805 0 0 0
1560 3 19.7835 12.5895 32.373 0 0 0
2334 3 14.388 12.5895 12.5895 0 0 0
3646 3 3.597 23.3805 5.3955 0 0 0
3796 3 1.7985 34.1715 28.776 0 0 0
1029 3 25.179 0.0 25.179 0 0 0
1099 3 23.3805 7.194 16.1865 0 0 0
2637 3 10.791 0.0 32.373 0 0 0
225 3 32.373 0.0 21.582 0 0 0
3981 3 0.0 32.373 0.0 0 0 0
2442 3 14.388 23.3805 1.7985 0 0 0
2801 3 10.791 17.985 0.0 0 0 0
3052 3 5.3955 5.3955 7.194 0 0 0
3202 3 7.194 19.7835 1.7985 0 0 0
1477 3 21.582 3.597 32.373 0 0 0
2139 3 16.1865 28.776 16.1865 0 0 0
3139 3 5.3955 10.791 16.1865 0 0 0
2304 3 12.5895 8.9925 17.985 0 0 0
1703 3 19.7835 25.179 19.7835 0 0 0
611 3 26.9775 0.0 8.9925 0 0 0
3385 3 7.194 32.373 21.582 0 0 0
2498 3 14.388 26.9775 16.1865 0 0 0
807 3 26.9775 17.985 5.3955 0 0 0
1297 3 25.179 25.179 14.388 0 0 0
831 3 26.9775 17.985 26.9775 0 0 0
3477 3 3.597 3.597 32.373 0 0 0
2593 3 14.388 32.373 28.776 0 0 0
2942 3 10.791 30.5745 19.7835 0 0 0
254 3 32.373 5.3955 12.5895 0 0 0
1921 3 17.985 10.791 0.0 0 0 0
3380 3 5.3955 34.1715 14.388 0 0 0
713 3 28.776 7.194 28.776 0 0 0
2388 3 12.5895 16.1865 21.582 0 0 0
98 3 34.1715 16.1865 28.776 0 0 0
2020 3 16.1865 19.7835 14.388 0 0 0
528 3 30.5745 30.5745 3.597 0 0 0
3541 3 3.597 10.791 17.985 0 0 0
3501 3 3.597 7.194 17.985 0 0 0
2121 3 17.985 28.776 0.0 0 0 0
2095 3 16.1865 25.179 12.5895 0 0 0
498 3 32.373 26.9775 16.1865 0 0 0
1457 3 21.582 3.597 14.388 0 0 0
520 3 30.5745 26.9775 32.373 0 0 0
2059 3 16.1865 21.582 16.1865 0 0 0
1596 3 19.7835 16.1865 28.776 0 0 0
2668 3 8.9925 5.3955 21.582 0 0 0
3289 3 7.194 25.179 7.194 0 0 0
1815 3 16.1865 0.0 12.5895 0 0 0
2819 3 8.9925 17.985 16.1865 0 0 0
3933 3 0.0 21.582 21.582 0 0 0
3266 3 7.194 23.3805 23.3805 0 0 0
1126 3 25.179 12.5895 5.3955 0 0 0
2945 3 10.791 28.776 21.582 0 0 0
3447 3 1.7985 3.597 5.3955 0 0 0
1654 3 21.582 23.3805 12.5895 0 0 0
2262 3 14.388 5.3955 19.7835 0 0 0
736 3 26.9775 12.5895 10.791 0 0 0
859 3 26.9775 21.582 16.1865 0 0 0
2956 3 8.9925 30.5745 28.776 0 0 0
1558 3 21.582 12.5895 34.1715 0 0 0
3836 3 0.0 5.3955 26.9775 0 0 0
1605 3 21.582 17.985 3.597 0 0 0
2932 3 8.9925 30.5745 7.194 0 0 0
1833 3 17.985 0.0 28.776 0 0 0
2982 3 10.791 34.1715 19.7835 0 0 0
2447 3 12.5895 21.582 5.3955 0 0 0
2476 3 12.5895 23.3805 28.776 0 0 0
3014 3 7.194 1.7985 12.5895 0 0 0
507 3 30.5745 25.179 23.3805 0 0 0
2191 3 16.1865 32.373 26.9775 0 0 0
3084 3 5.3955 8.9925 0.0 0 0 0
899 3 26.9775 25.179 16.1865 0 0 0
2673 3 10.791 3.597 28.776 0 0 0
3096 3 5.3955 8.9925 10.791 0 0 0
1475 3 19.7835 3.597 30.5745 0 0 0
2778 3 10.791 16.1865 16.1865 0 0 0
552 3 30.5745 30.5745 25.179 0 0 0
312 3 30.5745 8.9925 25.179 0 0 0
1604 3 19.7835 19.7835 0.0 0 0 0
3904 3 0.0 19.7835 5.3955 0 0 0
3167 3 5.3955 14.388 5.3955 0 0 0
3399 3 5.3955 32.373 34.1715 0 0 0
3408 3 1.7985 1.7985 3.597 0 0 0
221 3 32.373 0.0 17.985 0 0 0
270 3 32.373 5.3955 26.9775 0 0 0
2786 3 10.791 16.1865 23.3805 0 0 0
2457 3 14.388 21.582 14.388 0 0 0
2923 3 8.9925 28.776 1.7985 0 0 0
29 3 34.1715 3.597 16.1865 0 0 0
232 3 30.5745 1.7985 25.179 0 0 0
506 3 32.373 26.9775 23.3805 0 0 0
2896 3 8.9925 26.9775 10.791 0 0 0
3725 3 3.597 28.776 3.597 0 0 0
2505 3 14.388 25.179 21.582 0 0 0
3824 3 0.0 5.3955 5.3955 0 0 0
2131 3 16.1865 28.776 8.9925 0 0 0
358 3 32.373 12.5895 34.1715 0 0 0
1629 3 21.582 17.985 25.179 0 0 0
2119 3 16.1865 25.179 34.1715 0 0 0
2851 3 8.9925 21.582 8.9925 0 0 0
144 3 34.1715 26.9775 3.597 0 0 0
176 3 34.1715 30.5745 25.179 0 0 0
215 3 30.5745 0.0 12.5895 0 0 0
2531 3 12.5895 28.776 8.9925 0 0 0
3138 3 7.194 12.5895 16.1865 0 0 0
3208 3 5.3955 19.7835 3.597 0 0 0
3219 3 5.3955 17.985 16.1865 0 0 0
3406 3 3.597 1.7985 5.3955 0 0 0
2283 3 12.5895 7.194 1.7985 0 0 0
3250 3 7.194 23.3805 8.9925 0 0 0
720 3 26.9775 8.9925 32.373 0 0 0
3775 3 1.7985 32.373 12.5895 0 0 0
477 3 32.373 21.582 32.373 0 0 0
393 3 32.373 14.388 28.776 0 0 0
39 3 34.1715 3.597 34.1715 0 0 0
3309 3 7.194 25.179 25.179 0 0 0
3417 3 3.597 0.0 14.388 0 0 0
2981 3 10.791 32.373 17.985 0 0 0
3877 3 0.0 10.791 28.776 0 0 0
213 3 32.373 0.0 10.791 0 0 0
3552 3 1.7985 12.5895 25.179 0 0 0
2875 3 8.9925 21.582 30.5745 0 0 0
636 3 26.9775 1.7985 28.776 0 0 0
1464 3 19.7835 5.3955 17.985 0 0 0
2730 3 10.791 12.5895 8.9925 0 0 0
2869 3 10.791 21.582 25.179 0 0 0
1969 3 17.985 14.388 7.194 0 0 0
1950 3 17.985 12.5895 26.9775 0 0 0
1197 3 25.179 14.388 32.373 0 0 0
1384 3 23.3805 34.1715 17.985 0 0 0
1755 3 19.7835 28.776 30.5745 0 0 0
666 3 28.776 5.3955 23.3805 0 0 0
2543 3 12.5895 28.776 19.7835 0 0 0
1522 3 21.582 12.5895 1.7985 0 0 0
1377 3 25.179 32.373 14.388 0 0 0
28 3 34.1715 5.3955 10.791 0 0 0
1827 3 16.1865 0.0 23.3805 0 0 0
1448 3 19.7835 5.3955 3.597 0 0 0
1616 3 19.7835 19.7835 10.791 0 0 0
68 3 34.1715 12.5895 10.791 0 0 0
1874 3 17.985 5.3955 30.5745 0 0 0
3934 3 0.0 23.3805 23.3805 0 0 0
2186 3 17.985 34.1715 23.3805 0 0 0
998 3 28.776 34.1715 34.1715 0 0 0
3837 3 0.0 3.597 28.776 0 0 0
2491 3 12.5895 25.179 8.9925 0 0 0
638 3 28.776 1.7985 34.1715 0 0 0
65 3 34.1715 10.791 8.9925 0 0 0
1224 3 23.3805 19.7835 17.985 0 0 0
1595 3 19.7835 14.388 30.5745 0 0 0
148 3 34.1715 26.9775 10.791 0 0 0
547 3 30.5745 28.776 23.3805 0 0 0
196 3 34.1715 34.1715 25.179 0 0 0
3592 3 1.7985 16.1865 25.179 0 0 0
889 3 28.776 25.179 7.194 0 0 0
462 3 32.373 23.3805 19.7835 0 0 0
1044 3 23.3805 5.3955 0.0 0 0 0
41 3 34.1715 7.194 1.7985 0 0 0
3144 3 5.3955 12.5895 17.985 0 0 0
3265 3 7.194 21.582 21.582 0 0 0
1138 3 25.179 12.5895 16.1865 0 0 0
1502 3 21.582 8.9925 19.7835 0 0 0
3730 3 3.597 30.5745 8.9925 0 0 0
3040 3 5.3955 1.7985 32.373 0 0 0
1590 3 21.582 16.1865 26.9775 0 0 0
93 3 34.1715 14.388 23.3805 0 0 0
408 3 30.5745 19.7835 3.597 0 0 0
1404 3 19.7835 1.7985 0.0 0 0 0
2742 3 10.791 12.5895 19.7835 0 0 0
2047 3 16.1865 21.582 5.3955 0 0 0
1244 3 23.3805 23.3805 0.0 0 0 0
2321 3 14.388 10.791 0.0 0 0 0
949 3 28.776 28.776 25.179 0 0 0
646 3 28.776 5.3955 5.3955 0 0 0
3328 3 5.3955 30.5745 3.597 0 0 0
88 3 34.1715 16.1865 10.791 0 0 0
2918 3 10.791 26.9775 34.1715 0 0 0
3505 3 3.597 7.194 21.582 0 0 0
3920 3 0.0 19.7835 34.1715 0 0 0
2378 3 14.388 16.1865 16.1865 0 0 0
456 3 30.5745 23.3805 10.791 0 0 0
1988 3 16.1865 16.1865 21.582 0 0 0
3625 3 3.597 17.985 21.582 0 0 0
618 3 28.776 1.7985 16.1865 0 0 0
960 3 26.9775 30.5745 32.373 0 0 0
577 3 32.373 32.373 14.388 0 0 0
100 3 34.1715 16.1865 32.373 0 0 0
2912 3 8.9925 26.9775 25.179 0 0 0
1947 3 16.1865 10.791 23.3805 0 0 0
1373 3 25.179 32.373 10.791 0 0 0
3884 3 0.0 16.1865 5.3955 0 0 0
2703 3 8.9925 7.194 19.7835 0 0 0
2079 3 16.1865 21.582 34.1715 0 0 0
209 3 32.373 0.0 7.194 0 0 0
2268 3 12.5895 5.3955 21.582 0 0 0
543 3 30.5745 28.776 19.7835 0 0 0
2124 3 16.1865 30.5745 0.0 0 0 0
3216 3 5.3955 19.7835 10.791 0 0 0
2338 3 14.388 12.5895 16.1865 0 0 0
2057 3 17.985 21.582 14.388 0 0 0
1772 3 19.7835 34.1715 7.194 0 0 0
1797 3 21.582 32.373 32.373 0 0 0
3851 3 0.0 7.194 17.985 0 0 0
3557 3 3.597 10.791 32.373 0 0 0
362 3 32.373 16.1865 1.7985 0 0 0
3740 3 1.7985 30.5745 14.388 0 0 0
1859 3 16.1865 3.597 16.1865 0 0 0
2488 3 12.5895 26.9775 3.597 0 0 0
78 3 34.1715 12.5895 28.776 0 0 0
1174 3 25.179 16.1865 12.5895 0 0 0
2683 3 8.9925 7.194 1.7985 0 0 0
2160 3 16.1865 30.5745 32.373 0 0 0
2689 3 10.791 7.194 7.194 0 0 0
2397 3 14.388 14.388 32.373 0 0 0
2069 3 17.985 21.582 25.179 0 0 0
2841 3 10.791 21.582 0.0 0 0 0
3540 3 1.7985 12.5895 14.388 0 0 0
3165 3 7.194 14.388 3.597 0 0 0
3090 3 7.194 8.9925 8.9925 0 0 0
381 3 32.373 14.388 17.985 0 0 0
1949 3 17.985 10.791 25.179 0 0 0
3750 3 3.597 30.5745 26.9775 0 0 0
3386 3 7.194 34.1715 23.3805 0 0 0
1488 3 19.7835 8.9925 3.597 0 0 0
210 3 32.373 1.7985 8.9925 0 0 0
2151 3 16.1865 28.776 26.9775 0 0 0
2997 3 10.791 32.373 32.373 0 0 0
1613 3 21.582 17.985 10.791 0 0 0
679 3 26.9775 3.597 34.1715 0 0 0
3800 3 1.7985 34.1715 32.373 0 0 0
155 3 34.1715 25.179 26.9775 0 0 0
3103 3 5.3955 7.194 19.7835 0 0 0
3589 3 3.597 14.388 25.179 0 0 0
3738 3 3.597 30.5745 16.1865 0 0 0
2725 3 10.791 10.791 3.597 0 0 0
3697 3 3.597 25.179 14.388 0 0 0
2084 3 16.1865 26.9775 0.0 0 0 0
845 3 28.776 21.582 3.597 0 0 0
3223 3 5.3955 17.985 19.7835 0 0 0
1345 3 25.179 28.776 21.582 0 0 0
1574 3 21.582 16.1865 12.5895 0 0 0
1393 3 25.179 32.373 28.776 0 0 0
3562 3 3.597 16.1865 1.7985 0 0 0
1609 3 21.582 17.985 7.194 0 0 0
3728 3 1.7985 30.5745 3.597 0 0 0
3648 3 1.7985 23.3805 3.597 0 0 0
2460 3 12.5895 23.3805 14.388 0 0 0
3989 3 0.0 32.373 14.388 0 0 0
3656 3 1.7985 23.3805 10.791 0 0 0
554 3 32.373 30.5745 30.5745 0 0 0
1105 3 25.179 7.194 21.582 0 0 0
597 3 32.373 32.373 32.373 0 0 0
292 3 30.5745 8.9925 7.194 0 0 0
3083 3 5.3955 7.194 1.7985 0 0 0
2411 3 12.5895 17.985 8.9925 0 0 0
3141 3 7.194 10.791 17.985 0 0 0
3922 3 0.0 23.3805 1.7985 0 0 0
1632 3 19.7835 19.7835 25.179 0 0 0
2356 3 12.5895 12.5895 28.776 0 0 0
2515 3 12.5895 25.179 30.5745 0 0 0
3125 3 7.194 10.791 3.597 0 0 0
1810 3 17.985 1.7985 8.9925 0 0 0
3222 3 7.194 19.7835 19.7835 0 0 0
3650 3 3.597 23.3805 8.9925 0 0 0
3177 3 7.194 14.388 14.388 0 0 0
1887 3 16.1865 7.194 5.3955 0 0 0
2536 3 12.5895 30.5745 10.791 0 0 0
3948 3 0.0 26.9775 12.5895 0 0 0
2939 3 8.9925 28.776 16.1865 0 0 0
1155 3 23.3805 10.791 30.5745 0 0 0
735 3 26.9775 10.791 12.5895 0 0 0
2342 3 14.388 12.5895 19.7835 0 0 0
1636 3 19.7835 19.7835 28.776 0 0 0
2571 3 12.5895 32.373 8.9925 0 0 0
728 3 26.9775 12.5895 3.597 0 0 0
2613 3 10.791 0.0 10.791 0 0 0
147 3 34.1715 25.179 12.5895 0 0 0
2634 3 10.791 1.7985 30.5745 0 0 0
2808 3 8.9925 19.7835 3.597 0 0 0
2860 3 8.9925 23.3805 14.388 0 0 0
3423 3 1.7985 0.0 19.7835 0 0 0
1747 3 19.7835 28.776 23.3805 0 0 0
2011 3 16.1865 17.985 8.9925 0 0 0
1424 3 19.7835 1.7985 17.985 0 0 0
3291 3 5.3955 25.179 8.9925 0 0 0
2172 3 16.1865 34.1715 7.194 0 0 0
1473 3 21.582 3.597 28.776 0 0 0
3310 3 7.194 26.9775 26.9775 0 0 0
2015 3 16.1865 17.985 12.5895 0 0 0
3268 3 5.3955 23.3805 21.582 0 0 0
2436 3 12.5895 19.7835 28.776 0 0 0
3025 3 7.194 0.0 21.582 0 0 0
3400 3 5.3955 34.1715 32.373 0 0 0
585 3 32.373 32.373 21.582 0 0 0
866 3 28.776 23.3805 23.3805 0 0 0
3348 3 5.3955 30.5745 21.582 0 0 0
3823 3 0.0 3.597 3.597 0 0 0
2077 3 17.985 21.582 32.373 0 0 0
2276 3 12.5895 5.3955 28.776 0 0 0
271 3 30.5745 3.597 26.9775 0 0 0
2917 3 10.791 25.179 32.373 0 0 0
1440 3 19.7835 1.7985 32.373 0 0 0
3123 3 5.3955 10.791 1.7985 0 0 0
2976 3 8.9925 34.1715 10.791 0 0 0
1059 3 23.3805 3.597 16.1865 0 0 0
275 3 30.5745 3.597 30.5745 0 0 0
2888 3 8.9925 26.9775 3.597 0 0 0
2479 3 12.5895 21.582 34.1715 0 0 0
3690 3 3.597 26.9775 8.9925 0 0 0
386 3 32.373 16.1865 23.3805 0 0 0
1361 3 25.179 32.373 0.0 0 0 0
785 3 28.776 14.388 21.582 0 0 0
108 3 34.1715 19.7835 10.791 0 0 0
681 3 28.776 7.194 0.0 0 0 0
3424 3 1.7985 1.7985 17.985 0 0 0
761 3 28.776 14.388 0.0 0 0 0
2951 3 8.9925 28.776 26.9775 0 0 0
2439 3 12.5895 17.985 34.1715 0 0 0
2713 3 10.791 7.194 28.776 0 0 0
1989 3 17.985 14.388 25.179 0 0 0
1302 3 25.179 26.9775 19.7835 0 0 0
217 3 32.373 0.0 14.388 0 0 0
2270 3 14.388 5.3955 26.9775 0 0 0
401 3 32.373 17.985 0.0 0 0 0
19 3 34.1715 0.0 34.1715 0 0 0
1217 3 25.179 17.985 14.388 0 0 0
3926 3 0.0 23.3805 8.9925 0 0 0
3831 3 0.0 3.597 17.985 0 0 0
3210 3 7.194 19.7835 8.9925 0 0 0
402 3 32.373 19.7835 1.7985 0 0 0
2626 3 10.791 1.7985 23.3805 0 0 0
67 3 34.1715 10.791 12.5895 0 0 0
1995 3 16.1865 14.388 30.5745 0 0 0
1483 3 19.7835 7.194 1.7985 0 0 0
958 3 28.776 30.5745 34.1715 0 0 0
2756 3 8.9925 12.5895 28.776 0 0 0
1280 3 23.3805 23.3805 32.373 0 0 0
229 3 32.373 0.0 25.179 0 0 0
1358 3 25.179 30.5745 34.1715 0 0 0
2966 3 10.791 34.1715 5.3955 0 0 0
675 3 26.9775 3.597 30.5745 0 0 0
2748 3 8.9925 12.5895 21.582 0 0 0
2306 3 14.388 8.9925 23.3805 0 0 0
1472 3 19.7835 5.3955 25.179 0 0 0
2489 3 14.388 25.179 7.194 0 0 0
76 3 34.1715 12.5895 25.179 0 0 0
1146 3 25.179 12.5895 23.3805 0 0 0
3237 3 7.194 17.985 32.373 0 0 0
2622 3 10.791 1.7985 19.7835 0 0 0
2089 3 17.985 25.179 7.194 0 0 0
231 3 30.5745 0.0 26.9775 0 0 0
3917 3 0.0 17.985 28.776 0 0 0
1465 3 21.582 3.597 21.582 0 0 0
3923 3 0.0 21.582 3.597 0 0 0
2564 3 12.5895 34.1715 0.0 0 0 0
3450 3 3.597 5.3955 8.9925 0 0 0
748 3 26.9775 12.5895 21.582 0 0 0
2251 3 12.5895 3.597 8.9925 0 0 0
3085 3 7.194 7.194 3.597 0 0 0
3295 3 5.3955 25.179 12.5895 0 0 0
2257 3 14.388 3.597 14.388 0 0 0
2480 3 12.5895 23.3805 32.373 0 0 0
3614 3 3.597 19.7835 12.5895 0 0 0
3882 3 0.0 16.1865 1.7985 0 0 0
3846 3 0.0 8.9925 8.9925 0 0 0
3277 3 7.194 21.582 32.373 0 0 0
2804 3 8.9925 19.7835 0.0 0 0 0
2182 3 17.985 34.1715 19.7835 0 0 0
163 3 34.1715 28.776 5.3955 0 0 0
1223 3 23.3805 17.985 19.7835 0 0 0
514 3 32.373 26.9775 30.5745 0 0 0
2576 3 12.5895 34.1715 10.791 0 0 0
2605 3 10.791 0.0 3.597 0 0 0
2464 3 12.5895 23.3805 17.985 0 0 0
1569 3 21.582 14.388 7.194 0 0 0
1896 3 16.1865 8.9925 10.791 0 0 0
2260 3 12.5895 5.3955 14.388 0 0 0
1756 3 19.7835 30.5745 28.776 0 0 0
884 3 26.9775 26.9775 0.0 0 0 0
734 3 28.776 12.5895 12.5895 0 0 0
1723 3 19.7835 28.776 1.7985 0 0 0
2681 3 10.791 7.194 0.0 0 0 0
3577 3 3.597 14.388 14.388 0 0 0
3805 3 0.0 0.0 7.194 0 0 0
1143 3 23.3805 10.791 19.7835 0 0 0
316 3 30.5745 8.9925 28.776 0 0 0
1718 3 21.582 26.9775 34.1715 0 0 0
1367 3 23.3805 32.373 5.3955 0 0 0
3274 3 7.194 23.3805 30.5745 0 0 0
2353 3 14.388 10.791 28.776 0 0 0
2382 3 14.388 16.1865 19.7835 0 0 0
747 3 26.9775 10.791 23.3805 0 0 0
1436 3 19.7835 1.7985 28.776 0 0 0
3758 3 3.597 30.5745 34.1715 0 0 0
796 3 26.9775 16.1865 28.776 0 0 0
771 3 26.9775 14.388 8.9925 0 0 0
1987 3 16.1865 14.388 23.3805 0 0 0
134 3 34.1715 23.3805 21.582 0 0 0
160 3 34.1715 26.9775 32.373 0 0 0
3192 3 5.3955 16.1865 25.179 0 0 0
3420 3 1.7985 1.7985 14.388 0 0 0
541 3 32.373 28.776 17.985 0 0 0
2048 3 16.1865 23.3805 3.597 0 0 0
3327 3 5.3955 28.776 5.3955 0 0 0
3318 3 7.194 26.9775 34.1715 0 0 0
869 3 28.776 21.582 25.179 0 0 0
2924 3 8.9925 30.5745 0.0 0 0 0
3282 3 7.194 26.9775 1.7985 0 0 0
3329 3 7.194 28.776 7.194 0 0 0
2820 3 8.9925 19.7835 14.388 0 0 0
3213 3 7.194 17.985 10.791 0 0 0
167 3 34.1715 28.776 12.5895 0 0 0
7 3 34.1715 0.0 12.5895 0 0 0
3539 3 1.7985 10.791 16.1865 0 0 0
2292 3 12.5895 8.9925 7.194 0 0 0
3903 3 0.0 17.985 3.597 0 0 0
614 3 28.776 1.7985 12.5895 0 0 0
843 3 26.9775 21.582 1.7985 0 0 0
2158 3 17.985 30.5745 34.1715 0 0 0
1106 3 25.179 8.9925 23.3805 0 0 0
890 3 28.776 26.9775 8.9925 0 0 0
2112 3 16.1865 26.9775 25.179 0 0 0
3999 3 0.0 32.373 32.373 0 0 0
1571 3 19.7835 14.388 8.9925 0 0 0
72 3 34.1715 12.5895 17.985 0 0 0
2831 3 8.9925 17.985 26.9775 0 0 0
774 3 28.776 16.1865 12.5895 0 0 0
2933 3 10.791 28.776 10.791 0 0 0
3980 3 0.0 30.5745 34.1715 0 0 0
2526 3 14.388 30.5745 5.3955 0 0 0
1010 3 25.179 1.7985 8.9925 0 0 0
3273 3 7.194 21.582 28.776 0 0 0
533 3 32.373 28.776 10.791 0 0 0
165 3 34.1715 28.776 8.9925 0 0 0
2773 3 10.791 14.388 10.791 0 0 0
1686 3 21.582 26.9775 5.3955 0 0 0
678 3 28.776 5.3955 34.1715 0 0 0
3662 3 3.597 23.3805 19.7835 0 0 0
1227 3 23.3805 17.985 23.3805 0 0 0
1903 3 16.1865 7.194 19.7835 0 0 0
1321 3 25.179 28.776 0.0 0 0 0
1738 3 21.582 30.5745 16.1865 0 0 0
1176 3 23.3805 16.1865 10.791 0 0 0
1427 3 19.7835 0.0 23.3805 0 0 0
2616 3 8.9925 1.7985 10.791 0 0 0
3813 3 0.0 0.0 21.582 0 0 0
1564 3 19.7835 16.1865 0.0 0 0 0
3305 3 7.194 25.179 21.582 0 0 0
248 3 30.5745 5.3955 3.597 0 0 0
2687 3 8.9925 7.194 5.3955 0 0 0
2760 3 8.9925 12.5895 32.373 0 0 0
3891 3 0.0 14.388 17.985 0 0 0
973 3 28.776 32.373 10.791 0 0 0
1644 3 19.7835 23.3805 0.0 0 0 0
3611 3 1.7985 17.985 8.9925 0 0 0
776 3 26.9775 16.1865 10.791 0 0 0
1704 3 19.7835 26.9775 17.985 0 0 0
3270 3 7.194 23.3805 26.9775 0 0 0
2826 3 10.791 19.7835 23.3805 0 0 0
3120 3 5.3955 8.9925 32.373 0 0 0
609 3 28.776 0.0 7.194 0 0 0
1292 3 23.3805 26.9775 7.194 0 0 0
1580 3 19.7835 16.1865 14.388 0 0 0
797 3 28.776 14.388 32.373 0 0 0
1450 3 21.582 5.3955 8.9925 0 0 0
3249 3 7.194 21.582 7.194 0 0 0
1323 3 23.3805 28.776 1.7985 0 0 0
3332 3 5.3955 30.5745 7.194 0 0 0
1308 3 23.3805 26.9775 21.582 0 0 0
47 3 34.1715 7.194 12.5895 0 0 0
2590 3 14.388 34.1715 26.9775 0 0 0
971 3 26.9775 32.373 8.9925 0 0 0
1113 3 25.179 7.194 28.776 0 0 0
230 3 32.373 1.7985 26.9775 0 0 0
299 3 30.5745 7.194 16.1865 0 0 0
932 3 26.9775 30.5745 7.194 0 0 0
3673 3 3.597 21.582 28.776 0 0 0
1849 3 17.985 3.597 7.194 0 0 0
1937 3 17.985 10.791 14.388 0 0 0
2357 3 14.388 10.791 32.373 0 0 0
3888 3 0.0 16.1865 12.5895 0 0 0
3023 3 5.3955 0.0 19.7835 0 0 0
1140 3 23.3805 12.5895 14.388 0 0 0
441 3 32.373 21.582 0.0 0 0 0
1230 3 25.179 19.7835 26.9775 0 0 0
9 3 34.1715 0.0 16.1865 0 0 0
2856 3 8.9925 23.3805 10.791 0 0 0
3838 3 0.0 5.3955 30.5745 0 0 0
567 3 30.5745 32.373 5.3955 0 0 0
3609 3 3.597 17.985 7.194 0 0 0
5 3 34.1715 0.0 8.9925 0 0 0
1504 3 19.7835 8.9925 17.985 0 0 0
3493 3 3.597 7.194 10.791 0 0 0
3429 3 3.597 0.0 25.179 0 0 0
2225 3 14.388 0.0 21.582 0 0 0
1862 3 17.985 5.3955 19.7835 0 0 0
3510 3 3.597 8.9925 26.9775 0 0 0
145 3 34.1715 25.179 8.9925 0 0 0
2618 3 10.791 1.7985 16.1865 0 0 0
1957 3 17.985 10.791 32.373 0 0 0
3794 3 3.597 34.1715 30.5745 0 0 0
3536 3 1.7985 12.5895 10.791 0 0 0
3376 3 5.3955 34.1715 10.791 0 0 0
2928 3 8.9925 30.5745 3.597 0 0 0
1740 3 19.7835 30.5745 14.388 0 0 0
3664 3 1.7985 23.3805 17.985 0 0 0
1916 3 16.1865 8.9925 28.776 0 0 0
325 3 32.373 10.791 3.597 0 0 0
2462 3 14.388 23.3805 19.7835 0 0 0
2168 3 16.1865 34.1715 3.597 0 0 0
120 3 34.1715 19.7835 32.373 0 0 0
1982 3 17.985 16.1865 19.7835 0 0 0
1999 3 16.1865 14.388 34.1715 0 0 0
3382 3 7.194 34.1715 19.7835 0 0 0
730 3 28.776 12.5895 8.9925 0 0 0
1579 3 19.7835 14.388 16.1865 0 0 0
3176 3 5.3955 16.1865 10.791 0 0 0
1592 3 19.7835 16.1865 25.179 0 0 0
3621 3 3.597 17.985 17.985 0 0 0
1798 3 21.582 34.1715 34.1715 0 0 0
1382 3 25.179 34.1715 19.7835 0 0 0
1780 3 19.7835 34.1715 14.388 0 0 0
3134 3 7.194 12.5895 12.5895 0 0 0
2408 3 12.5895 19.7835 3.597 0 0 0
501 3 32.373 25.179 17.985 0 0 0
1049 3 25.179 3.597 7.194 0 0 0
3694 3 3.597 26.9775 12.5895 0 0 0
706 3 28.776 8.9925 23.3805 0 0 0
2271 3 12.5895 3.597 26.9775 0 0 0
322 3 32.373 12.5895 1.7985 0 0 0
2140 3 16.1865 30.5745 14.388 0 0 0
3169 3 7.194 14.388 7.194 0 0 0
3308 3 5.3955 26.9775 21.582 0 0 0
3181 3 7.194 14.388 17.985 0 0 0
2068 3 16.1865 23.3805 21.582 0 0 0
969 3 28.776 32.373 7.194 0 0 0
3007 3 5.3955 0.0 5.3955 0 0 0
775 3 26.9775 14.388 12.5895 0 0 0
2632 3 8.9925 1.7985 25.179 0 0 0
1152 3 23.3805 12.5895 25.179 0 0 0
1190 3 25.179 16.1865 26.9775 0 0 0
79 3 34.1715 10.791 34.1715 0 0 0
2729 3 10.791 10.791 7.194 0 0 0
1229 3 25.179 17.985 25.179 0 0 0
726 3 28.776 12.5895 5.3955 0 0 0
3418 3 3.597 1.7985 16.1865 0 0 0
3883 3 0.0 14.388 3.597 0 0 0
2315 3 12.5895 7.194 30.5745 0 0 0
3825 3 0.0 3.597 7.194 0 0 0
3346 3 7.194 30.5745 23.3805 0 0 0
2009 3 17.985 17.985 7.194 0 0 0
1148 3 23.3805 12.5895 21.582 0 0 0
3835 3 0.0 3.597 25.179 0 0 0
3844 3 0.0 8.9925 5.3955 0 0 0
2178 3 17.985 34.1715 16.1865 0 0 0
2620 3 8.9925 1.7985 14.388 0 0 0
1238 3 25.179 19.7835 34.1715 0 0 0
2443 3 12.5895 21.582 1.7985 0 0 0
2065 3 17.985 21.582 21.582 0 0 0
390 3 32.373 16.1865 26.9775 0 0 0
3172 3 5.3955 16.1865 7.194 0 0 0
1774 3 21.582 34.1715 12.5895 0 0 0
3997 3 0.0 32.373 28.776 0 0 0
2161 3 17.985 32.373 0.0 0 0 0
2846 3 10.791 23.3805 5.3955 0 0 0
630 3 28.776 1.7985 26.9775 0 0 0
1759 3 19.7835 28.776 34.1715 0 0 0
459 3 30.5745 21.582 16.1865 0 0 0
2952 3 8.9925 30.5745 25.179 0 0 0
1030 3 25.179 1.7985 26.9775 0 0 0
867 3 26.9775 21.582 23.3805 0 0 0
1676 3 19.7835 23.3805 28.776 0 0 0
3320 3 5.3955 26.9775 32.373 0 0 0
1542 3 21.582 12.5895 19.7835 0 0 0
3941 3 0.0 25.179 0.0 0 0 0
3703 3 1.7985 25.179 19.7835 0 0 0
3641 3 3.597 21.582 0.0 0 0 0
3784 3 1.7985 34.1715 17.985 0 0 0
2758 3 10.791 12.5895 34.1715 0 0 0
2601 3 10.791 0.0 0.0 0 0 0
3729 3 3.597 28.776 7.194 0 0 0
591 3 30.5745 32.373 26.9775 0 0 0
1026 3 25.179 1.7985 23.3805 0 0 0
3766 3 3.597 34.1715 5.3955 0 0 0
2572 4 12.5895 34.1715 7.194 0 0 0
2692 4 8.9925 8.9925 7.194 0 0 0
136 4 34.1715 23.3805 25.179 0 0 0
99 4 34.1715 14.388 34.1715 0 0 0
110 4 34.1715 19.7835 14.388 0 0 0
3341 4 7.194 28.776 17.985 0 0 0
2370 4 14.388 16.1865 8.9925 0 0 0
2125 4 17.985 28.776 3.597 0 0 0
428 4 30.5745 19.7835 21.582 0 0 0
3597 4 3.597 14.388 32.373 0 0 0
2868 4 8.9925 23.3805 21.582 0 0 0
2943 4 8.9925 28.776 19.7835 0 0 0
3553 4 3.597 10.791 28.776 0 0 0
1092 4 23.3805 8.9925 7.194 0 0 0
688 4 26.9775 8.9925 3.597 0 0 0
3719 4 1.7985 25.179 34.1715 0 0 0
2755 4 8.9925 10.791 30.5745 0 0 0
1793 4 21.582 32.373 28.776 0 0 0
2954 4 10.791 30.5745 30.5745 0 0 0
1742 4 21.582 30.5745 19.7835 0 0 0
1333 4 25.179 28.776 10.791 0 0 0
2337 4 14.388 10.791 14.388 0 0 0
753 4 28.776 10.791 28.776 0 0 0
2766 4 10.791 16.1865 5.3955 0 0 0
2960 4 8.9925 30.5745 32.373 0 0 0
2018 4 17.985 19.7835 16.1865 0 0 0
1736 4 19.7835 30.5745 10.791 0 0 0
3802 4 0.0 1.7985 1.7985 0 0 0
3991 4 0.0 32.373 17.985 0 0 0
1671 4 19.7835 21.582 26.9775 0 0 0
16 4 34.1715 1.7985 25.179 0 0 0
2957 4 10.791 28.776 32.373 0 0 0
839 4 26.9775 17.985 34.1715 0 0 0
2116 4 16.1865 26.9775 28.776 0 0 0
500 4 30.5745 26.9775 14.388 0 0 0
965 4 28.776 32.373 3.597 0 0 0
3737 4 3.597 28.776 14.388 0 0 0
1607 4 19.7835 17.985 5.3955 0 0 0
328 4 30.5745 12.5895 3.597 0 0 0
61 4 34.1715 10.791 1.7985 0 0 0
3003 4 5.3955 0.0 1.7985 0 0 0
2885 4 10.791 25.179 3.597 0 0 0
1036 4 23.3805 1.7985 28.776 0 0 0
2744 4 8.9925 12.5895 17.985 0 0 0
2652 4 8.9925 5.3955 7.194 0 0 0
2881 4 10.791 25.179 0.0 0 0 0
719 4 26.9775 7.194 34.1715 0 0 0
673 4 28.776 3.597 28.776 0 0 0
1112 4 23.3805 8.9925 25.179 0 0 0
2335 4 12.5895 10.791 12.5895 0 0 0
2345 4 14.388 10.791 21.582 0 0 0
978 4 28.776 34.1715 16.1865 0 0 0
3743 4 1.7985 28.776 19.7835 0 0 0
1710 4 21.582 26.9775 26.9775 0 0 0
1885 4 17.985 7.194 3.597 0 0 0
2453 4 14.388 21.582 10.791 0 0 0
538 4 32.373 30.5745 16.1865 0 0 0
999 4 26.9775 32.373 34.1715 0 0 0
2653 4 10.791 3.597 10.791 0 0 0
2042 4 17.985 23.3805 1.7985 0 0 0
1343 4 23.3805 28.776 19.7835 0 0 0
23 4 34.1715 3.597 5.3955 0 0 0
3955 4 0.0 25.179 25.179 0 0 0
53 4 34.1715 7.194 23.3805 0 0 0
1101 4 25.179 7.194 17.985 0 0 0
13 4 34.1715 0.0 23.3805 0 0 0
921 4 28.776 28.776 0.0 0 0 0
1507 4 19.7835 7.194 23.3805 0 0 0
1708 4 19.7835 26.9775 21.582 0 0 0
2553 4 14.388 28.776 28.776 0 0 0
2938 4 10.791 30.5745 16.1865 0 0 0
834 4 28.776 19.7835 30.5745 0 0 0
2998 4 10.791 34.1715 34.1715 0 0 0
159 4 34.1715 25.179 34.1715 0 0 0
2990 4 10.791 34.1715 26.9775 0 0 0
3444 4 1.7985 5.3955 0.0 0 0 0
1161 4 25.179 14.388 0.0 0 0 0
513 4 32.373 25.179 28.776 0 0 0
2367 4 12.5895 14.388 5.3955 0 0 0
2220 4 12.5895 1.7985 14.388 0 0 0
3257 4 7.194 21.582 14.388 0 0 0
1525 4 21.582 10.791 3.597 0 0 0
2872 4 8.9925 23.3805 25.179 0 0 0
18 4 34.1715 1.7985 28.776 0 0 0
1960 4 16.1865 12.5895 32.373 0 0 0
3710 4 3.597 26.9775 26.9775 0 0 0
2809 4 10.791 17.985 7.194 0 0 0
240 4 30.5745 1.7985 32.373 0 0 0
3652 4 1.7985 23.3805 7.194 0 0 0
2647 4 8.9925 3.597 5.3955 0 0 0
2500 4 12.5895 26.9775 14.388 0 0 0
1618 4 21.582 19.7835 16.1865 0 0 0
2510 4 14.388 26.9775 26.9775 0 0 0
811 4 26.9775 17.985 8.9925 0 0 0
244 4 30.5745 5.3955 0.0 0 0 0
137 4 34.1715 21.582 30.5745 0 0 0
308 4 30.5745 8.9925 21.582 0 0 0
1447 4 19.7835 3.597 5.3955 0 0 0
3322 4 7.194 30.5745 1.7985 0 0 0
48 4 34.1715 8.9925 10.791 0 0 0
1753 4 21.582 28.776 28.776 0 0 0
2670 4 10.791 5.3955 26.9775 0 0 0
754 4 28.776 12.5895 30.5745 0 0 0
3161 4 7.194 14.388 0.0 0 0 0
2115 4 16.1865 25.179 30.5745 0 0 0
1242 4 25.179 23.3805 1.7985 0 0 0
280 4 30.5745 5.3955 32.373 0 0 0
3100 4 5.3955 8.9925 14.388 0 0 0
945 4 28.776 28.776 21.582 0 0 0
2392 4 12.5895 16.1865 25.179 0 0 0
1139 4 23.3805 10.791 16.1865 0 0 0
2487 4 12.5895 25.179 5.3955 0 0 0
306 4 32.373 8.9925 23.3805 0 0 0
1628 4 19.7835 19.7835 21.582 0 0 0
253 4 32.373 3.597 10.791 0 0 0
1681 4 21.582 25.179 0.0 0 0 0
3267 4 5.3955 21.582 23.3805 0 0 0
2133 4 17.985 28.776 10.791 0 0 0
2185 4 17.985 32.373 21.582 0 0 0
2055 4 16.1865 21.582 12.5895 0 0 0
1453 4 21.582 3.597 10.791 0 0 0
1316 4 23.3805 26.9775 28.776 0 0 0
268 4 30.5745 5.3955 21.582 0 0 0
3142 4 7.194 12.5895 19.7835 0 0 0
3749 4 3.597 28.776 25.179 0 0 0
2791 4 8.9925 14.388 26.9775 0 0 0
3355 4 5.3955 28.776 30.5745 0 0 0
3173 4 7.194 14.388 10.791 0 0 0
2040 4 16.1865 19.7835 32.373 0 0 0
670 4 28.776 5.3955 26.9775 0 0 0
3563 4 1.7985 14.388 1.7985 0 0 0
1717 4 21.582 25.179 32.373 0 0 0
789 4 28.776 14.388 25.179 0 0 0
3516 4 1.7985 8.9925 28.776 0 0 0
1675 4 19.7835 21.582 30.5745 0 0 0
1601 4 21.582 17.985 0.0 0 0 0
3857 4 0.0 7.194 28.776 0 0 0
656 4 26.9775 5.3955 10.791 0 0 0
2420 4 12.5895 19.7835 14.388 0 0 0
1496 4 19.7835 8.9925 10.791 0 0 0
3122 4 7.194 12.5895 1.7985 0 0 0
2076 4 16.1865 23.3805 28.776 0 0 0
3702 4 3.597 26.9775 19.7835 0 0 0
2250 4 14.388 5.3955 8.9925 0 0 0
2156 4 16.1865 30.5745 28.776 0 0 0
2039 4 16.1865 17.985 34.1715 0 0 0
3765 4 3.597 32.373 3.597 0 0 0
2407 4 12.5895 17.985 5.3955 0 0 0
2717 4 10.791 7.194 32.373 0 0 0
2512 4 12.5895 26.9775 25.179 0 0 0
2285 4 14.388 7.194 3.597 0 0 0
3759 4 1.7985 28.776 34.1715 0 0 0
2877 4 10.791 21.582 32.373 0 0 0
1746 4 21.582 30.5745 23.3805 0 0 0
1524 4 19.7835 12.5895 0.0 0 0 0
2946 4 10.791 30.5745 23.3805 0 0 0
1805 4 17.985 0.0 3.597 0 0 0
1064 4 23.3805 5.3955 17.985 0 0 0
649 4 28.776 3.597 7.194 0 0 0
2394 4 14.388 16.1865 30.5745 0 0 0
1516 4 19.7835 8.9925 28.776 0 0 0
639 4 26.9775 0.0 34.1715 0 0 0
2852 4 8.9925 23.3805 7.194 0 0 0
3929 4 0.0 21.582 14.388 0 0 0
1346 4 25.179 30.5745 23.3805 0 0 0
1498 4 21.582 8.9925 16.1865 0 0 0
1296 4 23.3805 26.9775 10.791 0 0 0
3174 4 7.194 16.1865 12.5895 0 0 0
933 4 28.776 28.776 10.791 0 0 0
1024 4 23.3805 1.7985 17.985 0 0 0
2482 4 14.388 26.9775 1.7985 0 0 0
1268 4 23.3805 23.3805 21.582 0 0 0
2702 4 10.791 8.9925 19.7835 0 0 0
891 4 26.9775 25.179 8.9925 0 0 0
3347 4 5.3955 28.776 23.3805 0 0 0
1794 4 21.582 34.1715 30.5745 0 0 0
2749 4 10.791 10.791 25.179 0 0 0
2468 4 12.5895 23.3805 21.582 0 0 0
3714 4 3.597 26.9775 30.5745 0 0 0
2648 4 8.9925 5.3955 3.597 0 0 0
1272 4 23.3805 23.3805 25.179 0 0 0
177 4 34.1715 28.776 30.5745 0 0 0
2710 4 10.791 8.9925 26.9775 0 0 0
2962 4 10.791 34.1715 1.7985 0 0 0
1233 4 25.179 17.985 28.776 0 0 0
3985 4 0.0 32.373 7.194 0 0 0
320 4 30.5745 8.9925 32.373 0 0 0
657 4 28.776 3.597 14.388 0 0 0
1845 4 17.985 3.597 3.597 0 0 0
643 4 26.9775 3.597 1.7985 0 0 0
1236 4 23.3805 19.7835 28.776 0 0 0
2282 4 14.388 8.9925 1.7985 0 0 0
3675 4 1.7985 21.582 30.5745 0 0 0
2579 4 12.5895 32.373 16.1865 0 0 0
2007 4 16.1865 17.985 5.3955 0 0 0
897 4 28.776 25.179 14.388 0 0 0
2371 4 12.5895 14.388 8.9925 0 0 0
3949 4 0.0 25.179 14.388 0 0 0
400 4 30.5745 16.1865 32.373 0 0 0
195 4 34.1715 32.373 26.9775 0 0 0
810 4 28.776 19.7835 8.9925 0 0 0
531 4 30.5745 28.776 8.9925 0 0 0
3 4 34.1715 0.0 5.3955 0 0 0
3551 4 1.7985 10.791 26.9775 0 0 0
1251 4 23.3805 21.582 8.9925 0 0 0
1659 4 19.7835 21.582 16.1865 0 0 0
1532 4 19.7835 12.5895 7.194 0 0 0
2767 4 8.9925 14.388 5.3955 0 0 0
2222 4 14.388 1.7985 19.7835 0 0 0
2470 4 14.388 23.3805 26.9775 0 0 0
443 4 30.5745 21.582 1.7985 0 0 0
3280 4 5.3955 23.3805 32.373 0 0 0
3878 4 0.0 12.5895 30.5745 0 0 0
1144 4 23.3805 12.5895 17.985 0 0 0
1097 4 25.179 7.194 14.388 0 0 0
173 4 34.1715 28.776 23.3805 0 0 0
1069 4 25.179 3.597 25.179 0 0 0
3683 4 1.7985 25.179 1.7985 0 0 0
683 4 26.9775 7.194 1.7985 0 0 0
484 4 30.5745 26.9775 0.0 0 0 0
1931 4 16.1865 10.791 8.9925 0 0 0
3019 4 5.3955 0.0 16.1865 0 0 0
3590 4 3.597 16.1865 26.9775 0 0 0
1660 4 19.7835 23.3805 14.388 0 0 0
121 4 34.1715 21.582 1.7985 0 0 0
460 4 30.5745 23.3805 14.388 0 0 0
2000 4 16.1865 16.1865 32.373 0 0 0
1199 4 23.3805 14.388 34.1715 0 0 0
1662 4 21.582 23.3805 19.7835 0 0 0
82 4 34.1715 16.1865 0.0 0 0 0
2784 4 8.9925 16.1865 17.985 0 0 0
2403 4 12.5895 17.985 1.7985 0 0 0
1494 4 21.582 8.9925 12.5895 0 0 0
3042 4 7.194 5.3955 1.7985 0 0 0
191 4 34.1715 32.373 19.7835 0 0 0
1665 4 21.582 21.582 21.582 0 0 0
1182 4 25.179 16.1865 19.7835 0 0 0
388 4 30.5745 16.1865 21.582 0 0 0
396 4 30.5745 16.1865 28.776 0 0 0
3495 4 1.7985 7.194 12.5895 0 0 0
1923 4 16.1865 10.791 1.7985 0 0 0
2240 4 12.5895 1.7985 32.373 0 0 0
2244 4 12.5895 5.3955 0.0 0 0 0
3111 4 5.3955 7.194 26.9775 0 0 0
1602 4 21.582 19.7835 1.7985 0 0 0
3914 4 0.0 19.7835 23.3805 0 0 0
3200 4 5.3955 16.1865 32.373 0 0 0
2963 4 8.9925 32.373 1.7985 0 0 0
1799 4 19.7835 32.373 34.1715 0 0 0
1425 4 21.582 0.0 21.582 0 0 0
791 4 26.9775 14.388 26.9775 0 0 0
3684 4 1.7985 26.9775 0.0 0 0 0
2812 4 8.9925 19.7835 7.194 0 0 0
392 4 30.5745 16.1865 25.179 0 0 0
3620 4 1.7985 19.7835 14.388 0 0 0
2056 4 16.1865 23.3805 10.791 0 0 0
2757 4 10.791 10.791 32.373 0 0 0
2073 4 17.985 21.582 28.776 0 0 0
3234 4 7.194 19.7835 30.5745 0 0 0
3811 4 0.0 0.0 17.985 0 0 0
2428 4 12.5895 19.7835 21.582 0 0 0
3401 4 3.597 0.0 0.0 0 0 0
1575 4 19.7835 14.388 12.5895 0 0 0
3753 4 3.597 28.776 28.776 0 0 0
482 4 32.373 26.9775 1.7985 0 0 0
2508 4 12.5895 26.9775 21.582 0 0 0
1300 4 23.3805 26.9775 14.388 0 0 0
1705 4 21.582 25.179 21.582 0 0 0
2129 4 17.985 28.776 7.194 0 0 0
2022 4 17.985 19.7835 19.7835 0 0 0
2886 4 10.791 26.9775 5.3955 0 0 0
1288 4 23.3805 26.9775 3.597 0 0 0
2406 4 14.388 19.7835 5.3955 0 0 0
1974 4 17.985 16.1865 12.5895 0 0 0
1731 4 19.7835 28.776 8.9925 0 0 0
1136 4 23.3805 12.5895 10.791 0 0 0
3717 4 3.597 25.179 32.373 0 0 0
185 4 34.1715 32.373 8.9925 0 0 0
1720 4 19.7835 26.9775 32.373 0 0 0
2437 4 14.388 17.985 32.373 0 0 0
2070 4 17.985 23.3805 26.9775 0 0 0
3131 4 5.3955 10.791 8.9925 0 0 0
2770 4 10.791 16.1865 8.9925 0 0 0
1104 4 23.3805 8.9925 17.985 0 0 0
2148 4 16.1865 30.5745 21.582 0 0 0
633 4 28.776 0.0 28.776 0 0 0
1046 4 25.179 5.3955 5.3955 0 0 0
2577 4 14.388 32.373 14.388 0 0 0
3679 4 1.7985 21.582 34.1715 0 0 0
3571 4 1.7985 14.388 8.9925 0 0 0
1830 4 17.985 1.7985 26.9775 0 0 0
1898 4 17.985 8.9925 16.1865 0 0 0
1192 4 23.3805 16.1865 25.179 0 0 0
3300 4 5.3955 26.9775 14.388 0 0 0
1462 4 21.582 5.3955 19.7835 0 0 0
2207 4 12.5895 0.0 5.3955 0 0 0
3994 4 0.0 34.1715 23.3805 0 0 0
278 4 32.373 5.3955 34.1715 0 0 0
3367 4 5.3955 32.373 5.3955 0 0 0
3235 4 5.3955 17.985 30.5745 0 0 0
2679 4 8.9925 3.597 34.1715 0 0 0
3350 4 7.194 30.5745 26.9775 0 0 0
2106 4 17.985 26.9775 23.3805 0 0 0
1943 4 16.1865 10.791 19.7835 0 0 0
3691 4 1.7985 25.179 8.9925 0 0 0
326 4 32.373 12.5895 5.3955 0 0 0
3260 4 5.3955 23.3805 14.388 0 0 0
1688 4 19.7835 26.9775 3.597 0 0 0
1004 4 23.3805 1.7985 0.0 0 0 0
347 4 30.5745 10.791 23.3805 0 0 0
3135 4 5.3955 10.791 12.5895 0 0 0
1042 4 25.179 5.3955 1.7985 0 0 0
2347 4 12.5895 10.791 23.3805 0 0 0
1544 4 19.7835 12.5895 17.985 0 0 0
3918 4 0.0 19.7835 30.5745 0 0 0
1017 4 25.179 0.0 14.388 0 0 0
1419 4 19.7835 0.0 16.1865 0 0 0
582 4 32.373 34.1715 19.7835 0 0 0
2496 4 12.5895 26.9775 10.791 0 0 0
2256 4 12.5895 5.3955 10.791 0 0 0
2798 4 10.791 16.1865 34.1715 0 0 0
2495 4 12.5895 25.179 12.5895 0 0 0
226 4 32.373 1.7985 23.3805 0 0 0
2461 4 14.388 21.582 17.985 0 0 0
1838 4 17.985 1.7985 34.1715 0 0 0
2043 4 16.1865 21.582 1.7985 0 0 0
235 4 30.5745 0.0 30.5745 0 0 0
307 4 30.5745 7.194 23.3805 0 0 0
814 4 28.776 19.7835 12.5895 0 0 0
739 4 26.9775 10.791 16.1865 0 0 0
2254 4 14.388 5.3955 12.5895 0 0 0
3211 4 5.3955 17.985 8.9925 0 0 0
1761 4 21.582 32.373 0.0 0 0 0
2228 4 12.5895 1.7985 21.582 0 0 0
2799 4 8.9925 14.388 34.1715 0 0 0
335 4 30.5745 10.791 12.5895 0 0 0
3606 4 3.597 19.7835 5.3955 0 0 0
409 4 32.373 17.985 7.194 0 0 0
2017 4 17.985 17.985 14.388 0 0 0
2995 4 8.9925 32.373 30.5745 0 0 0
3654 4 3.597 23.3805 12.5895 0 0 0
3361 4 7.194 32.373 0.0 0 0 0
952 4 26.9775 30.5745 25.179 0 0 0
3969 4 0.0 28.776 14.388 0 0 0
1701 4 21.582 25.179 17.985 0 0 0
749 4 28.776 10.791 25.179 0 0 0
1299 4 23.3805 25.179 16.1865 0 0 0
2992 4 8.9925 34.1715 25.179 0 0 0
600 4 30.5745 34.1715 32.373 0 0 0
1203 4 23.3805 17.985 1.7985 0 0 0
1713 4 21.582 25.179 28.776 0 0 0
2882 4 10.791 26.9775 1.7985 0 0 0
1209 4 25.179 17.985 7.194 0 0 0
140 4 34.1715 23.3805 32.373 0 0 0
806 4 28.776 19.7835 5.3955 0 0 0
3061 4 7.194 3.597 17.985 0 0 0
1587 4 19.7835 14.388 23.3805 0 0 0
2295 4 12.5895 7.194 12.5895 0 0 0
3951 4 0.0 25.179 17.985 0 0 0
1381 4 25.179 32.373 17.985 0 0 0
109 4 34.1715 17.985 16.1865 0 0 0
3009 4 7.194 0.0 7.194 0 0 0
3479 4 1.7985 3.597 34.1715 0 0 0
1310 4 25.179 26.9775 26.9775 0 0 0
813 4 28.776 17.985 10.791 0 0 0
607 4 26.9775 0.0 5.3955 0 0 0
105 4 34.1715 17.985 8.9925 0 0 0
22 4 34.1715 5.3955 0.0 0 0 0
3452 4 1.7985 5.3955 7.194 0 0 0
764 4 26.9775 16.1865 0.0 0 0 0
290 4 32.373 8.9925 8.9925 0 0 0
2524 4 12.5895 30.5745 0.0 0 0 0
4 4 34.1715 1.7985 3.597 0 0 0
2575 4 12.5895 32.373 12.5895 0 0 0
2451 4 12.5895 21.582 8.9925 0 0 0
3203 4 5.3955 17.985 1.7985 0 0 0
42 4 34.1715 8.9925 0.0 0 0 0
3565 4 3.597 14.388 3.597 0 0 0
52 4 34.1715 8.9925 17.985 0 0 0
3026 4 7.194 1.7985 23.3805 0 0 0
3164 4 5.3955 16.1865 0.0 0 0 0
3217 4 7.194 17.985 14.388 0 0 0
3569 4 3.597 14.388 7.194 0 0 0
3961 4 0.0 28.776 0.0 0 0 0
571 4 30.5745 32.373 8.9925 0 0 0
2520 4 12.5895 26.9775 32.373 0 0 0
708 4 26.9775 8.9925 21.582 0 0 0
1011 4 23.3805 0.0 8.9925 0 0 0
1939 4 16.1865 10.791 16.1865 0 0 0
2574 4 14.388 34.1715 12.5895 0 0 0
3754 4 3.597 30.5745 30.5745 0 0 0
1852 4 16.1865 5.3955 7.194 0 0 0
2664 4 8.9925 5.3955 17.985 0 0 0
1324 4 23.3805 30.5745 0.0 0 0 0
3313 4 7.194 25.179 28.776 0 0 0
3907 4 0.0 17.985 10.791 0 0 0
58 4 34.1715 8.9925 28.776 0 0 0
310 4 32.373 8.9925 26.9775 0 0 0
1581 4 21.582 14.388 17.985 0 0 0
183 4 34.1715 32.373 5.3955 0 0 0
2919 4 8.9925 25.179 34.1715 0 0 0
837 4 28.776 17.985 32.373 0 0 0
3099 4 5.3955 7.194 16.1865 0 0 0
3163 4 5.3955 14.388 1.7985 0 0 0
2922 4 10.791 30.5745 1.7985 0 0 0
2967 4 8.9925 32.373 5.3955 0 0 0
3909 4 0.0 17.985 14.388 0 0 0
3537 4 3.597 10.791 14.388 0 0 0
1924 4 16.1865 12.5895 0.0 0 0 0
3984 4 0.0 34.1715 5.3955 0 0 0
2779 4 8.9925 14.388 16.1865 0 0 0
3027 4 5.3955 0.0 23.3805 0 0 0
1252 4 23.3805 23.3805 7.194 0 0 0
3316 4 5.3955 26.9775 28.776 0 0 0
627 4 26.9775 0.0 23.3805 0 0 0
524 4 30.5745 30.5745 0.0 0 0 0
2363 4 12.5895 14.388 1.7985 0 0 0
2842 4 10.791 23.3805 1.7985 0 0 0
3695 4 1.7985 25.179 12.5895 0 0 0
3979 4 0.0 28.776 32.373 0 0 0
2958 4 10.791 30.5745 34.1715 0 0 0
2916 4 8.9925 26.9775 28.776 0 0 0
3500 4 1.7985 8.9925 14.388 0 0 0
1045 4 25.179 3.597 3.597 0 0 0
1971 4 16.1865 14.388 8.9925 0 0 0
2101 4 17.985 25.179 17.985 0 0 0
3264 4 5.3955 23.3805 17.985 0 0 0
3879 4 0.0 10.791 32.373 0 0 0
3700 4 1.7985 26.9775 14.388 0 0 0
2299 4 12.5895 7.194 16.1865 0 0 0
1429 4 21.582 0.0 25.179 0 0 0
1120 4 23.3805 8.9925 32.373 0 0 0
3466 4 3.597 5.3955 23.3805 0 0 0
2097 4 17.985 25.179 14.388 0 0 0
1380 4 23.3805 34.1715 14.388 0 0 0
1256 4 23.3805 23.3805 10.791 0 0 0
3757 4 3.597 28.776 32.373 0 0 0
3195 4 5.3955 14.388 30.5745 0 0 0
615 4 26.9775 0.0 12.5895 0 0 0
515 4 30.5745 25.179 30.5745 0 0 0
976 4 26.9775 34.1715 10.791 0 0 0
3226 4 7.194 19.7835 23.3805 0 0 0
116 4 34.1715 19.7835 25.179 0 0 0
483 4 30.5745 25.179 1.7985 0 0 0
3575 4 1.7985 14.388 12.5895 0 0 0
989 4 28.776 32.373 25.179 0 0 0
2173 4 17.985 32.373 10.791 0 0 0
60 4 34.1715 8.9925 32.373 0 0 0
2521 4 14.388 28.776 0.0 0 0 0
906 4 28.776 26.9775 23.3805 0 0 0
1515 4 19.7835 7.194 30.5745 0 0 0
2504 4 12.5895 26.9775 17.985 0 0 0
3889 4 0.0 14.388 14.388 0 0 0
2183 4 16.1865 32.373 19.7835 0 0 0
366 4 32.373 16.1865 5.3955 0 0 0
3263 4 5.3955 21.582 19.7835 0 0 0
274 4 32.373 5.3955 30.5745 0 0 0
3713 4 3.597 25.179 28.776 0 0 0
2113 4 17.985 25.179 28.776 0 0 0
35 4 34.1715 3.597 26.9775 0 0 0
2839 4 8.9925 17.985 34.1715 0 0 0
957 4 28.776 28.776 32.373 0 0 0
467 4 30.5745 21.582 23.3805 0 0 0
1940 4 16.1865 12.5895 14.388 0 0 0
620 4 26.9775 1.7985 14.388 0 0 0
707 4 26.9775 7.194 23.3805 0 0 0
3078 4 7.194 5.3955 34.1715 0 0 0
3895 4 0.0 14.388 25.179 0 0 0
737 4 28.776 10.791 14.388 0 0 0
2949 4 10.791 28.776 25.179 0 0 0
3471 4 1.7985 3.597 26.9775 0 0 0
1330 4 25.179 30.5745 8.9925 0 0 0
3760 4 1.7985 30.5745 32.373 0 0 0
3626 4 3.597 19.7835 23.3805 0 0 0
3180 4 5.3955 16.1865 14.388 0 0 0
558 4 32.373 30.5745 34.1715 0 0 0
1817 4 17.985 0.0 14.388 0 0 0
894 4 28.776 26.9775 12.5895 0 0 0
2348 4 12.5895 12.5895 21.582 0 0 0
3247 4 5.3955 21.582 5.3955 0 0 0
1008 4 23.3805 1.7985 3.597 0 0 0
414 4 32.373 19.7835 12.5895 0 0 0
3535 4 1.7985 10.791 12.5895 0 0 0
2053 4 17.985 21.582 10.791 0 0 0
724 4 26.9775 12.5895 0.0 0 0 0
2255 4 12.5895 3.597 12.5895 0 0 0
2218 4 14.388 1.7985 16.1865 0 0 0
3448 4 1.7985 5.3955 3.597 0 0 0
1275 4 23.3805 21.582 30.5745 0 0 0
3778 4 3.597 34.1715 16.1865 0 0 0
304 4 30.5745 8.9925 17.985 0 0 0
2023 4 16.1865 17.985 19.7835 0 0 0
3379 4 5.3955 32.373 16.1865 0 0 0
336 4 30.5745 12.5895 10.791 0 0 0
241 4 32.373 3.597 0.0 0 0 0
3306 4 7.194 26.9775 23.3805 0 0 0
81 4 34.1715 14.388 1.7985 0 0 0
2343 4 12.5895 10.791 19.7835 0 0 0
1591 4 19.7835 14.388 26.9775 0 0 0
1722 4 21.582 30.5745 1.7985 0 0 0
1409 4 21.582 0.0 7.194 0 0 0
2538 4 14.388 30.5745 16.1865 0 0 0
3126 4 7.194 12.5895 5.3955 0 0 0
2102 4 17.985 26.9775 19.7835 0 0 0
2080 4 16.1865 23.3805 32.373 0 0 0
3453 4 3.597 3.597 10.791 0 0 0
1844 4 16.1865 5.3955 0.0 0 0 0
1576 4 19.7835 16.1865 10.791 0 0 0
1666 4 21.582 23.3805 23.3805 0 0 0
1492 4 19.7835 8.9925 7.194 0 0 0
345 4 32.373 10.791 21.582 0 0 0
865 4 28.776 21.582 21.582 0 0 0
497 4 32.373 25.179 14.388 0 0 0
2858 4 10.791 23.3805 16.1865 0 0 0
3574 4 3.597 16.1865 12.5895 0 0 0
1625 4 21.582 17.985 21.582 0 0 0
1235 4 23.3805 17.985 30.5745 0 0 0
3070 4 7.194 5.3955 26.9775 0 0 0
2509 4 14.388 25.179 25.179 0 0 0
2147 4 16.1865 28.776 23.3805 0 0 0
2907 4 8.9925 25.179 23.3805 0 0 0
1368 4 23.3805 34.1715 3.597 0 0 0
2830 4 10.791 19.7835 26.9775 0 0 0
1956 4 16.1865 12.5895 28.776 0 0 0
3655 4 1.7985 21.582 12.5895 0 0 0
3515 4 1.7985 7.194 30.5745 0 0 0
3336 4 5.3955 30.5745 10.791 0 0 0
2379 4 12.5895 14.388 16.1865 0 0 0
2999 4 8.9925 32.373 34.1715 0 0 0
2028 4 16.1865 19.7835 21.582 0 0 0
3212 4 5.3955 19.7835 7.194 0 0 0
3480 4 1.7985 5.3955 32.373 0 0 0
3359 4 5.3955 28.776 34.1715 0 0 0
800 4 26.9775 16.1865 32.373 0 0 0
3773 4 3.597 32.373 10.791 0 0 0
1599 4 19.7835 14.388 34.1715 0 0 0
1149 4 25.179 10.791 25.179 0 0 0
2733 4 10.791 10.791 10.791 0 0 0
2542 4 14.388 30.5745 19.7835 0 0 0
3781 4 3.597 32.373 17.985 0 0 0
1997 4 17.985 14.388 32.373 0 0 0
2311 4 12.5895 7.194 26.9775 0 0 0
11 4 34.1715 0.0 19.7835 0 0 0
43 4 34.1715 7.194 5.3955 0 0 0
1320 4 23.3805 26.9775 32.373 0 0 0
495 4 30.5745 25.179 12.5895 0 0 0
3373 4 7.194 32.373 10.791 0 0 0
1019 4 23.3805 0.0 16.1865 0 0 0
1332 4 23.3805 30.5745 7.194 0 0 0
3578 4 3.597 16.1865 16.1865 0 0 0
1973 4 17.985 14.388 10.791 0 0 0
3388 4 5.3955 34.1715 21.582 0 0 0
184 4 34.1715 34.1715 3.597 0 0 0
1293 4 25.179 25.179 10.791 0 0 0
827 4 26.9775 17.985 23.3805 0 0 0
3943 4 0.0 25.179 3.597 0 0 0
3154 4 7.194 12.5895 30.5745 0 0 0
2152 4 16.1865 30.5745 25.179 0 0 0
3403 4 1.7985 0.0 1.7985 0 0 0
3894 4 0.0 16.1865 23.3805 0 0 0
1386 4 25.179 34.1715 23.3805 0 0 0
1776 4 19.7835 34.1715 10.791 0 0 0
3220 4 5.3955 19.7835 14.388 0 0 0
2200 4 16.1865 34.1715 32.373 0 0 0
1406 4 21.582 1.7985 5.3955 0 0 0
1843 4 16.1865 3.597 1.7985 0 0 0
3568 4 1.7985 16.1865 3.597 0 0 0
1369 4 25.179 32.373 7.194 0 0 0
2721 4 10.791 10.791 0.0 0 0 0
663 4 26.9775 3.597 19.7835 0 0 0
2994 4 10.791 34.1715 30.5745 0 0 0
1241 4 25.179 21.582 0.0 0 0 0
3294 4 7.194 26.9775 12.5895 0 0 0
1461 4 21.582 3.597 17.985 0 0 0
3054 4 7.194 5.3955 12.5895 0 0 0
3608 4 1.7985 19.7835 3.597 0 0 0
318 4 32.373 8.9925 34.1715 0 0 0
1934 4 17.985 12.5895 12.5895 0 0 0
3696 4 1.7985 26.9775 10.791 0 0 0
2935 4 8.9925 28.776 12.5895 0 0 0
3030 4 7.194 1.7985 26.9775 0 0 0
1559 4 19.7835 10.791 34.1715 0 0 0
2071 4 16.1865 21.582 26.9775 0 0 0
2434 4 14.388 19.7835 30.5745 0 0 0
3953 4 0.0 25.179 21.582 0 0 0
2643 4 8.9925 3.597 1.7985 0 0 0
1694 4 21.582 26.9775 12.5895 0 0 0
1336 4 23.3805 30.5745 10.791 0 0 0
3785 4 3.597 32.373 21.582 0 0 0
314 4 32.373 8.9925 30.5745 0 0 0
3815 4 0.0 0.0 25.179 0 0 0
1407 4 19.7835 0.0 5.3955 0 0 0
826 4 28.776 19.7835 23.3805 0 0 0
2410 4 14.388 19.7835 8.9925 0 0 0
1777 4 21.582 32.373 14.388 0 0 0
2931 4 8.9925 28.776 8.9925 0 0 0
2548 4 12.5895 30.5745 21.582 0 0 0
2635 4 8.9925 0.0 30.5745 0 0 0
2310 4 14.388 8.9925 26.9775 0 0 0
1907 4 16.1865 7.194 23.3805 0 0 0
1765 4 21.582 32.373 3.597 0 0 0
2849 4 10.791 21.582 7.194 0 0 0
3242 4 7.194 23.3805 1.7985 0 0 0
3037 4 7.194 0.0 32.373 0 0 0
934 4 28.776 30.5745 12.5895 0 0 0
1749 4 21.582 28.776 25.179 0 0 0
1911 4 16.1865 7.194 26.9775 0 0 0
150 4 34.1715 26.9775 14.388 0 0 0
523 4 30.5745 28.776 1.7985 0 0 0
2165 4 17.985 32.373 3.597 0 0 0
2093 4 17.985 25.179 10.791 0 0 0
3792 4 1.7985 34.1715 25.179 0 0 0
3407 4 1.7985 0.0 5.3955 0 0 0
870 4 28.776 23.3805 26.9775 0 0 0
3603 4 1.7985 17.985 1.7985 0 0 0
2594 4 14.388 34.1715 30.5745 0 0 0
2013 4 17.985 17.985 10.791 0 0 0
1652 4 19.7835 23.3805 7.194 0 0 0
3848 4 0.0 8.9925 12.5895 0 0 0
2563 4 12.5895 32.373 1.7985 0 0 0
1444 4 19.7835 5.3955 0.0 0 0 0
812 4 26.9775 19.7835 7.194 0 0 0
1261 4 25.179 21.582 17.985 0 0 0
2471 4 12.5895 21.582 26.9775 0 0 0
1779 4 19.7835 32.373 16.1865 0 0 0
440 4 30.5745 19.7835 32.373 0 0 0
2050 4 17.985 23.3805 8.9925 0 0 0
1621 4 21.582 17.985 17.985 0 0 0
2503 4 12.5895 25.179 19.7835 0 0 0
281 4 32.373 7.194 0.0 0 0 0
1016 4 23.3805 1.7985 10.791 0 0 0
3935 4 0.0 21.582 25.179 0 0 0
2558 4 14.388 30.5745 34.1715 0 0 0
1068 4 23.3805 5.3955 21.582 0 0 0
1919 4 16.1865 7.194 34.1715 0 0 0
3720 4 1.7985 26.9775 32.373 0 0 0
2901 4 10.791 25.179 17.985 0 0 0
3475 4 1.7985 3.597 30.5745 0 0 0
617 4 28.776 0.0 14.388 0 0 0
757 4 28.776 10.791 32.373 0 0 0
384 4 30.5745 16.1865 17.985 0 0 0
3349 4 7.194 28.776 25.179 0 0 0
3570 4 3.597 16.1865 8.9925 0 0 0
3847 4 0.0 7.194 10.791 0 0 0
437 4 32.373 17.985 32.373 0 0 0
2044 4 16.1865 23.3805 0.0 0 0 0
1754 4 21.582 30.5745 30.5745 0 0 0
3910 4 0.0 19.7835 16.1865 0 0 0
2046 4 17.985 23.3805 5.3955 0 0 0
1664 4 19.7835 23.3805 17.985 0 0 0
668 4 26.9775 5.3955 21.582 0 0 0
1835 4 16.1865 0.0 30.5745 0 0 0
2817 4 10.791 17.985 14.388 0 0 0
1202 4 25.179 19.7835 1.7985 0 0 0
2418 4 14.388 19.7835 16.1865 0 0 0
1978 4 17.985 16.1865 16.1865 0 0 0
2972 4 8.9925 34.1715 7.194 0 0 0
2666 4 10.791 5.3955 23.3805 0 0 0
3311 4 5.3955 25.179 26.9775 0 0 0
942 4 28.776 30.5745 19.7835 0 0 0
3340 4 5.3955 30.5745 14.388 0 0 0
3689 4 3.597 25.179 7.194 0 0 0
3779 4 1.7985 32.373 16.1865 0 0 0
2246 4 14.388 5.3955 5.3955 0 0 0
2806 4 10.791 19.7835 5.3955 0 0 0
2138 4 17.985 30.5745 16.1865 0 0 0
3372 4 5.3955 34.1715 7.194 0 0 0
337 4 32.373 10.791 14.388 0 0 0
2832 4 8.9925 19.7835 25.179 0 0 0
3033 4 7.194 0.0 28.776 0 0 0
1257 4 25.179 21.582 14.388 0 0 0
493 4 32.373 25.179 10.791 0 0 0
1727 4 19.7835 28.776 5.3955 0 0 0
2895 4 8.9925 25.179 12.5895 0 0 0
2412 4 12.5895 19.7835 7.194 0 0 0
1649 4 21.582 21.582 7.194 0 0 0
1303 4 23.3805 25.179 19.7835 0 0 0
2843 4 8.9925 21.582 1.7985 0 0 0
1396 4 23.3805 34.1715 28.776 0 0 0
3517 4 3.597 7.194 32.373 0 0 0
2111 4 16.1865 25.179 26.9775 0 0 0
3130 4 7.194 12.5895 8.9925 0 0 0
405 4 32.373 17.985 3.597 0 0 0
1563 4 19.7835 14.388 1.7985 0 0 0
853 4 28.776 21.582 10.791 0 0 0
3145 4 7.194 10.791 21.582 0 0 0
2109 4 17.985 25.179 25.179 0 0 0
1550 4 21.582 12.5895 26.9775 0 0 0
1743 4 19.7835 28.776 19.7835 0 0 0
1744 4 19.7835 30.5745 17.985 0 0 0
282 4 32.373 8.9925 1.7985 0 0 0
3791 4 1.7985 32.373 26.9775 0 0 0
3843 4 0.0 7.194 3.597 0 0 0
3647 4 1.7985 21.582 5.3955 0 0 0
1426 4 21.582 1.7985 23.3805 0 0 0
1348 4 23.3805 30.5745 21.582 0 0 0
3871 4 0.0 10.791 17.985 0 0 0
73 4 34.1715 10.791 23.3805 0 0 0
1582 4 21.582 16.1865 19.7835 0 0 0
986 4 28.776 34.1715 23.3805 0 0 0
236 4 30.5745 1.7985 28.776 0 0 0
3643 4 1.7985 21.582 1.7985 0 0 0
3034 4 7.194 1.7985 30.5745 0 0 0
2248 4 12.5895 5.3955 3.597 0 0 0
2446 4 14.388 23.3805 5.3955 0 0 0
156 4 34.1715 26.9775 25.179 0 0 0
956 4 26.9775 30.5745 28.776 0 0 0
3298 4 7.194 26.9775 16.1865 0 0 0
3777 4 3.597 32.373 14.388 0 0 0
2318 4 14.388 8.9925 34.1715 0 0 0
1362 4 25.179 34.1715 1.7985 0 0 0
354 4 32.373 12.5895 30.5745 0 0 0
2695 4 8.9925 7.194 12.5895 0 0 0
561 4 32.373 32.373 0.0 0 0 0
161 4 34.1715 28.776 1.7985 0 0 0
994 4 28.776 34.1715 30.5745 0 0 0
625 4 28.776 0.0 21.582 0 0 0
2096 4 16.1865 26.9775 10.791 0 0 0
2122 4 17.985 30.5745 1.7985 0 0 0
1869 4 17.985 3.597 25.179 0 0 0
3304 4 5.3955 26.9775 17.985 0 0 0
2737 4 10.791 10.791 14.388 0 0 0
3514 4 3.597 8.9925 30.5745 0 0 0
107 4 34.1715 17.985 12.5895 0 0 0
2680 4 8.9925 5.3955 32.373 0 0 0
303 4 30.5745 7.194 19.7835 0 0 0
1707 4 19.7835 25.179 23.3805 0 0 0
2208 4 12.5895 1.7985 3.597 0 0 0
416 4 30.5745 19.7835 10.791 0 0 0
1951 4 16.1865 10.791 26.9775 0 0 0
1936 4 16.1865 12.5895 10.791 0 0 0
3077 4 7.194 3.597 32.373 0 0 0
3240 4 5.3955 19.7835 32.373 0 0 0
1194 4 25.179 16.1865 30.5745 0 0 0
1767 4 19.7835 32.373 5.3955 0 0 0
623 4 26.9775 0.0 19.7835 0 0 0
3158 4 7.194 12.5895 34.1715 0 0 0
1466 4 21.582 5.3955 23.3805 0 0 0
1847 4 16.1865 3.597 5.3955 0 0 0
2180 4 16.1865 34.1715 14.388 0 0 0
1598 4 21.582 16.1865 34.1715 0 0 0
153 4 34.1715 25.179 23.3805 0 0 0
717 4 28.776 7.194 32.373 0 0 0
765 4 28.776 14.388 3.597 0 0 0
3166 4 7.194 16.1865 5.3955 0 0 0
685 4 28.776 7.194 3.597 0 0 0
2988 4 8.9925 34.1715 21.582 0 0 0
2891 4 8.9925 25.179 8.9925 0 0 0
3853 4 0.0 7.194 21.582 0 0 0
1225 4 25.179 17.985 21.582 0 0 0
3833 4 0.0 3.597 21.582 0 0 0
2054 4 17.985 23.3805 12.5895 0 0 0
1721 4 21.582 28.776 0.0 0 0 0
2105 4 17.985 25.179 21.582 0 0 0
3484 4 1.7985 8.9925 0.0 0 0 0
725 4 28.776 10.791 3.597 0 0 0
2878 4 10.791 23.3805 34.1715 0 0 0
590 4 32.373 34.1715 26.9775 0 0 0
824 4 26.9775 19.7835 17.985 0 0 0
1519 4 19.7835 7.194 34.1715 0 0 0
1711 4 19.7835 25.179 26.9775 0 0 0
86 4 34.1715 16.1865 7.194 0 0 0
3005 4 7.194 0.0 3.597 0 0 0
856 4 26.9775 23.3805 10.791 0 0 0
1567 4 19.7835 14.388 5.3955 0 0 0
264 4 30.5745 5.3955 17.985 0 0 0
2765 4 10.791 14.388 3.597 0 0 0
3354 4 7.194 30.5745 30.5745 0 0 0
331 4 30.5745 10.791 8.9925 0 0 0
378 4 32.373 16.1865 16.1865 0 0 0
704 4 26.9775 8.9925 17.985 0 0 0
3481 4 3.597 7.194 0.0 0 0 0
2052 4 16.1865 23.3805 7.194 0 0 0
1952 4 16.1865 12.5895 25.179 0 0 0
3595 4 1.7985 14.388 30.5745 0 0 0
243 4 30.5745 3.597 1.7985 0 0 0
2565 4 14.388 32.373 3.597 0 0 0
3916 4 0.0 19.7835 26.9775 0 0 0
2219 4 12.5895 0.0 16.1865 0 0 0
49 4 34.1715 7.194 16.1865 0 0 0
3469 4 3.597 3.597 25.179 0 0 0
2551 4 12.5895 28.776 26.9775 0 0 0
2030 4 17.985 19.7835 26.9775 0 0 0
2331 4 12.5895 10.791 8.9925 0 0 0
15 4 34.1715 0.0 26.9775 0 0 0
947 4 26.9775 28.776 23.3805 0 0 0
10 5 34.1715 1.7985 14.388 0 0 0
31 5 34.1715 3.597 19.7835 0 0 0
32 5 34.1715 5.3955 17.985 0 0 0
33 5 34.1715 3.597 23.3805 0 0 0
38 5 34.1715 5.3955 28.776 0 0 0
40 5 34.1715 5.3955 32.373 0 0 0
59 5 34.1715 7.194 34.1715 0 0 0
62 5 34.1715 12.5895 0.0 0 0 0
63 5 34.1715 10.791 5.3955 0 0 0
64 5 34.1715 12.5895 3.597 0 0 0
77 5 34.1715 10.791 30.5745 0 0 0
84 5 34.1715 16.1865 3.597 0 0 0
91 5 34.1715 14.388 19.7835 0 0 0
95 5 34.1715 14.388 26.9775 0 0 0
106 5 34.1715 19.7835 7.194 0 0 0
112 5 34.1715 19.7835 17.985 0 0 0
118 5 34.1715 19.7835 28.776 0 0 0
123 5 34.1715 21.582 5.3955 0 0 0
126 5 34.1715 23.3805 7.194 0 0 0
127 5 34.1715 21.582 12.5895 0 0 0
128 5 34.1715 23.3805 10.791 0 0 0
129 5 34.1715 21.582 16.1865 0 0 0
130 5 34.1715 23.3805 14.388 0 0 0
131 5 34.1715 21.582 19.7835 0 0 0
152 5 34.1715 26.9775 17.985 0 0 0
158 5 34.1715 26.9775 28.776 0 0 0
166 5 34.1715 30.5745 7.194 0 0 0
168 5 34.1715 30.5745 10.791 0 0 0
170 5 34.1715 30.5745 14.388 0 0 0
179 5 34.1715 28.776 34.1715 0 0 0
189 5 34.1715 32.373 16.1865 0 0 0
190 5 34.1715 34.1715 14.388 0 0 0
192 5 34.1715 34.1715 17.985 0 0 0
193 5 34.1715 32.373 23.3805 0 0 0
197 5 34.1715 32.373 30.5745 0 0 0
198 5 34.1715 34.1715 28.776 0 0 0
201 5 32.373 0.0 0.0 0 0 0
202 5 32.373 1.7985 1.7985 0 0 0
207 5 30.5745 0.0 5.3955 0 0 0
211 5 30.5745 0.0 8.9925 0 0 0
212 5 30.5745 1.7985 7.194 0 0 0
220 5 30.5745 1.7985 14.388 0 0 0
223 5 30.5745 0.0 19.7835 0 0 0
224 5 30.5745 1.7985 17.985 0 0 0
238 5 32.373 1.7985 34.1715 0 0 0
245 5 32.373 3.597 3.597 0 0 0
246 5 32.373 5.3955 5.3955 0 0 0
251 5 30.5745 3.597 8.9925 0 0 0
252 5 30.5745 5.3955 7.194 0 0 0
257 5 32.373 3.597 14.388 0 0 0
258 5 32.373 5.3955 16.1865 0 0 0
261 5 32.373 3.597 17.985 0 0 0
262 5 32.373 5.3955 19.7835 0 0 0
263 5 30.5745 3.597 19.7835 0 0 0
272 5 30.5745 5.3955 25.179 0 0 0
273 5 32.373 3.597 28.776 0 0 0
277 5 32.373 3.597 32.373 0 0 0
288 5 30.5745 8.9925 3.597 0 0 0
289 5 32.373 7.194 7.194 0 0 0
293 5 32.373 7.194 10.791 0 0 0
296 5 30.5745 8.9925 10.791 0 0 0
298 5 32.373 8.9925 16.1865 0 0 0
301 5 32.373 7.194 17.985 0 0 0
305 5 32.373 7.194 21.582 0 0 0
309 5 32.373 7.194 25.179 0 0 0
321 5 32.373 10.791 0.0 0 0 0
329 5 32.373 10.791 7.194 0 0 0
338 5 32.373 12.5895 16.1865 0 0 0
339 5 30.5745 10.791 16.1865 0 0 0
342 5 32.373 12.5895 19.7835 0 0 0
343 5 30.5745 10.791 19.7835 0 0 0
346 5 32.373 12.5895 23.3805 0 0 0
361 5 32.373 14.388 0.0 0 0 0
363 5 30.5745 14.388 1.7985 0 0 0
365 5 32.373 14.388 3.597 0 0 0
367 5 30.5745 14.388 5.3955 0 0 0
368 5 30.5745 16.1865 3.597 0 0 0
371 5 30.5745 14.388 8.9925 0 0 0
372 5 30.5745 16.1865 7.194 0 0 0
374 5 32.373 16.1865 12.5895 0 0 0
376 5 30.5745 16.1865 10.791 0 0 0
382 5 32.373 16.1865 19.7835 0 0 0
387 5 30.5745 14.388 23.3805 0 0 0
391 5 30.5745 14.388 26.9775 0 0 0
398 5 32.373 16.1865 34.1715 0 0 0
399 5 30.5745 14.388 34.1715 0 0 0
406 5 32.373 19.7835 5.3955 0 0 0
407 5 30.5745 17.985 5.3955 0 0 0
413 5 32.373 17.985 10.791 0 0 0
419 5 30.5745 17.985 16.1865 0 0 0
420 5 30.5745 19.7835 14.388 0 0 0
424 5 30.5745 19.7835 17.985 0 0 0
430 5 32.373 19.7835 26.9775 0 0 0
438 5 32.373 19.7835 34.1715 0 0 0
439 5 30.5745 17.985 34.1715 0 0 0
445 5 32.373 21.582 3.597 0 0 0
446 5 32.373 23.3805 5.3955 0 0 0
447 5 30.5745 21.582 5.3955 0 0 0
449 5 32.373 21.582 7.194 0 0 0
451 5 30.5745 21.582 8.9925 0 0 0
455 5 30.5745 21.582 12.5895 0 0 0
461 5 32.373 21.582 17.985 0 0 0
464 5 30.5745 23.3805 17.985 0 0 0
474 5 32.373 23.3805 30.5745 0 0 0
478 5 32.373 23.3805 34.1715 0 0 0
485 5 32.373 25.179 3.597 0 0 0
491 5 30.5745 25.179 8.9925 0 0 0
499 5 30.5745 25.179 16.1865 0 0 0
505 5 32.373 25.179 21.582 0 0 0
516 5 30.5745 26.9775 28.776 0 0 0
517 5 32.373 25.179 32.373 0 0 0
518 5 32.373 26.9775 34.1715 0 0 0
521 5 32.373 28.776 0.0 0 0 0
525 5 32.373 28.776 3.597 0 0 0
529 5 32.373 28.776 7.194 0 0 0
536 5 30.5745 30.5745 10.791 0 0 0
539 5 30.5745 28.776 16.1865 0 0 0
545 5 32.373 28.776 21.582 0 0 0
548 5 30.5745 30.5745 21.582 0 0 0
549 5 32.373 28.776 25.179 0 0 0
555 5 30.5745 28.776 30.5745 0 0 0
557 5 32.373 28.776 32.373 0 0 0
560 5 30.5745 30.5745 32.373 0 0 0
563 5 30.5745 32.373 1.7985 0 0 0
564 5 30.5745 34.1715 0.0 0 0 0
566 5 32.373 34.1715 5.3955 0 0 0
574 5 32.373 34.1715 12.5895 0 0 0
575 5 30.5745 32.373 12.5895 0 0 0
583 5 30.5745 32.373 19.7835 0 0 0
587 5 30.5745 32.373 23.3805 0 0 0
598 5 32.373 34.1715 34.1715 0 0 0
602 5 28.776 1.7985 1.7985 0 0 0
608 5 26.9775 1.7985 3.597 0 0 0
612 5 26.9775 1.7985 7.194 0 0 0
616 5 26.9775 1.7985 10.791 0 0 0
622 5 28.776 1.7985 19.7835 0 0 0
628 5 26.9775 1.7985 21.582 0 0 0
632 5 26.9775 1.7985 25.179 0 0 0
641 5 28.776 3.597 0.0 0 0 0
645 5 28.776 3.597 3.597 0 0 0
648 5 26.9775 5.3955 3.597 0 0 0
650 5 28.776 5.3955 8.9925 0 0 0
651 5 26.9775 3.597 8.9925 0 0 0
655 5 26.9775 3.597 12.5895 0 0 0
662 5 28.776 5.3955 19.7835 0 0 0
667 5 26.9775 3.597 23.3805 0 0 0
672 5 26.9775 5.3955 25.179 0 0 0
674 5 28.776 5.3955 30.5745 0 0 0
687 5 26.9775 7.194 5.3955 0 0 0
696 5 26.9775 8.9925 10.791 0 0 0
698 5 28.776 8.9925 16.1865 0 0 0
703 5 26.9775 7.194 19.7835 0 0 0
709 5 28.776 7.194 25.179 0 0 0
710 5 28.776 8.9925 26.9775 0 0 0
711 5 26.9775 7.194 26.9775 0 0 0
712 5 26.9775 8.9925 25.179 0 0 0
714 5 28.776 8.9925 30.5745 0 0 0
716 5 26.9775 8.9925 28.776 0 0 0
723 5 26.9775 10.791 1.7985 0 0 0
727 5 26.9775 10.791 5.3955 0 0 0
731 5 26.9775 10.791 8.9925 0 0 0
732 5 26.9775 12.5895 7.194 0 0 0
738 5 28.776 12.5895 16.1865 0 0 0
742 5 28.776 12.5895 19.7835 0 0 0
752 5 26.9775 12.5895 25.179 0 0 0
755 5 26.9775 10.791 30.5745 0 0 0
763 5 26.9775 14.388 1.7985 0 0 0
766 5 28.776 16.1865 5.3955 0 0 0
769 5 28.776 14.388 7.194 0 0 0
772 5 26.9775 16.1865 7.194 0 0 0
773 5 28.776 14.388 10.791 0 0 0
779 5 26.9775 14.388 16.1865 0 0 0
781 5 28.776 14.388 17.985 0 0 0
787 5 26.9775 14.388 23.3805 0 0 0
790 5 28.776 16.1865 26.9775 0 0 0
793 5 28.776 14.388 28.776 0 0 0
795 5 26.9775 14.388 30.5745 0 0 0
799 5 26.9775 14.388 34.1715 0 0 0
804 5 26.9775 19.7835 0.0 0 0 0
808 5 26.9775 19.7835 3.597 0 0 0
815 5 26.9775 17.985 12.5895 0 0 0
816 5 26.9775 19.7835 10.791 0 0 0
817 5 28.776 17.985 14.388 0 0 0
820 5 26.9775 19.7835 14.388 0 0 0
821 5 28.776 17.985 17.985 0 0 0
822 5 28.776 19.7835 19.7835 0 0 0
825 5 28.776 17.985 21.582 0 0 0
829 5 28.776 17.985 25.179 0 0 0
836 5 26.9775 19.7835 28.776 0 0 0
841 5 28.776 21.582 0.0 0 0 0
842 5 28.776 23.3805 1.7985 0 0 0
844 5 26.9775 23.3805 0.0 0 0 0
848 5 26.9775 23.3805 3.597 0 0 0
850 5 28.776 23.3805 8.9925 0 0 0
852 5 26.9775 23.3805 7.194 0 0 0
857 5 28.776 21.582 14.388 0 0 0
862 5 28.776 23.3805 19.7835 0 0 0
876 5 26.9775 23.3805 28.776 0 0 0
878 5 28.776 23.3805 34.1715 0 0 0
879 5 26.9775 21.582 34.1715 0 0 0
880 5 26.9775 23.3805 32.373 0 0 0
881 5 28.776 25.179 0.0 0 0 0
887 5 26.9775 25.179 5.3955 0 0 0
892 5 26.9775 26.9775 7.194 0 0 0
904 5 26.9775 26.9775 17.985 0 0 0
908 5 26.9775 26.9775 21.582 0 0 0
913 5 28.776 25.179 28.776 0 0 0
914 5 28.776 26.9775 30.5745 0 0 0
917 5 28.776 25.179 32.373 0 0 0
922 5 28.776 30.5745 1.7985 0 0 0
925 5 28.776 28.776 3.597 0 0 0
929 5 28.776 28.776 7.194 0 0 0
936 5 26.9775 30.5745 10.791 0 0 0
937 5 28.776 28.776 14.388 0 0 0
940 5 26.9775 30.5745 14.388 0 0 0
941 5 28.776 28.776 17.985 0 0 0
944 5 26.9775 30.5745 17.985 0 0 0
948 5 26.9775 30.5745 21.582 0 0 0
950 5 28.776 30.5745 26.9775 0 0 0
953 5 28.776 28.776 28.776 0 0 0
954 5 28.776 30.5745 30.5745 0 0 0
962 5 28.776 34.1715 1.7985 0 0 0
964 5 26.9775 34.1715 0.0 0 0 0
966 5 28.776 34.1715 5.3955 0 0 0
980 5 26.9775 34.1715 14.388 0 0 0
982 5 28.776 34.1715 19.7835 0 0 0
985 5 28.776 32.373 21.582 0 0 0
987 5 26.9775 32.373 23.3805 0 0 0
988 5 26.9775 34.1715 21.582 0 0 0
995 5 26.9775 32.373 30.5745 0 0 0
996 5 26.9775 34.1715 28.776 0 0 0
997 5 28.776 32.373 32.373 0 0 0
1001 5 25.179 0.0 0.0 0 0 0
1005 5 25.179 0.0 3.597 0 0 0
1006 5 25.179 1.7985 5.3955 0 0 0
1021 5 25.179 0.0 17.985 0 0 0
1022 5 25.179 1.7985 19.7835 0 0 0
1027 5 23.3805 0.0 23.3805 0 0 0
1037 5 25.179 0.0 32.373 0 0 0
1048 5 23.3805 5.3955 3.597 0 0 0
1051 5 23.3805 3.597 8.9925 0 0 0
1056 5 23.3805 5.3955 10.791 0 0 0
1057 5 25.179 3.597 14.388 0 0 0
1061 5 25.179 3.597 17.985 0 0 0
1067 5 23.3805 3.597 23.3805 0 0 0
1071 5 23.3805 3.597 26.9775 0 0 0
1072 5 23.3805 5.3955 25.179 0 0 0
1074 5 25.179 5.3955 30.5745 0 0 0
1076 5 23.3805 5.3955 28.776 0 0 0
1077 5 25.179 3.597 32.373 0 0 0
1084 5 23.3805 8.9925 0.0 0 0 0
1086 5 25.179 8.9925 5.3955 0 0 0
1090 5 25.179 8.9925 8.9925 0 0 0
1100 5 23.3805 8.9925 14.388 0 0 0
1111 5 23.3805 7.194 26.9775 0 0 0
1118 5 25.179 8.9925 34.1715 0 0 0
1123 5 23.3805 10.791 1.7985 0 0 0
1125 5 25.179 10.791 3.597 0 0 0
1127 5 23.3805 10.791 5.3955 0 0 0
1131 5 23.3805 10.791 8.9925 0 0 0
1134 5 25.179 12.5895 12.5895 0 0 0
1137 5 25.179 10.791 14.388 0 0 0
1154 5 25.179 12.5895 30.5745 0 0 0
1159 5 23.3805 10.791 34.1715 0 0 0
1160 5 23.3805 12.5895 32.373 0 0 0
1165 5 25.179 14.388 3.597 0 0 0
1167 5 23.3805 14.388 5.3955 0 0 0
1170 5 25.179 16.1865 8.9925 0 0 0
1172 5 23.3805 16.1865 7.194 0 0 0
1178 5 25.179 16.1865 16.1865 0 0 0
1179 5 23.3805 14.388 16.1865 0 0 0
1181 5 25.179 14.388 17.985 0 0 0
1201 5 25.179 17.985 0.0 0 0 0
1205 5 25.179 17.985 3.597 0 0 0
1206 5 25.179 19.7835 5.3955 0 0 0
1207 5 23.3805 17.985 5.3955 0 0 0
1208 5 23.3805 19.7835 3.597 0 0 0
1212 5 23.3805 19.7835 7.194 0 0 0
1214 5 25.179 19.7835 12.5895 0 0 0
1215 5 23.3805 17.985 12.5895 0 0 0
1216 5 23.3805 19.7835 10.791 0 0 0
1218 5 25.179 19.7835 16.1865 0 0 0
1226 5 25.179 19.7835 23.3805 0 0 0
1239 5 23.3805 17.985 34.1715 0 0 0
1249 5 25.179 21.582 7.194 0 0 0
1250 5 25.179 23.3805 8.9925 0 0 0
1254 5 25.179 23.3805 12.5895 0 0 0
1269 5 25.179 21.582 25.179 0 0 0
1277 5 25.179 21.582 32.373 0 0 0
1281 5 25.179 25.179 0.0 0 0 0
1282 5 25.179 26.9775 1.7985 0 0 0
1289 5 25.179 25.179 7.194 0 0 0
1291 5 23.3805 25.179 8.9925 0 0 0
1295 5 23.3805 25.179 12.5895 0 0 0
1298 5 25.179 26.9775 16.1865 0 0 0
1304 5 23.3805 26.9775 17.985 0 0 0
1305 5 25.179 25.179 21.582 0 0 0
1312 5 23.3805 26.9775 25.179 0 0 0
1313 5 25.179 25.179 28.776 0 0 0
1317 5 25.179 25.179 32.373 0 0 0
1318 5 25.179 26.9775 34.1715 0 0 0
1319 5 23.3805 25.179 34.1715 0 0 0
1322 5 25.179 30.5745 1.7985 0 0 0
1325 5 25.179 28.776 3.597 0 0 0
1334 5 25.179 30.5745 12.5895 0 0 0
1338 5 25.179 30.5745 16.1865 0 0 0
1342 5 25.179 30.5745 19.7835 0 0 0
1349 5 25.179 28.776 25.179 0 0 0
1352 5 23.3805 30.5745 25.179 0 0 0
1353 5 25.179 28.776 28.776 0 0 0
1355 5 23.3805 28.776 30.5745 0 0 0
1359 5 23.3805 28.776 34.1715 0 0 0
1376 5 23.3805 34.1715 10.791 0 0 0
1379 5 23.3805 32.373 16.1865 0 0 0
1383 5 23.3805 32.373 19.7835 0 0 0
1385 5 25.179 32.373 21.582 0 0 0
1389 5 25.179 32.373 25.179 0 0 0
1391 5 23.3805 32.373 26.9775 0 0 0
1403 5 19.7835 0.0 1.7985 0 0 0
1418 5 21.582 1.7985 16.1865 0 0 0
1422 5 21.582 1.7985 19.7835 0 0 0
1428 5 19.7835 1.7985 21.582 0 0 0
1431 5 19.7835 0.0 26.9775 0 0 0
1437 5 21.582 0.0 32.373 0 0 0
1438 5 21.582 1.7985 34.1715 0 0 0
1443 5 19.7835 3.597 1.7985 0 0 0
1451 5 19.7835 3.597 8.9925 0 0 0
1452 5 19.7835 5.3955 7.194 0 0 0
1459 5 19.7835 3.597 16.1865 0 0 0
1467 5 19.7835 3.597 23.3805 0 0 0
1469 5 21.582 3.597 25.179 0 0 0
1470 5 21.582 5.3955 26.9775 0 0 0
1476 5 19.7835 5.3955 28.776 0 0 0
1481 5 21.582 7.194 0.0 0 0 0
1482 5 21.582 8.9925 1.7985 0 0 0
1484 5 19.7835 8.9925 0.0 0 0 0
1485 5 21.582 7.194 3.597 0 0 0
1493 5 21.582 7.194 10.791 0 0 0
1506 5 21.582 8.9925 23.3805 0 0 0
1508 5 19.7835 8.9925 21.582 0 0 0
1512 5 19.7835 8.9925 25.179 0 0 0
1513 5 21.582 7.194 28.776 0 0 0
1517 5 21.582 7.194 32.373 0 0 0
1530 5 21.582 12.5895 8.9925 0 0 0
1534 5 21.582 12.5895 12.5895 0 0 0
1535 5 19.7835 10.791 12.5895 0 0 0
1536 5 19.7835 12.5895 10.791 0 0 0
1541 5 21.582 10.791 17.985 0 0 0
1552 5 19.7835 12.5895 25.179 0 0 0
1554 5 21.582 12.5895 30.5745 0 0 0
1555 5 19.7835 10.791 30.5745 0 0 0
1561 5 21.582 14.388 0.0 0 0 0
1562 5 21.582 16.1865 1.7985 0 0 0
1565 5 21.582 14.388 3.597 0 0 0
1573 5 21.582 14.388 10.791 0 0 0
1585 5 21.582 14.388 21.582 0 0 0
1586 5 21.582 16.1865 23.3805 0 0 0
1593 5 21.582 14.388 28.776 0 0 0
1597 5 21.582 14.388 32.373 0 0 0
1600 5 19.7835 16.1865 32.373 0 0 0
1610 5 21.582 19.7835 8.9925 0 0 0
1611 5 19.7835 17.985 8.9925 0 0 0
1614 5 21.582 19.7835 12.5895 0 0 0
1622 5 21.582 19.7835 19.7835 0 0 0
1624 5 19.7835 19.7835 17.985 0 0 0
1627 5 19.7835 17.985 23.3805 0 0 0
1630 5 21.582 19.7835 26.9775 0 0 0
1633 5 21.582 17.985 28.776 0 0 0
1635 5 19.7835 17.985 30.5745 0 0 0
1637 5 21.582 17.985 32.373 0 0 0
1641 5 21.582 21.582 0.0 0 0 0
1648 5 19.7835 23.3805 3.597 0 0 0
1653 5 21.582 21.582 10.791 0 0 0
1663 5 19.7835 21.582 19.7835 0 0 0
1670 5 21.582 23.3805 26.9775 0 0 0
1672 5 19.7835 23.3805 25.179 0 0 0
1674 5 21.582 23.3805 30.5745 0 0 0
1678 5 21.582 23.3805 34.1715 0 0 0
1680 5 19.7835 23.3805 32.373 0 0 0
1695 5 19.7835 25.179 12.5895 0 0 0
1702 5 21.582 26.9775 19.7835 0 0 0
1712 5 19.7835 26.9775 25.179 0 0 0
1715 5 19.7835 25.179 30.5745 0 0 0
1716 5 19.7835 26.9775 28.776 0 0 0
1719 5 19.7835 25.179 34.1715 0 0 0
1724 5 19.7835 30.5745 0.0 0 0 0
1725 5 21.582 28.776 3.597 0 0 0
1728 5 19.7835 30.5745 3.597 0 0 0
1733 5 21.582 28.776 10.791 0 0 0
1735 5 19.7835 28.776 12.5895 0 0 0
1741 5 21.582 28.776 17.985 0 0 0
1745 5 21.582 28.776 21.582 0 0 0
1748 5 19.7835 30.5745 21.582 0 0 0
1751 5 19.7835 28.776 26.9775 0 0 0
1757 5 21.582 28.776 32.373 0 0 0
1758 5 21.582 30.5745 34.1715 0 0 0
1766 5 21.582 34.1715 5.3955 0 0 0
1768 5 19.7835 34.1715 3.597 0 0 0
1773 5 21.582 32.373 10.791 0 0 0
1775 5 19.7835 32.373 12.5895 0 0 0
1787 5 19.7835 32.373 23.3805 0 0 0
1788 5 19.7835 34.1715 21.582 0 0 0
1791 5 19.7835 32.373 26.9775 0 0 0
1796 5 19.7835 34.1715 28.776 0 0 0
1800 5 19.7835 34.1715 32.373 0 0 0
1801 5 17.985 0.0 0.0 0 0 0
1802 5 17.985 1.7985 1.7985 0 0 0
1806 5 17.985 1.7985 5.3955 0 0 0
1807 5 16.1865 0.0 5.3955 0 0 0
1809 5 17.985 0.0 7.194 0 0 0
1814 5 17.985 1.7985 12.5895 0 0 0
1820 5 16.1865 1.7985 14.388 0 0 0
1822 5 17.985 1.7985 19.7835 0 0 0
1826 5 17.985 1.7985 23.3805 0 0 0
1828 5 16.1865 1.7985 21.582 0 0 0
1829 5 17.985 0.0 25.179 0 0 0
1831 5 16.1865 0.0 26.9775 0 0 0
1834 5 17.985 1.7985 30.5745 0 0 0
1837 5 17.985 0.0 32.373 0 0 0
1848 5 16.1865 5.3955 3.597 0 0 0
1851 5 16.1865 3.597 8.9925 0 0 0
1854 5 17.985 5.3955 12.5895 0 0 0
1855 5 16.1865 3.597 12.5895 0 0 0
1857 5 17.985 3.597 14.388 0 0 0
1865 5 17.985 3.597 21.582 0 0 0
1866 5 17.985 5.3955 23.3805 0 0 0
1868 5 16.1865 5.3955 21.582 0 0 0
1870 5 17.985 5.3955 26.9775 0 0 0
1871 5 16.1865 3.597 26.9775 0 0 0
1873 5 17.985 3.597 28.776 0 0 0
1875 5 16.1865 3.597 30.5745 0 0 0
1877 5 17.985 3.597 32.373 0 0 0
1888 5 16.1865 8.9925 3.597 0 0 0
1890 5 17.985 8.9925 8.9925 0 0 0
1893 5 17.985 7.194 10.791 0 0 0
1899 5 16.1865 7.194 16.1865 0 0 0
1900 5 16.1865 8.9925 14.388 0 0 0
1930 5 17.985 12.5895 8.9925 0 0 0
1932 5 16.1865 12.5895 7.194 0 0 0
1946 5 17.985 12.5895 23.3805 0 0 0
1955 5 16.1865 10.791 30.5745 0 0 0
1961 5 17.985 14.388 0.0 0 0 0
1962 5 17.985 16.1865 1.7985 0 0 0
1963 5 16.1865 14.388 1.7985 0 0 0
1966 5 17.985 16.1865 5.3955 0 0 0
1970 5 17.985 16.1865 8.9925 0 0 0
1975 5 16.1865 14.388 12.5895 0 0 0
1977 5 17.985 14.388 14.388 0 0 0
1980 5 16.1865 16.1865 14.388 0 0 0
1981 5 17.985 14.388 17.985 0 0 0
1985 5 17.985 14.388 21.582 0 0 0
1991 5 16.1865 14.388 26.9775 0 0 0
1992 5 16.1865 16.1865 25.179 0 0 0
1993 5 17.985 14.388 28.776 0 0 0
1998 5 17.985 16.1865 34.1715 0 0 0
2004 5 16.1865 19.7835 0.0 0 0 0
2006 5 17.985 19.7835 5.3955 0 0 0
2025 5 17.985 17.985 21.582 0 0 0
2027 5 16.1865 17.985 23.3805 0 0 0
2041 5 17.985 21.582 0.0 0 0 0
2045 5 17.985 21.582 3.597 0 0 0
2049 5 17.985 21.582 7.194 0 0 0
2061 5 17.985 21.582 17.985 0 0 0
2075 5 16.1865 21.582 30.5745 0 0 0
2078 5 17.985 23.3805 34.1715 0 0 0
2083 5 16.1865 25.179 1.7985 0 0 0
2087 5 16.1865 25.179 5.3955 0 0 0
2098 5 17.985 26.9775 16.1865 0 0 0
2118 5 17.985 26.9775 34.1715 0 0 0
2123 5 16.1865 28.776 1.7985 0 0 0
2127 5 16.1865 28.776 5.3955 0 0 0
2128 5 16.1865 30.5745 3.597 0 0 0
2134 5 17.985 30.5745 12.5895 0 0 0
2136 5 16.1865 30.5745 10.791 0 0 0
2143 5 16.1865 28.776 19.7835 0 0 0
2150 5 17.985 30.5745 26.9775 0 0 0
2154 5 17.985 30.5745 30.5745 0 0 0
2162 5 17.985 34.1715 1.7985 0 0 0
2174 5 17.985 34.1715 12.5895 0 0 0
2181 5 17.985 32.373 17.985 0 0 0
2187 5 16.1865 32.373 23.3805 0 0 0
2189 5 17.985 32.373 25.179 0 0 0
2190 5 17.985 34.1715 26.9775 0 0 0
2193 5 17.985 32.373 28.776 0 0 0
2197 5 17.985 32.373 32.373 0 0 0
2199 5 16.1865 32.373 34.1715 0 0 0
2211 5 12.5895 0.0 8.9925 0 0 0
2213 5 14.388 0.0 10.791 0 0 0
2214 5 14.388 1.7985 12.5895 0 0 0
2221 5 14.388 0.0 17.985 0 0 0
2223 5 12.5895 0.0 19.7835 0 0 0
2226 5 14.388 1.7985 23.3805 0 0 0
2227 5 12.5895 0.0 23.3805 0 0 0
2230 5 14.388 1.7985 26.9775 0 0 0
2243 5 12.5895 3.597 1.7985 0 0 0
2245 5 14.388 3.597 3.597 0 0 0
2252 5 12.5895 5.3955 7.194 0 0 0
2261 5 14.388 3.597 17.985 0 0 0
2264 5 12.5895 5.3955 17.985 0 0 0
2272 5 12.5895 5.3955 25.179 0 0 0
2273 5 14.388 3.597 28.776 0 0 0
2274 5 14.388 5.3955 30.5745 0 0 0
2279 5 12.5895 3.597 34.1715 0 0 0
2287 5 12.5895 7.194 5.3955 0 0 0
2291 5 12.5895 7.194 8.9925 0 0 0
2294 5 14.388 8.9925 12.5895 0 0 0
2298 5 14.388 8.9925 16.1865 0 0 0
2301 5 14.388 7.194 17.985 0 0 0
2308 5 12.5895 8.9925 21.582 0 0 0
2314 5 14.388 8.9925 30.5745 0 0 0
2320 5 12.5895 8.9925 32.373 0 0 0
2323 5 12.5895 10.791 1.7985 0 0 0
2326 5 14.388 12.5895 5.3955 0 0 0
2327 5 12.5895 10.791 5.3955 0 0 0
2328 5 12.5895 12.5895 3.597 0 0 0
2336 5 12.5895 12.5895 10.791 0 0 0
2340 5 12.5895 12.5895 14.388 0 0 0
2341 5 14.388 10.791 17.985 0 0 0
2349 5 14.388 10.791 25.179 0 0 0
2354 5 14.388 12.5895 30.5745 0 0 0
2361 5 14.388 14.388 0.0 0 0 0
2365 5 14.388 14.388 3.597 0 0 0
2372 5 12.5895 16.1865 7.194 0 0 0
2375 5 12.5895 14.388 12.5895 0 0 0
2377 5 14.388 14.388 14.388 0 0 0
2383 5 12.5895 14.388 19.7835 0 0 0
2385 5 14.388 14.388 21.582 0 0 0
2387 5 12.5895 14.388 23.3805 0 0 0
2391 5 12.5895 14.388 26.9775 0 0 0
2393 5 14.388 14.388 28.776 0 0 0
2396 5 12.5895 16.1865 28.776 0 0 0
2405 5 14.388 17.985 3.597 0 0 0
2413 5 14.388 17.985 10.791 0 0 0
2414 5 14.388 19.7835 12.5895 0 0 0
2424 5 12.5895 19.7835 17.985 0 0 0
2429 5 14.388 17.985 25.179 0 0 0
2431 5 12.5895 17.985 26.9775 0 0 0
2438 5 14.388 19.7835 34.1715 0 0 0
2441 5 14.388 21.582 0.0 0 0 0
2452 5 12.5895 23.3805 7.194 0 0 0
2454 5 14.388 23.3805 12.5895 0 0 0
2458 5 14.388 23.3805 16.1865 0 0 0
2463 5 12.5895 21.582 19.7835 0 0 0
2467 5 12.5895 21.582 23.3805 0 0 0
2472 5 12.5895 23.3805 25.179 0 0 0
2473 5 14.388 21.582 28.776 0 0 0
2474 5 14.388 23.3805 30.5745 0 0 0
2475 5 12.5895 21.582 30.5745 0 0 0
2483 5 12.5895 25.179 1.7985 0 0 0
2485 5 14.388 25.179 3.597 0 0 0
2493 5 14.388 25.179 10.791 0 0 0
2517 5 14.388 25.179 32.373 0 0 0
2519 5 12.5895 25.179 34.1715 0 0 0
2523 5 12.5895 28.776 1.7985 0 0 0
2527 5 12.5895 28.776 5.3955 0 0 0
2529 5 14.388 28.776 7.194 0 0 0
2530 5 14.388 30.5745 8.9925 0 0 0
2535 5 12.5895 28.776 12.5895 0 0 0
2539 5 12.5895 28.776 16.1865 0 0 0
2554 5 14.388 30.5745 30.5745 0 0 0
2566 5 14.388 34.1715 5.3955 0 0 0
2569 5 14.388 32.373 7.194 0 0 0
2578 5 14.388 34.1715 16.1865 0 0 0
2582 5 14.388 34.1715 19.7835 0 0 0
2584 5 12.5895 34.1715 17.985 0 0 0
2600 5 12.5895 34.1715 32.373 0 0 0
2602 5 10.791 1.7985 1.7985 0 0 0
2606 5 10.791 1.7985 5.3955 0 0 0
2607 5 8.9925 0.0 5.3955 0 0 0
2610 5 10.791 1.7985 8.9925 0 0 0
2612 5 8.9925 1.7985 7.194 0 0 0
2615 5 8.9925 0.0 12.5895 0 0 0
2619 5 8.9925 0.0 16.1865 0 0 0
2621 5 10.791 0.0 17.985 0 0 0
2628 5 8.9925 1.7985 21.582 0 0 0
2629 5 10.791 0.0 25.179 0 0 0
2633 5 10.791 0.0 28.776 0 0 0
2638 5 10.791 1.7985 34.1715 0 0 0
2646 5 10.791 5.3955 5.3955 0 0 0
2649 5 10.791 3.597 7.194 0 0 0
2650 5 10.791 5.3955 8.9925 0 0 0
2654 5 10.791 5.3955 12.5895 0 0 0
2656 5 8.9925 5.3955 10.791 0 0 0
2661 5 10.791 3.597 17.985 0 0 0
2663 5 8.9925 3.597 19.7835 0 0 0
2667 5 8.9925 3.597 23.3805 0 0 0
2671 5 8.9925 3.597 26.9775 0 0 0
2674 5 10.791 5.3955 30.5745 0 0 0
2677 5 10.791 3.597 32.373 0 0 0
2688 5 8.9925 8.9925 3.597 0 0 0
2690 5 10.791 8.9925 8.9925 0 0 0
2693 5 10.791 7.194 10.791 0 0 0
2694 5 10.791 8.9925 12.5895 0 0 0
2699 5 8.9925 7.194 16.1865 0 0 0
2700 5 8.9925 8.9925 14.388 0 0 0
2706 5 10.791 8.9925 23.3805 0 0 0
2712 5 8.9925 8.9925 25.179 0 0 0
2726 5 10.791 12.5895 5.3955 0 0 0
2746 5 10.791 12.5895 23.3805 0 0 0
2750 5 10.791 12.5895 26.9775 0 0 0
2751 5 8.9925 10.791 26.9775 0 0 0
2762 5 10.791 16.1865 1.7985 0 0 0
2763 5 8.9925 14.388 1.7985 0 0 0
2768 5 8.9925 16.1865 3.597 0 0 0
2772 5 8.9925 16.1865 7.194 0 0 0
2774 5 10.791 16.1865 12.5895 0 0 0
2775 5 8.9925 14.388 12.5895 0 0 0
2776 5 8.9925 16.1865 10.791 0 0 0
2782 5 10.791 16.1865 19.7835 0 0 0
2783 5 8.9925 14.388 19.7835 0 0 0
2807 5 8.9925 17.985 5.3955 0 0 0
2810 5 10.791 19.7835 8.9925 0 0 0
2814 5 10.791 19.7835 12.5895 0 0 0
2824 5 8.9925 19.7835 17.985 0 0 0
2825 5 10.791 17.985 21.582 0 0 0
2828 5 8.9925 19.7835 21.582 0 0 0
2829 5 10.791 17.985 25.179 0 0 0
2837 5 10.791 17.985 32.373 0 0 0
2840 5 8.9925 19.7835 32.373 0 0 0
2848 5 8.9925 23.3805 3.597 0 0 0
2855 5 8.9925 21.582 12.5895 0 0 0
2857 5 10.791 21.582 14.388 0 0 0
2861 5 10.791 21.582 17.985 0 0 0
2862 5 10.791 23.3805 19.7835 0 0 0
2863 5 8.9925 21.582 19.7835 0 0 0
2864 5 8.9925 23.3805 17.985 0 0 0
2866 5 10.791 23.3805 23.3805 0 0 0
2867 5 8.9925 21.582 23.3805 0 0 0
2870 5 10.791 23.3805 26.9775 0 0 0
2874 5 10.791 23.3805 30.5745 0 0 0
2880 5 8.9925 23.3805 32.373 0 0 0
2887 5 8.9925 25.179 5.3955 0 0 0
2889 5 10.791 25.179 7.194 0 0 0
2890 5 10.791 26.9775 8.9925 0 0 0
2892 5 8.9925 26.9775 7.194 0 0 0
2893 5 10.791 25.179 10.791 0 0 0
2897 5 10.791 25.179 14.388 0 0 0
2898 5 10.791 26.9775 16.1865 0 0 0
2900 5 8.9925 26.9775 14.388 0 0 0
2903 5 8.9925 25.179 19.7835 0 0 0
2908 5 8.9925 26.9775 21.582 0 0 0
2913 5 10.791 25.179 28.776 0 0 0
2915 5 8.9925 25.179 30.5745 0 0 0
2920 5 8.9925 26.9775 32.373 0 0 0
2925 5 10.791 28.776 3.597 0 0 0
2926 5 10.791 30.5745 5.3955 0 0 0
2930 5 10.791 30.5745 8.9925 0 0 0
2940 5 8.9925 30.5745 14.388 0 0 0
2941 5 10.791 28.776 17.985 0 0 0
2944 5 8.9925 30.5745 17.985 0 0 0
2947 5 8.9925 28.776 23.3805 0 0 0
2948 5 8.9925 30.5745 21.582 0 0 0
2950 5 10.791 30.5745 26.9775 0 0 0
2953 5 10.791 28.776 28.776 0 0 0
2961 5 10.791 32.373 0.0 0 0 0
2964 5 8.9925 34.1715 0.0 0 0 0
2970 5 10.791 34.1715 8.9925 0 0 0
2971 5 8.9925 32.373 8.9925 0 0 0
2974 5 10.791 34.1715 12.5895 0 0 0
2978 5 10.791 34.1715 16.1865 0 0 0
2979 5 8.9925 32.373 16.1865 0 0 0
2996 5 8.9925 34.1715 28.776 0 0 0
3002 5 7.194 1.7985 1.7985 0 0 0
3004 5 5.3955 1.7985 0.0 0 0 0
3013 5 7.194 0.0 10.791 0 0 0
3015 5 5.3955 0.0 12.5895 0 0 0
3016 5 5.3955 1.7985 10.791 0 0 0
3017 5 7.194 0.0 14.388 0 0 0
3022 5 7.194 1.7985 19.7835 0 0 0
3024 5 5.3955 1.7985 17.985 0 0 0
3028 5 5.3955 1.7985 21.582 0 0 0
3039 5 5.3955 0.0 34.1715 0 0 0
3041 5 7.194 3.597 0.0 0 0 0
3043 5 5.3955 3.597 1.7985 0 0 0
3053 5 7.194 3.597 10.791 0 0 0
3055 5 5.3955 3.597 12.5895 0 0 0
3056 5 5.3955 5.3955 10.791 0 0 0
3057 5 7.194 3.597 14.388 0 0 0
3060 5 5.3955 5.3955 14.388 0 0 0
3063 5 5.3955 3.597 19.7835 0 0 0
3075 5 5.3955 3.597 30.5745 0 0 0
3079 5 5.3955 3.597 34.1715 0 0 0
3081 5 7.194 7.194 0.0 0 0 0
3087 5 5.3955 7.194 5.3955 0 0 0
3093 5 7.194 7.194 10.791 0 0 0
3094 5 7.194 8.9925 12.5895 0 0 0
3105 5 7.194 7.194 21.582 0 0 0
3106 5 7.194 8.9925 23.3805 0 0 0
3110 5 7.194 8.9925 26.9775 0 0 0
3112 5 5.3955 8.9925 25.179 0 0 0
3115 5 5.3955 7.194 30.5745 0 0 0
3116 5 5.3955 8.9925 28.776 0 0 0
3117 5 7.194 7.194 32.373 0 0 0
3119 5 5.3955 7.194 34.1715 0 0 0
3124 5 5.3955 12.5895 0.0 0 0 0
3127 5 5.3955 10.791 5.3955 0 0 0
3132 5 5.3955 12.5895 7.194 0 0 0
3140 5 5.3955 12.5895 14.388 0 0 0
3146 5 7.194 12.5895 23.3805 0 0 0
3148 5 5.3955 12.5895 21.582 0 0 0
3149 5 7.194 10.791 25.179 0 0 0
3155 5 5.3955 10.791 30.5745 0 0 0
3157 5 7.194 10.791 32.373 0 0 0
3168 5 5.3955 16.1865 3.597 0 0 0
3175 5 5.3955 14.388 12.5895 0 0 0
3185 5 7.194 14.388 21.582 0 0 0
3186 5 7.194 16.1865 23.3805 0 0 0
3188 5 5.3955 16.1865 21.582 0 0 0
3193 5 7.194 14.388 28.776 0 0 0
3198 5 7.194 16.1865 34.1715 0 0 0
3209 5 7.194 17.985 7.194 0 0 0
3214 5 7.194 19.7835 12.5895 0 0 0
3221 5 7.194 17.985 17.985 0 0 0
3230 5 7.194 19.7835 26.9775 0 0 0
3232 5 5.3955 19.7835 25.179 0 0 0
3239 5 5.3955 17.985 34.1715 0 0 0
3241 5 7.194 21.582 0.0 0 0 0
3243 5 5.3955 21.582 1.7985 0 0 0
3244 5 5.3955 23.3805 0.0 0 0 0
3255 5 5.3955 21.582 12.5895 0 0 0
3258 5 7.194 23.3805 16.1865 0 0 0
3259 5 5.3955 21.582 16.1865 0 0 0
3269 5 7.194 21.582 25.179 0 0 0
3271 5 5.3955 21.582 26.9775 0 0 0
3272 5 5.3955 23.3805 25.179 0 0 0
3279 5 5.3955 21.582 34.1715 0 0 0
3283 5 5.3955 25.179 1.7985 0 0 0
3284 5 5.3955 26.9775 0.0 0 0 0
3285 5 7.194 25.179 3.597 0 0 0
3288 5 5.3955 26.9775 3.597 0 0 0
3299 5 5.3955 25.179 16.1865 0 0 0
3301 5 7.194 25.179 17.985 0 0 0
3302 5 7.194 26.9775 19.7835 0 0 0
3315 5 5.3955 25.179 30.5745 0 0 0
3317 5 7.194 25.179 32.373 0 0 0
3321 5 7.194 28.776 0.0 0 0 0
3324 5 5.3955 30.5745 0.0 0 0 0
3325 5 7.194 28.776 3.597 0 0 0
3326 5 7.194 30.5745 5.3955 0 0 0
3330 5 7.194 30.5745 8.9925 0 0 0
3331 5 5.3955 28.776 8.9925 0 0 0
3337 5 7.194 28.776 14.388 0 0 0
3338 5 7.194 30.5745 16.1865 0 0 0
3339 5 5.3955 28.776 16.1865 0 0 0
3342 5 7.194 30.5745 19.7835 0 0 0
3344 5 5.3955 30.5745 17.985 0 0 0
3345 5 7.194 28.776 21.582 0 0 0
3352 5 5.3955 30.5745 25.179 0 0 0
3353 5 7.194 28.776 28.776 0 0 0
3357 5 7.194 28.776 32.373 0 0 0
3363 5 5.3955 32.373 1.7985 0 0 0
3365 5 7.194 32.373 3.597 0 0 0
3368 5 5.3955 34.1715 3.597 0 0 0
3369 5 7.194 32.373 7.194 0 0 0
3371 5 5.3955 32.373 8.9925 0 0 0
3375 5 5.3955 32.373 12.5895 0 0 0
3383 5 5.3955 32.373 19.7835 0 0 0
3384 5 5.3955 34.1715 17.985 0 0 0
3389 5 7.194 32.373 25.179 0 0 0
3394 5 7.194 34.1715 30.5745 0 0 0
3396 5 5.3955 34.1715 28.776 0 0 0
3397 5 7.194 32.373 32.373 0 0 0
3398 5 7.194 34.1715 34.1715 0 0 0
3402 5 3.597 1.7985 1.7985 0 0 0
3411 5 1.7985 0.0 8.9925 0 0 0
3412 5 1.7985 1.7985 7.194 0 0 0
3414 5 3.597 1.7985 12.5895 0 0 0
3419 5 1.7985 0.0 16.1865 0 0 0
3425 5 3.597 0.0 21.582 0 0 0
3428 5 1.7985 1.7985 21.582 0 0 0
3430 5 3.597 1.7985 26.9775 0 0 0
3434 5 3.597 1.7985 30.5745 0 0 0
3435 5 1.7985 0.0 30.5745 0 0 0
3440 5 1.7985 1.7985 32.373 0 0 0
3442 5 3.597 5.3955 1.7985 0 0 0
3446 5 3.597 5.3955 5.3955 0 0 0
3449 5 3.597 3.597 7.194 0 0 0
3451 5 1.7985 3.597 8.9925 0 0 0
3455 5 1.7985 3.597 12.5895 0 0 0
3461 5 3.597 3.597 17.985 0 0 0
3462 5 3.597 5.3955 19.7835 0 0 0
3468 5 1.7985 5.3955 21.582 0 0 0
3472 5 1.7985 5.3955 25.179 0 0 0
3483 5 1.7985 7.194 1.7985 0 0 0
3487 5 1.7985 7.194 5.3955 0 0 0
3488 5 1.7985 8.9925 3.597 0 0 0
3489 5 3.597 7.194 7.194 0 0 0
3499 5 1.7985 7.194 16.1865 0 0 0
3502 5 3.597 8.9925 19.7835 0 0 0
3503 5 1.7985 7.194 19.7835 0 0 0
3504 5 1.7985 8.9925 17.985 0 0 0
3507 5 1.7985 7.194 23.3805 0 0 0
3512 5 1.7985 8.9925 25.179 0 0 0
3520 5 1.7985 8.9925 32.373 0 0 0
3521 5 3.597 10.791 0.0 0 0 0
3522 5 3.597 12.5895 1.7985 0 0 0
3526 5 3.597 12.5895 5.3955 0 0 0
3529 5 3.597 10.791 7.194 0 0 0
3542 5 3.597 12.5895 19.7835 0 0 0
3544 5 1.7985 12.5895 17.985 0 0 0
3548 5 1.7985 12.5895 21.582 0 0 0
3560 5 1.7985 12.5895 32.373 0 0 0
3561 5 3.597 14.388 0.0 0 0 0
3566 5 3.597 16.1865 5.3955 0 0 0
3567 5 1.7985 14.388 5.3955 0 0 0
3573 5 3.597 14.388 10.791 0 0 0
3580 5 1.7985 16.1865 14.388 0 0 0
3581 5 3.597 14.388 17.985 0 0 0
3585 5 3.597 14.388 21.582 0 0 0
3586 5 3.597 16.1865 23.3805 0 0 0
3600 5 1.7985 16.1865 32.373 0 0 0
3602 5 3.597 19.7835 1.7985 0 0 0
3605 5 3.597 17.985 3.597 0 0 0
3607 5 1.7985 17.985 5.3955 0 0 0
3610 5 3.597 19.7835 8.9925 0 0 0
3613 5 3.597 17.985 10.791 0 0 0
3624 5 1.7985 19.7835 17.985 0 0 0
3627 5 1.7985 17.985 23.3805 0 0 0
3635 5 1.7985 17.985 30.5745 0 0 0
3637 5 3.597 17.985 32.373 0 0 0
3640 5 1.7985 19.7835 32.373 0 0 0
3657 5 3.597 21.582 14.388 0 0 0
3658 5 3.597 23.3805 16.1865 0 0 0
3661 5 3.597 21.582 17.985 0 0 0
3671 5 1.7985 21.582 26.9775 0 0 0
3676 5 1.7985 23.3805 28.776 0 0 0
3682 5 3.597 26.9775 1.7985 0 0 0
3685 5 3.597 25.179 3.597 0 0 0
3692 5 1.7985 26.9775 7.194 0 0 0
3693 5 3.597 25.179 10.791 0 0 0
3698 5 3.597 26.9775 16.1865 0 0 0
3709 5 3.597 25.179 25.179 0 0 0
3711 5 1.7985 25.179 26.9775 0 0 0
3715 5 1.7985 25.179 30.5745 0 0 0
3716 5 1.7985 26.9775 28.776 0 0 0
3731 5 1.7985 28.776 8.9925 0 0 0
3733 5 3.597 28.776 10.791 0 0 0
3734 5 3.597 30.5745 12.5895 0 0 0
3736 5 1.7985 30.5745 10.791 0 0 0
3747 5 1.7985 28.776 23.3805 0 0 0
3751 5 1.7985 28.776 26.9775 0 0 0
3755 5 1.7985 28.776 30.5745 0 0 0
3756 5 1.7985 30.5745 28.776 0 0 0
3762 5 3.597 34.1715 1.7985 0 0 0
3764 5 1.7985 34.1715 0.0 0 0 0
3767 5 1.7985 32.373 5.3955 0 0 0
3772 5 1.7985 34.1715 7.194 0 0 0
3774 5 3.597 34.1715 12.5895 0 0 0
3787 5 1.7985 32.373 23.3805 0 0 0
3798 5 3.597 34.1715 34.1715 0 0 0
3803 5 0.0 0.0 3.597 0 0 0
3806 5 0.0 1.7985 8.9925 0 0 0
3808 5 0.0 1.7985 12.5895 0 0 0
3810 5 0.0 1.7985 16.1865 0 0 0
3814 5 0.0 1.7985 23.3805 0 0 0
3819 5 0.0 0.0 32.373 0 0 0
3827 5 0.0 3.597 10.791 0 0 0
3828 5 0.0 5.3955 12.5895 0 0 0
3832 5 0.0 5.3955 19.7835 0 0 0
3834 5 0.0 5.3955 23.3805 0 0 0
3839 5 0.0 3.597 32.373 0 0 0
3840 5 0.0 5.3955 34.1715 0 0 0
3855 5 0.0 7.194 25.179 0 0 0
3861 5 0.0 10.791 0.0 0 0 0
3867 5 0.0 10.791 10.791 0 0 0
3868 5 0.0 12.5895 12.5895 0 0 0
3869 5 0.0 10.791 14.388 0 0 0
3870 5 0.0 12.5895 16.1865 0 0 0
3873 5 0.0 10.791 21.582 0 0 0
3875 5 0.0 10.791 25.179 0 0 0
3880 5 0.0 12.5895 34.1715 0 0 0
3897 5 0.0 14.388 28.776 0 0 0
3898 5 0.0 16.1865 30.5745 0 0 0
3900 5 0.0 16.1865 34.1715 0 0 0
3902 5 0.0 19.7835 1.7985 0 0 0
3906 5 0.0 19.7835 8.9925 0 0 0
3913 5 0.0 17.985 21.582 0 0 0
3924 5 0.0 23.3805 5.3955 0 0 0
3928 5 0.0 23.3805 12.5895 0 0 0
3932 5 0.0 23.3805 19.7835 0 0 0
3940 5 0.0 23.3805 34.1715 0 0 0
3946 5 0.0 26.9775 8.9925 0 0 0
3947 5 0.0 25.179 10.791 0 0 0
3954 5 0.0 26.9775 23.3805 0 0 0
3957 5 0.0 25.179 28.776 0 0 0
3960 5 0.0 26.9775 34.1715 0 0 0
3964 5 0.0 30.5745 5.3955 0 0 0
3965 5 0.0 28.776 7.194 0 0 0
3972 5 0.0 30.5745 19.7835 0 0 0
3974 5 0.0 30.5745 23.3805 0 0 0
3975 5 0.0 28.776 25.179 0 0 0
3983 5 0.0 32.373 3.597 0 0 0
3987 5 0.0 32.373 10.791 0 0 0
3996 5 0.0 34.1715 26.9775 0 0 0
3998 5 0.0 34.1715 30.5745 0 0 0
4000 5 0.0 34.1715 34.1715 0 0 0
