LAMMPS data file via write_data version 30 Jul 2021 timestep = 0
4000 atoms
5 atom types
0 35.97 xlo xhi
0 35.97 ylo yhi
0 35.97 zlo zhi
0.0 0.0 0.0 xy xz yz
 
Masses
 
1 1.0
2 2.0
3 3.0
4 4.0
5 5.0
 
Atoms  # atomic
 
432 1 30.5745 19.7835 25.179 0 0 0
3174 1 7.194 16.1865 12.5895 0 0 0
560 1 30.5745 30.5745 32.373 0 0 0
568 1 30.5745 34.1715 3.597 0 0 0
2830 1 10.791 19.7835 26.9775 0 0 0
3611 1 1.7985 17.985 8.9925 0 0 0
1807 1 16.1865 0.0 5.3955 0 0 0
2882 1 10.791 26.9775 1.7985 0 0 0
1224 1 23.3805 19.7835 17.985 0 0 0
1283 1 23.3805 25.179 1.7985 0 0 0
811 1 26.9775 17.985 8.9925 0 0 0
681 1 28.776 7.194 0.0 0 0 0
1282 1 25.179 26.9775 1.7985 0 0 0
3837 1 0.0 3.597 28.776 0 0 0
3806 1 0.0 1.7985 8.9925 0 0 0
880 1 26.9775 23.3805 32.373 0 0 0
2489 1 14.388 25.179 7.194 0 0 0
725 1 28.776 10.791 3.597 0 0 0
687 1 26.9775 7.194 5.3955 0 0 0
3397 1 7.194 32.373 32.373 0 0 0
1951 1 16.1865 10.791 26.9775 0 0 0
2513 1 14.388 25.179 28.776 0 0 0
84 1 34.1715 16.1865 3.597 0 0 0
3606 1 3.597 19.7835 5.3955 0 0 0
3350 1 7.194 30.5745 26.9775 0 0 0
2469 1 14.388 21.582 25.179 0 0 0
587 1 30.5745 32.373 23.3805 0 0 0
925 1 28.776 28.776 3.597 0 0 0
694 1 28.776 8.9925 12.5895 0 0 0
3495 1 1.7985 7.194 12.5895 0 0 0
3710 1 3.597 26.9775 26.9775 0 0 0
1235 1 23.3805 17.985 30.5745 0 0 0
2766 1 10.791 16.1865 5.3955 0 0 0
920 1 26.9775 26.9775 32.373 0 0 0
3104 1 5.3955 8.9925 17.985 0 0 0
1933 1 17.985 10.791 10.791 0 0 0
2813 1 10.791 17.985 10.791 0 0 0
2220 1 12.5895 1.7985 14.388 0 0 0
3752 1 1.7985 30.5745 25.179 0 0 0
1271 1 23.3805 21.582 26.9775 0 0 0
1804 1 16.1865 1.7985 0.0 0 0 0
1961 1 17.985 14.388 0.0 0 0 0
1789 1 21.582 32.373 25.179 0 0 0
1530 1 21.582 12.5895 8.9925 0 0 0
963 1 26.9775 32.373 1.7985 0 0 0
1178 1 25.179 16.1865 16.1865 0 0 0
1309 1 25.179 25.179 25.179 0 0 0
1592 1 19.7835 16.1865 25.179 0 0 0
2823 1 8.9925 17.985 19.7835 0 0 0
3893 1 0.0 14.388 21.582 0 0 0
1347 1 23.3805 28.776 23.3805 0 0 0
3324 1 5.3955 30.5745 0.0 0 0 0
1192 1 23.3805 16.1865 25.179 0 0 0
1754 1 21.582 30.5745 30.5745 0 0 0
214 1 32.373 1.7985 12.5895 0 0 0
2552 1 12.5895 30.5745 25.179 0 0 0
240 1 30.5745 1.7985 32.373 0 0 0
667 1 26.9775 3.597 23.3805 0 0 0
3787 1 1.7985 32.373 23.3805 0 0 0
923 1 26.9775 28.776 1.7985 0 0 0
3946 1 0.0 26.9775 8.9925 0 0 0
2626 1 10.791 1.7985 23.3805 0 0 0
1761 1 21.582 32.373 0.0 0 0 0
1570 1 21.582 16.1865 8.9925 0 0 0
2149 1 17.985 28.776 25.179 0 0 0
76 1 34.1715 12.5895 25.179 0 0 0
2143 1 16.1865 28.776 19.7835 0 0 0
3554 1 3.597 12.5895 30.5745 0 0 0
493 1 32.373 25.179 10.791 0 0 0
2811 1 8.9925 17.985 8.9925 0 0 0
139 1 34.1715 21.582 34.1715 0 0 0
1498 1 21.582 8.9925 16.1865 0 0 0
2178 1 17.985 34.1715 16.1865 0 0 0
3316 1 5.3955 26.9775 28.776 0 0 0
458 1 32.373 23.3805 16.1865 0 0 0
613 1 28.776 0.0 10.791 0 0 0
1084 1 23.3805 8.9925 0.0 0 0 0
1957 1 17.985 10.791 32.373 0 0 0
671 1 26.9775 3.597 26.9775 0 0 0
1246 1 25.179 23.3805 5.3955 0 0 0
1362 1 25.179 34.1715 1.7985 0 0 0
684 1 26.9775 8.9925 0.0 0 0 0
2836 1 8.9925 19.7835 28.776 0 0 0
362 1 32.373 16.1865 1.7985 0 0 0
992 1 26.9775 34.1715 25.179 0 0 0
1954 1 17.985 12.5895 30.5745 0 0 0
737 1 28.776 10.791 14.388 0 0 0
3158 1 7.194 12.5895 34.1715 0 0 0
39 1 34.1715 3.597 34.1715 0 0 0
248 1 30.5745 5.3955 3.597 0 0 0
3287 1 5.3955 25.179 5.3955 0 0 0
193 1 34.1715 32.373 23.3805 0 0 0
2628 1 8.9925 1.7985 21.582 0 0 0
151 1 34.1715 25.179 19.7835 0 0 0
2245 1 14.388 3.597 3.597 0 0 0
1950 1 17.985 12.5895 26.9775 0 0 0
3995 1 0.0 32.373 25.179 0 0 0
1226 1 25.179 19.7835 23.3805 0 0 0
2396 1 12.5895 16.1865 28.776 0 0 0
2538 1 14.388 30.5745 16.1865 0 0 0
2565 1 14.388 32.373 3.597 0 0 0
1767 1 19.7835 32.373 5.3955 0 0 0
213 1 32.373 0.0 10.791 0 0 0
2769 1 10.791 14.388 7.194 0 0 0
3852 1 0.0 8.9925 19.7835 0 0 0
34 1 34.1715 5.3955 21.582 0 0 0
1551 1 19.7835 10.791 26.9775 0 0 0
1527 1 19.7835 10.791 5.3955 0 0 0
2863 1 8.9925 21.582 19.7835 0 0 0
490 1 32.373 26.9775 8.9925 0 0 0
3517 1 3.597 7.194 32.373 0 0 0
2127 1 16.1865 28.776 5.3955 0 0 0
1760 1 19.7835 30.5745 32.373 0 0 0
3073 1 7.194 3.597 28.776 0 0 0
2020 1 16.1865 19.7835 14.388 0 0 0
1897 1 17.985 7.194 14.388 0 0 0
771 1 26.9775 14.388 8.9925 0 0 0
3417 1 3.597 0.0 14.388 0 0 0
1370 1 25.179 34.1715 8.9925 0 0 0
1400 1 23.3805 34.1715 32.373 0 0 0
2288 1 12.5895 8.9925 3.597 0 0 0
3516 1 1.7985 8.9925 28.776 0 0 0
2067 1 16.1865 21.582 23.3805 0 0 0
3776 1 1.7985 34.1715 10.791 0 0 0
243 1 30.5745 3.597 1.7985 0 0 0
1077 1 25.179 3.597 32.373 0 0 0
2005 1 17.985 17.985 3.597 0 0 0
1265 1 25.179 21.582 21.582 0 0 0
2001 1 17.985 17.985 0.0 0 0 0
3162 1 7.194 16.1865 1.7985 0 0 0
3578 1 3.597 16.1865 16.1865 0 0 0
2542 1 14.388 30.5745 19.7835 0 0 0
1437 1 21.582 0.0 32.373 0 0 0
2463 1 12.5895 21.582 19.7835 0 0 0
850 1 28.776 23.3805 8.9925 0 0 0
1903 1 16.1865 7.194 19.7835 0 0 0
1371 1 23.3805 32.373 8.9925 0 0 0
2805 1 10.791 17.985 3.597 0 0 0
2586 1 14.388 34.1715 23.3805 0 0 0
3923 1 0.0 21.582 3.597 0 0 0
1431 1 19.7835 0.0 26.9775 0 0 0
3954 1 0.0 26.9775 23.3805 0 0 0
461 1 32.373 21.582 17.985 0 0 0
1303 1 23.3805 25.179 19.7835 0 0 0
1565 1 21.582 14.388 3.597 0 0 0
3232 1 5.3955 19.7835 25.179 0 0 0
3368 1 5.3955 34.1715 3.597 0 0 0
1637 1 21.582 17.985 32.373 0 0 0
2533 1 14.388 28.776 10.791 0 0 0
2194 1 17.985 34.1715 30.5745 0 0 0
2856 1 8.9925 23.3805 10.791 0 0 0
2084 1 16.1865 26.9775 0.0 0 0 0
774 1 28.776 16.1865 12.5895 0 0 0
416 1 30.5745 19.7835 10.791 0 0 0
3065 1 7.194 3.597 21.582 0 0 0
1751 1 19.7835 28.776 26.9775 0 0 0
3387 1 5.3955 32.373 23.3805 0 0 0
87 1 34.1715 14.388 12.5895 0 0 0
2656 1 8.9925 5.3955 10.791 0 0 0
3208 1 5.3955 19.7835 3.597 0 0 0
2681 1 10.791 7.194 0.0 0 0 0
2022 1 17.985 19.7835 19.7835 0 0 0
2728 1 8.9925 12.5895 3.597 0 0 0
3892 1 0.0 16.1865 19.7835 0 0 0
929 1 28.776 28.776 7.194 0 0 0
2235 1 12.5895 0.0 30.5745 0 0 0
1373 1 25.179 32.373 10.791 0 0 0
1142 1 25.179 12.5895 19.7835 0 0 0
1863 1 16.1865 3.597 19.7835 0 0 0
2736 1 8.9925 12.5895 10.791 0 0 0
107 1 34.1715 17.985 12.5895 0 0 0
3283 1 5.3955 25.179 1.7985 0 0 0
3608 1 1.7985 19.7835 3.597 0 0 0
2048 1 16.1865 23.3805 3.597 0 0 0
3839 1 0.0 3.597 32.373 0 0 0
3525 1 3.597 10.791 3.597 0 0 0
2267 1 12.5895 3.597 23.3805 0 0 0
2354 1 14.388 12.5895 30.5745 0 0 0
3884 1 0.0 16.1865 5.3955 0 0 0
2564 1 12.5895 34.1715 0.0 0 0 0
3983 1 0.0 32.373 3.597 0 0 0
3181 1 7.194 14.388 17.985 0 0 0
3353 1 7.194 28.776 28.776 0 0 0
1513 1 21.582 7.194 28.776 0 0 0
3000 1 8.9925 34.1715 32.373 0 0 0
2509 1 14.388 25.179 25.179 0 0 0
113 1 34.1715 17.985 23.3805 0 0 0
565 1 32.373 32.373 3.597 0 0 0
784 1 26.9775 16.1865 17.985 0 0 0
1462 1 21.582 5.3955 19.7835 0 0 0
2891 1 8.9925 25.179 8.9925 0 0 0
1874 1 17.985 5.3955 30.5745 0 0 0
176 1 34.1715 30.5745 25.179 0 0 0
1103 1 23.3805 7.194 19.7835 0 0 0
242 1 32.373 5.3955 1.7985 0 0 0
644 1 26.9775 5.3955 0.0 0 0 0
749 1 28.776 10.791 25.179 0 0 0
1128 1 23.3805 12.5895 3.597 0 0 0
3160 1 5.3955 12.5895 32.373 0 0 0
3118 1 7.194 8.9925 34.1715 0 0 0
1102 1 25.179 8.9925 19.7835 0 0 0
308 1 30.5745 8.9925 21.582 0 0 0
1743 1 19.7835 28.776 19.7835 0 0 0
3182 1 7.194 16.1865 19.7835 0 0 0
610 1 28.776 1.7985 8.9925 0 0 0
3061 1 7.194 3.597 17.985 0 0 0
1198 1 25.179 16.1865 34.1715 0 0 0
926 1 28.776 30.5745 5.3955 0 0 0
1763 1 19.7835 32.373 1.7985 0 0 0
2875 1 8.9925 21.582 30.5745 0 0 0
1579 1 19.7835 14.388 16.1865 0 0 0
747 1 26.9775 10.791 23.3805 0 0 0
2627 1 8.9925 0.0 23.3805 0 0 0
1418 1 21.582 1.7985 16.1865 0 0 0
2240 1 12.5895 1.7985 32.373 0 0 0
2885 1 10.791 25.179 3.597 0 0 0
1868 1 16.1865 5.3955 21.582 0 0 0
1423 1 19.7835 0.0 19.7835 0 0 0
1826 1 17.985 1.7985 23.3805 0 0 0
1885 1 17.985 7.194 3.597 0 0 0
3344 1 5.3955 30.5745 17.985 0 0 0
2008 1 16.1865 19.7835 3.597 0 0 0
14 1 34.1715 1.7985 21.582 0 0 0
3881 1 0.0 14.388 0.0 0 0 0
136 1 34.1715 23.3805 25.179 0 0 0
2475 1 12.5895 21.582 30.5745 0 0 0
2556 1 12.5895 30.5745 28.776 0 0 0
1965 1 17.985 14.388 3.597 0 0 0
2215 1 12.5895 0.0 12.5895 0 0 0
3018 1 7.194 1.7985 16.1865 0 0 0
3644 1 1.7985 23.3805 0.0 0 0 0
3911 1 0.0 17.985 17.985 0 0 0
1307 1 23.3805 25.179 23.3805 0 0 0
1683 1 19.7835 25.179 1.7985 0 0 0
2665 1 10.791 3.597 21.582 0 0 0
1624 1 19.7835 19.7835 17.985 0 0 0
229 1 32.373 0.0 25.179 0 0 0
3680 1 1.7985 23.3805 32.373 0 0 0
3405 1 3.597 0.0 3.597 0 0 0
3428 1 1.7985 1.7985 21.582 0 0 0
3021 1 7.194 0.0 17.985 0 0 0
3403 1 1.7985 0.0 1.7985 0 0 0
3362 1 7.194 34.1715 1.7985 0 0 0
1796 1 19.7835 34.1715 28.776 0 0 0
5 1 34.1715 0.0 8.9925 0 0 0
738 1 28.776 12.5895 16.1865 0 0 0
417 1 32.373 17.985 14.388 0 0 0
639 1 26.9775 0.0 34.1715 0 0 0
517 1 32.373 25.179 32.373 0 0 0
1081 1 25.179 7.194 0.0 0 0 0
3092 1 5.3955 8.9925 7.194 0 0 0
1803 1 16.1865 0.0 1.7985 0 0 0
1964 1 16.1865 16.1865 0.0 0 0 0
807 1 26.9775 17.985 5.3955 0 0 0
2957 1 10.791 28.776 32.373 0 0 0
2825 1 10.791 17.985 21.582 0 0 0
1277 1 25.179 21.582 32.373 0 0 0
1546 1 21.582 12.5895 23.3805 0 0 0
3695 1 1.7985 25.179 12.5895 0 0 0
278 1 32.373 5.3955 34.1715 0 0 0
1022 1 25.179 1.7985 19.7835 0 0 0
2369 1 14.388 14.388 7.194 0 0 0
578 1 32.373 34.1715 16.1865 0 0 0
3685 1 3.597 25.179 3.597 0 0 0
2 1 34.1715 1.7985 0.0 0 0 0
1662 1 21.582 23.3805 19.7835 0 0 0
2894 1 10.791 26.9775 12.5895 0 0 0
1058 1 25.179 5.3955 16.1865 0 0 0
2574 1 14.388 34.1715 12.5895 0 0 0
3286 1 7.194 26.9775 5.3955 0 0 0
1766 1 21.582 34.1715 5.3955 0 0 0
2575 1 12.5895 32.373 12.5895 0 0 0
2419 1 12.5895 17.985 16.1865 0 0 0
691 1 26.9775 7.194 8.9925 0 0 0
3722 1 3.597 30.5745 1.7985 0 0 0
2484 1 12.5895 26.9775 0.0 0 0 0
1465 1 21.582 3.597 21.582 0 0 0
540 1 30.5745 30.5745 14.388 0 0 0
466 1 32.373 23.3805 23.3805 0 0 0
2212 1 12.5895 1.7985 7.194 0 0 0
1482 1 21.582 8.9925 1.7985 0 0 0
2988 1 8.9925 34.1715 21.582 0 0 0
1194 1 25.179 16.1865 30.5745 0 0 0
1014 1 25.179 1.7985 12.5895 0 0 0
3370 1 7.194 34.1715 8.9925 0 0 0
2306 1 14.388 8.9925 23.3805 0 0 0
1554 1 21.582 12.5895 30.5745 0 0 0
3779 1 1.7985 32.373 16.1865 0 0 0
1787 1 19.7835 32.373 23.3805 0 0 0
3708 1 1.7985 26.9775 21.582 0 0 0
3251 1 5.3955 21.582 8.9925 0 0 0
2587 1 12.5895 32.373 23.3805 0 0 0
280 1 30.5745 5.3955 32.373 0 0 0
2472 1 12.5895 23.3805 25.179 0 0 0
1762 1 21.582 34.1715 1.7985 0 0 0
3137 1 7.194 10.791 14.388 0 0 0
1842 1 17.985 5.3955 1.7985 0 0 0
104 1 34.1715 19.7835 3.597 0 0 0
3023 1 5.3955 0.0 19.7835 0 0 0
534 1 32.373 30.5745 12.5895 0 0 0
1425 1 21.582 0.0 21.582 0 0 0
2570 1 14.388 34.1715 8.9925 0 0 0
66 1 34.1715 12.5895 7.194 0 0 0
2453 1 14.388 21.582 10.791 0 0 0
3522 1 3.597 12.5895 1.7985 0 0 0
1940 1 16.1865 12.5895 14.388 0 0 0
1915 1 16.1865 7.194 30.5745 0 0 0
2350 1 14.388 12.5895 26.9775 0 0 0
1059 1 23.3805 3.597 16.1865 0 0 0
2860 1 8.9925 23.3805 14.388 0 0 0
2283 1 12.5895 7.194 1.7985 0 0 0
2238 1 14.388 1.7985 34.1715 0 0 0
2385 1 14.388 14.388 21.582 0 0 0
1850 1 17.985 5.3955 8.9925 0 0 0
624 1 26.9775 1.7985 17.985 0 0 0
2250 1 14.388 5.3955 8.9925 0 0 0
2442 1 14.388 23.3805 1.7985 0 0 0
300 1 30.5745 8.9925 14.388 0 0 0
1160 1 23.3805 12.5895 32.373 0 0 0
1455 1 19.7835 3.597 12.5895 0 0 0
2693 1 10.791 7.194 10.791 0 0 0
1195 1 23.3805 14.388 30.5745 0 0 0
1350 1 25.179 30.5745 26.9775 0 0 0
1680 1 19.7835 23.3805 32.373 0 0 0
1755 1 19.7835 28.776 30.5745 0 0 0
2767 1 8.9925 14.388 5.3955 0 0 0
3572 1 1.7985 16.1865 7.194 0 0 0
2842 1 10.791 23.3805 1.7985 0 0 0
3360 1 5.3955 30.5745 32.373 0 0 0
2184 1 16.1865 34.1715 17.985 0 0 0
3693 1 3.597 25.179 10.791 0 0 0
2166 1 17.985 34.1715 5.3955 0 0 0
3993 1 0.0 32.373 21.582 0 0 0
2620 1 8.9925 1.7985 14.388 0 0 0
2207 1 12.5895 0.0 5.3955 0 0 0
3855 1 0.0 7.194 25.179 0 0 0
1341 1 25.179 28.776 17.985 0 0 0
3715 1 1.7985 25.179 30.5745 0 0 0
498 1 32.373 26.9775 16.1865 0 0 0
798 1 28.776 16.1865 34.1715 0 0 0
1536 1 19.7835 12.5895 10.791 0 0 0
2300 1 12.5895 8.9925 14.388 0 0 0
77 1 34.1715 10.791 30.5745 0 0 0
3552 1 1.7985 12.5895 25.179 0 0 0
326 1 32.373 12.5895 5.3955 0 0 0
3727 1 1.7985 28.776 5.3955 0 0 0
2940 1 8.9925 30.5745 14.388 0 0 0
265 1 32.373 3.597 21.582 0 0 0
3373 1 7.194 32.373 10.791 0 0 0
1823 1 16.1865 0.0 19.7835 0 0 0
1492 1 19.7835 8.9925 7.194 0 0 0
3623 1 1.7985 17.985 19.7835 0 0 0
322 1 32.373 12.5895 1.7985 0 0 0
3391 1 5.3955 32.373 26.9775 0 0 0
1218 1 25.179 19.7835 16.1865 0 0 0
2117 1 17.985 25.179 32.373 0 0 0
1514 1 21.582 8.9925 30.5745 0 0 0
3721 1 3.597 28.776 0.0 0 0 0
1097 1 25.179 7.194 14.388 0 0 0
2520 1 12.5895 26.9775 32.373 0 0 0
37 1 34.1715 3.597 30.5745 0 0 0
2003 1 16.1865 17.985 1.7985 0 0 0
1095 1 23.3805 7.194 12.5895 0 0 0
1993 1 17.985 14.388 28.776 0 0 0
2028 1 16.1865 19.7835 21.582 0 0 0
539 1 30.5745 28.776 16.1865 0 0 0
3379 1 5.3955 32.373 16.1865 0 0 0
3625 1 3.597 17.985 21.582 0 0 0
3618 1 3.597 19.7835 16.1865 0 0 0
121 1 34.1715 21.582 1.7985 0 0 0
2080 1 16.1865 23.3805 32.373 0 0 0
1844 1 16.1865 5.3955 0.0 0 0 0
2954 1 10.791 30.5745 30.5745 0 0 0
3719 1 1.7985 25.179 34.1715 0 0 0
2815 1 8.9925 17.985 12.5895 0 0 0
3382 1 7.194 34.1715 19.7835 0 0 0
2276 1 12.5895 5.3955 28.776 0 0 0
3610 1 3.597 19.7835 8.9925 0 0 0
3667 1 1.7985 21.582 23.3805 0 0 0
1446 1 21.582 5.3955 5.3955 0 0 0
1581 1 21.582 14.388 17.985 0 0 0
3136 1 5.3955 12.5895 10.791 0 0 0
1168 1 23.3805 16.1865 3.597 0 0 0
2858 1 10.791 23.3805 16.1865 0 0 0
3561 1 3.597 14.388 0.0 0 0 0
888 1 26.9775 26.9775 3.597 0 0 0
1434 1 21.582 1.7985 30.5745 0 0 0
3686 1 3.597 26.9775 5.3955 0 0 0
3938 1 0.0 23.3805 30.5745 0 0 0
2789 1 10.791 14.388 25.179 0 0 0
2368 1 12.5895 16.1865 3.597 0 0 0
916 1 26.9775 26.9775 28.776 0 0 0
1187 1 23.3805 14.388 23.3805 0 0 0
1732 1 19.7835 30.5745 7.194 0 0 0
1169 1 25.179 14.388 7.194 0 0 0
3712 1 1.7985 26.9775 25.179 0 0 0
157 1 34.1715 25.179 30.5745 0 0 0
1779 1 19.7835 32.373 16.1865 0 0 0
1466 1 21.582 5.3955 23.3805 0 0 0
557 1 32.373 28.776 32.373 0 0 0
782 1 28.776 16.1865 19.7835 0 0 0
2004 1 16.1865 19.7835 0.0 0 0 0
816 1 26.9775 19.7835 10.791 0 0 0
2518 1 14.388 26.9775 34.1715 0 0 0
3751 1 1.7985 28.776 26.9775 0 0 0
307 1 30.5745 7.194 23.3805 0 0 0
1046 1 25.179 5.3955 5.3955 0 0 0
1302 1 25.179 26.9775 19.7835 0 0 0
2768 1 8.9925 16.1865 3.597 0 0 0
518 1 32.373 26.9775 34.1715 0 0 0
3820 1 0.0 1.7985 34.1715 0 0 0
145 1 34.1715 25.179 8.9925 0 0 0
1463 1 19.7835 3.597 19.7835 0 0 0
1254 1 25.179 23.3805 12.5895 0 0 0
742 1 28.776 12.5895 19.7835 0 0 0
601 1 28.776 0.0 0.0 0 0 0
2536 1 12.5895 30.5745 10.791 0 0 0
74 1 34.1715 12.5895 21.582 0 0 0
3602 1 3.597 19.7835 1.7985 0 0 0
2321 1 14.388 10.791 0.0 0 0 0
2324 1 12.5895 12.5895 0.0 0 0 0
123 1 34.1715 21.582 5.3955 0 0 0
561 1 32.373 32.373 0.0 0 0 0
21 1 34.1715 3.597 1.7985 0 0 0
957 1 28.776 28.776 32.373 0 0 0
497 1 32.373 25.179 14.388 0 0 0
2642 1 10.791 5.3955 1.7985 0 0 0
2707 1 8.9925 7.194 23.3805 0 0 0
391 1 30.5745 14.388 26.9775 0 0 0
3328 1 5.3955 30.5745 3.597 0 0 0
241 1 32.373 3.597 0.0 0 0 0
1606 1 21.582 19.7835 5.3955 0 0 0
3942 1 0.0 26.9775 1.7985 0 0 0
571 1 30.5745 32.373 8.9925 0 0 0
763 1 26.9775 14.388 1.7985 0 0 0
1315 1 23.3805 25.179 30.5745 0 0 0
3262 1 7.194 23.3805 19.7835 0 0 0
3297 1 7.194 25.179 14.388 0 0 0
465 1 32.373 21.582 21.582 0 0 0
876 1 26.9775 23.3805 28.776 0 0 0
1781 1 21.582 32.373 17.985 0 0 0
525 1 32.373 28.776 3.597 0 0 0
1496 1 19.7835 8.9925 10.791 0 0 0
1422 1 21.582 1.7985 19.7835 0 0 0
2105 1 17.985 25.179 21.582 0 0 0
1650 1 21.582 23.3805 8.9925 0 0 0
2850 1 10.791 23.3805 8.9925 0 0 0
986 1 28.776 34.1715 23.3805 0 0 0
3458 1 3.597 5.3955 16.1865 0 0 0
2644 1 8.9925 5.3955 0.0 0 0 0
1660 1 19.7835 23.3805 14.388 0 0 0
3531 1 1.7985 10.791 8.9925 0 0 0
3718 1 3.597 26.9775 34.1715 0 0 0
2994 1 10.791 34.1715 30.5745 0 0 0
1968 1 16.1865 16.1865 3.597 0 0 0
2208 1 12.5895 1.7985 3.597 0 0 0
2026 1 17.985 19.7835 23.3805 0 0 0
3153 1 7.194 10.791 28.776 0 0 0
3841 1 0.0 7.194 0.0 0 0 0
1478 1 21.582 5.3955 34.1715 0 0 0
1140 1 23.3805 12.5895 14.388 0 0 0
964 1 26.9775 34.1715 0.0 0 0 0
993 1 28.776 32.373 28.776 0 0 0
1159 1 23.3805 10.791 34.1715 0 0 0
1337 1 25.179 28.776 14.388 0 0 0
881 1 28.776 25.179 0.0 0 0 0
2259 1 12.5895 3.597 16.1865 0 0 0
2779 1 8.9925 14.388 16.1865 0 0 0
2431 1 12.5895 17.985 26.9775 0 0 0
3943 1 0.0 25.179 3.597 0 0 0
2793 1 10.791 14.388 28.776 0 0 0
2530 1 14.388 30.5745 8.9925 0 0 0
3682 1 3.597 26.9775 1.7985 0 0 0
3996 1 0.0 34.1715 26.9775 0 0 0
2921 1 10.791 28.776 0.0 0 0 0
2053 1 17.985 21.582 10.791 0 0 0
166 1 34.1715 30.5745 7.194 0 0 0
710 1 28.776 8.9925 26.9775 0 0 0
1550 1 21.582 12.5895 26.9775 0 0 0
1152 1 23.3805 12.5895 25.179 0 0 0
3850 1 0.0 8.9925 16.1865 0 0 0
855 1 26.9775 21.582 12.5895 0 0 0
3570 1 3.597 16.1865 8.9925 0 0 0
3333 1 7.194 28.776 10.791 0 0 0
3766 1 3.597 34.1715 5.3955 0 0 0
459 1 30.5745 21.582 16.1865 0 0 0
1174 1 25.179 16.1865 12.5895 0 0 0
1291 1 23.3805 25.179 8.9925 0 0 0
1360 1 23.3805 30.5745 32.373 0 0 0
2157 1 17.985 28.776 32.373 0 0 0
1613 1 21.582 17.985 10.791 0 0 0
3514 1 3.597 8.9925 30.5745 0 0 0
797 1 28.776 14.388 32.373 0 0 0
901 1 28.776 25.179 17.985 0 0 0
3873 1 0.0 10.791 21.582 0 0 0
1753 1 21.582 28.776 28.776 0 0 0
1355 1 23.3805 28.776 30.5745 0 0 0
3545 1 3.597 10.791 21.582 0 0 0
1392 1 23.3805 34.1715 25.179 0 0 0
2890 1 10.791 26.9775 8.9925 0 0 0
1733 1 21.582 28.776 10.791 0 0 0
384 1 30.5745 16.1865 17.985 0 0 0
3951 1 0.0 25.179 17.985 0 0 0
2451 1 12.5895 21.582 8.9925 0 0 0
3051 1 5.3955 3.597 8.9925 0 0 0
3214 1 7.194 19.7835 12.5895 0 0 0
1372 1 23.3805 34.1715 7.194 0 0 0
2265 1 14.388 3.597 21.582 0 0 0
1393 1 25.179 32.373 28.776 0 0 0
1476 1 19.7835 5.3955 28.776 0 0 0
1919 1 16.1865 7.194 34.1715 0 0 0
722 1 28.776 12.5895 1.7985 0 0 0
3129 1 7.194 10.791 7.194 0 0 0
584 1 30.5745 34.1715 17.985 0 0 0
1541 1 21.582 10.791 17.985 0 0 0
2993 1 10.791 32.373 28.776 0 0 0
652 1 26.9775 5.3955 7.194 0 0 0
3822 1 0.0 5.3955 1.7985 0 0 0
2796 1 8.9925 16.1865 28.776 0 0 0
271 1 30.5745 3.597 26.9775 0 0 0
500 1 30.5745 26.9775 14.388 0 0 0
2864 1 8.9925 23.3805 17.985 0 0 0
896 1 26.9775 26.9775 10.791 0 0 0
2893 1 10.791 25.179 10.791 0 0 0
833 1 28.776 17.985 28.776 0 0 0
3542 1 3.597 12.5895 19.7835 0 0 0
1275 1 23.3805 21.582 30.5745 0 0 0
3490 1 3.597 8.9925 8.9925 0 0 0
1125 1 25.179 10.791 3.597 0 0 0
1028 1 23.3805 1.7985 21.582 0 0 0
3422 1 3.597 1.7985 19.7835 0 0 0
221 1 32.373 0.0 17.985 0 0 0
1500 1 19.7835 8.9925 14.388 0 0 0
2704 1 8.9925 8.9925 17.985 0 0 0
1417 1 21.582 0.0 14.388 0 0 0
1490 1 21.582 8.9925 8.9925 0 0 0
2746 1 10.791 12.5895 23.3805 0 0 0
3085 1 7.194 7.194 3.597 0 0 0
2678 1 10.791 5.3955 34.1715 0 0 0
649 1 28.776 3.597 7.194 0 0 0
2601 1 10.791 0.0 0.0 0 0 0
847 1 26.9775 21.582 5.3955 0 0 0
3910 1 0.0 19.7835 16.1865 0 0 0
2393 1 14.388 14.388 28.776 0 0 0
3335 1 5.3955 28.776 12.5895 0 0 0
3103 1 5.3955 7.194 19.7835 0 0 0
1099 1 23.3805 7.194 16.1865 0 0 0
2082 1 17.985 26.9775 1.7985 0 0 0
785 1 28.776 14.388 21.582 0 0 0
2743 1 8.9925 10.791 19.7835 0 0 0
1972 1 16.1865 16.1865 7.194 0 0 0
282 1 32.373 8.9925 1.7985 0 0 0
1143 1 23.3805 10.791 19.7835 0 0 0
1274 1 25.179 23.3805 30.5745 0 0 0
2866 1 10.791 23.3805 23.3805 0 0 0
3466 1 3.597 5.3955 23.3805 0 0 0
2032 1 16.1865 19.7835 25.179 0 0 0
1217 1 25.179 17.985 14.388 0 0 0
3144 1 5.3955 12.5895 17.985 0 0 0
1020 1 23.3805 1.7985 14.388 0 0 0
892 1 26.9775 26.9775 7.194 0 0 0
1952 1 16.1865 12.5895 25.179 0 0 0
2554 1 14.388 30.5745 30.5745 0 0 0
338 1 32.373 12.5895 16.1865 0 0 0
168 1 34.1715 30.5745 10.791 0 0 0
296 1 30.5745 8.9925 10.791 0 0 0
3658 1 3.597 23.3805 16.1865 0 0 0
2867 1 8.9925 21.582 23.3805 0 0 0
2776 1 8.9925 16.1865 10.791 0 0 0
2471 1 12.5895 21.582 26.9775 0 0 0
831 1 26.9775 17.985 26.9775 0 0 0
848 1 26.9775 23.3805 3.597 0 0 0
3540 1 1.7985 12.5895 14.388 0 0 0
2111 1 16.1865 25.179 26.9775 0 0 0
1775 1 19.7835 32.373 12.5895 0 0 0
1886 1 17.985 8.9925 5.3955 0 0 0
1509 1 21.582 7.194 25.179 0 0 0
809 1 28.776 17.985 7.194 0 0 0
1459 1 19.7835 3.597 16.1865 0 0 0
1901 1 17.985 7.194 17.985 0 0 0
2013 1 17.985 17.985 10.791 0 0 0
3585 1 3.597 14.388 21.582 0 0 0
1011 1 23.3805 0.0 8.9925 0 0 0
3879 1 0.0 10.791 32.373 0 0 0
204 1 30.5745 1.7985 0.0 0 0 0
2195 1 16.1865 32.373 30.5745 0 0 0
721 1 28.776 10.791 0.0 0 0 0
352 1 30.5745 12.5895 25.179 0 0 0
2835 1 8.9925 17.985 30.5745 0 0 0
2654 1 10.791 5.3955 12.5895 0 0 0
1403 1 19.7835 0.0 1.7985 0 0 0
1521 1 21.582 10.791 0.0 0 0 0
3441 1 3.597 3.597 0.0 0 0 0
712 1 26.9775 8.9925 25.179 0 0 0
2333 1 14.388 10.791 10.791 0 0 0
1891 1 16.1865 7.194 8.9925 0 0 0
869 1 28.776 21.582 25.179 0 0 0
1640 1 19.7835 19.7835 32.373 0 0 0
2372 1 12.5895 16.1865 7.194 0 0 0
2210 1 14.388 1.7985 8.9925 0 0 0
1382 1 25.179 34.1715 19.7835 0 0 0
3917 1 0.0 17.985 28.776 0 0 0
172 1 34.1715 30.5745 17.985 0 0 0
2456 1 12.5895 23.3805 10.791 0 0 0
3218 1 7.194 19.7835 16.1865 0 0 0
978 1 28.776 34.1715 16.1865 0 0 0
422 1 32.373 19.7835 19.7835 0 0 0
3772 1 1.7985 34.1715 7.194 0 0 0
740 1 26.9775 12.5895 14.388 0 0 0
3008 1 5.3955 1.7985 3.597 0 0 0
2280 1 12.5895 5.3955 32.373 0 0 0
1816 1 16.1865 1.7985 10.791 0 0 0
635 1 26.9775 0.0 30.5745 0 0 0
2855 1 8.9925 21.582 12.5895 0 0 0
723 1 26.9775 10.791 1.7985 0 0 0
3241 1 7.194 21.582 0.0 0 0 0
2262 1 14.388 5.3955 19.7835 0 0 0
3467 1 1.7985 3.597 23.3805 0 0 0
2330 1 14.388 12.5895 8.9925 0 0 0
423 1 30.5745 17.985 19.7835 0 0 0
1221 1 25.179 17.985 17.985 0 0 0
249 1 32.373 3.597 7.194 0 0 0
2384 1 12.5895 16.1865 17.985 0 0 0
3589 1 3.597 14.388 25.179 0 0 0
3154 1 7.194 12.5895 30.5745 0 0 0
3745 1 3.597 28.776 21.582 0 0 0
2515 1 12.5895 25.179 30.5745 0 0 0
2035 1 16.1865 17.985 30.5745 0 0 0
1824 1 16.1865 1.7985 17.985 0 0 0
3082 1 7.194 8.9925 1.7985 0 0 0
2411 1 12.5895 17.985 8.9925 0 0 0
3239 1 5.3955 17.985 34.1715 0 0 0
1027 1 23.3805 0.0 23.3805 0 0 0
499 1 30.5745 25.179 16.1865 0 0 0
864 1 26.9775 23.3805 17.985 0 0 0
3673 1 3.597 21.582 28.776 0 0 0
2986 1 10.791 34.1715 23.3805 0 0 0
3435 1 1.7985 0.0 30.5745 0 0 0
1782 1 21.582 34.1715 19.7835 0 0 0
3222 1 7.194 19.7835 19.7835 0 0 0
1917 1 17.985 7.194 32.373 0 0 0
2682 1 10.791 8.9925 1.7985 0 0 0
792 1 26.9775 16.1865 25.179 0 0 0
2296 1 12.5895 8.9925 10.791 0 0 0
1050 1 25.179 5.3955 8.9925 0 0 0
1203 1 23.3805 17.985 1.7985 0 0 0
3783 1 1.7985 32.373 19.7835 0 0 0
1413 1 21.582 0.0 10.791 0 0 0
2963 1 8.9925 32.373 1.7985 0 0 0
1044 1 23.3805 5.3955 0.0 0 0 0
3376 1 5.3955 34.1715 10.791 0 0 0
1614 1 21.582 19.7835 12.5895 0 0 0
2534 1 14.388 30.5745 12.5895 0 0 0
1674 1 21.582 23.3805 30.5745 0 0 0
2540 1 12.5895 30.5745 14.388 0 0 0
914 1 28.776 26.9775 30.5745 0 0 0
1679 1 19.7835 21.582 34.1715 0 0 0
255 1 30.5745 3.597 12.5895 0 0 0
1019 1 23.3805 0.0 16.1865 0 0 0
1939 1 16.1865 10.791 16.1865 0 0 0
854 1 28.776 23.3805 12.5895 0 0 0
2527 1 12.5895 28.776 5.3955 0 0 0
3471 1 1.7985 3.597 26.9775 0 0 0
2706 1 10.791 8.9925 23.3805 0 0 0
1404 1 19.7835 1.7985 0.0 0 0 0
1830 1 17.985 1.7985 26.9775 0 0 0
574 1 32.373 34.1715 12.5895 0 0 0
3875 1 0.0 10.791 25.179 0 0 0
1015 1 23.3805 0.0 12.5895 0 0 0
2902 1 10.791 26.9775 19.7835 0 0 0
3736 1 1.7985 30.5745 10.791 0 0 0
2702 1 10.791 8.9925 19.7835 0 0 0
1288 1 23.3805 26.9775 3.597 0 0 0
2074 1 17.985 23.3805 30.5745 0 0 0
3979 1 0.0 28.776 32.373 0 0 0
1793 1 21.582 32.373 28.776 0 0 0
1599 1 19.7835 14.388 34.1715 0 0 0
1749 1 21.582 28.776 25.179 0 0 0
2759 1 8.9925 10.791 34.1715 0 0 0
1616 1 19.7835 19.7835 10.791 0 0 0
3641 1 3.597 21.582 0.0 0 0 0
608 1 26.9775 1.7985 3.597 0 0 0
3482 1 3.597 8.9925 1.7985 0 0 0
324 1 30.5745 12.5895 0.0 0 0 0
1427 1 19.7835 0.0 23.3805 0 0 0
572 1 30.5745 34.1715 7.194 0 0 0
1593 1 21.582 14.388 28.776 0 0 0
2920 1 8.9925 26.9775 32.373 0 0 0
728 1 26.9775 12.5895 3.597 0 0 0
383 1 30.5745 14.388 19.7835 0 0 0
1675 1 19.7835 21.582 30.5745 0 0 0
890 1 28.776 26.9775 8.9925 0 0 0
3147 1 5.3955 10.791 23.3805 0 0 0
2295 1 12.5895 7.194 12.5895 0 0 0
1619 1 19.7835 17.985 16.1865 0 0 0
1353 1 25.179 28.776 28.776 0 0 0
3233 1 7.194 17.985 28.776 0 0 0
3828 1 0.0 5.3955 12.5895 0 0 0
2548 1 12.5895 30.5745 21.582 0 0 0
1778 1 21.582 34.1715 16.1865 0 0 0
682 1 28.776 8.9925 1.7985 0 0 0
3268 1 5.3955 23.3805 21.582 0 0 0
2874 1 10.791 23.3805 30.5745 0 0 0
3096 1 5.3955 8.9925 10.791 0 0 0
3155 1 5.3955 10.791 30.5745 0 0 0
1996 1 16.1865 16.1865 28.776 0 0 0
1004 1 23.3805 1.7985 0.0 0 0 0
1338 1 25.179 30.5745 16.1865 0 0 0
303 1 30.5745 7.194 19.7835 0 0 0
2100 1 16.1865 26.9775 14.388 0 0 0
1405 1 21.582 0.0 3.597 0 0 0
3099 1 5.3955 7.194 16.1865 0 0 0
836 1 26.9775 19.7835 28.776 0 0 0
3477 1 3.597 3.597 32.373 0 0 0
2612 1 8.9925 1.7985 7.194 0 0 0
2803 1 8.9925 17.985 1.7985 0 0 0
621 1 28.776 0.0 17.985 0 0 0
1667 1 19.7835 21.582 23.3805 0 0 0
1248 1 23.3805 23.3805 3.597 0 0 0
1646 1 21.582 23.3805 5.3955 0 0 0
2689 1 10.791 7.194 7.194 0 0 0
3177 1 7.194 14.388 14.388 0 0 0
3657 1 3.597 21.582 14.388 0 0 0
1177 1 25.179 14.388 14.388 0 0 0
3613 1 3.597 17.985 10.791 0 0 0
2010 1 17.985 19.7835 8.9925 0 0 0
3890 1 0.0 16.1865 16.1865 0 0 0
2287 1 12.5895 7.194 5.3955 0 0 0
2969 1 10.791 32.373 7.194 0 0 0
1436 1 19.7835 1.7985 28.776 0 0 0
1967 1 16.1865 14.388 5.3955 0 0 0
789 1 28.776 14.388 25.179 0 0 0
1748 1 19.7835 30.5745 21.582 0 0 0
3149 1 7.194 10.791 25.179 0 0 0
2841 1 10.791 21.582 0.0 0 0 0
640 1 26.9775 1.7985 32.373 0 0 0
2937 1 10.791 28.776 14.388 0 0 0
1241 1 25.179 21.582 0.0 0 0 0
1082 1 25.179 8.9925 1.7985 0 0 0
200 1 34.1715 34.1715 32.373 0 0 0
2034 1 17.985 19.7835 30.5745 0 0 0
972 1 26.9775 34.1715 7.194 0 0 0
2869 1 10.791 21.582 25.179 0 0 0
3074 1 7.194 5.3955 30.5745 0 0 0
3310 1 7.194 26.9775 26.9775 0 0 0
3988 1 0.0 34.1715 12.5895 0 0 0
3498 1 3.597 8.9925 16.1865 0 0 0
292 1 30.5745 8.9925 7.194 0 0 0
1875 1 16.1865 3.597 30.5745 0 0 0
3285 1 7.194 25.179 3.597 0 0 0
3663 1 1.7985 21.582 19.7835 0 0 0
1745 1 21.582 28.776 21.582 0 0 0
1736 1 19.7835 30.5745 10.791 0 0 0
3485 1 3.597 7.194 3.597 0 0 0
2406 1 14.388 19.7835 5.3955 0 0 0
196 1 34.1715 34.1715 25.179 0 0 0
2757 1 10.791 10.791 32.373 0 0 0
1293 1 25.179 25.179 10.791 0 0 0
944 1 26.9775 30.5745 17.985 0 0 0
3248 1 5.3955 23.3805 3.597 0 0 0
1520 1 19.7835 8.9925 32.373 0 0 0
257 1 32.373 3.597 14.388 0 0 0
2692 1 8.9925 8.9925 7.194 0 0 0
1735 1 19.7835 28.776 12.5895 0 0 0
1852 1 16.1865 5.3955 7.194 0 0 0
1652 1 19.7835 23.3805 7.194 0 0 0
3977 1 0.0 28.776 28.776 0 0 0
3135 1 5.3955 10.791 12.5895 0 0 0
915 1 26.9775 25.179 30.5745 0 0 0
1201 2 25.179 17.985 0.0 0 0 0
1196 2 23.3805 16.1865 28.776 0 0 0
1345 2 25.179 28.776 21.582 0 0 0
89 2 34.1715 14.388 16.1865 0 0 0
633 2 28.776 0.0 28.776 0 0 0
1795 2 19.7835 32.373 30.5745 0 0 0
1528 2 19.7835 12.5895 3.597 0 0 0
2366 2 14.388 16.1865 5.3955 0 0 0
348 2 30.5745 12.5895 21.582 0 0 0
3953 2 0.0 25.179 21.582 0 0 0
208 2 30.5745 1.7985 3.597 0 0 0
1480 2 19.7835 5.3955 32.373 0 0 0
873 2 28.776 21.582 28.776 0 0 0
1934 2 17.985 12.5895 12.5895 0 0 0
804 2 26.9775 19.7835 0.0 0 0 0
2809 2 10.791 17.985 7.194 0 0 0
766 2 28.776 16.1865 5.3955 0 0 0
650 2 28.776 5.3955 8.9925 0 0 0
3887 2 0.0 14.388 10.791 0 0 0
27 2 34.1715 3.597 12.5895 0 0 0
2485 2 14.388 25.179 3.597 0 0 0
469 2 32.373 21.582 25.179 0 0 0
3202 2 7.194 19.7835 1.7985 0 0 0
3238 2 7.194 19.7835 34.1715 0 0 0
1132 2 23.3805 12.5895 7.194 0 0 0
2624 2 8.9925 1.7985 17.985 0 0 0
2071 2 16.1865 21.582 26.9775 0 0 0
1728 2 19.7835 30.5745 3.597 0 0 0
2124 2 16.1865 30.5745 0.0 0 0 0
2914 2 10.791 26.9775 30.5745 0 0 0
3588 2 1.7985 16.1865 21.582 0 0 0
2903 2 8.9925 25.179 19.7835 0 0 0
3492 2 1.7985 8.9925 7.194 0 0 0
2844 2 8.9925 23.3805 0.0 0 0 0
377 2 32.373 14.388 14.388 0 0 0
2751 2 8.9925 10.791 26.9775 0 0 0
3343 2 5.3955 28.776 19.7835 0 0 0
1321 2 25.179 28.776 0.0 0 0 0
222 2 32.373 1.7985 19.7835 0 0 0
3799 2 1.7985 32.373 34.1715 0 0 0
2576 2 12.5895 34.1715 10.791 0 0 0
3805 2 0.0 0.0 7.194 0 0 0
3338 2 7.194 30.5745 16.1865 0 0 0
1383 2 23.3805 32.373 19.7835 0 0 0
1764 2 19.7835 34.1715 0.0 0 0 0
1682 2 21.582 26.9775 1.7985 0 0 0
3418 2 3.597 1.7985 16.1865 0 0 0
233 2 32.373 0.0 28.776 0 0 0
3374 2 7.194 34.1715 12.5895 0 0 0
511 2 30.5745 25.179 26.9775 0 0 0
2188 2 16.1865 34.1715 21.582 0 0 0
1324 2 23.3805 30.5745 0.0 0 0 0
3476 2 1.7985 5.3955 28.776 0 0 0
1122 2 25.179 12.5895 1.7985 0 0 0
3365 2 7.194 32.373 3.597 0 0 0
3860 2 0.0 8.9925 34.1715 0 0 0
3987 2 0.0 32.373 10.791 0 0 0
2618 2 10.791 1.7985 16.1865 0 0 0
1724 2 19.7835 30.5745 0.0 0 0 0
3535 2 1.7985 10.791 12.5895 0 0 0
2144 2 16.1865 30.5745 17.985 0 0 0
1569 2 21.582 14.388 7.194 0 0 0
148 2 34.1715 26.9775 10.791 0 0 0
1460 2 19.7835 5.3955 14.388 0 0 0
1559 2 19.7835 10.791 34.1715 0 0 0
24 2 34.1715 5.3955 3.597 0 0 0
668 2 26.9775 5.3955 21.582 0 0 0
2719 2 8.9925 7.194 34.1715 0 0 0
3558 2 3.597 12.5895 34.1715 0 0 0
2677 2 10.791 3.597 32.373 0 0 0
958 2 28.776 30.5745 34.1715 0 0 0
1119 2 23.3805 7.194 34.1715 0 0 0
1298 2 25.179 26.9775 16.1865 0 0 0
1704 2 19.7835 26.9775 17.985 0 0 0
1602 2 21.582 19.7835 1.7985 0 0 0
2955 2 8.9925 28.776 30.5745 0 0 0
975 2 26.9775 32.373 12.5895 0 0 0
3302 2 7.194 26.9775 19.7835 0 0 0
1878 2 17.985 5.3955 34.1715 0 0 0
3119 2 5.3955 7.194 34.1715 0 0 0
761 2 28.776 14.388 0.0 0 0 0
3564 2 1.7985 16.1865 0.0 0 0 0
2282 2 14.388 8.9925 1.7985 0 0 0
2814 2 10.791 19.7835 12.5895 0 0 0
921 2 28.776 28.776 0.0 0 0 0
2834 2 10.791 19.7835 30.5745 0 0 0
2076 2 16.1865 23.3805 28.776 0 0 0
1678 2 21.582 23.3805 34.1715 0 0 0
169 2 34.1715 28.776 16.1865 0 0 0
3263 2 5.3955 21.582 19.7835 0 0 0
2950 2 10.791 30.5745 26.9775 0 0 0
1923 2 16.1865 10.791 1.7985 0 0 0
335 2 30.5745 10.791 12.5895 0 0 0
481 2 32.373 25.179 0.0 0 0 0
3227 2 5.3955 17.985 23.3805 0 0 0
2593 2 14.388 32.373 28.776 0 0 0
1992 2 16.1865 16.1865 25.179 0 0 0
2960 2 8.9925 30.5745 32.373 0 0 0
528 2 30.5745 30.5745 3.597 0 0 0
393 2 32.373 14.388 28.776 0 0 0
2585 2 14.388 32.373 21.582 0 0 0
1988 2 16.1865 16.1865 21.582 0 0 0
3674 2 3.597 23.3805 30.5745 0 0 0
2120 2 16.1865 26.9775 32.373 0 0 0
1558 2 21.582 12.5895 34.1715 0 0 0
2335 2 12.5895 10.791 12.5895 0 0 0
542 2 32.373 30.5745 19.7835 0 0 0
2392 2 12.5895 16.1865 25.179 0 0 0
2357 2 14.388 10.791 32.373 0 0 0
503 2 30.5745 25.179 19.7835 0 0 0
1391 2 23.3805 32.373 26.9775 0 0 0
427 2 30.5745 17.985 23.3805 0 0 0
515 2 30.5745 25.179 30.5745 0 0 0
2992 2 8.9925 34.1715 25.179 0 0 0
2109 2 17.985 25.179 25.179 0 0 0
1163 2 23.3805 14.388 1.7985 0 0 0
1245 2 25.179 21.582 3.597 0 0 0
815 2 26.9775 17.985 12.5895 0 0 0
862 2 28.776 23.3805 19.7835 0 0 0
3649 2 3.597 21.582 7.194 0 0 0
328 2 30.5745 12.5895 3.597 0 0 0
1037 2 25.179 0.0 32.373 0 0 0
253 2 32.373 3.597 10.791 0 0 0
2228 2 12.5895 1.7985 21.582 0 0 0
2340 2 12.5895 12.5895 14.388 0 0 0
109 2 34.1715 17.985 16.1865 0 0 0
50 2 34.1715 8.9925 14.388 0 0 0
902 2 28.776 26.9775 19.7835 0 0 0
2741 2 10.791 10.791 17.985 0 0 0
554 2 32.373 30.5745 30.5745 0 0 0
628 2 26.9775 1.7985 21.582 0 0 0
3689 2 3.597 25.179 7.194 0 0 0
2918 2 10.791 26.9775 34.1715 0 0 0
289 2 32.373 7.194 7.194 0 0 0
1421 2 21.582 0.0 17.985 0 0 0
3112 2 5.3955 8.9925 25.179 0 0 0
2432 2 12.5895 19.7835 25.179 0 0 0
2798 2 10.791 16.1865 34.1715 0 0 0
1318 2 25.179 26.9775 34.1715 0 0 0
421 2 32.373 17.985 17.985 0 0 0
2878 2 10.791 23.3805 34.1715 0 0 0
2468 2 12.5895 23.3805 21.582 0 0 0
1442 2 21.582 5.3955 1.7985 0 0 0
884 2 26.9775 26.9775 0.0 0 0 0
1006 2 25.179 1.7985 5.3955 0 0 0
2273 2 14.388 3.597 28.776 0 0 0
1633 2 21.582 17.985 28.776 0 0 0
3484 2 1.7985 8.9925 0.0 0 0 0
533 2 32.373 28.776 10.791 0 0 0
3717 2 3.597 25.179 32.373 0 0 0
1381 2 25.179 32.373 17.985 0 0 0
1630 2 21.582 19.7835 26.9775 0 0 0
1172 2 23.3805 16.1865 7.194 0 0 0
1332 2 23.3805 30.5745 7.194 0 0 0
2819 2 8.9925 17.985 16.1865 0 0 0
935 2 26.9775 28.776 12.5895 0 0 0
2900 2 8.9925 26.9775 14.388 0 0 0
1600 2 19.7835 16.1865 32.373 0 0 0
3206 2 7.194 19.7835 5.3955 0 0 0
875 2 26.9775 21.582 30.5745 0 0 0
187 2 34.1715 32.373 12.5895 0 0 0
3475 2 1.7985 3.597 30.5745 0 0 0
2505 2 14.388 25.179 21.582 0 0 0
2555 2 12.5895 28.776 30.5745 0 0 0
2400 2 12.5895 16.1865 32.373 0 0 0
2666 2 10.791 5.3955 23.3805 0 0 0
2458 2 14.388 23.3805 16.1865 0 0 0
2462 2 14.388 23.3805 19.7835 0 0 0
919 2 26.9775 25.179 34.1715 0 0 0
3064 2 5.3955 5.3955 17.985 0 0 0
1486 2 21.582 8.9925 5.3955 0 0 0
305 2 32.373 7.194 21.582 0 0 0
2730 2 10.791 12.5895 8.9925 0 0 0
268 2 30.5745 5.3955 21.582 0 0 0
2434 2 14.388 19.7835 30.5745 0 0 0
665 2 28.776 3.597 21.582 0 0 0
3039 2 5.3955 0.0 34.1715 0 0 0
3635 2 1.7985 17.985 30.5745 0 0 0
4000 2 0.0 34.1715 34.1715 0 0 0
641 2 28.776 3.597 0.0 0 0 0
2984 2 8.9925 34.1715 17.985 0 0 0
625 2 28.776 0.0 21.582 0 0 0
1790 2 21.582 34.1715 26.9775 0 0 0
2897 2 10.791 25.179 14.388 0 0 0
3966 2 0.0 30.5745 8.9925 0 0 0
2561 2 14.388 32.373 0.0 0 0 0
2703 2 8.9925 7.194 19.7835 0 0 0
3191 2 5.3955 14.388 26.9775 0 0 0
10 2 34.1715 1.7985 14.388 0 0 0
3895 2 0.0 14.388 25.179 0 0 0
1352 2 23.3805 30.5745 25.179 0 0 0
1953 2 17.985 10.791 28.776 0 0 0
535 2 30.5745 28.776 12.5895 0 0 0
810 2 28.776 19.7835 8.9925 0 0 0
272 2 30.5745 5.3955 25.179 0 0 0
351 2 30.5745 10.791 26.9775 0 0 0
2951 2 8.9925 28.776 26.9775 0 0 0
842 2 28.776 23.3805 1.7985 0 0 0
388 2 30.5745 16.1865 21.582 0 0 0
3803 2 0.0 0.0 3.597 0 0 0
911 2 26.9775 25.179 26.9775 0 0 0
350 2 32.373 12.5895 26.9775 0 0 0
2888 2 8.9925 26.9775 3.597 0 0 0
3217 2 7.194 17.985 14.388 0 0 0
3802 2 0.0 1.7985 1.7985 0 0 0
2658 2 10.791 5.3955 16.1865 0 0 0
795 2 26.9775 14.388 30.5745 0 0 0
609 2 28.776 0.0 7.194 0 0 0
3453 2 3.597 3.597 10.791 0 0 0
3393 2 7.194 32.373 28.776 0 0 0
2635 2 8.9925 0.0 30.5745 0 0 0
443 2 30.5745 21.582 1.7985 0 0 0
3759 2 1.7985 28.776 34.1715 0 0 0
3040 2 5.3955 1.7985 32.373 0 0 0
1410 2 21.582 1.7985 8.9925 0 0 0
930 2 28.776 30.5745 8.9925 0 0 0
1158 2 25.179 12.5895 34.1715 0 0 0
845 2 28.776 21.582 3.597 0 0 0
2493 2 14.388 25.179 10.791 0 0 0
3957 2 0.0 25.179 28.776 0 0 0
2415 2 12.5895 17.985 12.5895 0 0 0
538 2 32.373 30.5745 16.1865 0 0 0
3038 2 7.194 1.7985 34.1715 0 0 0
1501 2 21.582 7.194 17.985 0 0 0
95 2 34.1715 14.388 26.9775 0 0 0
932 2 26.9775 30.5745 7.194 0 0 0
3734 2 3.597 30.5745 12.5895 0 0 0
1776 2 19.7835 34.1715 10.791 0 0 0
3999 2 0.0 32.373 32.373 0 0 0
969 2 28.776 32.373 7.194 0 0 0
3454 2 3.597 5.3955 12.5895 0 0 0
3168 2 5.3955 16.1865 3.597 0 0 0
3898 2 0.0 16.1865 30.5745 0 0 0
959 2 26.9775 28.776 34.1715 0 0 0
3774 2 3.597 34.1715 12.5895 0 0 0
1008 2 23.3805 1.7985 3.597 0 0 0
3281 2 7.194 25.179 0.0 0 0 0
3874 2 0.0 12.5895 23.3805 0 0 0
3986 2 0.0 34.1715 8.9925 0 0 0
3507 2 1.7985 7.194 23.3805 0 0 0
3703 2 1.7985 25.179 19.7835 0 0 0
1612 2 19.7835 19.7835 7.194 0 0 0
2219 2 12.5895 0.0 16.1865 0 0 0
482 2 32.373 26.9775 1.7985 0 0 0
1035 2 23.3805 0.0 30.5745 0 0 0
622 2 28.776 1.7985 19.7835 0 0 0
704 2 26.9775 8.9925 17.985 0 0 0
3055 2 5.3955 3.597 12.5895 0 0 0
788 2 26.9775 16.1865 21.582 0 0 0
832 2 26.9775 19.7835 25.179 0 0 0
2309 2 14.388 7.194 25.179 0 0 0
2517 2 14.388 25.179 32.373 0 0 0
2494 2 14.388 26.9775 12.5895 0 0 0
460 2 30.5745 23.3805 14.388 0 0 0
2532 2 12.5895 30.5745 7.194 0 0 0
1937 2 17.985 10.791 14.388 0 0 0
2611 2 8.9925 0.0 8.9925 0 0 0
965 2 28.776 32.373 3.597 0 0 0
2009 2 17.985 17.985 7.194 0 0 0
210 2 32.373 1.7985 8.9925 0 0 0
3279 2 5.3955 21.582 34.1715 0 0 0
1547 2 19.7835 10.791 23.3805 0 0 0
2839 2 8.9925 17.985 34.1715 0 0 0
887 2 26.9775 25.179 5.3955 0 0 0
3188 2 5.3955 16.1865 21.582 0 0 0
2510 2 14.388 26.9775 26.9775 0 0 0
357 2 32.373 10.791 32.373 0 0 0
573 2 32.373 32.373 10.791 0 0 0
898 2 28.776 26.9775 16.1865 0 0 0
917 2 28.776 25.179 32.373 0 0 0
2478 2 14.388 23.3805 34.1715 0 0 0
2794 2 10.791 16.1865 30.5745 0 0 0
269 2 32.373 3.597 25.179 0 0 0
1326 2 25.179 30.5745 5.3955 0 0 0
839 2 26.9775 17.985 34.1715 0 0 0
2272 2 12.5895 5.3955 25.179 0 0 0
3114 2 7.194 8.9925 30.5745 0 0 0
3326 2 7.194 30.5745 5.3955 0 0 0
1001 2 25.179 0.0 0.0 0 0 0
452 2 30.5745 23.3805 7.194 0 0 0
2655 2 8.9925 3.597 12.5895 0 0 0
1713 2 21.582 25.179 28.776 0 0 0
2945 2 10.791 28.776 21.582 0 0 0
3656 2 1.7985 23.3805 10.791 0 0 0
3276 2 5.3955 23.3805 28.776 0 0 0
1798 2 21.582 34.1715 34.1715 0 0 0
3801 2 0.0 0.0 0.0 0 0 0
1526 2 21.582 12.5895 5.3955 0 0 0
2279 2 12.5895 3.597 34.1715 0 0 0
3361 2 7.194 32.373 0.0 0 0 0
2927 2 8.9925 28.776 5.3955 0 0 0
3443 2 1.7985 3.597 1.7985 0 0 0
65 2 34.1715 10.791 8.9925 0 0 0
1690 2 21.582 26.9775 8.9925 0 0 0
1116 2 23.3805 8.9925 28.776 0 0 0
830 2 28.776 19.7835 26.9775 0 0 0
619 2 26.9775 0.0 16.1865 0 0 0
2481 2 14.388 25.179 0.0 0 0 0
3113 2 7.194 7.194 28.776 0 0 0
3404 2 1.7985 1.7985 0.0 0 0 0
1063 2 23.3805 3.597 19.7835 0 0 0
1323 2 23.3805 28.776 1.7985 0 0 0
1948 2 16.1865 12.5895 21.582 0 0 0
2865 2 10.791 21.582 21.582 0 0 0
1406 2 21.582 1.7985 5.3955 0 0 0
2958 2 10.791 30.5745 34.1715 0 0 0
3084 2 5.3955 8.9925 0.0 0 0 0
2837 2 10.791 17.985 32.373 0 0 0
1375 2 23.3805 32.373 12.5895 0 0 0
25 2 34.1715 3.597 8.9925 0 0 0
1314 2 25.179 26.9775 30.5745 0 0 0
846 2 28.776 23.3805 5.3955 0 0 0
2939 2 8.9925 28.776 16.1865 0 0 0
3798 2 3.597 34.1715 34.1715 0 0 0
3134 2 7.194 12.5895 12.5895 0 0 0
1458 2 21.582 5.3955 16.1865 0 0 0
345 2 32.373 10.791 21.582 0 0 0
611 2 26.9775 0.0 8.9925 0 0 0
3146 2 7.194 12.5895 23.3805 0 0 0
130 2 34.1715 23.3805 14.388 0 0 0
1689 2 21.582 25.179 7.194 0 0 0
3409 2 3.597 0.0 7.194 0 0 0
1449 2 21.582 3.597 7.194 0 0 0
1042 2 25.179 5.3955 1.7985 0 0 0
3605 2 3.597 17.985 3.597 0 0 0
3598 2 3.597 16.1865 34.1715 0 0 0
2126 2 17.985 30.5745 5.3955 0 0 0
1415 2 19.7835 0.0 12.5895 0 0 0
3904 2 0.0 19.7835 5.3955 0 0 0
620 2 26.9775 1.7985 14.388 0 0 0
3699 2 1.7985 25.179 16.1865 0 0 0
1553 2 21.582 10.791 28.776 0 0 0
516 2 30.5745 26.9775 28.776 0 0 0
543 2 30.5745 28.776 19.7835 0 0 0
397 2 32.373 14.388 32.373 0 0 0
1141 2 25.179 10.791 17.985 0 0 0
765 2 28.776 14.388 3.597 0 0 0
3444 2 1.7985 5.3955 0.0 0 0 0
1076 2 23.3805 5.3955 28.776 0 0 0
1686 2 21.582 26.9775 5.3955 0 0 0
3969 2 0.0 28.776 14.388 0 0 0
207 2 30.5745 0.0 5.3955 0 0 0
3676 2 1.7985 23.3805 28.776 0 0 0
3701 2 3.597 25.179 17.985 0 0 0
2862 2 10.791 23.3805 19.7835 0 0 0
1092 2 23.3805 8.9925 7.194 0 0 0
3735 2 1.7985 28.776 12.5895 0 0 0
3047 2 5.3955 3.597 5.3955 0 0 0
1193 2 25.179 14.388 28.776 0 0 0
3830 2 0.0 5.3955 16.1865 0 0 0
3707 2 1.7985 25.179 23.3805 0 0 0
3164 2 5.3955 16.1865 0.0 0 0 0
2724 2 8.9925 12.5895 0.0 0 0 0
2319 2 12.5895 7.194 34.1715 0 0 0
1969 2 17.985 14.388 7.194 0 0 0
2868 2 8.9925 23.3805 21.582 0 0 0
2987 2 8.9925 32.373 23.3805 0 0 0
3363 2 5.3955 32.373 1.7985 0 0 0
329 2 32.373 10.791 7.194 0 0 0
2416 2 12.5895 19.7835 10.791 0 0 0
2580 2 12.5895 34.1715 14.388 0 0 0
2286 2 14.388 8.9925 5.3955 0 0 0
1396 3 23.3805 34.1715 28.776 0 0 0
105 3 34.1715 17.985 8.9925 0 0 0
2498 3 14.388 26.9775 16.1865 0 0 0
996 3 26.9775 34.1715 28.776 0 0 0
760 3 26.9775 12.5895 32.373 0 0 0
631 3 26.9775 0.0 26.9775 0 0 0
2573 3 14.388 32.373 10.791 0 0 0
1120 3 23.3805 8.9925 32.373 0 0 0
2649 3 10.791 3.597 7.194 0 0 0
824 3 26.9775 19.7835 17.985 0 0 0
93 3 34.1715 14.388 23.3805 0 0 0
418 3 32.373 19.7835 16.1865 0 0 0
1276 3 23.3805 23.3805 28.776 0 0 0
1705 3 21.582 25.179 21.582 0 0 0
3209 3 7.194 17.985 7.194 0 0 0
2547 3 12.5895 28.776 23.3805 0 0 0
1603 3 19.7835 17.985 1.7985 0 0 0
1451 3 19.7835 3.597 8.9925 0 0 0
1817 3 17.985 0.0 14.388 0 0 0
1726 3 21.582 30.5745 5.3955 0 0 0
3034 3 7.194 1.7985 30.5745 0 0 0
3814 3 0.0 1.7985 23.3805 0 0 0
198 3 34.1715 34.1715 28.776 0 0 0
3434 3 3.597 1.7985 30.5745 0 0 0
1629 3 21.582 17.985 25.179 0 0 0
2197 3 17.985 32.373 32.373 0 0 0
3216 3 5.3955 19.7835 10.791 0 0 0
1930 3 17.985 12.5895 8.9925 0 0 0
636 3 26.9775 1.7985 28.776 0 0 0
2081 3 17.985 25.179 0.0 0 0 0
3254 3 7.194 23.3805 12.5895 0 0 0
638 3 28.776 1.7985 34.1715 0 0 0
3501 3 3.597 7.194 17.985 0 0 0
2237 3 14.388 0.0 32.373 0 0 0
2086 3 17.985 26.9775 5.3955 0 0 0
3339 3 5.3955 28.776 16.1865 0 0 0
2320 3 12.5895 8.9925 32.373 0 0 0
2266 3 14.388 5.3955 23.3805 0 0 0
1729 3 21.582 28.776 7.194 0 0 0
2297 3 14.388 7.194 14.388 0 0 0
3293 3 7.194 25.179 10.791 0 0 0
3958 3 0.0 26.9775 30.5745 0 0 0
2523 3 12.5895 28.776 1.7985 0 0 0
1368 3 23.3805 34.1715 3.597 0 0 0
3465 3 3.597 3.597 21.582 0 0 0
2942 3 10.791 30.5745 19.7835 0 0 0
3817 3 0.0 0.0 28.776 0 0 0
2972 3 8.9925 34.1715 7.194 0 0 0
822 3 28.776 19.7835 19.7835 0 0 0
2562 3 14.388 34.1715 1.7985 0 0 0
1479 3 19.7835 3.597 34.1715 0 0 0
2661 3 10.791 3.597 17.985 0 0 0
2502 3 14.388 26.9775 19.7835 0 0 0
3306 3 7.194 26.9775 23.3805 0 0 0
3947 3 0.0 25.179 10.791 0 0 0
2441 3 14.388 21.582 0.0 0 0 0
2680 3 8.9925 5.3955 32.373 0 0 0
1137 3 25.179 10.791 14.388 0 0 0
2501 3 14.388 25.179 17.985 0 0 0
3017 3 7.194 0.0 14.388 0 0 0
3043 3 5.3955 3.597 1.7985 0 0 0
2192 3 16.1865 34.1715 25.179 0 0 0
445 3 32.373 21.582 3.597 0 0 0
3506 3 3.597 8.9925 23.3805 0 0 0
3097 3 7.194 7.194 14.388 0 0 0
1090 3 25.179 8.9925 8.9925 0 0 0
2093 3 17.985 25.179 10.791 0 0 0
3372 3 5.3955 34.1715 7.194 0 0 0
2348 3 12.5895 12.5895 21.582 0 0 0
3053 3 7.194 3.597 10.791 0 0 0
1118 3 25.179 8.9925 34.1715 0 0 0
1777 3 21.582 32.373 14.388 0 0 0
150 3 34.1715 26.9775 14.388 0 0 0
3536 3 1.7985 12.5895 10.791 0 0 0
1012 3 23.3805 1.7985 7.194 0 0 0
2722 3 10.791 12.5895 1.7985 0 0 0
3930 3 0.0 23.3805 16.1865 0 0 0
617 3 28.776 0.0 14.388 0 0 0
370 3 32.373 16.1865 8.9925 0 0 0
160 3 34.1715 26.9775 32.373 0 0 0
764 3 26.9775 16.1865 0.0 0 0 0
1677 3 21.582 21.582 32.373 0 0 0
1784 3 19.7835 34.1715 17.985 0 0 0
1909 3 17.985 7.194 25.179 0 0 0
2784 3 8.9925 16.1865 17.985 0 0 0
2727 3 8.9925 10.791 5.3955 0 0 0
75 3 34.1715 10.791 26.9775 0 0 0
1457 3 21.582 3.597 14.388 0 0 0
541 3 32.373 28.776 17.985 0 0 0
431 3 30.5745 17.985 26.9775 0 0 0
489 3 32.373 25.179 7.194 0 0 0
404 3 30.5745 19.7835 0.0 0 0 0
1899 3 16.1865 7.194 16.1865 0 0 0
1971 3 16.1865 14.388 8.9925 0 0 0
2125 3 17.985 28.776 3.597 0 0 0
677 3 28.776 3.597 32.373 0 0 0
3550 3 3.597 12.5895 26.9775 0 0 0
605 3 28.776 0.0 3.597 0 0 0
2861 3 10.791 21.582 17.985 0 0 0
3013 3 7.194 0.0 10.791 0 0 0
736 3 26.9775 12.5895 10.791 0 0 0
3527 3 1.7985 10.791 5.3955 0 0 0
347 3 30.5745 10.791 23.3805 0 0 0
2376 3 12.5895 16.1865 10.791 0 0 0
2167 3 16.1865 32.373 5.3955 0 0 0
3124 3 5.3955 12.5895 0.0 0 0 0
2646 3 10.791 5.3955 5.3955 0 0 0
1691 3 19.7835 25.179 8.9925 0 0 0
6 3 34.1715 1.7985 7.194 0 0 0
2142 3 17.985 30.5745 19.7835 0 0 0
1846 3 17.985 5.3955 5.3955 0 0 0
3025 3 7.194 0.0 21.582 0 0 0
2662 3 10.791 5.3955 19.7835 0 0 0
3448 3 1.7985 5.3955 3.597 0 0 0
3456 3 1.7985 5.3955 10.791 0 0 0
185 3 34.1715 32.373 8.9925 0 0 0
3586 3 3.597 16.1865 23.3805 0 0 0
3201 3 7.194 17.985 0.0 0 0 0
164 3 34.1715 30.5745 3.597 0 0 0
3200 3 5.3955 16.1865 32.373 0 0 0
2747 3 8.9925 10.791 23.3805 0 0 0
2756 3 8.9925 12.5895 28.776 0 0 0
3965 3 0.0 28.776 7.194 0 0 0
3738 3 3.597 30.5745 16.1865 0 0 0
477 3 32.373 21.582 32.373 0 0 0
1239 3 23.3805 17.985 34.1715 0 0 0
3300 3 5.3955 26.9775 14.388 0 0 0
806 3 28.776 19.7835 5.3955 0 0 0
865 3 28.776 21.582 21.582 0 0 0
2606 3 10.791 1.7985 5.3955 0 0 0
2075 3 16.1865 21.582 30.5745 0 0 0
1697 3 21.582 25.179 14.388 0 0 0
1617 3 21.582 17.985 14.388 0 0 0
2602 3 10.791 1.7985 1.7985 0 0 0
3278 3 7.194 23.3805 34.1715 0 0 0
2123 3 16.1865 28.776 1.7985 0 0 0
2690 3 10.791 8.9925 8.9925 0 0 0
3725 3 3.597 28.776 3.597 0 0 0
2495 3 12.5895 25.179 12.5895 0 0 0
3163 3 5.3955 14.388 1.7985 0 0 0
2244 3 12.5895 5.3955 0.0 0 0 0
1487 3 19.7835 7.194 5.3955 0 0 0
49 3 34.1715 7.194 16.1865 0 0 0
2641 3 10.791 3.597 0.0 0 0 0
3203 3 5.3955 17.985 1.7985 0 0 0
3626 3 3.597 19.7835 23.3805 0 0 0
3330 3 7.194 30.5745 8.9925 0 0 0
1039 3 23.3805 0.0 34.1715 0 0 0
67 3 34.1715 10.791 12.5895 0 0 0
507 3 30.5745 25.179 23.3805 0 0 0
2887 3 8.9925 25.179 5.3955 0 0 0
403 3 30.5745 17.985 1.7985 0 0 0
1481 3 21.582 7.194 0.0 0 0 0
1984 3 16.1865 16.1865 17.985 0 0 0
946 3 28.776 30.5745 23.3805 0 0 0
1067 3 23.3805 3.597 23.3805 0 0 0
3151 3 5.3955 10.791 26.9775 0 0 0
2222 3 14.388 1.7985 19.7835 0 0 0
3571 3 1.7985 14.388 8.9925 0 0 0
947 3 26.9775 28.776 23.3805 0 0 0
1508 3 19.7835 8.9925 21.582 0 0 0
2476 3 12.5895 23.3805 28.776 0 0 0
675 3 26.9775 3.597 30.5745 0 0 0
81 3 34.1715 14.388 1.7985 0 0 0
3804 3 0.0 1.7985 5.3955 0 0 0
112 3 34.1715 19.7835 17.985 0 0 0
2633 3 10.791 0.0 28.776 0 0 0
686 3 28.776 8.9925 5.3955 0 0 0
501 3 32.373 25.179 17.985 0 0 0
2849 3 10.791 21.582 7.194 0 0 0
2006 3 17.985 19.7835 5.3955 0 0 0
195 3 34.1715 32.373 26.9775 0 0 0
483 3 30.5745 25.179 1.7985 0 0 0
1715 3 19.7835 25.179 30.5745 0 0 0
669 3 28.776 3.597 25.179 0 0 0
2557 3 14.388 28.776 32.373 0 0 0
2711 3 8.9925 7.194 26.9775 0 0 0
3972 3 0.0 30.5745 19.7835 0 0 0
2563 3 12.5895 32.373 1.7985 0 0 0
285 3 32.373 7.194 3.597 0 0 0
2258 3 14.388 5.3955 16.1865 0 0 0
267 3 30.5745 3.597 23.3805 0 0 0
3499 3 1.7985 7.194 16.1865 0 0 0
2019 3 16.1865 17.985 16.1865 0 0 0
3299 3 5.3955 25.179 16.1865 0 0 0
505 3 32.373 25.179 21.582 0 0 0
2638 3 10.791 1.7985 34.1715 0 0 0
1722 3 21.582 30.5745 1.7985 0 0 0
1049 3 25.179 3.597 7.194 0 0 0
2305 3 14.388 7.194 21.582 0 0 0
3180 3 5.3955 16.1865 14.388 0 0 0
2046 3 17.985 23.3805 5.3955 0 0 0
3442 3 3.597 5.3955 1.7985 0 0 0
3948 3 0.0 26.9775 12.5895 0 0 0
3651 3 1.7985 21.582 8.9925 0 0 0
3089 3 7.194 7.194 7.194 0 0 0
1398 3 25.179 34.1715 34.1715 0 0 0
2408 3 12.5895 19.7835 3.597 0 0 0
1922 3 17.985 12.5895 1.7985 0 0 0
1477 3 21.582 3.597 32.373 0 0 0
3528 3 1.7985 12.5895 3.597 0 0 0
3062 3 7.194 5.3955 19.7835 0 0 0
3869 3 0.0 10.791 14.388 0 0 0
488 3 30.5745 26.9775 3.597 0 0 0
1894 3 17.985 8.9925 12.5895 0 0 0
2691 3 8.9925 7.194 8.9925 0 0 0
2787 3 8.9925 14.388 23.3805 0 0 0
1053 3 25.179 3.597 10.791 0 0 0
2218 3 14.388 1.7985 16.1865 0 0 0
3322 3 7.194 30.5745 1.7985 0 0 0
2334 3 14.388 12.5895 12.5895 0 0 0
152 3 34.1715 26.9775 17.985 0 0 0
1908 3 16.1865 8.9925 21.582 0 0 0
2559 3 12.5895 28.776 34.1715 0 0 0
1147 3 23.3805 10.791 23.3805 0 0 0
2039 3 16.1865 17.985 34.1715 0 0 0
2450 3 14.388 23.3805 8.9925 0 0 0
3294 3 7.194 26.9775 12.5895 0 0 0
819 3 26.9775 17.985 16.1865 0 0 0
321 3 32.373 10.791 0.0 0 0 0
2543 3 12.5895 28.776 19.7835 0 0 0
3909 3 0.0 17.985 14.388 0 0 0
3438 3 3.597 1.7985 34.1715 0 0 0
2323 3 12.5895 10.791 1.7985 0 0 0
3912 3 0.0 19.7835 19.7835 0 0 0
3515 3 1.7985 7.194 30.5745 0 0 0
3291 3 5.3955 25.179 8.9925 0 0 0
1206 3 25.179 19.7835 5.3955 0 0 0
1800 3 19.7835 34.1715 32.373 0 0 0
2738 3 10.791 12.5895 16.1865 0 0 0
3459 3 1.7985 3.597 16.1865 0 0 0
897 3 28.776 25.179 14.388 0 0 0
1688 3 19.7835 26.9775 3.597 0 0 0
1007 3 23.3805 0.0 5.3955 0 0 0
3794 3 3.597 34.1715 30.5745 0 0 0
1752 3 19.7835 30.5745 25.179 0 0 0
3003 3 5.3955 0.0 1.7985 0 0 0
2200 3 16.1865 34.1715 32.373 0 0 0
2179 3 16.1865 32.373 16.1865 0 0 0
3057 3 7.194 3.597 14.388 0 0 0
841 3 28.776 21.582 0.0 0 0 0
2311 3 12.5895 7.194 26.9775 0 0 0
3749 3 3.597 28.776 25.179 0 0 0
2946 3 10.791 30.5745 23.3805 0 0 0
849 3 28.776 21.582 7.194 0 0 0
2161 3 17.985 32.373 0.0 0 0 0
1701 3 21.582 25.179 17.985 0 0 0
3728 3 1.7985 30.5745 3.597 0 0 0
270 3 32.373 5.3955 26.9775 0 0 0
2097 3 17.985 25.179 14.388 0 0 0
777 3 28.776 14.388 14.388 0 0 0
3926 3 0.0 23.3805 8.9925 0 0 0
3742 3 3.597 30.5745 19.7835 0 0 0
3014 3 7.194 1.7985 12.5895 0 0 0
3903 3 0.0 17.985 3.597 0 0 0
1098 3 25.179 8.9925 16.1865 0 0 0
3503 3 1.7985 7.194 19.7835 0 0 0
895 3 26.9775 25.179 12.5895 0 0 0
2449 3 14.388 21.582 7.194 0 0 0
3842 3 0.0 8.9925 1.7985 0 0 0
3052 3 5.3955 5.3955 7.194 0 0 0
3574 3 3.597 16.1865 12.5895 0 0 0
1149 3 25.179 10.791 25.179 0 0 0
2099 3 16.1865 25.179 16.1865 0 0 0
2290 3 14.388 8.9925 8.9925 0 0 0
2733 3 10.791 10.791 10.791 0 0 0
1913 3 17.985 7.194 28.776 0 0 0
3035 3 5.3955 0.0 30.5745 0 0 0
463 3 30.5745 21.582 19.7835 0 0 0
3193 3 7.194 14.388 28.776 0 0 0
2686 3 10.791 8.9925 5.3955 0 0 0
2204 3 12.5895 1.7985 0.0 0 0 0
1112 3 23.3805 8.9925 25.179 0 0 0
390 3 32.373 16.1865 26.9775 0 0 0
420 3 30.5745 19.7835 14.388 0 0 0
1227 3 23.3805 17.985 23.3805 0 0 0
2465 3 14.388 21.582 21.582 0 0 0
1862 3 17.985 5.3955 19.7835 0 0 0
205 3 32.373 0.0 3.597 0 0 0
3504 3 1.7985 8.9925 17.985 0 0 0
2073 3 17.985 21.582 28.776 0 0 0
939 3 26.9775 28.776 16.1865 0 0 0
1583 3 19.7835 14.388 19.7835 0 0 0
2829 3 10.791 17.985 25.179 0 0 0
558 3 32.373 30.5745 34.1715 0 0 0
968 3 26.9775 34.1715 3.597 0 0 0
2331 3 12.5895 10.791 8.9925 0 0 0
3582 3 3.597 16.1865 19.7835 0 0 0
2140 3 16.1865 30.5745 14.388 0 0 0
3793 3 3.597 32.373 28.776 0 0 0
3569 3 3.597 14.388 7.194 0 0 0
3971 3 0.0 28.776 17.985 0 0 0
2268 3 12.5895 5.3955 21.582 0 0 0
2999 3 8.9925 32.373 34.1715 0 0 0
2521 3 14.388 28.776 0.0 0 0 0
3628 3 1.7985 19.7835 21.582 0 0 0
523 3 30.5745 28.776 1.7985 0 0 0
3984 3 0.0 34.1715 5.3955 0 0 0
2516 3 12.5895 26.9775 28.776 0 0 0
1585 3 21.582 14.388 21.582 0 0 0
1840 3 16.1865 1.7985 32.373 0 0 0
2643 3 8.9925 3.597 1.7985 0 0 0
2599 3 12.5895 32.373 34.1715 0 0 0
549 3 32.373 28.776 25.179 0 0 0
907 3 26.9775 25.179 23.3805 0 0 0
138 3 34.1715 23.3805 28.776 0 0 0
1493 3 21.582 7.194 10.791 0 0 0
3896 3 0.0 16.1865 26.9775 0 0 0
274 3 32.373 5.3955 30.5745 0 0 0
3764 3 1.7985 34.1715 0.0 0 0 0
26 3 34.1715 5.3955 7.194 0 0 0
3775 3 1.7985 32.373 12.5895 0 0 0
2421 3 14.388 17.985 17.985 0 0 0
2514 3 14.388 26.9775 30.5745 0 0 0
68 3 34.1715 12.5895 10.791 0 0 0
227 3 30.5745 0.0 23.3805 0 0 0
1171 3 23.3805 14.388 8.9925 0 0 0
3885 3 0.0 14.388 7.194 0 0 0
3228 3 5.3955 19.7835 21.582 0 0 0
3702 3 3.597 26.9775 19.7835 0 0 0
2500 3 12.5895 26.9775 14.388 0 0 0
827 3 26.9775 17.985 23.3805 0 0 0
311 3 30.5745 7.194 26.9775 0 0 0
3684 3 1.7985 26.9775 0.0 0 0 0
860 3 26.9775 23.3805 14.388 0 0 0
2401 3 14.388 17.985 0.0 0 0 0
1064 3 23.3805 5.3955 17.985 0 0 0
1643 3 19.7835 21.582 1.7985 0 0 0
1433 3 21.582 0.0 28.776 0 0 0
1561 3 21.582 14.388 0.0 0 0 0
2298 3 14.388 8.9925 16.1865 0 0 0
912 3 26.9775 26.9775 25.179 0 0 0
3729 3 3.597 28.776 7.194 0 0 0
711 3 26.9775 7.194 26.9775 0 0 0
646 3 28.776 5.3955 5.3955 0 0 0
1711 3 19.7835 25.179 26.9775 0 0 0
3437 3 3.597 0.0 32.373 0 0 0
2806 3 10.791 19.7835 5.3955 0 0 0
3854 3 0.0 8.9925 23.3805 0 0 0
3106 3 7.194 8.9925 23.3805 0 0 0
3664 3 1.7985 23.3805 17.985 0 0 0
101 3 34.1715 17.985 1.7985 0 0 0
2214 3 14.388 1.7985 12.5895 0 0 0
2177 3 17.985 32.373 14.388 0 0 0
375 3 30.5745 14.388 12.5895 0 0 0
909 3 28.776 25.179 25.179 0 0 0
1615 3 19.7835 17.985 12.5895 0 0 0
3042 3 7.194 5.3955 1.7985 0 0 0
1170 3 25.179 16.1865 8.9925 0 0 0
3091 3 5.3955 7.194 8.9925 0 0 0
2302 3 14.388 8.9925 19.7835 0 0 0
2015 3 16.1865 17.985 12.5895 0 0 0
796 3 26.9775 16.1865 28.776 0 0 0
3944 3 0.0 26.9775 5.3955 0 0 0
3580 3 1.7985 16.1865 14.388 0 0 0
1666 3 21.582 23.3805 23.3805 0 0 0
952 3 26.9775 30.5745 25.179 0 0 0
2362 3 14.388 16.1865 1.7985 0 0 0
3145 3 7.194 10.791 21.582 0 0 0
3086 3 7.194 8.9925 5.3955 0 0 0
2483 3 12.5895 25.179 1.7985 0 0 0
984 3 26.9775 34.1715 17.985 0 0 0
744 3 26.9775 12.5895 17.985 0 0 0
1384 3 23.3805 34.1715 17.985 0 0 0
3245 3 7.194 21.582 3.597 0 0 0
2243 3 12.5895 3.597 1.7985 0 0 0
1070 3 25.179 5.3955 26.9775 0 0 0
1864 3 16.1865 5.3955 17.985 0 0 0
3821 3 0.0 3.597 0.0 0 0 0
381 3 32.373 14.388 17.985 0 0 0
3198 3 7.194 16.1865 34.1715 0 0 0
3652 3 1.7985 23.3805 7.194 0 0 0
3681 3 3.597 25.179 0.0 0 0 0
1200 3 23.3805 16.1865 32.373 0 0 0
332 3 30.5745 12.5895 7.194 0 0 0
141 3 34.1715 25.179 1.7985 0 0 0
1880 3 16.1865 5.3955 32.373 0 0 0
178 3 34.1715 30.5745 28.776 0 0 0
434 3 32.373 19.7835 30.5745 0 0 0
566 3 32.373 34.1715 5.3955 0 0 0
2379 3 12.5895 14.388 16.1865 0 0 0
2652 3 8.9925 5.3955 7.194 0 0 0
3800 3 1.7985 34.1715 32.373 0 0 0
519 3 30.5745 25.179 34.1715 0 0 0
2772 3 8.9925 16.1865 7.194 0 0 0
731 3 26.9775 10.791 8.9925 0 0 0
2597 3 14.388 32.373 32.373 0 0 0
2172 3 16.1865 34.1715 7.194 0 0 0
2497 3 14.388 25.179 14.388 0 0 0
1279 3 23.3805 21.582 34.1715 0 0 0
1290 3 25.179 26.9775 8.9925 0 0 0
2979 3 8.9925 32.373 16.1865 0 0 0
3229 3 7.194 17.985 25.179 0 0 0
360 3 30.5745 12.5895 32.373 0 0 0
1185 3 25.179 14.388 21.582 0 0 0
449 3 32.373 21.582 7.194 0 0 0
787 3 26.9775 14.388 23.3805 0 0 0
343 3 30.5745 10.791 19.7835 0 0 0
801 3 28.776 17.985 0.0 0 0 0
254 3 32.373 5.3955 12.5895 0 0 0
450 3 32.373 23.3805 8.9925 0 0 0
2356 3 12.5895 12.5895 28.776 0 0 0
2892 3 8.9925 26.9775 7.194 0 0 0
3546 3 3.597 12.5895 23.3805 0 0 0
1772 3 19.7835 34.1715 7.194 0 0 0
1146 3 25.179 12.5895 23.3805 0 0 0
1374 3 25.179 34.1715 12.5895 0 0 0
1956 3 16.1865 12.5895 28.776 0 0 0
3307 3 5.3955 25.179 23.3805 0 0 0
2807 3 8.9925 17.985 5.3955 0 0 0
3313 3 7.194 25.179 28.776 0 0 0
1656 3 19.7835 23.3805 10.791 0 0 0
3170 3 7.194 16.1865 8.9925 0 0 0
1325 3 25.179 28.776 3.597 0 0 0
3020 3 5.3955 1.7985 14.388 0 0 0
336 3 30.5745 12.5895 10.791 0 0 0
3487 3 1.7985 7.194 5.3955 0 0 0
2717 3 10.791 7.194 32.373 0 0 0
3351 3 5.3955 28.776 26.9775 0 0 0
591 3 30.5745 32.373 26.9775 0 0 0
3747 3 1.7985 28.776 23.3805 0 0 0
2185 3 17.985 32.373 21.582 0 0 0
1805 3 17.985 0.0 3.597 0 0 0
3880 3 0.0 12.5895 34.1715 0 0 0
2929 3 10.791 28.776 7.194 0 0 0
1757 3 21.582 28.776 32.373 0 0 0
3919 3 0.0 17.985 32.373 0 0 0
799 3 26.9775 14.388 34.1715 0 0 0
643 3 26.9775 3.597 1.7985 0 0 0
2932 3 8.9925 30.5745 7.194 0 0 0
2430 3 14.388 19.7835 26.9775 0 0 0
2225 3 14.388 0.0 21.582 0 0 0
3816 3 0.0 1.7985 26.9775 0 0 0
3756 3 1.7985 30.5745 28.776 0 0 0
1108 3 23.3805 8.9925 21.582 0 0 0
1351 3 23.3805 28.776 26.9775 0 0 0
3231 3 5.3955 17.985 26.9775 0 0 0
2962 3 10.791 34.1715 1.7985 0 0 0
2383 3 12.5895 14.388 19.7835 0 0 0
3225 3 7.194 17.985 21.582 0 0 0
1331 3 23.3805 28.776 8.9925 0 0 0
3632 3 1.7985 19.7835 25.179 0 0 0
3567 3 1.7985 14.388 5.3955 0 0 0
2595 3 12.5895 32.373 30.5745 0 0 0
1845 3 17.985 3.597 3.597 0 0 0
866 3 28.776 23.3805 23.3805 0 0 0
117 3 34.1715 17.985 30.5745 0 0 0
2249 3 14.388 3.597 7.194 0 0 0
2909 3 10.791 25.179 25.179 0 0 0
2664 3 8.9925 5.3955 17.985 0 0 0
1356 3 23.3805 30.5745 28.776 0 0 0
3807 3 0.0 0.0 10.791 0 0 0
3264 3 5.3955 23.3805 17.985 0 0 0
2135 3 16.1865 28.776 12.5895 0 0 0
190 3 34.1715 34.1715 14.388 0 0 0
1818 3 17.985 1.7985 16.1865 0 0 0
1452 3 19.7835 5.3955 7.194 0 0 0
3496 3 1.7985 8.9925 10.791 0 0 0
550 3 32.373 30.5745 26.9775 0 0 0
1856 3 16.1865 5.3955 10.791 0 0 0
161 3 34.1715 28.776 1.7985 0 0 0
415 3 30.5745 17.985 12.5895 0 0 0
1205 3 25.179 17.985 3.597 0 0 0
1986 3 17.985 16.1865 23.3805 0 0 0
1380 3 23.3805 34.1715 14.388 0 0 0
2159 3 16.1865 28.776 34.1715 0 0 0
2623 3 8.9925 0.0 19.7835 0 0 0
2409 3 14.388 17.985 7.194 0 0 0
3754 3 3.597 30.5745 30.5745 0 0 0
2068 3 16.1865 23.3805 21.582 0 0 0
776 3 26.9775 16.1865 10.791 0 0 0
1280 3 23.3805 23.3805 32.373 0 0 0
1949 3 17.985 10.791 25.179 0 0 0
1981 3 17.985 14.388 17.985 0 0 0
2255 3 12.5895 3.597 12.5895 0 0 0
215 3 30.5745 0.0 12.5895 0 0 0
1475 3 19.7835 3.597 30.5745 0 0 0
309 3 32.373 7.194 25.179 0 0 0
3916 3 0.0 19.7835 26.9775 0 0 0
3730 3 3.597 30.5745 8.9925 0 0 0
1469 3 21.582 3.597 25.179 0 0 0
44 3 34.1715 8.9925 3.597 0 0 0
3080 3 5.3955 5.3955 32.373 0 0 0
1575 3 19.7835 14.388 12.5895 0 0 0
3523 3 1.7985 10.791 1.7985 0 0 0
1586 3 21.582 16.1865 23.3805 0 0 0
3207 3 5.3955 17.985 5.3955 0 0 0
3833 3 0.0 3.597 21.582 0 0 0
2996 3 8.9925 34.1715 28.776 0 0 0
2426 3 14.388 19.7835 23.3805 0 0 0
302 3 32.373 8.9925 19.7835 0 0 0
1121 3 25.179 10.791 0.0 0 0 0
1071 3 23.3805 3.597 26.9775 0 0 0
3126 3 7.194 12.5895 5.3955 0 0 0
1975 3 16.1865 14.388 12.5895 0 0 0
1378 3 25.179 34.1715 16.1865 0 0 0
3352 3 5.3955 30.5745 25.179 0 0 0
1357 3 25.179 28.776 32.373 0 0 0
433 3 32.373 17.985 28.776 0 0 0
3819 3 0.0 0.0 32.373 0 0 0
3846 3 0.0 8.9925 8.9925 0 0 0
3187 3 5.3955 14.388 23.3805 0 0 0
1512 3 19.7835 8.9925 25.179 0 0 0
1854 3 17.985 5.3955 12.5895 0 0 0
361 3 32.373 14.388 0.0 0 0 0
1411 3 19.7835 0.0 8.9925 0 0 0
231 3 30.5745 0.0 26.9775 0 0 0
3740 3 1.7985 30.5745 14.388 0 0 0
3604 3 1.7985 19.7835 0.0 0 0 0
3474 3 3.597 5.3955 30.5745 0 0 0
230 3 32.373 1.7985 26.9775 0 0 0
985 3 28.776 32.373 21.582 0 0 0
426 3 32.373 19.7835 23.3805 0 0 0
3952 3 0.0 26.9775 19.7835 0 0 0
3123 3 5.3955 10.791 1.7985 0 0 0
588 3 30.5745 34.1715 21.582 0 0 0
3714 3 3.597 26.9775 30.5745 0 0 0
2568 3 12.5895 34.1715 3.597 0 0 0
209 3 32.373 0.0 7.194 0 0 0
1687 3 19.7835 25.179 5.3955 0 0 0
2851 3 8.9925 21.582 8.9925 0 0 0
2647 3 8.9925 3.597 5.3955 0 0 0
1085 3 25.179 7.194 3.597 0 0 0
941 3 28.776 28.776 17.985 0 0 0
910 3 28.776 26.9775 26.9775 0 0 0
3401 3 3.597 0.0 0.0 0 0 0
2705 3 10.791 7.194 21.582 0 0 0
793 3 28.776 14.388 28.776 0 0 0
3733 3 3.597 28.776 10.791 0 0 0
2700 3 8.9925 8.9925 14.388 0 0 0
2445 3 14.388 21.582 3.597 0 0 0
2859 3 8.9925 21.582 16.1865 0 0 0
3063 3 5.3955 3.597 19.7835 0 0 0
674 3 28.776 5.3955 30.5745 0 0 0
3354 3 7.194 30.5745 30.5745 0 0 0
1319 3 23.3805 25.179 34.1715 0 0 0
838 3 28.776 19.7835 34.1715 0 0 0
1664 3 19.7835 23.3805 17.985 0 0 0
2614 3 10.791 1.7985 12.5895 0 0 0
327 3 30.5745 10.791 5.3955 0 0 0
2405 3 14.388 17.985 3.597 0 0 0
386 3 32.373 16.1865 23.3805 0 0 0
1313 3 25.179 25.179 28.776 0 0 0
2103 3 16.1865 25.179 19.7835 0 0 0
1273 3 25.179 21.582 28.776 0 0 0
3637 3 3.597 17.985 32.373 0 0 0
1322 3 25.179 30.5745 1.7985 0 0 0
2257 3 14.388 3.597 14.388 0 0 0
2390 3 14.388 16.1865 26.9775 0 0 0
922 3 28.776 30.5745 1.7985 0 0 0
212 3 30.5745 1.7985 7.194 0 0 0
837 3 28.776 17.985 32.373 0 0 0
2332 3 12.5895 12.5895 7.194 0 0 0
120 3 34.1715 19.7835 32.373 0 0 0
2352 3 12.5895 12.5895 25.179 0 0 0
1556 3 19.7835 12.5895 28.776 0 0 0
1247 3 23.3805 21.582 5.3955 0 0 0
3274 3 7.194 23.3805 30.5745 0 0 0
116 3 34.1715 19.7835 25.179 0 0 0
3186 3 7.194 16.1865 23.3805 0 0 0
1855 3 16.1865 3.597 12.5895 0 0 0
3128 3 5.3955 12.5895 3.597 0 0 0
851 3 26.9775 21.582 8.9925 0 0 0
1635 3 19.7835 17.985 30.5745 0 0 0
1869 3 17.985 3.597 25.179 0 0 0
2181 3 17.985 32.373 17.985 0 0 0
2439 3 12.5895 17.985 34.1715 0 0 0
2055 3 16.1865 21.582 12.5895 0 0 0
1320 3 23.3805 26.9775 32.373 0 0 0
2027 3 16.1865 17.985 23.3805 0 0 0
3494 3 3.597 8.9925 12.5895 0 0 0
3683 3 1.7985 25.179 1.7985 0 0 0
245 3 32.373 3.597 3.597 0 0 0
3668 3 1.7985 23.3805 21.582 0 0 0
3012 3 5.3955 1.7985 7.194 0 0 0
905 3 28.776 25.179 21.582 0 0 0
3256 3 5.3955 23.3805 10.791 0 0 0
1769 3 21.582 32.373 7.194 0 0 0
2264 3 12.5895 5.3955 17.985 0 0 0
1649 3 21.582 21.582 7.194 0 0 0
202 3 32.373 1.7985 1.7985 0 0 0
363 3 30.5745 14.388 1.7985 0 0 0
2275 3 12.5895 3.597 30.5745 0 0 0
279 3 30.5745 3.597 34.1715 0 0 0
3767 3 1.7985 32.373 5.3955 0 0 0
2261 3 14.388 3.597 17.985 0 0 0
3590 3 3.597 16.1865 26.9775 0 0 0
768 3 26.9775 16.1865 3.597 0 0 0
3215 3 5.3955 17.985 12.5895 0 0 0
3808 3 0.0 1.7985 12.5895 0 0 0
662 3 28.776 5.3955 19.7835 0 0 0
2507 3 12.5895 25.179 23.3805 0 0 0
1048 3 23.3805 5.3955 3.597 0 0 0
1473 3 21.582 3.597 28.776 0 0 0
1111 3 23.3805 7.194 26.9775 0 0 0
823 3 26.9775 17.985 19.7835 0 0 0
203 3 30.5745 0.0 1.7985 0 0 0
2808 3 8.9925 19.7835 3.597 0 0 0
1924 3 16.1865 12.5895 0.0 0 0 0
1847 3 16.1865 3.597 5.3955 0 0 0
1407 3 19.7835 0.0 5.3955 0 0 0
3866 3 0.0 12.5895 8.9925 0 0 0
2122 3 17.985 30.5745 1.7985 0 0 0
1928 3 16.1865 12.5895 3.597 0 0 0
3309 3 7.194 25.179 25.179 0 0 0
634 3 28.776 1.7985 30.5745 0 0 0
137 3 34.1715 21.582 30.5745 0 0 0
699 3 26.9775 7.194 16.1865 0 0 0
3389 3 7.194 32.373 25.179 0 0 0
659 3 26.9775 3.597 16.1865 0 0 0
88 3 34.1715 16.1865 10.791 0 0 0
220 3 30.5745 1.7985 14.388 0 0 0
1588 3 19.7835 16.1865 21.582 0 0 0
2915 3 8.9925 25.179 30.5745 0 0 0
3851 3 0.0 7.194 17.985 0 0 0
3280 3 5.3955 23.3805 32.373 0 0 0
2375 3 12.5895 14.388 12.5895 0 0 0
808 3 26.9775 19.7835 3.597 0 0 0
3425 3 3.597 0.0 21.582 0 0 0
394 3 32.373 16.1865 30.5745 0 0 0
3493 3 3.597 7.194 10.791 0 0 0
425 3 32.373 17.985 21.582 0 0 0
2998 3 10.791 34.1715 34.1715 0 0 0
3549 3 3.597 10.791 25.179 0 0 0
1333 3 25.179 28.776 10.791 0 0 0
1708 3 19.7835 26.9775 21.582 0 0 0
2877 3 10.791 21.582 32.373 0 0 0
3534 3 3.597 12.5895 12.5895 0 0 0
1883 3 16.1865 7.194 1.7985 0 0 0
171 3 34.1715 28.776 19.7835 0 0 0
2745 3 10.791 10.791 21.582 0 0 0
949 3 28.776 28.776 25.179 0 0 0
429 3 32.373 17.985 25.179 0 0 0
962 3 28.776 34.1715 1.7985 0 0 0
2437 3 14.388 17.985 32.373 0 0 0
1349 3 25.179 28.776 25.179 0 0 0
1841 3 17.985 3.597 0.0 0 0 0
1215 3 23.3805 17.985 12.5895 0 0 0
291 3 30.5745 7.194 8.9925 0 0 0
3982 3 0.0 34.1715 1.7985 0 0 0
2922 3 10.791 30.5745 1.7985 0 0 0
2092 3 16.1865 26.9775 7.194 0 0 0
1837 3 17.985 0.0 32.373 0 0 0
690 3 28.776 8.9925 8.9925 0 0 0
3292 3 5.3955 26.9775 7.194 0 0 0
3622 3 3.597 19.7835 19.7835 0 0 0
1555 3 19.7835 10.791 30.5745 0 0 0
2011 3 16.1865 17.985 8.9925 0 0 0
2550 3 14.388 30.5745 26.9775 0 0 0
2639 3 8.9925 0.0 34.1715 0 0 0
2176 3 16.1865 34.1715 10.791 0 0 0
2991 3 8.9925 32.373 26.9775 0 0 0
1902 3 17.985 8.9925 19.7835 0 0 0
2457 3 14.388 21.582 14.388 0 0 0
2170 3 17.985 34.1715 8.9925 0 0 0
653 3 28.776 3.597 10.791 0 0 0
1916 3 16.1865 8.9925 28.776 0 0 0
615 3 26.9775 0.0 12.5895 0 0 0
3184 3 5.3955 16.1865 17.985 0 0 0
1595 3 19.7835 14.388 30.5745 0 0 0
2045 3 17.985 21.582 3.597 0 0 0
3810 3 0.0 1.7985 16.1865 0 0 0
955 3 26.9775 28.776 30.5745 0 0 0
3577 3 3.597 14.388 14.388 0 0 0
705 3 28.776 7.194 21.582 0 0 0
2036 3 16.1865 19.7835 28.776 0 0 0
96 3 34.1715 16.1865 25.179 0 0 0
1747 3 19.7835 28.776 23.3805 0 0 0
2603 3 8.9925 0.0 1.7985 0 0 0
54 3 34.1715 8.9925 21.582 0 0 0
2160 3 16.1865 30.5745 32.373 0 0 0
2349 3 14.388 10.791 25.179 0 0 0
2820 3 8.9925 19.7835 14.388 0 0 0
834 3 28.776 19.7835 30.5745 0 0 0
1181 3 25.179 14.388 17.985 0 0 0
2042 3 17.985 23.3805 1.7985 0 0 0
1539 3 19.7835 10.791 16.1865 0 0 0
2422 3 14.388 19.7835 19.7835 0 0 0
714 3 28.776 8.9925 30.5745 0 0 0
2571 3 12.5895 32.373 8.9925 0 0 0
2404 3 12.5895 19.7835 0.0 0 0 0
1249 3 25.179 21.582 7.194 0 0 0
1289 3 25.179 25.179 7.194 0 0 0
3094 3 7.194 8.9925 12.5895 0 0 0
47 3 34.1715 7.194 12.5895 0 0 0
1887 3 16.1865 7.194 5.3955 0 0 0
1626 3 21.582 19.7835 23.3805 0 0 0
1485 3 21.582 7.194 3.597 0 0 0
904 3 26.9775 26.9775 17.985 0 0 0
3994 3 0.0 34.1715 23.3805 0 0 0
1611 3 19.7835 17.985 8.9925 0 0 0
2531 3 12.5895 28.776 8.9925 0 0 0
3991 3 0.0 32.373 17.985 0 0 0
1308 3 23.3805 26.9775 21.582 0 0 0
13 3 34.1715 0.0 23.3805 0 0 0
510 3 32.373 26.9775 26.9775 0 0 0
2669 3 10.791 3.597 25.179 0 0 0
3529 3 3.597 10.791 7.194 0 0 0
1892 3 16.1865 8.9925 7.194 0 0 0
2452 3 12.5895 23.3805 7.194 0 0 0
1866 3 17.985 5.3955 23.3805 0 0 0
3726 3 3.597 30.5745 5.3955 0 0 0
1030 3 25.179 1.7985 26.9775 0 0 0
1741 3 21.582 28.776 17.985 0 0 0
2948 3 8.9925 30.5745 21.582 0 0 0
1673 3 21.582 21.582 28.776 0 0 0
1963 3 16.1865 14.388 1.7985 0 0 0
3015 3 5.3955 0.0 12.5895 0 0 0
1720 3 19.7835 26.9775 32.373 0 0 0
2933 3 10.791 28.776 10.791 0 0 0
3347 3 5.3955 28.776 23.3805 0 0 0
1925 3 17.985 10.791 3.597 0 0 0
219 3 30.5745 0.0 16.1865 0 0 0
3132 3 5.3955 12.5895 7.194 0 0 0
2853 3 10.791 21.582 10.791 0 0 0
1045 3 25.179 3.597 3.597 0 0 0
1316 3 23.3805 26.9775 28.776 0 0 0
2088 3 16.1865 26.9775 3.597 0 0 0
982 3 28.776 34.1715 19.7835 0 0 0
3573 3 3.597 14.388 10.791 0 0 0
2953 3 10.791 28.776 28.776 0 0 0
676 3 26.9775 5.3955 28.776 0 0 0
698 3 28.776 8.9925 16.1865 0 0 0
206 3 32.373 1.7985 5.3955 0 0 0
310 3 32.373 8.9925 26.9775 0 0 0
529 3 32.373 28.776 7.194 0 0 0
3179 3 5.3955 14.388 16.1865 0 0 0
1905 3 17.985 7.194 21.582 0 0 0
38 3 34.1715 5.3955 28.776 0 0 0
3687 3 1.7985 25.179 5.3955 0 0 0
2605 3 10.791 0.0 3.597 0 0 0
2152 3 16.1865 30.5745 25.179 0 0 0
3067 3 5.3955 3.597 23.3805 0 0 0
2870 3 10.791 23.3805 26.9775 0 0 0
3541 3 3.597 10.791 17.985 0 0 0
2459 3 12.5895 21.582 16.1865 0 0 0
3211 3 5.3955 17.985 8.9925 0 0 0
1932 3 16.1865 12.5895 7.194 0 0 0
2270 3 14.388 5.3955 26.9775 0 0 0
3697 3 3.597 25.179 14.388 0 0 0
1655 3 19.7835 21.582 12.5895 0 0 0
376 3 30.5745 16.1865 10.791 0 0 0
3654 3 3.597 23.3805 12.5895 0 0 0
1895 3 16.1865 7.194 12.5895 0 0 0
2616 3 8.9925 1.7985 10.791 0 0 0
709 3 28.776 7.194 25.179 0 0 0
2146 3 17.985 30.5745 23.3805 0 0 0
3140 3 5.3955 12.5895 14.388 0 0 0
648 3 26.9775 5.3955 3.597 0 0 0
3 3 34.1715 0.0 5.3955 0 0 0
170 3 34.1715 30.5745 14.388 0 0 0
2964 3 8.9925 34.1715 0.0 0 0 0
821 3 28.776 17.985 17.985 0 0 0
1435 3 19.7835 0.0 30.5745 0 0 0
35 3 34.1715 3.597 26.9775 0 0 0
730 3 28.776 12.5895 8.9925 0 0 0
595 3 30.5745 32.373 30.5745 0 0 0
1610 3 21.582 19.7835 8.9925 0 0 0
2420 3 12.5895 19.7835 14.388 0 0 0
1284 3 23.3805 26.9775 0.0 0 0 0
1858 3 17.985 5.3955 16.1865 0 0 0
134 3 34.1715 23.3805 21.582 0 0 0
3849 3 0.0 7.194 14.388 0 0 0
3832 3 0.0 5.3955 19.7835 0 0 0
3705 3 3.597 25.179 21.582 0 0 0
295 3 30.5745 7.194 12.5895 0 0 0
1642 3 21.582 23.3805 1.7985 0 0 0
2899 3 8.9925 25.179 16.1865 0 0 0
9 3 34.1715 0.0 16.1865 0 0 0
512 3 30.5745 26.9775 25.179 0 0 0
739 3 26.9775 10.791 16.1865 0 0 0
530 3 32.373 30.5745 8.9925 0 0 0
1942 3 17.985 12.5895 19.7835 0 0 0
3583 3 1.7985 14.388 19.7835 0 0 0
2629 3 10.791 0.0 25.179 0 0 0
520 3 30.5745 26.9775 32.373 0 0 0
1038 3 25.179 1.7985 34.1715 0 0 0
3865 3 0.0 10.791 7.194 0 0 0
2977 3 10.791 32.373 14.388 0 0 0
945 3 28.776 28.776 21.582 0 0 0
630 3 28.776 1.7985 26.9775 0 0 0
3334 3 7.194 30.5745 12.5895 0 0 0
3859 3 0.0 7.194 32.373 0 0 0
3755 3 1.7985 28.776 30.5745 0 0 0
1929 3 17.985 10.791 7.194 0 0 0
1774 3 21.582 34.1715 12.5895 0 0 0
298 3 32.373 8.9925 16.1865 0 0 0
1294 3 25.179 26.9775 12.5895 0 0 0
1426 3 21.582 1.7985 23.3805 0 0 0
942 3 28.776 30.5745 19.7835 0 0 0
1505 3 21.582 7.194 21.582 0 0 0
1668 3 19.7835 23.3805 21.582 0 0 0
772 3 26.9775 16.1865 7.194 0 0 0
3175 3 5.3955 14.388 12.5895 0 0 0
3757 3 3.597 28.776 32.373 0 0 0
1225 3 25.179 17.985 21.582 0 0 0
626 3 28.776 1.7985 23.3805 0 0 0
715 3 26.9775 7.194 30.5745 0 0 0
3235 3 5.3955 17.985 30.5745 0 0 0
791 3 26.9775 14.388 26.9775 0 0 0
2017 3 17.985 17.985 14.388 0 0 0
1806 3 17.985 1.7985 5.3955 0 0 0
697 3 28.776 7.194 14.388 0 0 0
218 3 32.373 1.7985 16.1865 0 0 0
2637 3 10.791 0.0 32.373 0 0 0
3500 3 1.7985 8.9925 14.388 0 0 0
30 3 34.1715 5.3955 14.388 0 0 0
937 3 28.776 28.776 14.388 0 0 0
3138 3 7.194 12.5895 16.1865 0 0 0
82 3 34.1715 16.1865 0.0 0 0 0
3386 3 7.194 34.1715 23.3805 0 0 0
301 3 32.373 7.194 17.985 0 0 0
40 3 34.1715 5.3955 32.373 0 0 0
859 3 26.9775 21.582 16.1865 0 0 0
3551 3 1.7985 10.791 26.9775 0 0 0
3617 3 3.597 17.985 14.388 0 0 0
1860 3 16.1865 5.3955 14.388 0 0 0
225 3 32.373 0.0 21.582 0 0 0
446 3 32.373 23.3805 5.3955 0 0 0
868 3 26.9775 23.3805 21.582 0 0 0
2846 3 10.791 23.3805 5.3955 0 0 0
2524 3 12.5895 30.5745 0.0 0 0 0
1568 3 19.7835 16.1865 3.597 0 0 0
2169 3 17.985 32.373 7.194 0 0 0
3059 3 5.3955 3.597 16.1865 0 0 0
2959 3 8.9925 28.776 34.1715 0 0 0
1029 3 25.179 0.0 25.179 0 0 0
41 3 34.1715 7.194 1.7985 0 0 0
3102 3 7.194 8.9925 19.7835 0 0 0
2583 3 12.5895 32.373 19.7835 0 0 0
2822 3 10.791 19.7835 19.7835 0 0 0
3568 3 1.7985 16.1865 3.597 0 0 0
3220 3 5.3955 19.7835 14.388 0 0 0
1043 3 23.3805 3.597 1.7985 0 0 0
36 3 34.1715 5.3955 25.179 0 0 0
45 3 34.1715 7.194 8.9925 0 0 0
2150 3 17.985 30.5745 26.9775 0 0 0
629 3 28.776 0.0 25.179 0 0 0
2592 3 12.5895 34.1715 25.179 0 0 0
2912 3 8.9925 26.9775 25.179 0 0 0
623 3 26.9775 0.0 19.7835 0 0 0
927 3 26.9775 28.776 5.3955 0 0 0
1785 3 21.582 32.373 21.582 0 0 0
63 3 34.1715 10.791 5.3955 0 0 0
4 3 34.1715 1.7985 3.597 0 0 0
1571 3 19.7835 14.388 8.9925 0 0 0
2752 3 8.9925 12.5895 25.179 0 0 0
2466 3 14.388 23.3805 23.3805 0 0 0
2688 3 8.9925 8.9925 3.597 0 0 0
2241 3 14.388 3.597 0.0 0 0 0
1156 3 23.3805 12.5895 28.776 0 0 0
3789 3 3.597 32.373 25.179 0 0 0
3883 3 0.0 14.388 3.597 0 0 0
1054 3 25.179 5.3955 12.5895 0 0 0
950 3 28.776 30.5745 26.9775 0 0 0
632 3 26.9775 1.7985 25.179 0 0 0
3001 3 7.194 0.0 0.0 0 0 0
3863 3 0.0 10.791 3.597 0 0 0
3591 3 1.7985 14.388 26.9775 0 0 0
1620 3 19.7835 19.7835 14.388 0 0 0
3935 3 0.0 21.582 25.179 0 0 0
475 3 30.5745 21.582 30.5745 0 0 0
989 3 28.776 32.373 25.179 0 0 0
577 3 32.373 32.373 14.388 0 0 0
1025 3 25.179 0.0 21.582 0 0 0
1625 3 21.582 17.985 21.582 0 0 0
3927 3 0.0 21.582 10.791 0 0 0
496 3 30.5745 26.9775 10.791 0 0 0
1590 3 21.582 16.1865 26.9775 0 0 0
3601 3 3.597 17.985 0.0 0 0 0
3270 3 7.194 23.3805 26.9775 0 0 0
1641 3 21.582 21.582 0.0 0 0 0
2410 3 14.388 19.7835 8.9925 0 0 0
547 3 30.5745 28.776 23.3805 0 0 0
92 3 34.1715 16.1865 17.985 0 0 0
3395 3 5.3955 32.373 30.5745 0 0 0
3773 3 3.597 32.373 10.791 0 0 0
3666 3 3.597 23.3805 23.3805 0 0 0
2907 3 8.9925 25.179 23.3805 0 0 0
867 3 26.9775 21.582 23.3805 0 0 0
1822 3 17.985 1.7985 19.7835 0 0 0
3615 3 1.7985 17.985 12.5895 0 0 0
1731 3 19.7835 28.776 8.9925 0 0 0
2391 3 12.5895 14.388 26.9775 0 0 0
2551 3 12.5895 28.776 26.9775 0 0 0
3857 3 0.0 7.194 28.776 0 0 0
406 3 32.373 19.7835 5.3955 0 0 0
1278 3 25.179 23.3805 34.1715 0 0 0
773 3 28.776 14.388 10.791 0 0 0
3595 3 1.7985 14.388 30.5745 0 0 0
3533 3 3.597 10.791 10.791 0 0 0
2308 3 12.5895 8.9925 21.582 0 0 0
1454 3 21.582 5.3955 12.5895 0 0 0
2147 3 16.1865 28.776 23.3805 0 0 0
3156 3 5.3955 12.5895 28.776 0 0 0
3406 3 3.597 1.7985 5.3955 0 0 0
1068 3 23.3805 5.3955 21.582 0 0 0
3843 3 0.0 7.194 3.597 0 0 0
2291 3 12.5895 7.194 8.9925 0 0 0
2315 3 12.5895 7.194 30.5745 0 0 0
1692 3 19.7835 26.9775 7.194 0 0 0
3512 3 1.7985 8.9925 25.179 0 0 0
1328 3 23.3805 30.5745 3.597 0 0 0
378 3 32.373 16.1865 16.1865 0 0 0
1213 3 25.179 17.985 10.791 0 0 0
1150 3 25.179 12.5895 26.9775 0 0 0
2506 3 14.388 26.9775 23.3805 0 0 0
1389 3 25.179 32.373 25.179 0 0 0
3998 3 0.0 34.1715 30.5745 0 0 0
1506 3 21.582 8.9925 23.3805 0 0 0
663 3 26.9775 3.597 19.7835 0 0 0
2978 3 10.791 34.1715 16.1865 0 0 0
2069 3 17.985 21.582 25.179 0 0 0
58 3 34.1715 8.9925 28.776 0 0 0
1820 3 16.1865 1.7985 14.388 0 0 0
3967 3 0.0 28.776 10.791 0 0 0
2780 3 8.9925 16.1865 14.388 0 0 0
2254 3 14.388 5.3955 12.5895 0 0 0
861 3 28.776 21.582 17.985 0 0 0
3358 3 7.194 30.5745 34.1715 0 0 0
3079 3 5.3955 3.597 34.1715 0 0 0
2528 3 12.5895 30.5745 3.597 0 0 0
2712 3 8.9925 8.9925 25.179 0 0 0
3706 3 3.597 26.9775 23.3805 0 0 0
3976 3 0.0 30.5745 26.9775 0 0 0
3419 3 1.7985 0.0 16.1865 0 0 0
2040 3 16.1865 19.7835 32.373 0 0 0
2429 3 14.388 17.985 25.179 0 0 0
1794 3 21.582 34.1715 30.5745 0 0 0
287 3 30.5745 7.194 5.3955 0 0 0
1681 3 21.582 25.179 0.0 0 0 0
1671 3 19.7835 21.582 26.9775 0 0 0
2598 3 14.388 34.1715 34.1715 0 0 0
1973 3 17.985 14.388 10.791 0 0 0
224 3 30.5745 1.7985 17.985 0 0 0
2119 3 16.1865 25.179 34.1715 0 0 0
454 3 32.373 23.3805 12.5895 0 0 0
2631 3 8.9925 0.0 26.9775 0 0 0
2435 3 12.5895 17.985 30.5745 0 0 0
751 3 26.9775 10.791 26.9775 0 0 0
893 3 28.776 25.179 10.791 0 0 0
1366 3 25.179 34.1715 5.3955 0 0 0
1985 3 17.985 14.388 21.582 0 0 0
1888 3 16.1865 8.9925 3.597 0 0 0
1529 3 21.582 10.791 7.194 0 0 0
998 3 28.776 34.1715 34.1715 0 0 0
3088 3 5.3955 8.9925 3.597 0 0 0
504 3 30.5745 26.9775 17.985 0 0 0
484 3 30.5745 26.9775 0.0 0 0 0
3478 3 3.597 5.3955 34.1715 0 0 0
1877 3 17.985 3.597 32.373 0 0 0
1670 3 21.582 23.3805 26.9775 0 0 0
3921 3 0.0 21.582 0.0 0 0 0
3509 3 3.597 7.194 25.179 0 0 0
2783 3 8.9925 14.388 19.7835 0 0 0
2771 3 8.9925 14.388 8.9925 0 0 0
1672 3 19.7835 23.3805 25.179 0 0 0
870 3 28.776 23.3805 26.9775 0 0 0
1931 3 16.1865 10.791 8.9925 0 0 0
1684 3 19.7835 26.9775 0.0 0 0 0
664 3 26.9775 5.3955 17.985 0 0 0
1665 3 21.582 21.582 21.582 0 0 0
2496 3 12.5895 26.9775 10.791 0 0 0
2043 3 16.1865 21.582 1.7985 0 0 0
1515 3 19.7835 7.194 30.5745 0 0 0
2827 3 8.9925 17.985 23.3805 0 0 0
2800 3 8.9925 16.1865 32.373 0 0 0
997 3 28.776 32.373 32.373 0 0 0
3258 3 7.194 23.3805 16.1865 0 0 0
3792 3 1.7985 34.1715 25.179 0 0 0
3190 3 7.194 16.1865 26.9775 0 0 0
1693 3 21.582 25.179 10.791 0 0 0
753 3 28.776 10.791 28.776 0 0 0
2838 3 10.791 19.7835 34.1715 0 0 0
1087 3 23.3805 7.194 5.3955 0 0 0
3470 3 3.597 5.3955 26.9775 0 0 0
1898 3 17.985 8.9925 16.1865 0 0 0
80 3 34.1715 12.5895 32.373 0 0 0
2373 3 14.388 14.388 10.791 0 0 0
3955 3 0.0 25.179 25.179 0 0 0
1974 3 17.985 16.1865 12.5895 0 0 0
2318 3 14.388 8.9925 34.1715 0 0 0
3650 3 3.597 23.3805 8.9925 0 0 0
3429 3 3.597 0.0 25.179 0 0 0
2089 3 17.985 25.179 7.194 0 0 0
2347 3 12.5895 10.791 23.3805 0 0 0
1783 3 19.7835 32.373 19.7835 0 0 0
97 3 34.1715 14.388 30.5745 0 0 0
3888 3 0.0 16.1865 12.5895 0 0 0
3439 3 1.7985 0.0 34.1715 0 0 0
3325 3 7.194 28.776 3.597 0 0 0
1127 3 23.3805 10.791 5.3955 0 0 0
1086 3 25.179 8.9925 5.3955 0 0 0
1721 3 21.582 28.776 0.0 0 0 0
73 3 34.1715 10.791 23.3805 0 0 0
2582 3 14.388 34.1715 19.7835 0 0 0
479 3 30.5745 21.582 34.1715 0 0 0
125 3 34.1715 21.582 8.9925 0 0 0
2785 3 10.791 14.388 21.582 0 0 0
3252 3 5.3955 23.3805 7.194 0 0 0
414 3 32.373 19.7835 12.5895 0 0 0
683 3 26.9775 7.194 1.7985 0 0 0
1768 3 19.7835 34.1715 3.597 0 0 0
3782 3 3.597 34.1715 19.7835 0 0 0
2908 3 8.9925 26.9775 21.582 0 0 0
1572 3 19.7835 16.1865 7.194 0 0 0
1414 3 21.582 1.7985 12.5895 0 0 0
1036 3 23.3805 1.7985 28.776 0 0 0
3050 3 7.194 5.3955 8.9925 0 0 0
1780 3 19.7835 34.1715 14.388 0 0 0
244 3 30.5745 5.3955 0.0 0 0 0
3539 3 1.7985 10.791 16.1865 0 0 0
702 3 28.776 8.9925 19.7835 0 0 0
2102 3 17.985 26.9775 19.7835 0 0 0
1716 3 19.7835 26.9775 28.776 0 0 0
3825 3 0.0 3.597 7.194 0 0 0
3359 3 5.3955 28.776 34.1715 0 0 0
820 3 26.9775 19.7835 14.388 0 0 0
1047 3 23.3805 3.597 5.3955 0 0 0
3597 3 3.597 14.388 32.373 0 0 0
337 3 32.373 10.791 14.388 0 0 0
1093 3 25.179 7.194 10.791 0 0 0
1495 3 19.7835 7.194 12.5895 0 0 0
3221 3 7.194 17.985 17.985 0 0 0
3006 3 7.194 1.7985 5.3955 0 0 0
3312 3 5.3955 26.9775 25.179 0 0 0
1190 3 25.179 16.1865 26.9775 0 0 0
2947 3 8.9925 28.776 23.3805 0 0 0
276 3 30.5745 5.3955 28.776 0 0 0
3760 3 1.7985 30.5745 32.373 0 0 0
1138 3 25.179 12.5895 16.1865 0 0 0
3489 3 3.597 7.194 7.194 0 0 0
118 3 34.1715 19.7835 28.776 0 0 0
2387 3 12.5895 14.388 23.3805 0 0 0
55 3 34.1715 7.194 26.9775 0 0 0
2304 3 12.5895 8.9925 17.985 0 0 0
3949 3 0.0 25.179 14.388 0 0 0
2512 3 12.5895 26.9775 25.179 0 0 0
1827 3 16.1865 0.0 23.3805 0 0 0
693 3 28.776 7.194 10.791 0 0 0
3940 3 0.0 23.3805 34.1715 0 0 0
1582 3 21.582 16.1865 19.7835 0 0 0
1151 3 23.3805 10.791 26.9775 0 0 0
48 3 34.1715 8.9925 10.791 0 0 0
2044 3 16.1865 23.3805 0.0 0 0 0
2732 3 8.9925 12.5895 7.194 0 0 0
1420 3 19.7835 1.7985 14.388 0 0 0
2740 3 8.9925 12.5895 14.388 0 0 0
2919 3 8.9925 25.179 34.1715 0 0 0
1725 3 21.582 28.776 3.597 0 0 0
2578 3 14.388 34.1715 16.1865 0 0 0
3576 3 1.7985 16.1865 10.791 0 0 0
217 3 32.373 0.0 14.388 0 0 0
495 3 30.5745 25.179 12.5895 0 0 0
1958 3 17.985 12.5895 34.1715 0 0 0
502 3 32.373 26.9775 19.7835 0 0 0
3336 3 5.3955 30.5745 10.791 0 0 0
313 3 32.373 7.194 28.776 0 0 0
3827 3 0.0 3.597 10.791 0 0 0
2129 3 17.985 28.776 7.194 0 0 0
2709 3 10.791 7.194 25.179 0 0 0
3192 3 5.3955 16.1865 25.179 0 0 0
2974 3 10.791 34.1715 12.5895 0 0 0
3002 3 7.194 1.7985 1.7985 0 0 0
2171 3 16.1865 32.373 8.9925 0 0 0
3968 3 0.0 30.5745 12.5895 0 0 0
987 3 26.9775 32.373 23.3805 0 0 0
2364 3 12.5895 16.1865 0.0 0 0 0
277 3 32.373 3.597 32.373 0 0 0
2904 3 8.9925 26.9775 17.985 0 0 0
1759 3 19.7835 28.776 34.1715 0 0 0
402 3 32.373 19.7835 1.7985 0 0 0
2110 3 17.985 26.9775 26.9775 0 0 0
1632 3 19.7835 19.7835 25.179 0 0 0
678 3 28.776 5.3955 34.1715 0 0 0
1447 3 19.7835 3.597 5.3955 0 0 0
2782 3 10.791 16.1865 19.7835 0 0 0
564 3 30.5745 34.1715 0.0 0 0 0
1997 3 17.985 14.388 32.373 0 0 0
2588 3 12.5895 34.1715 21.582 0 0 0
2539 3 12.5895 28.776 16.1865 0 0 0
3848 3 0.0 8.9925 12.5895 0 0 0
3120 3 5.3955 8.9925 32.373 0 0 0
1065 3 25.179 3.597 21.582 0 0 0
31 3 34.1715 3.597 19.7835 0 0 0
3152 3 5.3955 12.5895 25.179 0 0 0
333 3 32.373 10.791 10.791 0 0 0
3519 3 1.7985 7.194 34.1715 0 0 0
3505 3 3.597 7.194 21.582 0 0 0
3455 3 1.7985 3.597 12.5895 0 0 0
387 3 30.5745 14.388 23.3805 0 0 0
2569 3 14.388 32.373 7.194 0 0 0
3732 3 1.7985 30.5745 7.194 0 0 0
162 3 34.1715 30.5745 0.0 0 0 0
1281 3 25.179 25.179 0.0 0 0 0
1773 3 21.582 32.373 10.791 0 0 0
3247 3 5.3955 21.582 5.3955 0 0 0
3327 3 5.3955 28.776 5.3955 0 0 0
1237 3 25.179 17.985 32.373 0 0 0
767 3 26.9775 14.388 5.3955 0 0 0
315 3 30.5745 7.194 30.5745 0 0 0
2395 3 12.5895 14.388 30.5745 0 0 0
2056 3 16.1865 23.3805 10.791 0 0 0
1605 3 21.582 17.985 3.597 0 0 0
3871 3 0.0 10.791 17.985 0 0 0
1740 3 19.7835 30.5745 14.388 0 0 0
3420 3 1.7985 1.7985 14.388 0 0 0
3889 3 0.0 14.388 14.388 0 0 0
3596 3 1.7985 16.1865 28.776 0 0 0
729 3 28.776 10.791 7.194 0 0 0
3791 3 1.7985 32.373 26.9775 0 0 0
928 3 26.9775 30.5745 3.597 0 0 0
367 3 30.5745 14.388 5.3955 0 0 0
3520 3 1.7985 8.9925 32.373 0 0 0
330 3 32.373 12.5895 8.9925 0 0 0
514 3 32.373 26.9775 30.5745 0 0 0
3464 3 1.7985 5.3955 17.985 0 0 0
1543 3 19.7835 10.791 19.7835 0 0 0
3678 3 3.597 23.3805 34.1715 0 0 0
1223 3 23.3805 17.985 19.7835 0 0 0
451 3 30.5745 21.582 8.9925 0 0 0
3431 3 1.7985 0.0 26.9775 0 0 0
3973 3 0.0 28.776 21.582 0 0 0
2448 3 12.5895 23.3805 3.597 0 0 0
395 3 30.5745 14.388 30.5745 0 0 0
2063 3 16.1865 21.582 19.7835 0 0 0
1471 3 19.7835 3.597 26.9775 0 0 0
1260 3 23.3805 23.3805 14.388 0 0 0
72 3 34.1715 12.5895 17.985 0 0 0
1589 3 21.582 14.388 25.179 0 0 0
2535 3 12.5895 28.776 12.5895 0 0 0
103 3 34.1715 17.985 5.3955 0 0 0
3384 3 5.3955 34.1715 17.985 0 0 0
3111 3 5.3955 7.194 26.9775 0 0 0
2151 3 16.1865 28.776 26.9775 0 0 0
2083 3 16.1865 25.179 1.7985 0 0 0
758 3 28.776 12.5895 34.1715 0 0 0
3171 3 5.3955 14.388 8.9925 0 0 0
707 3 26.9775 7.194 23.3805 0 0 0
2054 3 17.985 23.3805 12.5895 0 0 0
2132 3 16.1865 30.5745 7.194 0 0 0
2052 3 16.1865 23.3805 7.194 0 0 0
3093 3 7.194 7.194 10.791 0 0 0
1212 3 23.3805 19.7835 7.194 0 0 0
1052 3 23.3805 5.3955 7.194 0 0 0
2196 3 16.1865 34.1715 28.776 0 0 0
478 3 32.373 23.3805 34.1715 0 0 0
2944 3 8.9925 30.5745 17.985 0 0 0
342 3 32.373 12.5895 19.7835 0 0 0
3559 3 1.7985 10.791 34.1715 0 0 0
933 3 28.776 28.776 10.791 0 0 0
1101 3 25.179 7.194 17.985 0 0 0
3867 3 0.0 10.791 10.791 0 0 0
3931 3 0.0 21.582 17.985 0 0 0
1562 3 21.582 16.1865 1.7985 0 0 0
1134 3 25.179 12.5895 12.5895 0 0 0
2199 3 16.1865 32.373 34.1715 0 0 0
110 3 34.1715 19.7835 14.388 0 0 0
3646 3 3.597 23.3805 5.3955 0 0 0
1853 3 17.985 3.597 10.791 0 0 0
1073 3 25.179 3.597 28.776 0 0 0
2788 3 8.9925 16.1865 21.582 0 0 0
2284 3 12.5895 8.9925 0.0 0 0 0
3840 3 0.0 5.3955 34.1715 0 0 0
1165 3 25.179 14.388 3.597 0 0 0
1385 3 25.179 32.373 21.582 0 0 0
2077 3 17.985 21.582 32.373 0 0 0
2358 3 14.388 12.5895 34.1715 0 0 0
3341 3 7.194 28.776 17.985 0 0 0
1519 3 19.7835 7.194 34.1715 0 0 0
3922 3 0.0 23.3805 1.7985 0 0 0
3811 3 0.0 0.0 17.985 0 0 0
3130 3 7.194 12.5895 8.9925 0 0 0
724 3 26.9775 12.5895 0.0 0 0 0
903 3 26.9775 25.179 19.7835 0 0 0
3071 3 5.3955 3.597 26.9775 0 0 0
3785 3 3.597 32.373 21.582 0 0 0
1484 3 19.7835 8.9925 0.0 0 0 0
3481 3 3.597 7.194 0.0 0 0 0
532 3 30.5745 30.5745 7.194 0 0 0
2934 3 10.791 30.5745 12.5895 0 0 0
1574 3 21.582 16.1865 12.5895 0 0 0
817 3 28.776 17.985 14.388 0 0 0
2246 3 14.388 5.3955 5.3955 0 0 0
1651 3 19.7835 21.582 8.9925 0 0 0
2206 3 14.388 1.7985 5.3955 0 0 0
2312 3 12.5895 8.9925 25.179 0 0 0
1115 3 23.3805 7.194 30.5745 0 0 0
3131 3 5.3955 10.791 8.9925 0 0 0
2164 3 16.1865 34.1715 0.0 0 0 0
2470 3 14.388 23.3805 26.9775 0 0 0
492 3 30.5745 26.9775 7.194 0 0 0
2229 3 14.388 0.0 25.179 0 0 0
3631 3 1.7985 17.985 26.9775 0 0 0
1024 3 23.3805 1.7985 17.985 0 0 0
825 3 28.776 17.985 21.582 0 0 0
2824 3 8.9925 19.7835 17.985 0 0 0
3594 3 3.597 16.1865 30.5745 0 0 0
585 3 32.373 32.373 21.582 0 0 0
1251 3 23.3805 21.582 8.9925 0 0 0
389 3 32.373 14.388 25.179 0 0 0
2715 3 8.9925 7.194 30.5745 0 0 0
3831 3 0.0 3.597 17.985 0 0 0
71 4 34.1715 10.791 19.7835 0 0 0
1229 4 25.179 17.985 25.179 0 0 0
3078 4 7.194 5.3955 34.1715 0 0 0
2778 4 10.791 16.1865 16.1865 0 0 0
1538 4 21.582 12.5895 16.1865 0 0 0
1148 4 23.3805 12.5895 21.582 0 0 0
3303 4 5.3955 25.179 19.7835 0 0 0
184 4 34.1715 34.1715 3.597 0 0 0
3847 4 0.0 7.194 10.791 0 0 0
2180 4 16.1865 34.1715 14.388 0 0 0
1061 4 25.179 3.597 17.985 0 0 0
3870 4 0.0 12.5895 16.1865 0 0 0
131 4 34.1715 21.582 19.7835 0 0 0
413 4 32.373 17.985 10.791 0 0 0
3212 4 5.3955 19.7835 7.194 0 0 0
1430 4 21.582 1.7985 26.9775 0 0 0
1154 4 25.179 12.5895 30.5745 0 0 0
3388 4 5.3955 34.1715 21.582 0 0 0
657 4 28.776 3.597 14.388 0 0 0
2923 4 8.9925 28.776 1.7985 0 0 0
1023 4 23.3805 0.0 19.7835 0 0 0
1851 4 16.1865 3.597 8.9925 0 0 0
2281 4 14.388 7.194 0.0 0 0 0
3410 4 3.597 1.7985 8.9925 0 0 0
487 4 30.5745 25.179 5.3955 0 0 0
2519 4 12.5895 25.179 34.1715 0 0 0
3788 4 1.7985 34.1715 21.582 0 0 0
812 4 26.9775 19.7835 7.194 0 0 0
2131 4 16.1865 28.776 8.9925 0 0 0
3694 4 3.597 26.9775 12.5895 0 0 0
3054 4 7.194 5.3955 12.5895 0 0 0
3369 4 7.194 32.373 7.194 0 0 0
1594 4 21.582 16.1865 30.5745 0 0 0
1882 4 17.985 8.9925 1.7985 0 0 0
835 4 26.9775 17.985 30.5745 0 0 0
1051 4 23.3805 3.597 8.9925 0 0 0
1305 4 25.179 25.179 21.582 0 0 0
3265 4 7.194 21.582 21.582 0 0 0
991 4 26.9775 32.373 26.9775 0 0 0
3780 4 1.7985 34.1715 14.388 0 0 0
1130 4 25.179 12.5895 8.9925 0 0 0
2211 4 12.5895 0.0 8.9925 0 0 0
2544 4 12.5895 30.5745 17.985 0 0 0
599 4 30.5745 32.373 34.1715 0 0 0
1648 4 19.7835 23.3805 3.597 0 0 0
805 4 28.776 17.985 3.597 0 0 0
2873 4 10.791 21.582 28.776 0 0 0
485 4 32.373 25.179 3.597 0 0 0
1545 4 21.582 10.791 21.582 0 0 0
1799 4 19.7835 32.373 34.1715 0 0 0
590 4 32.373 34.1715 26.9775 0 0 0
1622 4 21.582 19.7835 19.7835 0 0 0
2292 4 12.5895 8.9925 7.194 0 0 0
979 4 26.9775 32.373 16.1865 0 0 0
1567 4 19.7835 14.388 5.3955 0 0 0
3553 4 3.597 10.791 28.776 0 0 0
140 4 34.1715 23.3805 32.373 0 0 0
3901 4 0.0 17.985 0.0 0 0 0
781 4 28.776 14.388 17.985 0 0 0
2317 4 14.388 7.194 32.373 0 0 0
2949 4 10.791 28.776 25.179 0 0 0
877 4 28.776 21.582 32.373 0 0 0
3290 4 7.194 26.9775 8.9925 0 0 0
3392 4 5.3955 34.1715 25.179 0 0 0
2579 4 12.5895 32.373 16.1865 0 0 0
250 4 32.373 5.3955 8.9925 0 0 0
3447 4 1.7985 3.597 5.3955 0 0 0
1236 4 23.3805 19.7835 28.776 0 0 0
818 4 28.776 19.7835 16.1865 0 0 0
2522 4 14.388 30.5745 1.7985 0 0 0
3906 4 0.0 19.7835 8.9925 0 0 0
438 4 32.373 19.7835 34.1715 0 0 0
3004 4 5.3955 1.7985 0.0 0 0 0
3809 4 0.0 0.0 14.388 0 0 0
1113 4 25.179 7.194 28.776 0 0 0
1330 4 25.179 30.5745 8.9925 0 0 0
2967 4 8.9925 32.373 5.3955 0 0 0
2338 4 14.388 12.5895 16.1865 0 0 0
719 4 26.9775 7.194 34.1715 0 0 0
2299 4 12.5895 7.194 16.1865 0 0 0
900 4 26.9775 26.9775 14.388 0 0 0
1970 4 17.985 16.1865 8.9925 0 0 0
745 4 28.776 10.791 21.582 0 0 0
1876 4 16.1865 5.3955 28.776 0 0 0
1107 4 23.3805 7.194 23.3805 0 0 0
3027 4 5.3955 0.0 23.3805 0 0 0
1078 4 25.179 5.3955 34.1715 0 0 0
2066 4 17.985 23.3805 23.3805 0 0 0
1943 4 16.1865 10.791 19.7835 0 0 0
670 4 28.776 5.3955 26.9775 0 0 0
752 4 26.9775 12.5895 25.179 0 0 0
1946 4 17.985 12.5895 23.3805 0 0 0
918 4 28.776 26.9775 34.1715 0 0 0
1066 4 25.179 5.3955 23.3805 0 0 0
1155 4 23.3805 10.791 30.5745 0 0 0
593 4 32.373 32.373 28.776 0 0 0
3713 4 3.597 25.179 28.776 0 0 0
3624 4 1.7985 19.7835 17.985 0 0 0
3508 4 1.7985 8.9925 21.582 0 0 0
1516 4 19.7835 8.9925 28.776 0 0 0
3210 4 7.194 19.7835 8.9925 0 0 0
1367 4 23.3805 32.373 5.3955 0 0 0
439 4 30.5745 17.985 34.1715 0 0 0
428 4 30.5745 19.7835 21.582 0 0 0
1765 4 21.582 32.373 3.597 0 0 0
3765 4 3.597 32.373 3.597 0 0 0
2529 4 14.388 28.776 7.194 0 0 0
1456 4 19.7835 5.3955 10.791 0 0 0
1999 4 16.1865 14.388 34.1715 0 0 0
2294 4 14.388 8.9925 12.5895 0 0 0
293 4 32.373 7.194 10.791 0 0 0
194 4 34.1715 34.1715 21.582 0 0 0
2726 4 10.791 12.5895 5.3955 0 0 0
3677 4 3.597 21.582 32.373 0 0 0
3462 4 3.597 5.3955 19.7835 0 0 0
1802 4 17.985 1.7985 1.7985 0 0 0
3939 4 0.0 21.582 32.373 0 0 0
1264 4 23.3805 23.3805 17.985 0 0 0
717 4 28.776 7.194 32.373 0 0 0
263 4 30.5745 3.597 19.7835 0 0 0
1744 4 19.7835 30.5745 17.985 0 0 0
2952 4 8.9925 30.5745 25.179 0 0 0
2072 4 16.1865 23.3805 25.179 0 0 0
2748 4 8.9925 12.5895 21.582 0 0 0
658 4 28.776 5.3955 16.1865 0 0 0
2087 4 16.1865 25.179 5.3955 0 0 0
2667 4 8.9925 3.597 23.3805 0 0 0
1525 4 21.582 10.791 3.597 0 0 0
1106 4 25.179 8.9925 23.3805 0 0 0
885 4 28.776 25.179 3.597 0 0 0
2630 4 10.791 1.7985 26.9775 0 0 0
800 4 26.9775 16.1865 32.373 0 0 0
2464 4 12.5895 23.3805 17.985 0 0 0
1266 4 25.179 23.3805 23.3805 0 0 0
468 4 30.5745 23.3805 21.582 0 0 0
2848 4 8.9925 23.3805 3.597 0 0 0
1402 4 21.582 1.7985 1.7985 0 0 0
2781 4 10.791 14.388 17.985 0 0 0
3744 4 1.7985 30.5745 17.985 0 0 0
1013 4 25.179 0.0 10.791 0 0 0
62 4 34.1715 12.5895 0.0 0 0 0
2735 4 8.9925 10.791 12.5895 0 0 0
596 4 30.5745 34.1715 28.776 0 0 0
3688 4 1.7985 26.9775 3.597 0 0 0
3518 4 3.597 8.9925 34.1715 0 0 0
3427 4 1.7985 0.0 23.3805 0 0 0
2674 4 10.791 5.3955 30.5745 0 0 0
2033 4 17.985 17.985 28.776 0 0 0
2936 4 8.9925 30.5745 10.791 0 0 0
3315 4 5.3955 25.179 30.5745 0 0 0
3761 4 3.597 32.373 0.0 0 0 0
3044 4 5.3955 5.3955 0.0 0 0 0
1424 4 19.7835 1.7985 17.985 0 0 0
1379 4 23.3805 32.373 16.1865 0 0 0
85 4 34.1715 14.388 8.9925 0 0 0
2198 4 17.985 34.1715 34.1715 0 0 0
3629 4 3.597 17.985 25.179 0 0 0
1179 4 23.3805 14.388 16.1865 0 0 0
46 4 34.1715 8.9925 7.194 0 0 0
3547 4 1.7985 10.791 23.3805 0 0 0
2737 4 10.791 10.791 14.388 0 0 0
1503 4 19.7835 7.194 19.7835 0 0 0
1920 4 16.1865 8.9925 32.373 0 0 0
3575 4 1.7985 14.388 12.5895 0 0 0
685 4 28.776 7.194 3.597 0 0 0
3600 4 1.7985 16.1865 32.373 0 0 0
2130 4 17.985 30.5745 8.9925 0 0 0
2165 4 17.985 32.373 3.597 0 0 0
2832 4 8.9925 19.7835 25.179 0 0 0
2310 4 14.388 8.9925 26.9775 0 0 0
1032 4 23.3805 1.7985 25.179 0 0 0
3543 4 1.7985 10.791 19.7835 0 0 0
2325 4 14.388 10.791 3.597 0 0 0
983 4 26.9775 32.373 19.7835 0 0 0
3090 4 7.194 8.9925 8.9925 0 0 0
355 4 30.5745 10.791 30.5745 0 0 0
1390 4 25.179 34.1715 26.9775 0 0 0
1094 4 25.179 8.9925 12.5895 0 0 0
385 4 32.373 14.388 21.582 0 0 0
2928 4 8.9925 30.5745 3.597 0 0 0
2549 4 14.388 28.776 25.179 0 0 0
182 4 34.1715 34.1715 0.0 0 0 0
656 4 26.9775 5.3955 10.791 0 0 0
3560 4 1.7985 12.5895 32.373 0 0 0
1296 4 23.3805 26.9775 10.791 0 0 0
3962 4 0.0 30.5745 1.7985 0 0 0
2412 4 12.5895 19.7835 7.194 0 0 0
1060 4 23.3805 5.3955 14.388 0 0 0
2168 4 16.1865 34.1715 3.597 0 0 0
3731 4 1.7985 28.776 8.9925 0 0 0
2182 4 17.985 34.1715 19.7835 0 0 0
448 4 30.5745 23.3805 3.597 0 0 0
1631 4 19.7835 17.985 26.9775 0 0 0
59 4 34.1715 7.194 34.1715 0 0 0
3083 4 5.3955 7.194 1.7985 0 0 0
2883 4 8.9925 25.179 1.7985 0 0 0
2322 4 14.388 12.5895 1.7985 0 0 0
3143 4 5.3955 10.791 19.7835 0 0 0
191 4 34.1715 32.373 19.7835 0 0 0
562 4 32.373 34.1715 1.7985 0 0 0
757 4 28.776 10.791 32.373 0 0 0
1100 4 23.3805 8.9925 14.388 0 0 0
706 4 28.776 8.9925 23.3805 0 0 0
2355 4 12.5895 10.791 30.5745 0 0 0
1828 4 16.1865 1.7985 21.582 0 0 0
553 4 32.373 28.776 28.776 0 0 0
2104 4 16.1865 26.9775 17.985 0 0 0
1034 4 25.179 1.7985 30.5745 0 0 0
2193 4 17.985 32.373 28.776 0 0 0
689 4 28.776 7.194 7.194 0 0 0
2560 4 12.5895 30.5745 32.373 0 0 0
2114 4 17.985 26.9775 30.5745 0 0 0
1548 4 19.7835 12.5895 21.582 0 0 0
1698 4 21.582 26.9775 16.1865 0 0 0
967 4 26.9775 32.373 5.3955 0 0 0
970 4 28.776 34.1715 8.9925 0 0 0
1429 4 21.582 0.0 25.179 0 0 0
3739 4 1.7985 28.776 16.1865 0 0 0
786 4 28.776 16.1865 23.3805 0 0 0
1618 4 21.582 19.7835 16.1865 0 0 0
3320 4 5.3955 26.9775 32.373 0 0 0
1270 4 25.179 23.3805 26.9775 0 0 0
1441 4 21.582 3.597 0.0 0 0 0
908 4 26.9775 26.9775 21.582 0 0 0
1638 4 21.582 19.7835 34.1715 0 0 0
2139 4 16.1865 28.776 16.1865 0 0 0
401 4 32.373 17.985 0.0 0 0 0
2734 4 10.791 12.5895 12.5895 0 0 0
1801 4 17.985 0.0 0.0 0 0 0
2425 4 14.388 17.985 21.582 0 0 0
358 4 32.373 12.5895 34.1715 0 0 0
3308 4 5.3955 26.9775 21.582 0 0 0
2770 4 10.791 16.1865 8.9925 0 0 0
583 4 30.5745 32.373 19.7835 0 0 0
2673 4 10.791 3.597 28.776 0 0 0
1813 4 17.985 0.0 10.791 0 0 0
720 4 26.9775 8.9925 32.373 0 0 0
2242 4 14.388 5.3955 1.7985 0 0 0
2566 4 14.388 34.1715 5.3955 0 0 0
1448 4 19.7835 5.3955 3.597 0 0 0
2360 4 12.5895 12.5895 32.373 0 0 0
1209 4 25.179 17.985 7.194 0 0 0
1654 4 21.582 23.3805 12.5895 0 0 0
1597 4 21.582 14.388 32.373 0 0 0
2965 4 10.791 32.373 3.597 0 0 0
2930 4 10.791 30.5745 8.9925 0 0 0
199 4 34.1715 32.373 34.1715 0 0 0
1544 4 19.7835 12.5895 17.985 0 0 0
1408 4 19.7835 1.7985 3.597 0 0 0
275 4 30.5745 3.597 30.5745 0 0 0
1416 4 19.7835 1.7985 10.791 0 0 0
2398 4 14.388 16.1865 34.1715 0 0 0
3698 4 3.597 26.9775 16.1865 0 0 0
2761 4 10.791 14.388 0.0 0 0 0
3199 4 5.3955 14.388 34.1715 0 0 0
2233 4 14.388 0.0 28.776 0 0 0
1848 4 16.1865 5.3955 3.597 0 0 0
2438 4 14.388 19.7835 34.1715 0 0 0
1532 4 19.7835 12.5895 7.194 0 0 0
612 4 26.9775 1.7985 7.194 0 0 0
2205 4 14.388 0.0 3.597 0 0 0
3997 4 0.0 32.373 28.776 0 0 0
1339 4 23.3805 28.776 16.1865 0 0 0
2584 4 12.5895 34.1715 17.985 0 0 0
3077 4 7.194 3.597 32.373 0 0 0
1907 4 16.1865 7.194 23.3805 0 0 0
3115 4 5.3955 7.194 30.5745 0 0 0
2651 4 8.9925 3.597 8.9925 0 0 0
1838 4 17.985 1.7985 34.1715 0 0 0
3033 4 7.194 0.0 28.776 0 0 0
2924 4 8.9925 30.5745 0.0 0 0 0
3538 4 3.597 12.5895 16.1865 0 0 0
1504 4 19.7835 8.9925 17.985 0 0 0
3037 4 7.194 0.0 32.373 0 0 0
1788 4 19.7835 34.1715 21.582 0 0 0
3836 4 0.0 5.3955 26.9775 0 0 0
1737 4 21.582 28.776 14.388 0 0 0
3452 4 1.7985 5.3955 7.194 0 0 0
3194 4 7.194 16.1865 30.5745 0 0 0
3069 4 7.194 3.597 25.179 0 0 0
1497 4 21.582 7.194 14.388 0 0 0
115 4 34.1715 17.985 26.9775 0 0 0
1464 4 19.7835 5.3955 17.985 0 0 0
3284 4 5.3955 26.9775 0.0 0 0 0
1960 4 16.1865 12.5895 32.373 0 0 0
90 4 34.1715 16.1865 14.388 0 0 0
2428 4 12.5895 19.7835 21.582 0 0 0
2990 4 10.791 34.1715 26.9775 0 0 0
3524 4 1.7985 12.5895 0.0 0 0 0
2645 4 10.791 3.597 3.597 0 0 0
43 4 34.1715 7.194 5.3955 0 0 0
2060 4 16.1865 23.3805 14.388 0 0 0
976 4 26.9775 34.1715 10.791 0 0 0
2377 4 14.388 14.388 14.388 0 0 0
3030 4 7.194 1.7985 26.9775 0 0 0
111 4 34.1715 17.985 19.7835 0 0 0
407 4 30.5745 17.985 5.3955 0 0 0
2381 4 14.388 14.388 17.985 0 0 0
966 4 28.776 34.1715 5.3955 0 0 0
1771 4 19.7835 32.373 8.9925 0 0 0
3858 4 0.0 8.9925 30.5745 0 0 0
2926 4 10.791 30.5745 5.3955 0 0 0
2141 4 17.985 28.776 17.985 0 0 0
2153 4 17.985 28.776 28.776 0 0 0
1900 4 16.1865 8.9925 14.388 0 0 0
3165 4 7.194 14.388 3.597 0 0 0
2966 4 10.791 34.1715 5.3955 0 0 0
286 4 32.373 8.9925 5.3955 0 0 0
1601 4 21.582 17.985 0.0 0 0 0
2739 4 8.9925 10.791 16.1865 0 0 0
2659 4 8.9925 3.597 16.1865 0 0 0
2675 4 8.9925 3.597 30.5745 0 0 0
1334 4 25.179 30.5745 12.5895 0 0 0
3691 4 1.7985 25.179 8.9925 0 0 0
1727 4 19.7835 28.776 5.3955 0 0 0
3612 4 1.7985 19.7835 7.194 0 0 0
258 4 32.373 5.3955 16.1865 0 0 0
1041 4 25.179 3.597 0.0 0 0 0
408 4 30.5745 19.7835 3.597 0 0 0
1598 4 21.582 16.1865 34.1715 0 0 0
1657 4 21.582 21.582 14.388 0 0 0
2725 4 10.791 10.791 3.597 0 0 0
3450 4 3.597 5.3955 8.9925 0 0 0
174 4 34.1715 30.5745 21.582 0 0 0
1234 4 25.179 19.7835 30.5745 0 0 0
1879 4 16.1865 3.597 34.1715 0 0 0
1204 4 23.3805 19.7835 0.0 0 0 0
2138 4 17.985 30.5745 16.1865 0 0 0
579 4 30.5745 32.373 16.1865 0 0 0
2804 4 8.9925 19.7835 0.0 0 0 0
79 4 34.1715 10.791 34.1715 0 0 0
2187 4 16.1865 32.373 23.3805 0 0 0
235 4 30.5745 0.0 30.5745 0 0 0
3377 4 7.194 32.373 14.388 0 0 0
3463 4 1.7985 3.597 19.7835 0 0 0
2596 4 12.5895 34.1715 28.776 0 0 0
1955 4 16.1865 10.791 30.5745 0 0 0
494 4 32.373 26.9775 12.5895 0 0 0
396 4 30.5745 16.1865 28.776 0 0 0
3639 4 1.7985 17.985 34.1715 0 0 0
1002 4 25.179 1.7985 1.7985 0 0 0
3242 4 7.194 23.3805 1.7985 0 0 0
334 4 32.373 12.5895 12.5895 0 0 0
1214 4 25.179 19.7835 12.5895 0 0 0
2594 4 14.388 34.1715 30.5745 0 0 0
3592 4 1.7985 16.1865 25.179 0 0 0
936 4 26.9775 30.5745 10.791 0 0 0
1811 4 16.1865 0.0 8.9925 0 0 0
52 4 34.1715 8.9925 17.985 0 0 0
2956 4 8.9925 30.5745 28.776 0 0 0
2941 4 10.791 28.776 17.985 0 0 0
61 4 34.1715 10.791 1.7985 0 0 0
3340 4 5.3955 30.5745 14.388 0 0 0
156 4 34.1715 26.9775 25.179 0 0 0
2615 4 8.9925 0.0 12.5895 0 0 0
576 4 30.5745 34.1715 10.791 0 0 0
3662 4 3.597 23.3805 19.7835 0 0 0
2367 4 12.5895 14.388 5.3955 0 0 0
999 4 26.9775 32.373 34.1715 0 0 0
1069 4 25.179 3.597 25.179 0 0 0
1017 4 25.179 0.0 14.388 0 0 0
3716 4 1.7985 26.9775 28.776 0 0 0
2012 4 16.1865 19.7835 7.194 0 0 0
1994 4 17.985 16.1865 30.5745 0 0 0
743 4 26.9775 10.791 19.7835 0 0 0
3645 4 3.597 21.582 3.597 0 0 0
802 4 28.776 19.7835 1.7985 0 0 0
447 4 30.5745 21.582 5.3955 0 0 0
3925 4 0.0 21.582 7.194 0 0 0
1267 4 23.3805 21.582 23.3805 0 0 0
2935 4 8.9925 28.776 12.5895 0 0 0
2263 4 12.5895 3.597 19.7835 0 0 0
3125 4 7.194 10.791 3.597 0 0 0
3195 4 5.3955 14.388 30.5745 0 0 0
536 4 30.5745 30.5745 10.791 0 0 0
2764 4 8.9925 16.1865 0.0 0 0 0
1268 4 23.3805 23.3805 21.582 0 0 0
2326 4 14.388 12.5895 5.3955 0 0 0
977 4 28.776 32.373 14.388 0 0 0
3413 4 3.597 0.0 10.791 0 0 0
756 4 26.9775 12.5895 28.776 0 0 0
2002 4 17.985 19.7835 1.7985 0 0 0
748 4 26.9775 12.5895 21.582 0 0 0
2113 4 17.985 25.179 28.776 0 0 0
368 4 30.5745 16.1865 3.597 0 0 0
1157 4 25.179 10.791 32.373 0 0 0
1164 4 23.3805 16.1865 0.0 0 0 0
1808 4 16.1865 1.7985 3.597 0 0 0
3565 4 3.597 14.388 3.597 0 0 0
1401 4 21.582 0.0 0.0 0 0 0
1040 4 23.3805 1.7985 32.373 0 0 0
2443 4 12.5895 21.582 1.7985 0 0 0
3797 4 3.597 32.373 32.373 0 0 0
2189 4 17.985 32.373 25.179 0 0 0
3961 4 0.0 28.776 0.0 0 0 0
1703 4 19.7835 25.179 19.7835 0 0 0
1057 4 25.179 3.597 14.388 0 0 0
3737 4 3.597 28.776 14.388 0 0 0
318 4 32.373 8.9925 34.1715 0 0 0
3412 4 1.7985 1.7985 7.194 0 0 0
2773 4 10.791 14.388 10.791 0 0 0
264 4 30.5745 5.3955 17.985 0 0 0
1563 4 19.7835 14.388 1.7985 0 0 0
2754 4 10.791 12.5895 30.5745 0 0 0
2380 4 12.5895 16.1865 14.388 0 0 0
3319 4 5.3955 25.179 34.1715 0 0 0
3964 4 0.0 30.5745 5.3955 0 0 0
3486 4 3.597 8.9925 5.3955 0 0 0
473 4 32.373 21.582 28.776 0 0 0
2232 4 12.5895 1.7985 25.179 0 0 0
526 4 32.373 30.5745 5.3955 0 0 0
3770 4 3.597 34.1715 8.9925 0 0 0
1129 4 25.179 10.791 7.194 0 0 0
3864 4 0.0 12.5895 5.3955 0 0 0
1208 4 23.3805 19.7835 3.597 0 0 0
2879 4 8.9925 21.582 34.1715 0 0 0
2365 4 14.388 14.388 3.597 0 0 0
3891 4 0.0 14.388 17.985 0 0 0
33 4 34.1715 3.597 23.3805 0 0 0
3844 4 0.0 8.9925 5.3955 0 0 0
236 4 30.5745 1.7985 28.776 0 0 0
3974 4 0.0 30.5745 23.3805 0 0 0
1256 4 23.3805 23.3805 10.791 0 0 0
3630 4 3.597 19.7835 26.9775 0 0 0
886 4 28.776 26.9775 5.3955 0 0 0
3479 4 1.7985 3.597 34.1715 0 0 0
1944 4 16.1865 12.5895 17.985 0 0 0
2183 4 16.1865 32.373 19.7835 0 0 0
3346 4 7.194 30.5745 23.3805 0 0 0
3169 4 7.194 14.388 7.194 0 0 0
546 4 32.373 30.5745 23.3805 0 0 0
938 4 28.776 30.5745 16.1865 0 0 0
2840 4 8.9925 19.7835 32.373 0 0 0
1135 4 23.3805 10.791 12.5895 0 0 0
3627 4 1.7985 17.985 23.3805 0 0 0
1511 4 19.7835 7.194 26.9775 0 0 0
1962 4 17.985 16.1865 1.7985 0 0 0
3381 4 7.194 32.373 17.985 0 0 0
961 4 28.776 32.373 0.0 0 0 0
3371 4 5.3955 32.373 8.9925 0 0 0
3121 4 7.194 10.791 0.0 0 0 0
2202 4 14.388 1.7985 1.7985 0 0 0
419 4 30.5745 17.985 16.1865 0 0 0
3234 4 7.194 19.7835 30.5745 0 0 0
1812 4 16.1865 1.7985 7.194 0 0 0
2031 4 16.1865 17.985 26.9775 0 0 0
3041 4 7.194 3.597 0.0 0 0 0
3108 4 5.3955 8.9925 21.582 0 0 0
3049 4 7.194 3.597 7.194 0 0 0
3483 4 1.7985 7.194 1.7985 0 0 0
1232 4 23.3805 19.7835 25.179 0 0 0
1537 4 21.582 10.791 14.388 0 0 0
3497 4 3.597 7.194 14.388 0 0 0
18 4 34.1715 1.7985 28.776 0 0 0
3298 4 7.194 26.9775 16.1865 0 0 0
3795 4 1.7985 32.373 30.5745 0 0 0
216 4 30.5745 1.7985 10.791 0 0 0
2889 4 10.791 25.179 7.194 0 0 0
3167 4 5.3955 14.388 5.3955 0 0 0
1714 4 21.582 26.9775 30.5745 0 0 0
2973 4 10.791 32.373 10.791 0 0 0
3981 4 0.0 32.373 0.0 0 0 0
3690 4 3.597 26.9775 8.9925 0 0 0
2896 4 8.9925 26.9775 10.791 0 0 0
2064 4 16.1865 23.3805 17.985 0 0 0
3920 4 0.0 19.7835 34.1715 0 0 0
3918 4 0.0 19.7835 30.5745 0 0 0
2094 4 17.985 26.9775 12.5895 0 0 0
1825 4 17.985 0.0 21.582 0 0 0
2653 4 10.791 3.597 10.791 0 0 0
3301 4 7.194 25.179 17.985 0 0 0
3157 4 7.194 10.791 32.373 0 0 0
3778 4 3.597 34.1715 16.1865 0 0 0
1468 4 19.7835 5.3955 21.582 0 0 0
2663 4 8.9925 3.597 19.7835 0 0 0
1467 4 19.7835 3.597 23.3805 0 0 0
3166 4 7.194 16.1865 5.3955 0 0 0
2424 4 12.5895 19.7835 17.985 0 0 0
527 4 30.5745 28.776 5.3955 0 0 0
2622 4 10.791 1.7985 19.7835 0 0 0
3643 4 1.7985 21.582 1.7985 0 0 0
201 4 32.373 0.0 0.0 0 0 0
1358 4 25.179 30.5745 34.1715 0 0 0
1359 4 23.3805 28.776 34.1715 0 0 0
874 4 28.776 23.3805 30.5745 0 0 0
1292 4 23.3805 26.9775 7.194 0 0 0
3750 4 3.597 30.5745 26.9775 0 0 0
637 4 28.776 0.0 32.373 0 0 0
2504 4 12.5895 26.9775 17.985 0 0 0
2224 4 12.5895 1.7985 17.985 0 0 0
1000 4 26.9775 34.1715 32.373 0 0 0
580 4 30.5745 34.1715 14.388 0 0 0
2065 4 17.985 21.582 21.582 0 0 0
1257 4 25.179 21.582 14.388 0 0 0
359 4 30.5745 10.791 34.1715 0 0 0
1873 4 17.985 3.597 28.776 0 0 0
1770 4 21.582 34.1715 8.9925 0 0 0
3266 4 7.194 23.3805 23.3805 0 0 0
2136 4 16.1865 30.5745 10.791 0 0 0
3407 4 1.7985 0.0 5.3955 0 0 0
3411 4 1.7985 0.0 8.9925 0 0 0
1009 4 25.179 0.0 7.194 0 0 0
3861 4 0.0 10.791 0.0 0 0 0
2389 4 14.388 14.388 25.179 0 0 0
735 4 26.9775 10.791 12.5895 0 0 0
2423 4 12.5895 17.985 19.7835 0 0 0
1365 4 25.179 32.373 3.597 0 0 0
3872 4 0.0 12.5895 19.7835 0 0 0
124 4 34.1715 23.3805 3.597 0 0 0
1252 4 23.3805 23.3805 7.194 0 0 0
894 4 28.776 26.9775 12.5895 0 0 0
1750 4 21.582 30.5745 26.9775 0 0 0
3720 4 1.7985 26.9775 32.373 0 0 0
3614 4 3.597 19.7835 12.5895 0 0 0
603 4 26.9775 0.0 1.7985 0 0 0
2525 4 14.388 28.776 3.597 0 0 0
2455 4 12.5895 21.582 12.5895 0 0 0
1327 4 23.3805 28.776 5.3955 0 0 0
2526 4 14.388 30.5745 5.3955 0 0 0
3068 4 5.3955 5.3955 21.582 0 0 0
1522 4 21.582 12.5895 1.7985 0 0 0
3659 4 1.7985 21.582 16.1865 0 0 0
2021 4 17.985 17.985 17.985 0 0 0
3178 4 7.194 16.1865 16.1865 0 0 0
3620 4 1.7985 19.7835 14.388 0 0 0
1346 4 25.179 30.5745 23.3805 0 0 0
3087 4 5.3955 7.194 5.3955 0 0 0
607 4 26.9775 0.0 5.3955 0 0 0
1386 4 25.179 34.1715 23.3805 0 0 0
934 4 28.776 30.5745 12.5895 0 0 0
829 4 28.776 17.985 25.179 0 0 0
1893 4 17.985 7.194 10.791 0 0 0
3366 4 7.194 34.1715 5.3955 0 0 0
3599 4 1.7985 14.388 34.1715 0 0 0
1432 4 19.7835 1.7985 25.179 0 0 0
3150 4 7.194 12.5895 26.9775 0 0 0
3980 4 0.0 30.5745 34.1715 0 0 0
129 4 34.1715 21.582 16.1865 0 0 0
575 4 30.5745 32.373 12.5895 0 0 0
3488 4 1.7985 8.9925 3.597 0 0 0
2970 4 10.791 34.1715 8.9925 0 0 0
2997 4 10.791 32.373 32.373 0 0 0
924 4 26.9775 30.5745 0.0 0 0 0
128 4 34.1715 23.3805 10.791 0 0 0
3856 4 0.0 8.9925 26.9775 0 0 0
167 4 34.1715 28.776 12.5895 0 0 0
3824 4 0.0 5.3955 5.3955 0 0 0
3741 4 3.597 28.776 17.985 0 0 0
3196 4 5.3955 16.1865 28.776 0 0 0
3862 4 0.0 12.5895 1.7985 0 0 0
2337 4 14.388 10.791 14.388 0 0 0
2911 4 8.9925 25.179 26.9775 0 0 0
3897 4 0.0 14.388 28.776 0 0 0
1608 4 19.7835 19.7835 3.597 0 0 0
3436 4 1.7985 1.7985 28.776 0 0 0
2433 4 14.388 17.985 28.776 0 0 0
2657 4 10.791 3.597 14.388 0 0 0
2386 4 14.388 16.1865 23.3805 0 0 0
2162 4 17.985 34.1715 1.7985 0 0 0
2775 4 8.9925 14.388 12.5895 0 0 0
356 4 30.5745 12.5895 28.776 0 0 0
3989 4 0.0 32.373 14.388 0 0 0
3045 4 7.194 3.597 3.597 0 0 0
149 4 34.1715 25.179 16.1865 0 0 0
872 4 26.9775 23.3805 25.179 0 0 0
2203 4 12.5895 0.0 1.7985 0 0 0
2758 4 10.791 12.5895 34.1715 0 0 0
28 4 34.1715 5.3955 10.791 0 0 0
319 4 30.5745 7.194 34.1715 0 0 0
1124 4 23.3805 12.5895 0.0 0 0 0
2917 4 10.791 25.179 32.373 0 0 0
3473 4 3.597 3.597 28.776 0 0 0
980 4 26.9775 34.1715 14.388 0 0 0
2191 4 16.1865 32.373 26.9775 0 0 0
3432 4 1.7985 1.7985 25.179 0 0 0
1834 4 17.985 1.7985 30.5745 0 0 0
1861 4 17.985 3.597 17.985 0 0 0
647 4 26.9775 3.597 5.3955 0 0 0
3670 4 3.597 23.3805 26.9775 0 0 0
2486 4 14.388 26.9775 5.3955 0 0 0
1696 4 19.7835 26.9775 10.791 0 0 0
2797 4 10.791 14.388 32.373 0 0 0
871 4 26.9775 21.582 26.9775 0 0 0
3838 4 0.0 5.3955 30.5745 0 0 0
2374 4 14.388 16.1865 12.5895 0 0 0
3932 4 0.0 23.3805 19.7835 0 0 0
143 4 34.1715 25.179 5.3955 0 0 0
3886 4 0.0 16.1865 8.9925 0 0 0
606 4 28.776 1.7985 5.3955 0 0 0
1312 4 23.3805 26.9775 25.179 0 0 0
3440 4 1.7985 1.7985 32.373 0 0 0
316 4 30.5745 8.9925 28.776 0 0 0
3356 4 5.3955 30.5745 28.776 0 0 0
3259 4 5.3955 21.582 16.1865 0 0 0
2041 4 17.985 21.582 0.0 0 0 0
813 4 28.776 17.985 10.791 0 0 0
1188 4 23.3805 16.1865 21.582 0 0 0
2608 4 8.9925 1.7985 3.597 0 0 0
455 4 30.5745 21.582 12.5895 0 0 0
3907 4 0.0 17.985 10.791 0 0 0
3510 4 3.597 8.9925 26.9775 0 0 0
828 4 26.9775 19.7835 21.582 0 0 0
1872 4 16.1865 5.3955 25.179 0 0 0
3815 4 0.0 0.0 25.179 0 0 0
2051 4 16.1865 21.582 8.9925 0 0 0
3415 4 1.7985 0.0 12.5895 0 0 0
3257 4 7.194 21.582 14.388 0 0 0
3818 4 0.0 1.7985 30.5745 0 0 0
2402 4 14.388 19.7835 1.7985 0 0 0
878 4 28.776 23.3805 34.1715 0 0 0
506 4 32.373 26.9775 23.3805 0 0 0
2134 4 17.985 30.5745 12.5895 0 0 0
440 4 30.5745 19.7835 32.373 0 0 0
3711 4 1.7985 25.179 26.9775 0 0 0
2799 4 8.9925 14.388 34.1715 0 0 0
238 4 32.373 1.7985 34.1715 0 0 0
1756 4 19.7835 30.5745 28.776 0 0 0
3671 4 1.7985 21.582 26.9775 0 0 0
3348 4 5.3955 30.5745 21.582 0 0 0
1989 4 17.985 14.388 25.179 0 0 0
3723 4 1.7985 28.776 1.7985 0 0 0
1906 4 17.985 8.9925 23.3805 0 0 0
3375 4 5.3955 32.373 12.5895 0 0 0
1104 4 23.3805 8.9925 17.985 0 0 0
718 4 28.776 8.9925 34.1715 0 0 0
2285 4 14.388 7.194 3.597 0 0 0
2155 4 16.1865 28.776 30.5745 0 0 0
2316 4 12.5895 8.9925 28.776 0 0 0
2057 4 17.985 21.582 14.388 0 0 0
3647 4 1.7985 21.582 5.3955 0 0 0
3295 4 5.3955 25.179 12.5895 0 0 0
2090 4 17.985 26.9775 8.9925 0 0 0
1926 4 17.985 12.5895 5.3955 0 0 0
3219 4 5.3955 17.985 16.1865 0 0 0
2985 4 10.791 32.373 21.582 0 0 0
3469 4 3.597 3.597 25.179 0 0 0
1709 4 21.582 25.179 25.179 0 0 0
457 4 32.373 21.582 14.388 0 0 0
3593 4 3.597 14.388 28.776 0 0 0
3261 4 7.194 21.582 17.985 0 0 0
3367 4 5.3955 32.373 5.3955 0 0 0
2085 4 17.985 25.179 3.597 0 0 0
3046 4 7.194 5.3955 5.3955 0 0 0
642 4 28.776 5.3955 1.7985 0 0 0
581 4 32.373 32.373 17.985 0 0 0
1387 4 23.3805 32.373 23.3805 0 0 0
2078 4 17.985 23.3805 34.1715 0 0 0
2487 4 12.5895 25.179 5.3955 0 0 0
1867 4 16.1865 3.597 23.3805 0 0 0
2361 4 14.388 14.388 0.0 0 0 0
2239 4 12.5895 0.0 34.1715 0 0 0
16 4 34.1715 1.7985 25.179 0 0 0
252 4 30.5745 5.3955 7.194 0 0 0
153 4 34.1715 25.179 23.3805 0 0 0
2613 4 10.791 0.0 10.791 0 0 0
3243 4 5.3955 21.582 1.7985 0 0 0
3408 4 1.7985 1.7985 3.597 0 0 0
323 4 30.5745 10.791 1.7985 0 0 0
3748 4 1.7985 30.5745 21.582 0 0 0
3985 4 0.0 32.373 7.194 0 0 0
913 4 28.776 25.179 28.776 0 0 0
2007 4 16.1865 17.985 5.3955 0 0 0
3100 4 5.3955 8.9925 14.388 0 0 0
679 4 26.9775 3.597 34.1715 0 0 0
3075 4 5.3955 3.597 30.5745 0 0 0
1110 4 25.179 8.9925 26.9775 0 0 0
3332 4 5.3955 30.5745 7.194 0 0 0
2884 4 8.9925 26.9775 0.0 0 0 0
126 4 34.1715 23.3805 7.194 0 0 0
3781 4 3.597 32.373 17.985 0 0 0
2632 4 8.9925 1.7985 25.179 0 0 0
1003 4 23.3805 0.0 1.7985 0 0 0
15 4 34.1715 0.0 26.9775 0 0 0
3019 4 5.3955 0.0 16.1865 0 0 0
3244 4 5.3955 23.3805 0.0 0 0 0
349 4 32.373 10.791 25.179 0 0 0
3665 4 3.597 21.582 21.582 0 0 0
2137 4 17.985 28.776 14.388 0 0 0
1982 4 17.985 16.1865 19.7835 0 0 0
1438 4 21.582 1.7985 34.1715 0 0 0
2231 4 12.5895 0.0 26.9775 0 0 0
2821 4 10.791 17.985 17.985 0 0 0
3762 4 3.597 34.1715 1.7985 0 0 0
366 4 32.373 16.1865 5.3955 0 0 0
1080 4 23.3805 5.3955 32.373 0 0 0
2916 4 8.9925 26.9775 28.776 0 0 0
340 4 30.5745 12.5895 14.388 0 0 0
474 4 32.373 23.3805 30.5745 0 0 0
770 4 28.776 16.1865 8.9925 0 0 0
3771 4 1.7985 32.373 8.9925 0 0 0
365 4 32.373 14.388 3.597 0 0 0
480 4 30.5745 23.3805 32.373 0 0 0
392 4 30.5745 16.1865 25.179 0 0 0
3430 4 3.597 1.7985 26.9775 0 0 0
2672 4 8.9925 5.3955 25.179 0 0 0
2353 4 14.388 10.791 28.776 0 0 0
1207 4 23.3805 17.985 5.3955 0 0 0
3960 4 0.0 26.9775 34.1715 0 0 0
2847 4 8.9925 21.582 5.3955 0 0 0
3461 4 3.597 3.597 17.985 0 0 0
3908 4 0.0 19.7835 12.5895 0 0 0
2553 4 14.388 28.776 28.776 0 0 0
3081 4 7.194 7.194 0.0 0 0 0
1935 4 16.1865 10.791 12.5895 0 0 0
2695 4 8.9925 7.194 12.5895 0 0 0
1959 4 16.1865 10.791 34.1715 0 0 0
645 4 28.776 3.597 3.597 0 0 0
2274 4 14.388 5.3955 30.5745 0 0 0
436 4 30.5745 19.7835 28.776 0 0 0
1162 4 25.179 16.1865 1.7985 0 0 0
3581 4 3.597 14.388 17.985 0 0 0
2774 4 10.791 16.1865 12.5895 0 0 0
299 4 30.5745 7.194 16.1865 0 0 0
1287 4 23.3805 25.179 5.3955 0 0 0
618 4 28.776 1.7985 16.1865 0 0 0
262 4 32.373 5.3955 19.7835 0 0 0
1831 4 16.1865 0.0 26.9775 0 0 0
3345 4 7.194 28.776 21.582 0 0 0
94 4 34.1715 16.1865 21.582 0 0 0
524 4 30.5745 30.5745 0.0 0 0 0
2777 4 10.791 14.388 14.388 0 0 0
3400 4 5.3955 34.1715 32.373 0 0 0
3579 4 1.7985 14.388 16.1865 0 0 0
3679 4 1.7985 21.582 34.1715 0 0 0
1176 4 23.3805 16.1865 10.791 0 0 0
3246 4 7.194 23.3805 5.3955 0 0 0
600 4 30.5745 34.1715 32.373 0 0 0
3672 4 1.7985 23.3805 25.179 0 0 0
467 4 30.5745 21.582 23.3805 0 0 0
2491 4 12.5895 25.179 8.9925 0 0 0
1639 4 19.7835 17.985 34.1715 0 0 0
1026 4 25.179 1.7985 23.3805 0 0 0
3513 4 3.597 7.194 28.776 0 0 0
2716 4 8.9925 8.9925 28.776 0 0 0
750 4 28.776 12.5895 26.9775 0 0 0
1231 4 23.3805 17.985 26.9775 0 0 0
32 4 34.1715 5.3955 17.985 0 0 0
3621 4 3.597 17.985 17.985 0 0 0
1 5 34.1715 0.0 1.7985 0 0 0
7 5 34.1715 0.0 12.5895 0 0 0
8 5 34.1715 1.7985 10.791 0 0 0
11 5 34.1715 0.0 19.7835 0 0 0
12 5 34.1715 1.7985 17.985 0 0 0
17 5 34.1715 0.0 30.5745 0 0 0
19 5 34.1715 0.0 34.1715 0 0 0
20 5 34.1715 1.7985 32.373 0 0 0
22 5 34.1715 5.3955 0.0 0 0 0
23 5 34.1715 3.597 5.3955 0 0 0
29 5 34.1715 3.597 16.1865 0 0 0
42 5 34.1715 8.9925 0.0 0 0 0
51 5 34.1715 7.194 19.7835 0 0 0
53 5 34.1715 7.194 23.3805 0 0 0
56 5 34.1715 8.9925 25.179 0 0 0
57 5 34.1715 7.194 30.5745 0 0 0
60 5 34.1715 8.9925 32.373 0 0 0
64 5 34.1715 12.5895 3.597 0 0 0
69 5 34.1715 10.791 16.1865 0 0 0
70 5 34.1715 12.5895 14.388 0 0 0
78 5 34.1715 12.5895 28.776 0 0 0
83 5 34.1715 14.388 5.3955 0 0 0
86 5 34.1715 16.1865 7.194 0 0 0
91 5 34.1715 14.388 19.7835 0 0 0
98 5 34.1715 16.1865 28.776 0 0 0
99 5 34.1715 14.388 34.1715 0 0 0
100 5 34.1715 16.1865 32.373 0 0 0
102 5 34.1715 19.7835 0.0 0 0 0
106 5 34.1715 19.7835 7.194 0 0 0
108 5 34.1715 19.7835 10.791 0 0 0
114 5 34.1715 19.7835 21.582 0 0 0
119 5 34.1715 17.985 34.1715 0 0 0
122 5 34.1715 23.3805 0.0 0 0 0
127 5 34.1715 21.582 12.5895 0 0 0
132 5 34.1715 23.3805 17.985 0 0 0
133 5 34.1715 21.582 23.3805 0 0 0
135 5 34.1715 21.582 26.9775 0 0 0
142 5 34.1715 26.9775 0.0 0 0 0
144 5 34.1715 26.9775 3.597 0 0 0
146 5 34.1715 26.9775 7.194 0 0 0
147 5 34.1715 25.179 12.5895 0 0 0
154 5 34.1715 26.9775 21.582 0 0 0
155 5 34.1715 25.179 26.9775 0 0 0
158 5 34.1715 26.9775 28.776 0 0 0
159 5 34.1715 25.179 34.1715 0 0 0
163 5 34.1715 28.776 5.3955 0 0 0
165 5 34.1715 28.776 8.9925 0 0 0
173 5 34.1715 28.776 23.3805 0 0 0
175 5 34.1715 28.776 26.9775 0 0 0
177 5 34.1715 28.776 30.5745 0 0 0
179 5 34.1715 28.776 34.1715 0 0 0
180 5 34.1715 30.5745 32.373 0 0 0
181 5 34.1715 32.373 1.7985 0 0 0
183 5 34.1715 32.373 5.3955 0 0 0
186 5 34.1715 34.1715 7.194 0 0 0
188 5 34.1715 34.1715 10.791 0 0 0
189 5 34.1715 32.373 16.1865 0 0 0
192 5 34.1715 34.1715 17.985 0 0 0
197 5 34.1715 32.373 30.5745 0 0 0
211 5 30.5745 0.0 8.9925 0 0 0
223 5 30.5745 0.0 19.7835 0 0 0
226 5 32.373 1.7985 23.3805 0 0 0
228 5 30.5745 1.7985 21.582 0 0 0
232 5 30.5745 1.7985 25.179 0 0 0
234 5 32.373 1.7985 30.5745 0 0 0
237 5 32.373 0.0 32.373 0 0 0
239 5 30.5745 0.0 34.1715 0 0 0
246 5 32.373 5.3955 5.3955 0 0 0
247 5 30.5745 3.597 5.3955 0 0 0
251 5 30.5745 3.597 8.9925 0 0 0
256 5 30.5745 5.3955 10.791 0 0 0
259 5 30.5745 3.597 16.1865 0 0 0
260 5 30.5745 5.3955 14.388 0 0 0
261 5 32.373 3.597 17.985 0 0 0
266 5 32.373 5.3955 23.3805 0 0 0
273 5 32.373 3.597 28.776 0 0 0
281 5 32.373 7.194 0.0 0 0 0
283 5 30.5745 7.194 1.7985 0 0 0
284 5 30.5745 8.9925 0.0 0 0 0
288 5 30.5745 8.9925 3.597 0 0 0
290 5 32.373 8.9925 8.9925 0 0 0
294 5 32.373 8.9925 12.5895 0 0 0
297 5 32.373 7.194 14.388 0 0 0
304 5 30.5745 8.9925 17.985 0 0 0
306 5 32.373 8.9925 23.3805 0 0 0
312 5 30.5745 8.9925 25.179 0 0 0
314 5 32.373 8.9925 30.5745 0 0 0
317 5 32.373 7.194 32.373 0 0 0
320 5 30.5745 8.9925 32.373 0 0 0
325 5 32.373 10.791 3.597 0 0 0
331 5 30.5745 10.791 8.9925 0 0 0
339 5 30.5745 10.791 16.1865 0 0 0
341 5 32.373 10.791 17.985 0 0 0
344 5 30.5745 12.5895 17.985 0 0 0
346 5 32.373 12.5895 23.3805 0 0 0
353 5 32.373 10.791 28.776 0 0 0
354 5 32.373 12.5895 30.5745 0 0 0
364 5 30.5745 16.1865 0.0 0 0 0
369 5 32.373 14.388 7.194 0 0 0
371 5 30.5745 14.388 8.9925 0 0 0
372 5 30.5745 16.1865 7.194 0 0 0
373 5 32.373 14.388 10.791 0 0 0
374 5 32.373 16.1865 12.5895 0 0 0
379 5 30.5745 14.388 16.1865 0 0 0
380 5 30.5745 16.1865 14.388 0 0 0
382 5 32.373 16.1865 19.7835 0 0 0
398 5 32.373 16.1865 34.1715 0 0 0
399 5 30.5745 14.388 34.1715 0 0 0
400 5 30.5745 16.1865 32.373 0 0 0
405 5 32.373 17.985 3.597 0 0 0
409 5 32.373 17.985 7.194 0 0 0
410 5 32.373 19.7835 8.9925 0 0 0
411 5 30.5745 17.985 8.9925 0 0 0
412 5 30.5745 19.7835 7.194 0 0 0
424 5 30.5745 19.7835 17.985 0 0 0
430 5 32.373 19.7835 26.9775 0 0 0
435 5 30.5745 17.985 30.5745 0 0 0
437 5 32.373 17.985 32.373 0 0 0
441 5 32.373 21.582 0.0 0 0 0
442 5 32.373 23.3805 1.7985 0 0 0
444 5 30.5745 23.3805 0.0 0 0 0
453 5 32.373 21.582 10.791 0 0 0
456 5 30.5745 23.3805 10.791 0 0 0
462 5 32.373 23.3805 19.7835 0 0 0
464 5 30.5745 23.3805 17.985 0 0 0
470 5 32.373 23.3805 26.9775 0 0 0
471 5 30.5745 21.582 26.9775 0 0 0
472 5 30.5745 23.3805 25.179 0 0 0
476 5 30.5745 23.3805 28.776 0 0 0
486 5 32.373 26.9775 5.3955 0 0 0
491 5 30.5745 25.179 8.9925 0 0 0
508 5 30.5745 26.9775 21.582 0 0 0
509 5 32.373 25.179 25.179 0 0 0
513 5 32.373 25.179 28.776 0 0 0
521 5 32.373 28.776 0.0 0 0 0
522 5 32.373 30.5745 1.7985 0 0 0
531 5 30.5745 28.776 8.9925 0 0 0
537 5 32.373 28.776 14.388 0 0 0
544 5 30.5745 30.5745 17.985 0 0 0
545 5 32.373 28.776 21.582 0 0 0
548 5 30.5745 30.5745 21.582 0 0 0
551 5 30.5745 28.776 26.9775 0 0 0
552 5 30.5745 30.5745 25.179 0 0 0
555 5 30.5745 28.776 30.5745 0 0 0
556 5 30.5745 30.5745 28.776 0 0 0
559 5 30.5745 28.776 34.1715 0 0 0
563 5 30.5745 32.373 1.7985 0 0 0
567 5 30.5745 32.373 5.3955 0 0 0
569 5 32.373 32.373 7.194 0 0 0
570 5 32.373 34.1715 8.9925 0 0 0
582 5 32.373 34.1715 19.7835 0 0 0
586 5 32.373 34.1715 23.3805 0 0 0
589 5 32.373 32.373 25.179 0 0 0
592 5 30.5745 34.1715 25.179 0 0 0
594 5 32.373 34.1715 30.5745 0 0 0
597 5 32.373 32.373 32.373 0 0 0
598 5 32.373 34.1715 34.1715 0 0 0
602 5 28.776 1.7985 1.7985 0 0 0
604 5 26.9775 1.7985 0.0 0 0 0
614 5 28.776 1.7985 12.5895 0 0 0
616 5 26.9775 1.7985 10.791 0 0 0
627 5 26.9775 0.0 23.3805 0 0 0
651 5 26.9775 3.597 8.9925 0 0 0
654 5 28.776 5.3955 12.5895 0 0 0
655 5 26.9775 3.597 12.5895 0 0 0
660 5 26.9775 5.3955 14.388 0 0 0
661 5 28.776 3.597 17.985 0 0 0
666 5 28.776 5.3955 23.3805 0 0 0
672 5 26.9775 5.3955 25.179 0 0 0
673 5 28.776 3.597 28.776 0 0 0
680 5 26.9775 5.3955 32.373 0 0 0
688 5 26.9775 8.9925 3.597 0 0 0
692 5 26.9775 8.9925 7.194 0 0 0
695 5 26.9775 7.194 12.5895 0 0 0
696 5 26.9775 8.9925 10.791 0 0 0
700 5 26.9775 8.9925 14.388 0 0 0
701 5 28.776 7.194 17.985 0 0 0
703 5 26.9775 7.194 19.7835 0 0 0
708 5 26.9775 8.9925 21.582 0 0 0
713 5 28.776 7.194 28.776 0 0 0
716 5 26.9775 8.9925 28.776 0 0 0
726 5 28.776 12.5895 5.3955 0 0 0
727 5 26.9775 10.791 5.3955 0 0 0
732 5 26.9775 12.5895 7.194 0 0 0
733 5 28.776 10.791 10.791 0 0 0
734 5 28.776 12.5895 12.5895 0 0 0
741 5 28.776 10.791 17.985 0 0 0
746 5 28.776 12.5895 23.3805 0 0 0
754 5 28.776 12.5895 30.5745 0 0 0
755 5 26.9775 10.791 30.5745 0 0 0
759 5 26.9775 10.791 34.1715 0 0 0
762 5 28.776 16.1865 1.7985 0 0 0
769 5 28.776 14.388 7.194 0 0 0
775 5 26.9775 14.388 12.5895 0 0 0
778 5 28.776 16.1865 16.1865 0 0 0
779 5 26.9775 14.388 16.1865 0 0 0
780 5 26.9775 16.1865 14.388 0 0 0
783 5 26.9775 14.388 19.7835 0 0 0
790 5 28.776 16.1865 26.9775 0 0 0
794 5 28.776 16.1865 30.5745 0 0 0
803 5 26.9775 17.985 1.7985 0 0 0
814 5 28.776 19.7835 12.5895 0 0 0
826 5 28.776 19.7835 23.3805 0 0 0
840 5 26.9775 19.7835 32.373 0 0 0
843 5 26.9775 21.582 1.7985 0 0 0
844 5 26.9775 23.3805 0.0 0 0 0
852 5 26.9775 23.3805 7.194 0 0 0
853 5 28.776 21.582 10.791 0 0 0
856 5 26.9775 23.3805 10.791 0 0 0
857 5 28.776 21.582 14.388 0 0 0
858 5 28.776 23.3805 16.1865 0 0 0
863 5 26.9775 21.582 19.7835 0 0 0
879 5 26.9775 21.582 34.1715 0 0 0
882 5 28.776 26.9775 1.7985 0 0 0
883 5 26.9775 25.179 1.7985 0 0 0
889 5 28.776 25.179 7.194 0 0 0
891 5 26.9775 25.179 8.9925 0 0 0
899 5 26.9775 25.179 16.1865 0 0 0
906 5 28.776 26.9775 23.3805 0 0 0
931 5 26.9775 28.776 8.9925 0 0 0
940 5 26.9775 30.5745 14.388 0 0 0
943 5 26.9775 28.776 19.7835 0 0 0
948 5 26.9775 30.5745 21.582 0 0 0
951 5 26.9775 28.776 26.9775 0 0 0
953 5 28.776 28.776 28.776 0 0 0
954 5 28.776 30.5745 30.5745 0 0 0
956 5 26.9775 30.5745 28.776 0 0 0
960 5 26.9775 30.5745 32.373 0 0 0
971 5 26.9775 32.373 8.9925 0 0 0
973 5 28.776 32.373 10.791 0 0 0
974 5 28.776 34.1715 12.5895 0 0 0
981 5 28.776 32.373 17.985 0 0 0
988 5 26.9775 34.1715 21.582 0 0 0
990 5 28.776 34.1715 26.9775 0 0 0
994 5 28.776 34.1715 30.5745 0 0 0
995 5 26.9775 32.373 30.5745 0 0 0
1005 5 25.179 0.0 3.597 0 0 0
1010 5 25.179 1.7985 8.9925 0 0 0
1016 5 23.3805 1.7985 10.791 0 0 0
1018 5 25.179 1.7985 16.1865 0 0 0
1021 5 25.179 0.0 17.985 0 0 0
1031 5 23.3805 0.0 26.9775 0 0 0
1033 5 25.179 0.0 28.776 0 0 0
1055 5 23.3805 3.597 12.5895 0 0 0
1056 5 23.3805 5.3955 10.791 0 0 0
1062 5 25.179 5.3955 19.7835 0 0 0
1072 5 23.3805 5.3955 25.179 0 0 0
1074 5 25.179 5.3955 30.5745 0 0 0
1075 5 23.3805 3.597 30.5745 0 0 0
1079 5 23.3805 3.597 34.1715 0 0 0
1083 5 23.3805 7.194 1.7985 0 0 0
1088 5 23.3805 8.9925 3.597 0 0 0
1089 5 25.179 7.194 7.194 0 0 0
1091 5 23.3805 7.194 8.9925 0 0 0
1096 5 23.3805 8.9925 10.791 0 0 0
1105 5 25.179 7.194 21.582 0 0 0
1109 5 25.179 7.194 25.179 0 0 0
1114 5 25.179 8.9925 30.5745 0 0 0
1117 5 25.179 7.194 32.373 0 0 0
1123 5 23.3805 10.791 1.7985 0 0 0
1126 5 25.179 12.5895 5.3955 0 0 0
1131 5 23.3805 10.791 8.9925 0 0 0
1133 5 25.179 10.791 10.791 0 0 0
1136 5 23.3805 12.5895 10.791 0 0 0
1139 5 23.3805 10.791 16.1865 0 0 0
1144 5 23.3805 12.5895 17.985 0 0 0
1145 5 25.179 10.791 21.582 0 0 0
1153 5 25.179 10.791 28.776 0 0 0
1161 5 25.179 14.388 0.0 0 0 0
1166 5 25.179 16.1865 5.3955 0 0 0
1167 5 23.3805 14.388 5.3955 0 0 0
1173 5 25.179 14.388 10.791 0 0 0
1175 5 23.3805 14.388 12.5895 0 0 0
1180 5 23.3805 16.1865 14.388 0 0 0
1182 5 25.179 16.1865 19.7835 0 0 0
1183 5 23.3805 14.388 19.7835 0 0 0
1184 5 23.3805 16.1865 17.985 0 0 0
1186 5 25.179 16.1865 23.3805 0 0 0
1189 5 25.179 14.388 25.179 0 0 0
1191 5 23.3805 14.388 26.9775 0 0 0
1197 5 25.179 14.388 32.373 0 0 0
1199 5 23.3805 14.388 34.1715 0 0 0
1202 5 25.179 19.7835 1.7985 0 0 0
1210 5 25.179 19.7835 8.9925 0 0 0
1211 5 23.3805 17.985 8.9925 0 0 0
1216 5 23.3805 19.7835 10.791 0 0 0
1219 5 23.3805 17.985 16.1865 0 0 0
1220 5 23.3805 19.7835 14.388 0 0 0
1222 5 25.179 19.7835 19.7835 0 0 0
1228 5 23.3805 19.7835 21.582 0 0 0
1230 5 25.179 19.7835 26.9775 0 0 0
1233 5 25.179 17.985 28.776 0 0 0
1238 5 25.179 19.7835 34.1715 0 0 0
1240 5 23.3805 19.7835 32.373 0 0 0
1242 5 25.179 23.3805 1.7985 0 0 0
1243 5 23.3805 21.582 1.7985 0 0 0
1244 5 23.3805 23.3805 0.0 0 0 0
1250 5 25.179 23.3805 8.9925 0 0 0
1253 5 25.179 21.582 10.791 0 0 0
1255 5 23.3805 21.582 12.5895 0 0 0
1258 5 25.179 23.3805 16.1865 0 0 0
1259 5 23.3805 21.582 16.1865 0 0 0
1261 5 25.179 21.582 17.985 0 0 0
1262 5 25.179 23.3805 19.7835 0 0 0
1263 5 23.3805 21.582 19.7835 0 0 0
1269 5 25.179 21.582 25.179 0 0 0
1272 5 23.3805 23.3805 25.179 0 0 0
1285 5 25.179 25.179 3.597 0 0 0
1286 5 25.179 26.9775 5.3955 0 0 0
1295 5 23.3805 25.179 12.5895 0 0 0
1297 5 25.179 25.179 14.388 0 0 0
1299 5 23.3805 25.179 16.1865 0 0 0
1300 5 23.3805 26.9775 14.388 0 0 0
1301 5 25.179 25.179 17.985 0 0 0
1304 5 23.3805 26.9775 17.985 0 0 0
1306 5 25.179 26.9775 23.3805 0 0 0
1310 5 25.179 26.9775 26.9775 0 0 0
1311 5 23.3805 25.179 26.9775 0 0 0
1317 5 25.179 25.179 32.373 0 0 0
1329 5 25.179 28.776 7.194 0 0 0
1335 5 23.3805 28.776 12.5895 0 0 0
1336 5 23.3805 30.5745 10.791 0 0 0
1340 5 23.3805 30.5745 14.388 0 0 0
1342 5 25.179 30.5745 19.7835 0 0 0
1343 5 23.3805 28.776 19.7835 0 0 0
1344 5 23.3805 30.5745 17.985 0 0 0
1348 5 23.3805 30.5745 21.582 0 0 0
1354 5 25.179 30.5745 30.5745 0 0 0
1361 5 25.179 32.373 0.0 0 0 0
1363 5 23.3805 32.373 1.7985 0 0 0
1364 5 23.3805 34.1715 0.0 0 0 0
1369 5 25.179 32.373 7.194 0 0 0
1376 5 23.3805 34.1715 10.791 0 0 0
1377 5 25.179 32.373 14.388 0 0 0
1388 5 23.3805 34.1715 21.582 0 0 0
1394 5 25.179 34.1715 30.5745 0 0 0
1395 5 23.3805 32.373 30.5745 0 0 0
1397 5 25.179 32.373 32.373 0 0 0
1399 5 23.3805 32.373 34.1715 0 0 0
1409 5 21.582 0.0 7.194 0 0 0
1412 5 19.7835 1.7985 7.194 0 0 0
1419 5 19.7835 0.0 16.1865 0 0 0
1428 5 19.7835 1.7985 21.582 0 0 0
1439 5 19.7835 0.0 34.1715 0 0 0
1440 5 19.7835 1.7985 32.373 0 0 0
1443 5 19.7835 3.597 1.7985 0 0 0
1444 5 19.7835 5.3955 0.0 0 0 0
1445 5 21.582 3.597 3.597 0 0 0
1450 5 21.582 5.3955 8.9925 0 0 0
1453 5 21.582 3.597 10.791 0 0 0
1461 5 21.582 3.597 17.985 0 0 0
1470 5 21.582 5.3955 26.9775 0 0 0
1472 5 19.7835 5.3955 25.179 0 0 0
1474 5 21.582 5.3955 30.5745 0 0 0
1483 5 19.7835 7.194 1.7985 0 0 0
1488 5 19.7835 8.9925 3.597 0 0 0
1489 5 21.582 7.194 7.194 0 0 0
1491 5 19.7835 7.194 8.9925 0 0 0
1494 5 21.582 8.9925 12.5895 0 0 0
1499 5 19.7835 7.194 16.1865 0 0 0
1502 5 21.582 8.9925 19.7835 0 0 0
1507 5 19.7835 7.194 23.3805 0 0 0
1510 5 21.582 8.9925 26.9775 0 0 0
1517 5 21.582 7.194 32.373 0 0 0
1518 5 21.582 8.9925 34.1715 0 0 0
1523 5 19.7835 10.791 1.7985 0 0 0
1524 5 19.7835 12.5895 0.0 0 0 0
1531 5 19.7835 10.791 8.9925 0 0 0
1533 5 21.582 10.791 10.791 0 0 0
1534 5 21.582 12.5895 12.5895 0 0 0
1535 5 19.7835 10.791 12.5895 0 0 0
1540 5 19.7835 12.5895 14.388 0 0 0
1542 5 21.582 12.5895 19.7835 0 0 0
1549 5 21.582 10.791 25.179 0 0 0
1552 5 19.7835 12.5895 25.179 0 0 0
1557 5 21.582 10.791 32.373 0 0 0
1560 5 19.7835 12.5895 32.373 0 0 0
1564 5 19.7835 16.1865 0.0 0 0 0
1566 5 21.582 16.1865 5.3955 0 0 0
1573 5 21.582 14.388 10.791 0 0 0
1576 5 19.7835 16.1865 10.791 0 0 0
1577 5 21.582 14.388 14.388 0 0 0
1578 5 21.582 16.1865 16.1865 0 0 0
1580 5 19.7835 16.1865 14.388 0 0 0
1584 5 19.7835 16.1865 17.985 0 0 0
1587 5 19.7835 14.388 23.3805 0 0 0
1591 5 19.7835 14.388 26.9775 0 0 0
1596 5 19.7835 16.1865 28.776 0 0 0
1604 5 19.7835 19.7835 0.0 0 0 0
1607 5 19.7835 17.985 5.3955 0 0 0
1609 5 21.582 17.985 7.194 0 0 0
1621 5 21.582 17.985 17.985 0 0 0
1623 5 19.7835 17.985 19.7835 0 0 0
1627 5 19.7835 17.985 23.3805 0 0 0
1628 5 19.7835 19.7835 21.582 0 0 0
1634 5 21.582 19.7835 30.5745 0 0 0
1636 5 19.7835 19.7835 28.776 0 0 0
1644 5 19.7835 23.3805 0.0 0 0 0
1645 5 21.582 21.582 3.597 0 0 0
1647 5 19.7835 21.582 5.3955 0 0 0
1653 5 21.582 21.582 10.791 0 0 0
1658 5 21.582 23.3805 16.1865 0 0 0
1659 5 19.7835 21.582 16.1865 0 0 0
1661 5 21.582 21.582 17.985 0 0 0
1663 5 19.7835 21.582 19.7835 0 0 0
1669 5 21.582 21.582 25.179 0 0 0
1676 5 19.7835 23.3805 28.776 0 0 0
1685 5 21.582 25.179 3.597 0 0 0
1694 5 21.582 26.9775 12.5895 0 0 0
1695 5 19.7835 25.179 12.5895 0 0 0
1699 5 19.7835 25.179 16.1865 0 0 0
1700 5 19.7835 26.9775 14.388 0 0 0
1702 5 21.582 26.9775 19.7835 0 0 0
1706 5 21.582 26.9775 23.3805 0 0 0
1707 5 19.7835 25.179 23.3805 0 0 0
1710 5 21.582 26.9775 26.9775 0 0 0
1712 5 19.7835 26.9775 25.179 0 0 0
1717 5 21.582 25.179 32.373 0 0 0
1718 5 21.582 26.9775 34.1715 0 0 0
1719 5 19.7835 25.179 34.1715 0 0 0
1723 5 19.7835 28.776 1.7985 0 0 0
1730 5 21.582 30.5745 8.9925 0 0 0
1734 5 21.582 30.5745 12.5895 0 0 0
1738 5 21.582 30.5745 16.1865 0 0 0
1739 5 19.7835 28.776 16.1865 0 0 0
1742 5 21.582 30.5745 19.7835 0 0 0
1746 5 21.582 30.5745 23.3805 0 0 0
1758 5 21.582 30.5745 34.1715 0 0 0
1786 5 21.582 34.1715 23.3805 0 0 0
1791 5 19.7835 32.373 26.9775 0 0 0
1792 5 19.7835 34.1715 25.179 0 0 0
1797 5 21.582 32.373 32.373 0 0 0
1809 5 17.985 0.0 7.194 0 0 0
1810 5 17.985 1.7985 8.9925 0 0 0
1814 5 17.985 1.7985 12.5895 0 0 0
1815 5 16.1865 0.0 12.5895 0 0 0
1819 5 16.1865 0.0 16.1865 0 0 0
1821 5 17.985 0.0 17.985 0 0 0
1829 5 17.985 0.0 25.179 0 0 0
1832 5 16.1865 1.7985 25.179 0 0 0
1833 5 17.985 0.0 28.776 0 0 0
1835 5 16.1865 0.0 30.5745 0 0 0
1836 5 16.1865 1.7985 28.776 0 0 0
1839 5 16.1865 0.0 34.1715 0 0 0
1843 5 16.1865 3.597 1.7985 0 0 0
1849 5 17.985 3.597 7.194 0 0 0
1857 5 17.985 3.597 14.388 0 0 0
1859 5 16.1865 3.597 16.1865 0 0 0
1865 5 17.985 3.597 21.582 0 0 0
1870 5 17.985 5.3955 26.9775 0 0 0
1871 5 16.1865 3.597 26.9775 0 0 0
1881 5 17.985 7.194 0.0 0 0 0
1884 5 16.1865 8.9925 0.0 0 0 0
1889 5 17.985 7.194 7.194 0 0 0
1890 5 17.985 8.9925 8.9925 0 0 0
1896 5 16.1865 8.9925 10.791 0 0 0
1904 5 16.1865 8.9925 17.985 0 0 0
1910 5 17.985 8.9925 26.9775 0 0 0
1911 5 16.1865 7.194 26.9775 0 0 0
1912 5 16.1865 8.9925 25.179 0 0 0
1914 5 17.985 8.9925 30.5745 0 0 0
1918 5 17.985 8.9925 34.1715 0 0 0
1921 5 17.985 10.791 0.0 0 0 0
1927 5 16.1865 10.791 5.3955 0 0 0
1936 5 16.1865 12.5895 10.791 0 0 0
1938 5 17.985 12.5895 16.1865 0 0 0
1941 5 17.985 10.791 17.985 0 0 0
1945 5 17.985 10.791 21.582 0 0 0
1947 5 16.1865 10.791 23.3805 0 0 0
1966 5 17.985 16.1865 5.3955 0 0 0
1976 5 16.1865 16.1865 10.791 0 0 0
1977 5 17.985 14.388 14.388 0 0 0
1978 5 17.985 16.1865 16.1865 0 0 0
1979 5 16.1865 14.388 16.1865 0 0 0
1980 5 16.1865 16.1865 14.388 0 0 0
1983 5 16.1865 14.388 19.7835 0 0 0
1987 5 16.1865 14.388 23.3805 0 0 0
1990 5 17.985 16.1865 26.9775 0 0 0
1991 5 16.1865 14.388 26.9775 0 0 0
1995 5 16.1865 14.388 30.5745 0 0 0
1998 5 17.985 16.1865 34.1715 0 0 0
2000 5 16.1865 16.1865 32.373 0 0 0
2014 5 17.985 19.7835 12.5895 0 0 0
2016 5 16.1865 19.7835 10.791 0 0 0
2018 5 17.985 19.7835 16.1865 0 0 0
2023 5 16.1865 17.985 19.7835 0 0 0
2024 5 16.1865 19.7835 17.985 0 0 0
2025 5 17.985 17.985 21.582 0 0 0
2029 5 17.985 17.985 25.179 0 0 0
2030 5 17.985 19.7835 26.9775 0 0 0
2037 5 17.985 17.985 32.373 0 0 0
2038 5 17.985 19.7835 34.1715 0 0 0
2047 5 16.1865 21.582 5.3955 0 0 0
2049 5 17.985 21.582 7.194 0 0 0
2050 5 17.985 23.3805 8.9925 0 0 0
2058 5 17.985 23.3805 16.1865 0 0 0
2059 5 16.1865 21.582 16.1865 0 0 0
2061 5 17.985 21.582 17.985 0 0 0
2062 5 17.985 23.3805 19.7835 0 0 0
2070 5 17.985 23.3805 26.9775 0 0 0
2079 5 16.1865 21.582 34.1715 0 0 0
2091 5 16.1865 25.179 8.9925 0 0 0
2095 5 16.1865 25.179 12.5895 0 0 0
2096 5 16.1865 26.9775 10.791 0 0 0
2098 5 17.985 26.9775 16.1865 0 0 0
2101 5 17.985 25.179 17.985 0 0 0
2106 5 17.985 26.9775 23.3805 0 0 0
2107 5 16.1865 25.179 23.3805 0 0 0
2108 5 16.1865 26.9775 21.582 0 0 0
2112 5 16.1865 26.9775 25.179 0 0 0
2115 5 16.1865 25.179 30.5745 0 0 0
2116 5 16.1865 26.9775 28.776 0 0 0
2118 5 17.985 26.9775 34.1715 0 0 0
2121 5 17.985 28.776 0.0 0 0 0
2128 5 16.1865 30.5745 3.597 0 0 0
2133 5 17.985 28.776 10.791 0 0 0
2145 5 17.985 28.776 21.582 0 0 0
2148 5 16.1865 30.5745 21.582 0 0 0
2154 5 17.985 30.5745 30.5745 0 0 0
2156 5 16.1865 30.5745 28.776 0 0 0
2158 5 17.985 30.5745 34.1715 0 0 0
2163 5 16.1865 32.373 1.7985 0 0 0
2173 5 17.985 32.373 10.791 0 0 0
2174 5 17.985 34.1715 12.5895 0 0 0
2175 5 16.1865 32.373 12.5895 0 0 0
2186 5 17.985 34.1715 23.3805 0 0 0
2190 5 17.985 34.1715 26.9775 0 0 0
2201 5 14.388 0.0 0.0 0 0 0
2209 5 14.388 0.0 7.194 0 0 0
2213 5 14.388 0.0 10.791 0 0 0
2216 5 12.5895 1.7985 10.791 0 0 0
2217 5 14.388 0.0 14.388 0 0 0
2221 5 14.388 0.0 17.985 0 0 0
2223 5 12.5895 0.0 19.7835 0 0 0
2226 5 14.388 1.7985 23.3805 0 0 0
2227 5 12.5895 0.0 23.3805 0 0 0
2230 5 14.388 1.7985 26.9775 0 0 0
2234 5 14.388 1.7985 30.5745 0 0 0
2236 5 12.5895 1.7985 28.776 0 0 0
2247 5 12.5895 3.597 5.3955 0 0 0
2248 5 12.5895 5.3955 3.597 0 0 0
2251 5 12.5895 3.597 8.9925 0 0 0
2252 5 12.5895 5.3955 7.194 0 0 0
2253 5 14.388 3.597 10.791 0 0 0
2256 5 12.5895 5.3955 10.791 0 0 0
2260 5 12.5895 5.3955 14.388 0 0 0
2269 5 14.388 3.597 25.179 0 0 0
2271 5 12.5895 3.597 26.9775 0 0 0
2277 5 14.388 3.597 32.373 0 0 0
2278 5 14.388 5.3955 34.1715 0 0 0
2289 5 14.388 7.194 7.194 0 0 0
2293 5 14.388 7.194 10.791 0 0 0
2301 5 14.388 7.194 17.985 0 0 0
2303 5 12.5895 7.194 19.7835 0 0 0
2307 5 12.5895 7.194 23.3805 0 0 0
2313 5 14.388 7.194 28.776 0 0 0
2314 5 14.388 8.9925 30.5745 0 0 0
2327 5 12.5895 10.791 5.3955 0 0 0
2328 5 12.5895 12.5895 3.597 0 0 0
2329 5 14.388 10.791 7.194 0 0 0
2336 5 12.5895 12.5895 10.791 0 0 0
2339 5 12.5895 10.791 16.1865 0 0 0
2341 5 14.388 10.791 17.985 0 0 0
2342 5 14.388 12.5895 19.7835 0 0 0
2343 5 12.5895 10.791 19.7835 0 0 0
2344 5 12.5895 12.5895 17.985 0 0 0
2345 5 14.388 10.791 21.582 0 0 0
2346 5 14.388 12.5895 23.3805 0 0 0
2351 5 12.5895 10.791 26.9775 0 0 0
2359 5 12.5895 10.791 34.1715 0 0 0
2363 5 12.5895 14.388 1.7985 0 0 0
2370 5 14.388 16.1865 8.9925 0 0 0
2371 5 12.5895 14.388 8.9925 0 0 0
2378 5 14.388 16.1865 16.1865 0 0 0
2382 5 14.388 16.1865 19.7835 0 0 0
2388 5 12.5895 16.1865 21.582 0 0 0
2394 5 14.388 16.1865 30.5745 0 0 0
2397 5 14.388 14.388 32.373 0 0 0
2399 5 12.5895 14.388 34.1715 0 0 0
2403 5 12.5895 17.985 1.7985 0 0 0
2407 5 12.5895 17.985 5.3955 0 0 0
2413 5 14.388 17.985 10.791 0 0 0
2414 5 14.388 19.7835 12.5895 0 0 0
2417 5 14.388 17.985 14.388 0 0 0
2418 5 14.388 19.7835 16.1865 0 0 0
2427 5 12.5895 17.985 23.3805 0 0 0
2436 5 12.5895 19.7835 28.776 0 0 0
2440 5 12.5895 19.7835 32.373 0 0 0
2444 5 12.5895 23.3805 0.0 0 0 0
2446 5 14.388 23.3805 5.3955 0 0 0
2447 5 12.5895 21.582 5.3955 0 0 0
2454 5 14.388 23.3805 12.5895 0 0 0
2460 5 12.5895 23.3805 14.388 0 0 0
2461 5 14.388 21.582 17.985 0 0 0
2467 5 12.5895 21.582 23.3805 0 0 0
2473 5 14.388 21.582 28.776 0 0 0
2474 5 14.388 23.3805 30.5745 0 0 0
2477 5 14.388 21.582 32.373 0 0 0
2479 5 12.5895 21.582 34.1715 0 0 0
2480 5 12.5895 23.3805 32.373 0 0 0
2482 5 14.388 26.9775 1.7985 0 0 0
2488 5 12.5895 26.9775 3.597 0 0 0
2490 5 14.388 26.9775 8.9925 0 0 0
2492 5 12.5895 26.9775 7.194 0 0 0
2499 5 12.5895 25.179 16.1865 0 0 0
2503 5 12.5895 25.179 19.7835 0 0 0
2508 5 12.5895 26.9775 21.582 0 0 0
2511 5 12.5895 25.179 26.9775 0 0 0
2537 5 14.388 28.776 14.388 0 0 0
2541 5 14.388 28.776 17.985 0 0 0
2545 5 14.388 28.776 21.582 0 0 0
2546 5 14.388 30.5745 23.3805 0 0 0
2558 5 14.388 30.5745 34.1715 0 0 0
2567 5 12.5895 32.373 5.3955 0 0 0
2572 5 12.5895 34.1715 7.194 0 0 0
2577 5 14.388 32.373 14.388 0 0 0
2581 5 14.388 32.373 17.985 0 0 0
2589 5 14.388 32.373 25.179 0 0 0
2590 5 14.388 34.1715 26.9775 0 0 0
2591 5 12.5895 32.373 26.9775 0 0 0
2600 5 12.5895 34.1715 32.373 0 0 0
2604 5 8.9925 1.7985 0.0 0 0 0
2607 5 8.9925 0.0 5.3955 0 0 0
2609 5 10.791 0.0 7.194 0 0 0
2610 5 10.791 1.7985 8.9925 0 0 0
2617 5 10.791 0.0 14.388 0 0 0
2619 5 8.9925 0.0 16.1865 0 0 0
2621 5 10.791 0.0 17.985 0 0 0
2625 5 10.791 0.0 21.582 0 0 0
2634 5 10.791 1.7985 30.5745 0 0 0
2636 5 8.9925 1.7985 28.776 0 0 0
2640 5 8.9925 1.7985 32.373 0 0 0
2648 5 8.9925 5.3955 3.597 0 0 0
2650 5 10.791 5.3955 8.9925 0 0 0
2660 5 8.9925 5.3955 14.388 0 0 0
2668 5 8.9925 5.3955 21.582 0 0 0
2670 5 10.791 5.3955 26.9775 0 0 0
2671 5 8.9925 3.597 26.9775 0 0 0
2676 5 8.9925 5.3955 28.776 0 0 0
2679 5 8.9925 3.597 34.1715 0 0 0
2683 5 8.9925 7.194 1.7985 0 0 0
2684 5 8.9925 8.9925 0.0 0 0 0
2685 5 10.791 7.194 3.597 0 0 0
2687 5 8.9925 7.194 5.3955 0 0 0
2694 5 10.791 8.9925 12.5895 0 0 0
2696 5 8.9925 8.9925 10.791 0 0 0
2697 5 10.791 7.194 14.388 0 0 0
2698 5 10.791 8.9925 16.1865 0 0 0
2699 5 8.9925 7.194 16.1865 0 0 0
2701 5 10.791 7.194 17.985 0 0 0
2708 5 8.9925 8.9925 21.582 0 0 0
2710 5 10.791 8.9925 26.9775 0 0 0
2713 5 10.791 7.194 28.776 0 0 0
2714 5 10.791 8.9925 30.5745 0 0 0
2718 5 10.791 8.9925 34.1715 0 0 0
2720 5 8.9925 8.9925 32.373 0 0 0
2721 5 10.791 10.791 0.0 0 0 0
2723 5 8.9925 10.791 1.7985 0 0 0
2729 5 10.791 10.791 7.194 0 0 0
2731 5 8.9925 10.791 8.9925 0 0 0
2742 5 10.791 12.5895 19.7835 0 0 0
2744 5 8.9925 12.5895 17.985 0 0 0
2749 5 10.791 10.791 25.179 0 0 0
2750 5 10.791 12.5895 26.9775 0 0 0
2753 5 10.791 10.791 28.776 0 0 0
2755 5 8.9925 10.791 30.5745 0 0 0
2760 5 8.9925 12.5895 32.373 0 0 0
2762 5 10.791 16.1865 1.7985 0 0 0
2763 5 8.9925 14.388 1.7985 0 0 0
2765 5 10.791 14.388 3.597 0 0 0
2786 5 10.791 16.1865 23.3805 0 0 0
2790 5 10.791 16.1865 26.9775 0 0 0
2791 5 8.9925 14.388 26.9775 0 0 0
2792 5 8.9925 16.1865 25.179 0 0 0
2795 5 8.9925 14.388 30.5745 0 0 0
2801 5 10.791 17.985 0.0 0 0 0
2802 5 10.791 19.7835 1.7985 0 0 0
2810 5 10.791 19.7835 8.9925 0 0 0
2812 5 8.9925 19.7835 7.194 0 0 0
2816 5 8.9925 19.7835 10.791 0 0 0
2817 5 10.791 17.985 14.388 0 0 0
2818 5 10.791 19.7835 16.1865 0 0 0
2826 5 10.791 19.7835 23.3805 0 0 0
2828 5 8.9925 19.7835 21.582 0 0 0
2831 5 8.9925 17.985 26.9775 0 0 0
2833 5 10.791 17.985 28.776 0 0 0
2843 5 8.9925 21.582 1.7985 0 0 0
2845 5 10.791 21.582 3.597 0 0 0
2852 5 8.9925 23.3805 7.194 0 0 0
2854 5 10.791 23.3805 12.5895 0 0 0
2857 5 10.791 21.582 14.388 0 0 0
2871 5 8.9925 21.582 26.9775 0 0 0
2872 5 8.9925 23.3805 25.179 0 0 0
2876 5 8.9925 23.3805 28.776 0 0 0
2880 5 8.9925 23.3805 32.373 0 0 0
2881 5 10.791 25.179 0.0 0 0 0
2886 5 10.791 26.9775 5.3955 0 0 0
2895 5 8.9925 25.179 12.5895 0 0 0
2898 5 10.791 26.9775 16.1865 0 0 0
2901 5 10.791 25.179 17.985 0 0 0
2905 5 10.791 25.179 21.582 0 0 0
2906 5 10.791 26.9775 23.3805 0 0 0
2910 5 10.791 26.9775 26.9775 0 0 0
2913 5 10.791 25.179 28.776 0 0 0
2925 5 10.791 28.776 3.597 0 0 0
2931 5 8.9925 28.776 8.9925 0 0 0
2938 5 10.791 30.5745 16.1865 0 0 0
2943 5 8.9925 28.776 19.7835 0 0 0
2961 5 10.791 32.373 0.0 0 0 0
2968 5 8.9925 34.1715 3.597 0 0 0
2971 5 8.9925 32.373 8.9925 0 0 0
2975 5 8.9925 32.373 12.5895 0 0 0
2976 5 8.9925 34.1715 10.791 0 0 0
2980 5 8.9925 34.1715 14.388 0 0 0
2981 5 10.791 32.373 17.985 0 0 0
2982 5 10.791 34.1715 19.7835 0 0 0
2983 5 8.9925 32.373 19.7835 0 0 0
2989 5 10.791 32.373 25.179 0 0 0
2995 5 8.9925 32.373 30.5745 0 0 0
3005 5 7.194 0.0 3.597 0 0 0
3007 5 5.3955 0.0 5.3955 0 0 0
3009 5 7.194 0.0 7.194 0 0 0
3010 5 7.194 1.7985 8.9925 0 0 0
3011 5 5.3955 0.0 8.9925 0 0 0
3016 5 5.3955 1.7985 10.791 0 0 0
3022 5 7.194 1.7985 19.7835 0 0 0
3024 5 5.3955 1.7985 17.985 0 0 0
3026 5 7.194 1.7985 23.3805 0 0 0
3028 5 5.3955 1.7985 21.582 0 0 0
3029 5 7.194 0.0 25.179 0 0 0
3031 5 5.3955 0.0 26.9775 0 0 0
3032 5 5.3955 1.7985 25.179 0 0 0
3036 5 5.3955 1.7985 28.776 0 0 0
3048 5 5.3955 5.3955 3.597 0 0 0
3056 5 5.3955 5.3955 10.791 0 0 0
3058 5 7.194 5.3955 16.1865 0 0 0
3060 5 5.3955 5.3955 14.388 0 0 0
3066 5 7.194 5.3955 23.3805 0 0 0
3070 5 7.194 5.3955 26.9775 0 0 0
3072 5 5.3955 5.3955 25.179 0 0 0
3076 5 5.3955 5.3955 28.776 0 0 0
3095 5 5.3955 7.194 12.5895 0 0 0
3098 5 7.194 8.9925 16.1865 0 0 0
3101 5 7.194 7.194 17.985 0 0 0
3105 5 7.194 7.194 21.582 0 0 0
3107 5 5.3955 7.194 23.3805 0 0 0
3109 5 7.194 7.194 25.179 0 0 0
3110 5 7.194 8.9925 26.9775 0 0 0
3116 5 5.3955 8.9925 28.776 0 0 0
3117 5 7.194 7.194 32.373 0 0 0
3122 5 7.194 12.5895 1.7985 0 0 0
3127 5 5.3955 10.791 5.3955 0 0 0
3133 5 7.194 10.791 10.791 0 0 0
3139 5 5.3955 10.791 16.1865 0 0 0
3141 5 7.194 10.791 17.985 0 0 0
3142 5 7.194 12.5895 19.7835 0 0 0
3148 5 5.3955 12.5895 21.582 0 0 0
3159 5 5.3955 10.791 34.1715 0 0 0
3161 5 7.194 14.388 0.0 0 0 0
3172 5 5.3955 16.1865 7.194 0 0 0
3173 5 7.194 14.388 10.791 0 0 0
3176 5 5.3955 16.1865 10.791 0 0 0
3183 5 5.3955 14.388 19.7835 0 0 0
3185 5 7.194 14.388 21.582 0 0 0
3189 5 7.194 14.388 25.179 0 0 0
3197 5 7.194 14.388 32.373 0 0 0
3204 5 5.3955 19.7835 0.0 0 0 0
3205 5 7.194 17.985 3.597 0 0 0
3213 5 7.194 17.985 10.791 0 0 0
3223 5 5.3955 17.985 19.7835 0 0 0
3224 5 5.3955 19.7835 17.985 0 0 0
3226 5 7.194 19.7835 23.3805 0 0 0
3230 5 7.194 19.7835 26.9775 0 0 0
3236 5 5.3955 19.7835 28.776 0 0 0
3237 5 7.194 17.985 32.373 0 0 0
3240 5 5.3955 19.7835 32.373 0 0 0
3249 5 7.194 21.582 7.194 0 0 0
3250 5 7.194 23.3805 8.9925 0 0 0
3253 5 7.194 21.582 10.791 0 0 0
3255 5 5.3955 21.582 12.5895 0 0 0
3260 5 5.3955 23.3805 14.388 0 0 0
3267 5 5.3955 21.582 23.3805 0 0 0
3269 5 7.194 21.582 25.179 0 0 0
3271 5 5.3955 21.582 26.9775 0 0 0
3272 5 5.3955 23.3805 25.179 0 0 0
3273 5 7.194 21.582 28.776 0 0 0
3275 5 5.3955 21.582 30.5745 0 0 0
3277 5 7.194 21.582 32.373 0 0 0
3282 5 7.194 26.9775 1.7985 0 0 0
3288 5 5.3955 26.9775 3.597 0 0 0
3289 5 7.194 25.179 7.194 0 0 0
3296 5 5.3955 26.9775 10.791 0 0 0
3304 5 5.3955 26.9775 17.985 0 0 0
3305 5 7.194 25.179 21.582 0 0 0
3311 5 5.3955 25.179 26.9775 0 0 0
3314 5 7.194 26.9775 30.5745 0 0 0
3317 5 7.194 25.179 32.373 0 0 0
3318 5 7.194 26.9775 34.1715 0 0 0
3321 5 7.194 28.776 0.0 0 0 0
3323 5 5.3955 28.776 1.7985 0 0 0
3329 5 7.194 28.776 7.194 0 0 0
3331 5 5.3955 28.776 8.9925 0 0 0
3337 5 7.194 28.776 14.388 0 0 0
3342 5 7.194 30.5745 19.7835 0 0 0
3349 5 7.194 28.776 25.179 0 0 0
3355 5 5.3955 28.776 30.5745 0 0 0
3357 5 7.194 28.776 32.373 0 0 0
3364 5 5.3955 34.1715 0.0 0 0 0
3378 5 7.194 34.1715 16.1865 0 0 0
3380 5 5.3955 34.1715 14.388 0 0 0
3383 5 5.3955 32.373 19.7835 0 0 0
3385 5 7.194 32.373 21.582 0 0 0
3390 5 7.194 34.1715 26.9775 0 0 0
3394 5 7.194 34.1715 30.5745 0 0 0
3396 5 5.3955 34.1715 28.776 0 0 0
3398 5 7.194 34.1715 34.1715 0 0 0
3399 5 5.3955 32.373 34.1715 0 0 0
3402 5 3.597 1.7985 1.7985 0 0 0
3414 5 3.597 1.7985 12.5895 0 0 0
3416 5 1.7985 1.7985 10.791 0 0 0
3421 5 3.597 0.0 17.985 0 0 0
3423 5 1.7985 0.0 19.7835 0 0 0
3424 5 1.7985 1.7985 17.985 0 0 0
3426 5 3.597 1.7985 23.3805 0 0 0
3433 5 3.597 0.0 28.776 0 0 0
3445 5 3.597 3.597 3.597 0 0 0
3446 5 3.597 5.3955 5.3955 0 0 0
3449 5 3.597 3.597 7.194 0 0 0
3451 5 1.7985 3.597 8.9925 0 0 0
3457 5 3.597 3.597 14.388 0 0 0
3460 5 1.7985 5.3955 14.388 0 0 0
3468 5 1.7985 5.3955 21.582 0 0 0
3472 5 1.7985 5.3955 25.179 0 0 0
3480 5 1.7985 5.3955 32.373 0 0 0
3491 5 1.7985 7.194 8.9925 0 0 0
3502 5 3.597 8.9925 19.7835 0 0 0
3511 5 1.7985 7.194 26.9775 0 0 0
3521 5 3.597 10.791 0.0 0 0 0
3526 5 3.597 12.5895 5.3955 0 0 0
3530 5 3.597 12.5895 8.9925 0 0 0
3532 5 1.7985 12.5895 7.194 0 0 0
3537 5 3.597 10.791 14.388 0 0 0
3544 5 1.7985 12.5895 17.985 0 0 0
3548 5 1.7985 12.5895 21.582 0 0 0
3555 5 1.7985 10.791 30.5745 0 0 0
3556 5 1.7985 12.5895 28.776 0 0 0
3557 5 3.597 10.791 32.373 0 0 0
3562 5 3.597 16.1865 1.7985 0 0 0
3563 5 1.7985 14.388 1.7985 0 0 0
3566 5 3.597 16.1865 5.3955 0 0 0
3584 5 1.7985 16.1865 17.985 0 0 0
3587 5 1.7985 14.388 23.3805 0 0 0
3603 5 1.7985 17.985 1.7985 0 0 0
3607 5 1.7985 17.985 5.3955 0 0 0
3609 5 3.597 17.985 7.194 0 0 0
3616 5 1.7985 19.7835 10.791 0 0 0
3619 5 1.7985 17.985 16.1865 0 0 0
3633 5 3.597 17.985 28.776 0 0 0
3634 5 3.597 19.7835 30.5745 0 0 0
3636 5 1.7985 19.7835 28.776 0 0 0
3638 5 3.597 19.7835 34.1715 0 0 0
3640 5 1.7985 19.7835 32.373 0 0 0
3642 5 3.597 23.3805 1.7985 0 0 0
3648 5 1.7985 23.3805 3.597 0 0 0
3653 5 3.597 21.582 10.791 0 0 0
3655 5 1.7985 21.582 12.5895 0 0 0
3660 5 1.7985 23.3805 14.388 0 0 0
3661 5 3.597 21.582 17.985 0 0 0
3669 5 3.597 21.582 25.179 0 0 0
3675 5 1.7985 21.582 30.5745 0 0 0
3692 5 1.7985 26.9775 7.194 0 0 0
3696 5 1.7985 26.9775 10.791 0 0 0
3700 5 1.7985 26.9775 14.388 0 0 0
3704 5 1.7985 26.9775 17.985 0 0 0
3709 5 3.597 25.179 25.179 0 0 0
3724 5 1.7985 30.5745 0.0 0 0 0
3743 5 1.7985 28.776 19.7835 0 0 0
3746 5 3.597 30.5745 23.3805 0 0 0
3753 5 3.597 28.776 28.776 0 0 0
3758 5 3.597 30.5745 34.1715 0 0 0
3763 5 1.7985 32.373 1.7985 0 0 0
3768 5 1.7985 34.1715 3.597 0 0 0
3769 5 3.597 32.373 7.194 0 0 0
3777 5 3.597 32.373 14.388 0 0 0
3784 5 1.7985 34.1715 17.985 0 0 0
3786 5 3.597 34.1715 23.3805 0 0 0
3790 5 3.597 34.1715 26.9775 0 0 0
3796 5 1.7985 34.1715 28.776 0 0 0
3812 5 0.0 1.7985 19.7835 0 0 0
3813 5 0.0 0.0 21.582 0 0 0
3823 5 0.0 3.597 3.597 0 0 0
3826 5 0.0 5.3955 8.9925 0 0 0
3829 5 0.0 3.597 14.388 0 0 0
3834 5 0.0 5.3955 23.3805 0 0 0
3835 5 0.0 3.597 25.179 0 0 0
3845 5 0.0 7.194 7.194 0 0 0
3853 5 0.0 7.194 21.582 0 0 0
3868 5 0.0 12.5895 12.5895 0 0 0
3876 5 0.0 12.5895 26.9775 0 0 0
3877 5 0.0 10.791 28.776 0 0 0
3878 5 0.0 12.5895 30.5745 0 0 0
3882 5 0.0 16.1865 1.7985 0 0 0
3894 5 0.0 16.1865 23.3805 0 0 0
3899 5 0.0 14.388 32.373 0 0 0
3900 5 0.0 16.1865 34.1715 0 0 0
3902 5 0.0 19.7835 1.7985 0 0 0
3905 5 0.0 17.985 7.194 0 0 0
3913 5 0.0 17.985 21.582 0 0 0
3914 5 0.0 19.7835 23.3805 0 0 0
3915 5 0.0 17.985 25.179 0 0 0
3924 5 0.0 23.3805 5.3955 0 0 0
3928 5 0.0 23.3805 12.5895 0 0 0
3929 5 0.0 21.582 14.388 0 0 0
3933 5 0.0 21.582 21.582 0 0 0
3934 5 0.0 23.3805 23.3805 0 0 0
3936 5 0.0 23.3805 26.9775 0 0 0
3937 5 0.0 21.582 28.776 0 0 0
3941 5 0.0 25.179 0.0 0 0 0
3945 5 0.0 25.179 7.194 0 0 0
3950 5 0.0 26.9775 16.1865 0 0 0
3956 5 0.0 26.9775 26.9775 0 0 0
3959 5 0.0 25.179 32.373 0 0 0
3963 5 0.0 28.776 3.597 0 0 0
3970 5 0.0 30.5745 16.1865 0 0 0
3975 5 0.0 28.776 25.179 0 0 0
3978 5 0.0 30.5745 30.5745 0 0 0
3990 5 0.0 34.1715 16.1865 0 0 0
3992 5 0.0 34.1715 19.7835 0 0 0
