LAMMPS data file via write_data version 30 Jul 2021 timestep = 0
4000 atoms
5 atom types
0 35.97 xlo xhi
0 35.97 ylo yhi
0 35.97 zlo zhi
0.0 0.0 0.0 xy xz yz
 
Masses
 
1 1.0
2 2.0
3 3.0
4 4.0
5 5.0
 
Atoms  # atomic
 
3806 1 0.0 1.7985 8.9925 0 0 0
2792 1 8.9925 16.1865 25.179 0 0 0
2443 1 12.5895 21.582 1.7985 0 0 0
1623 1 19.7835 17.985 19.7835 0 0 0
1523 1 19.7835 10.791 1.7985 0 0 0
358 1 32.373 12.5895 34.1715 0 0 0
1230 1 25.179 19.7835 26.9775 0 0 0
1350 1 25.179 30.5745 26.9775 0 0 0
287 1 30.5745 7.194 5.3955 0 0 0
3719 1 1.7985 25.179 34.1715 0 0 0
1506 1 21.582 8.9925 23.3805 0 0 0
3531 1 1.7985 10.791 8.9925 0 0 0
924 1 26.9775 30.5745 0.0 0 0 0
3488 1 1.7985 8.9925 3.597 0 0 0
3549 1 3.597 10.791 25.179 0 0 0
225 1 32.373 0.0 21.582 0 0 0
3985 1 0.0 32.373 7.194 0 0 0
2229 1 14.388 0.0 25.179 0 0 0
288 1 30.5745 8.9925 3.597 0 0 0
2250 1 14.388 5.3955 8.9925 0 0 0
2036 1 16.1865 19.7835 28.776 0 0 0
2900 1 8.9925 26.9775 14.388 0 0 0
3671 1 1.7985 21.582 26.9775 0 0 0
3363 1 5.3955 32.373 1.7985 0 0 0
2104 1 16.1865 26.9775 17.985 0 0 0
2602 1 10.791 1.7985 1.7985 0 0 0
304 1 30.5745 8.9925 17.985 0 0 0
2771 1 8.9925 14.388 8.9925 0 0 0
2527 1 12.5895 28.776 5.3955 0 0 0
1765 1 21.582 32.373 3.597 0 0 0
660 1 26.9775 5.3955 14.388 0 0 0
2538 1 14.388 30.5745 16.1865 0 0 0
1270 1 25.179 23.3805 26.9775 0 0 0
823 1 26.9775 17.985 19.7835 0 0 0
3283 1 5.3955 25.179 1.7985 0 0 0
3390 1 7.194 34.1715 26.9775 0 0 0
648 1 26.9775 5.3955 3.597 0 0 0
1771 1 19.7835 32.373 8.9925 0 0 0
1525 1 21.582 10.791 3.597 0 0 0
2859 1 8.9925 21.582 16.1865 0 0 0
2208 1 12.5895 1.7985 3.597 0 0 0
805 1 28.776 17.985 3.597 0 0 0
3360 1 5.3955 30.5745 32.373 0 0 0
3937 1 0.0 21.582 28.776 0 0 0
2764 1 8.9925 16.1865 0.0 0 0 0
1685 1 21.582 25.179 3.597 0 0 0
1389 1 25.179 32.373 25.179 0 0 0
3981 1 0.0 32.373 0.0 0 0 0
1434 1 21.582 1.7985 30.5745 0 0 0
2421 1 14.388 17.985 17.985 0 0 0
2717 1 10.791 7.194 32.373 0 0 0
1119 1 23.3805 7.194 34.1715 0 0 0
1735 1 19.7835 28.776 12.5895 0 0 0
171 1 34.1715 28.776 19.7835 0 0 0
2195 1 16.1865 32.373 30.5745 0 0 0
3015 1 5.3955 0.0 12.5895 0 0 0
1513 1 21.582 7.194 28.776 0 0 0
1234 1 25.179 19.7835 30.5745 0 0 0
2353 1 14.388 10.791 28.776 0 0 0
3483 1 1.7985 7.194 1.7985 0 0 0
2577 1 14.388 32.373 14.388 0 0 0
1375 1 23.3805 32.373 12.5895 0 0 0
1241 1 25.179 21.582 0.0 0 0 0
145 1 34.1715 25.179 8.9925 0 0 0
1200 1 23.3805 16.1865 32.373 0 0 0
1106 1 25.179 8.9925 23.3805 0 0 0
372 1 30.5745 16.1865 7.194 0 0 0
376 1 30.5745 16.1865 10.791 0 0 0
3138 1 7.194 12.5895 16.1865 0 0 0
760 1 26.9775 12.5895 32.373 0 0 0
2146 1 17.985 30.5745 23.3805 0 0 0
3124 1 5.3955 12.5895 0.0 0 0 0
63 1 34.1715 10.791 5.3955 0 0 0
3969 1 0.0 28.776 14.388 0 0 0
3135 1 5.3955 10.791 12.5895 0 0 0
232 1 30.5745 1.7985 25.179 0 0 0
2121 1 17.985 28.776 0.0 0 0 0
3388 1 5.3955 34.1715 21.582 0 0 0
725 1 28.776 10.791 3.597 0 0 0
1801 1 17.985 0.0 0.0 0 0 0
3050 1 7.194 5.3955 8.9925 0 0 0
2909 1 10.791 25.179 25.179 0 0 0
1603 1 19.7835 17.985 1.7985 0 0 0
492 1 30.5745 26.9775 7.194 0 0 0
87 1 34.1715 14.388 12.5895 0 0 0
278 1 32.373 5.3955 34.1715 0 0 0
16 1 34.1715 1.7985 25.179 0 0 0
3848 1 0.0 8.9925 12.5895 0 0 0
3959 1 0.0 25.179 32.373 0 0 0
3809 1 0.0 0.0 14.388 0 0 0
1407 1 19.7835 0.0 5.3955 0 0 0
2663 1 8.9925 3.597 19.7835 0 0 0
3439 1 1.7985 0.0 34.1715 0 0 0
2956 1 8.9925 30.5745 28.776 0 0 0
2833 1 10.791 17.985 28.776 0 0 0
3142 1 7.194 12.5895 19.7835 0 0 0
1537 1 21.582 10.791 14.388 0 0 0
1227 1 23.3805 17.985 23.3805 0 0 0
3311 1 5.3955 25.179 26.9775 0 0 0
2592 1 12.5895 34.1715 25.179 0 0 0
1512 1 19.7835 8.9925 25.179 0 0 0
2766 1 10.791 16.1865 5.3955 0 0 0
1105 1 25.179 7.194 21.582 0 0 0
2788 1 8.9925 16.1865 21.582 0 0 0
1531 1 19.7835 10.791 8.9925 0 0 0
2291 1 12.5895 7.194 8.9925 0 0 0
453 1 32.373 21.582 10.791 0 0 0
1747 1 19.7835 28.776 23.3805 0 0 0
3475 1 1.7985 3.597 30.5745 0 0 0
336 1 30.5745 12.5895 10.791 0 0 0
3729 1 3.597 28.776 7.194 0 0 0
2926 1 10.791 30.5745 5.3955 0 0 0
3424 1 1.7985 1.7985 17.985 0 0 0
1535 1 19.7835 10.791 12.5895 0 0 0
2518 1 14.388 26.9775 34.1715 0 0 0
2794 1 10.791 16.1865 30.5745 0 0 0
2230 1 14.388 1.7985 26.9775 0 0 0
870 1 28.776 23.3805 26.9775 0 0 0
3909 1 0.0 17.985 14.388 0 0 0
3232 1 5.3955 19.7835 25.179 0 0 0
896 1 26.9775 26.9775 10.791 0 0 0
889 1 28.776 25.179 7.194 0 0 0
2641 1 10.791 3.597 0.0 0 0 0
3916 1 0.0 19.7835 26.9775 0 0 0
1552 1 19.7835 12.5895 25.179 0 0 0
2589 1 14.388 32.373 25.179 0 0 0
159 1 34.1715 25.179 34.1715 0 0 0
3669 1 3.597 21.582 25.179 0 0 0
1142 1 25.179 12.5895 19.7835 0 0 0
2048 1 16.1865 23.3805 3.597 0 0 0
430 1 32.373 19.7835 26.9775 0 0 0
1882 1 17.985 8.9925 1.7985 0 0 0
3856 1 0.0 8.9925 26.9775 0 0 0
3861 1 0.0 10.791 0.0 0 0 0
3042 1 7.194 5.3955 1.7985 0 0 0
3721 1 3.597 28.776 0.0 0 0 0
2241 1 14.388 3.597 0.0 0 0 0
2134 1 17.985 30.5745 12.5895 0 0 0
1001 1 25.179 0.0 0.0 0 0 0
1458 1 21.582 5.3955 16.1865 0 0 0
2932 1 8.9925 30.5745 7.194 0 0 0
2944 1 8.9925 30.5745 17.985 0 0 0
1048 1 23.3805 5.3955 3.597 0 0 0
884 1 26.9775 26.9775 0.0 0 0 0
2767 1 8.9925 14.388 5.3955 0 0 0
814 1 28.776 19.7835 12.5895 0 0 0
539 1 30.5745 28.776 16.1865 0 0 0
2345 1 14.388 10.791 21.582 0 0 0
149 1 34.1715 25.179 16.1865 0 0 0
2247 1 12.5895 3.597 5.3955 0 0 0
2312 1 12.5895 8.9925 25.179 0 0 0
777 1 28.776 14.388 14.388 0 0 0
13 1 34.1715 0.0 23.3805 0 0 0
2839 1 8.9925 17.985 34.1715 0 0 0
944 1 26.9775 30.5745 17.985 0 0 0
371 1 30.5745 14.388 8.9925 0 0 0
3212 1 5.3955 19.7835 7.194 0 0 0
650 1 28.776 5.3955 8.9925 0 0 0
947 1 26.9775 28.776 23.3805 0 0 0
583 1 30.5745 32.373 19.7835 0 0 0
1770 1 21.582 34.1715 8.9925 0 0 0
382 1 32.373 16.1865 19.7835 0 0 0
3263 1 5.3955 21.582 19.7835 0 0 0
1589 1 21.582 14.388 25.179 0 0 0
3108 1 5.3955 8.9925 21.582 0 0 0
1342 1 25.179 30.5745 19.7835 0 0 0
2171 1 16.1865 32.373 8.9925 0 0 0
425 1 32.373 17.985 21.582 0 0 0
1408 1 19.7835 1.7985 3.597 0 0 0
1963 1 16.1865 14.388 1.7985 0 0 0
2895 1 8.9925 25.179 12.5895 0 0 0
334 1 32.373 12.5895 12.5895 0 0 0
1510 1 21.582 8.9925 26.9775 0 0 0
2073 1 17.985 21.582 28.776 0 0 0
313 1 32.373 7.194 28.776 0 0 0
2497 1 14.388 25.179 14.388 0 0 0
3453 1 3.597 3.597 10.791 0 0 0
2703 1 8.9925 7.194 19.7835 0 0 0
465 1 32.373 21.582 21.582 0 0 0
1950 1 17.985 12.5895 26.9775 0 0 0
2086 1 17.985 26.9775 5.3955 0 0 0
1986 1 17.985 16.1865 23.3805 0 0 0
719 1 26.9775 7.194 34.1715 0 0 0
386 1 32.373 16.1865 23.3805 0 0 0
1922 1 17.985 12.5895 1.7985 0 0 0
11 1 34.1715 0.0 19.7835 0 0 0
3397 1 7.194 32.373 32.373 0 0 0
2615 1 8.9925 0.0 12.5895 0 0 0
2064 1 16.1865 23.3805 17.985 0 0 0
3411 1 1.7985 0.0 8.9925 0 0 0
173 1 34.1715 28.776 23.3805 0 0 0
2424 1 12.5895 19.7835 17.985 0 0 0
3706 1 3.597 26.9775 23.3805 0 0 0
3519 1 1.7985 7.194 34.1715 0 0 0
544 1 30.5745 30.5745 17.985 0 0 0
1204 1 23.3805 19.7835 0.0 0 0 0
1893 1 17.985 7.194 10.791 0 0 0
746 1 28.776 12.5895 23.3805 0 0 0
2779 1 8.9925 14.388 16.1865 0 0 0
675 1 26.9775 3.597 30.5745 0 0 0
788 1 26.9775 16.1865 21.582 0 0 0
3565 1 3.597 14.388 3.597 0 0 0
2135 1 16.1865 28.776 12.5895 0 0 0
1809 1 17.985 0.0 7.194 0 0 0
3196 1 5.3955 16.1865 28.776 0 0 0
2396 1 12.5895 16.1865 28.776 0 0 0
528 1 30.5745 30.5745 3.597 0 0 0
3740 1 1.7985 30.5745 14.388 0 0 0
1816 1 16.1865 1.7985 10.791 0 0 0
3673 1 3.597 21.582 28.776 0 0 0
3691 1 1.7985 25.179 8.9925 0 0 0
3865 1 0.0 10.791 7.194 0 0 0
590 1 32.373 34.1715 26.9775 0 0 0
3382 1 7.194 34.1715 19.7835 0 0 0
3616 1 1.7985 19.7835 10.791 0 0 0
1779 1 19.7835 32.373 16.1865 0 0 0
2838 1 10.791 19.7835 34.1715 0 0 0
1307 1 23.3805 25.179 23.3805 0 0 0
734 1 28.776 12.5895 12.5895 0 0 0
3191 1 5.3955 14.388 26.9775 0 0 0
196 1 34.1715 34.1715 25.179 0 0 0
1468 1 19.7835 5.3955 21.582 0 0 0
3603 1 1.7985 17.985 1.7985 0 0 0
1330 1 25.179 30.5745 8.9925 0 0 0
1828 1 16.1865 1.7985 21.582 0 0 0
3386 1 7.194 34.1715 23.3805 0 0 0
161 1 34.1715 28.776 1.7985 0 0 0
3966 1 0.0 30.5745 8.9925 0 0 0
3175 1 5.3955 14.388 12.5895 0 0 0
2269 1 14.388 3.597 25.179 0 0 0
3478 1 3.597 5.3955 34.1715 0 0 0
131 1 34.1715 21.582 19.7835 0 0 0
483 1 30.5745 25.179 1.7985 0 0 0
833 1 28.776 17.985 28.776 0 0 0
1067 1 23.3805 3.597 23.3805 0 0 0
2411 1 12.5895 17.985 8.9925 0 0 0
3858 1 0.0 8.9925 30.5745 0 0 0
2942 1 10.791 30.5745 19.7835 0 0 0
3607 1 1.7985 17.985 5.3955 0 0 0
1714 1 21.582 26.9775 30.5745 0 0 0
2271 1 12.5895 3.597 26.9775 0 0 0
1649 1 21.582 21.582 7.194 0 0 0
2879 1 8.9925 21.582 34.1715 0 0 0
1508 1 19.7835 8.9925 21.582 0 0 0
3965 1 0.0 28.776 7.194 0 0 0
2100 1 16.1865 26.9775 14.388 0 0 0
3613 1 3.597 17.985 10.791 0 0 0
2853 1 10.791 21.582 10.791 0 0 0
826 1 28.776 19.7835 23.3805 0 0 0
1651 1 19.7835 21.582 8.9925 0 0 0
2413 1 14.388 17.985 10.791 0 0 0
1215 1 23.3805 17.985 12.5895 0 0 0
531 1 30.5745 28.776 8.9925 0 0 0
3571 1 1.7985 14.388 8.9925 0 0 0
1167 1 23.3805 14.388 5.3955 0 0 0
394 1 32.373 16.1865 30.5745 0 0 0
3308 1 5.3955 26.9775 21.582 0 0 0
1545 1 21.582 10.791 21.582 0 0 0
3553 1 3.597 10.791 28.776 0 0 0
2967 1 8.9925 32.373 5.3955 0 0 0
1750 1 21.582 30.5745 26.9775 0 0 0
1906 1 17.985 8.9925 23.3805 0 0 0
3884 1 0.0 16.1865 5.3955 0 0 0
2912 1 8.9925 26.9775 25.179 0 0 0
330 1 32.373 12.5895 8.9925 0 0 0
540 1 30.5745 30.5745 14.388 0 0 0
2513 1 14.388 25.179 28.776 0 0 0
1511 1 19.7835 7.194 26.9775 0 0 0
2335 1 12.5895 10.791 12.5895 0 0 0
1683 1 19.7835 25.179 1.7985 0 0 0
3635 1 1.7985 17.985 30.5745 0 0 0
3460 1 1.7985 5.3955 14.388 0 0 0
427 1 30.5745 17.985 23.3805 0 0 0
1470 1 21.582 5.3955 26.9775 0 0 0
921 1 28.776 28.776 0.0 0 0 0
1627 1 19.7835 17.985 23.3805 0 0 0
1794 1 21.582 34.1715 30.5745 0 0 0
3588 1 1.7985 16.1865 21.582 0 0 0
1932 1 16.1865 12.5895 7.194 0 0 0
3735 1 1.7985 28.776 12.5895 0 0 0
2789 1 10.791 14.388 25.179 0 0 0
2551 1 12.5895 28.776 26.9775 0 0 0
1929 1 17.985 10.791 7.194 0 0 0
2939 1 8.9925 28.776 16.1865 0 0 0
3661 1 3.597 21.582 17.985 0 0 0
2966 1 10.791 34.1715 5.3955 0 0 0
3093 1 7.194 7.194 10.791 0 0 0
2775 1 8.9925 14.388 12.5895 0 0 0
2747 1 8.9925 10.791 23.3805 0 0 0
1249 1 25.179 21.582 7.194 0 0 0
1018 1 25.179 1.7985 16.1865 0 0 0
3262 1 7.194 23.3805 19.7835 0 0 0
807 1 26.9775 17.985 5.3955 0 0 0
830 1 28.776 19.7835 26.9775 0 0 0
2482 1 14.388 26.9775 1.7985 0 0 0
1915 1 16.1865 7.194 30.5745 0 0 0
3679 1 1.7985 21.582 34.1715 0 0 0
309 1 32.373 7.194 25.179 0 0 0
2409 1 14.388 17.985 7.194 0 0 0
2992 1 8.9925 34.1715 25.179 0 0 0
3358 1 7.194 30.5745 34.1715 0 0 0
3952 1 0.0 26.9775 19.7835 0 0 0
2757 1 10.791 10.791 32.373 0 0 0
301 1 32.373 7.194 17.985 0 0 0
3202 1 7.194 19.7835 1.7985 0 0 0
279 1 30.5745 3.597 34.1715 0 0 0
1629 1 21.582 17.985 25.179 0 0 0
2609 1 10.791 0.0 7.194 0 0 0
1657 1 21.582 21.582 14.388 0 0 0
2477 1 14.388 21.582 32.373 0 0 0
1978 1 17.985 16.1865 16.1865 0 0 0
679 1 26.9775 3.597 34.1715 0 0 0
1263 1 23.3805 21.582 19.7835 0 0 0
674 1 28.776 5.3955 30.5745 0 0 0
2537 1 14.388 28.776 14.388 0 0 0
3218 1 7.194 19.7835 16.1865 0 0 0
2286 1 14.388 8.9925 5.3955 0 0 0
1082 1 25.179 8.9925 1.7985 0 0 0
132 1 34.1715 23.3805 17.985 0 0 0
1356 1 23.3805 30.5745 28.776 0 0 0
2458 1 14.388 23.3805 16.1865 0 0 0
3121 1 7.194 10.791 0.0 0 0 0
801 1 28.776 17.985 0.0 0 0 0
1287 1 23.3805 25.179 5.3955 0 0 0
1952 1 16.1865 12.5895 25.179 0 0 0
3304 1 5.3955 26.9775 17.985 0 0 0
3173 1 7.194 14.388 10.791 0 0 0
3485 1 3.597 7.194 3.597 0 0 0
290 1 32.373 8.9925 8.9925 0 0 0
572 1 30.5745 34.1715 7.194 0 0 0
1602 1 21.582 19.7835 1.7985 0 0 0
910 1 28.776 26.9775 26.9775 0 0 0
879 1 26.9775 21.582 34.1715 0 0 0
2728 1 8.9925 12.5895 3.597 0 0 0
2554 1 14.388 30.5745 30.5745 0 0 0
3537 1 3.597 10.791 14.388 0 0 0
3663 1 1.7985 21.582 19.7835 0 0 0
466 1 32.373 23.3805 23.3805 0 0 0
610 1 28.776 1.7985 8.9925 0 0 0
5 1 34.1715 0.0 8.9925 0 0 0
38 1 34.1715 5.3955 28.776 0 0 0
3697 1 3.597 25.179 14.388 0 0 0
687 1 26.9775 7.194 5.3955 0 0 0
599 1 30.5745 32.373 34.1715 0 0 0
3086 1 7.194 8.9925 5.3955 0 0 0
373 1 32.373 14.388 10.791 0 0 0
377 1 32.373 14.388 14.388 0 0 0
3438 1 3.597 1.7985 34.1715 0 0 0
2337 1 14.388 10.791 14.388 0 0 0
2815 1 8.9925 17.985 12.5895 0 0 0
1616 1 19.7835 19.7835 10.791 0 0 0
3291 1 5.3955 25.179 8.9925 0 0 0
436 1 30.5745 19.7835 28.776 0 0 0
1133 1 25.179 10.791 10.791 0 0 0
3784 1 1.7985 34.1715 17.985 0 0 0
1016 1 23.3805 1.7985 10.791 0 0 0
2534 1 14.388 30.5745 12.5895 0 0 0
3254 1 7.194 23.3805 12.5895 0 0 0
1783 1 19.7835 32.373 19.7835 0 0 0
2451 1 12.5895 21.582 8.9925 0 0 0
946 1 28.776 30.5745 23.3805 0 0 0
3756 1 1.7985 30.5745 28.776 0 0 0
1536 1 19.7835 12.5895 10.791 0 0 0
3041 1 7.194 3.597 0.0 0 0 0
3244 1 5.3955 23.3805 0.0 0 0 0
3741 1 3.597 28.776 17.985 0 0 0
1036 1 23.3805 1.7985 28.776 0 0 0
1519 1 19.7835 7.194 34.1715 0 0 0
3189 1 7.194 14.388 25.179 0 0 0
975 1 26.9775 32.373 12.5895 0 0 0
508 1 30.5745 26.9775 21.582 0 0 0
645 1 28.776 3.597 3.597 0 0 0
3408 1 1.7985 1.7985 3.597 0 0 0
2914 1 10.791 26.9775 30.5745 0 0 0
2958 1 10.791 30.5745 34.1715 0 0 0
1169 1 25.179 14.388 7.194 0 0 0
589 1 32.373 32.373 25.179 0 0 0
1775 1 19.7835 32.373 12.5895 0 0 0
665 1 28.776 3.597 21.582 0 0 0
2158 1 17.985 30.5745 34.1715 0 0 0
3112 1 5.3955 8.9925 25.179 0 0 0
3321 1 7.194 28.776 0.0 0 0 0
213 1 32.373 0.0 10.791 0 0 0
3573 1 3.597 14.388 10.791 0 0 0
1346 1 25.179 30.5745 23.3805 0 0 0
724 1 26.9775 12.5895 0.0 0 0 0
1976 1 16.1865 16.1865 10.791 0 0 0
2878 1 10.791 23.3805 34.1715 0 0 0
3339 1 5.3955 28.776 16.1865 0 0 0
1141 1 25.179 10.791 17.985 0 0 0
2489 1 14.388 25.179 7.194 0 0 0
467 1 30.5745 21.582 23.3805 0 0 0
1157 1 25.179 10.791 32.373 0 0 0
2005 1 17.985 17.985 3.597 0 0 0
765 1 28.776 14.388 3.597 0 0 0
3271 1 5.3955 21.582 26.9775 0 0 0
1417 1 21.582 0.0 14.388 0 0 0
1614 1 21.582 19.7835 12.5895 0 0 0
1387 1 23.3805 32.373 23.3805 0 0 0
1606 1 21.582 19.7835 5.3955 0 0 0
3059 1 5.3955 3.597 16.1865 0 0 0
3617 1 3.597 17.985 14.388 0 0 0
628 1 26.9775 1.7985 21.582 0 0 0
476 1 30.5745 23.3805 28.776 0 0 0
3621 1 3.597 17.985 17.985 0 0 0
2850 1 10.791 23.3805 8.9925 0 0 0
2374 1 14.388 16.1865 12.5895 0 0 0
3524 1 1.7985 12.5895 0.0 0 0 0
1666 1 21.582 23.3805 23.3805 0 0 0
1799 1 19.7835 32.373 34.1715 0 0 0
1763 1 19.7835 32.373 1.7985 0 0 0
3145 1 7.194 10.791 21.582 0 0 0
3715 1 1.7985 25.179 30.5745 0 0 0
888 1 26.9775 26.9775 3.597 0 0 0
3561 1 3.597 14.388 0.0 0 0 0
3323 1 5.3955 28.776 1.7985 0 0 0
3686 1 3.597 26.9775 5.3955 0 0 0
2079 1 16.1865 21.582 34.1715 0 0 0
2173 1 17.985 32.373 10.791 0 0 0
1688 1 19.7835 26.9775 3.597 0 0 0
3523 1 1.7985 10.791 1.7985 0 0 0
1802 1 17.985 1.7985 1.7985 0 0 0
73 1 34.1715 10.791 23.3805 0 0 0
2758 1 10.791 12.5895 34.1715 0 0 0
3604 1 1.7985 19.7835 0.0 0 0 0
23 1 34.1715 3.597 5.3955 0 0 0
2472 1 12.5895 23.3805 25.179 0 0 0
3071 1 5.3955 3.597 26.9775 0 0 0
3563 1 1.7985 14.388 1.7985 0 0 0
253 1 32.373 3.597 10.791 0 0 0
264 1 30.5745 5.3955 17.985 0 0 0
3114 1 7.194 8.9925 30.5745 0 0 0
3432 1 1.7985 1.7985 25.179 0 0 0
1007 1 23.3805 0.0 5.3955 0 0 0
2187 1 16.1865 32.373 23.3805 0 0 0
1825 1 17.985 0.0 21.582 0 0 0
3664 1 1.7985 23.3805 17.985 0 0 0
10 1 34.1715 1.7985 14.388 0 0 0
676 1 26.9775 5.3955 28.776 0 0 0
3332 1 5.3955 30.5745 7.194 0 0 0
261 1 32.373 3.597 17.985 0 0 0
2107 1 16.1865 25.179 23.3805 0 0 0
2372 1 12.5895 16.1865 7.194 0 0 0
3425 1 3.597 0.0 21.582 0 0 0
3347 1 5.3955 28.776 23.3805 0 0 0
256 1 30.5745 5.3955 10.791 0 0 0
3562 1 3.597 16.1865 1.7985 0 0 0
2819 1 8.9925 17.985 16.1865 0 0 0
2516 1 12.5895 26.9775 28.776 0 0 0
3030 1 7.194 1.7985 26.9775 0 0 0
1570 1 21.582 16.1865 8.9925 0 0 0
3516 1 1.7985 8.9925 28.776 0 0 0
842 1 28.776 23.3805 1.7985 0 0 0
3079 1 5.3955 3.597 34.1715 0 0 0
426 1 32.373 19.7835 23.3805 0 0 0
3710 1 3.597 26.9775 26.9775 0 0 0
2712 1 8.9925 8.9925 25.179 0 0 0
709 1 28.776 7.194 25.179 0 0 0
2464 1 12.5895 23.3805 17.985 0 0 0
3186 1 7.194 16.1865 23.3805 0 0 0
364 1 30.5745 16.1865 0.0 0 0 0
3290 1 7.194 26.9775 8.9925 0 0 0
3590 1 3.597 16.1865 26.9775 0 0 0
2765 1 10.791 14.388 3.597 0 0 0
1488 1 19.7835 8.9925 3.597 0 0 0
3536 1 1.7985 12.5895 10.791 0 0 0
59 1 34.1715 7.194 34.1715 0 0 0
14 1 34.1715 1.7985 21.582 0 0 0
522 1 32.373 30.5745 1.7985 0 0 0
638 1 28.776 1.7985 34.1715 0 0 0
2132 1 16.1865 30.5745 7.194 0 0 0
70 1 34.1715 12.5895 14.388 0 0 0
1479 1 19.7835 3.597 34.1715 0 0 0
3120 1 5.3955 8.9925 32.373 0 0 0
711 1 26.9775 7.194 26.9775 0 0 0
2052 1 16.1865 23.3805 7.194 0 0 0
320 1 30.5745 8.9925 32.373 0 0 0
89 1 34.1715 14.388 16.1865 0 0 0
2552 1 12.5895 30.5745 25.179 0 0 0
260 1 30.5745 5.3955 14.388 0 0 0
2365 1 14.388 14.388 3.597 0 0 0
3116 1 5.3955 8.9925 28.776 0 0 0
3162 1 7.194 16.1865 1.7985 0 0 0
420 1 30.5745 19.7835 14.388 0 0 0
2799 1 8.9925 14.388 34.1715 0 0 0
3396 1 5.3955 34.1715 28.776 0 0 0
1673 1 21.582 21.582 28.776 0 0 0
2745 1 10.791 10.791 21.582 0 0 0
2061 1 17.985 21.582 17.985 0 0 0
1309 1 25.179 25.179 25.179 0 0 0
2684 1 8.9925 8.9925 0.0 0 0 0
88 1 34.1715 16.1865 10.791 0 0 0
2578 1 14.388 34.1715 16.1865 0 0 0
3292 1 5.3955 26.9775 7.194 0 0 0
3273 1 7.194 21.582 28.776 0 0 0
2041 1 17.985 21.582 0.0 0 0 0
3580 1 1.7985 16.1865 14.388 0 0 0
1332 1 23.3805 30.5745 7.194 0 0 0
3555 1 1.7985 10.791 30.5745 0 0 0
2393 1 14.388 14.388 28.776 0 0 0
349 1 32.373 10.791 25.179 0 0 0
3749 1 3.597 28.776 25.179 0 0 0
3136 1 5.3955 12.5895 10.791 0 0 0
3956 1 0.0 26.9775 26.9775 0 0 0
2937 1 10.791 28.776 14.388 0 0 0
78 1 34.1715 12.5895 28.776 0 0 0
1667 1 19.7835 21.582 23.3805 0 0 0
1201 1 25.179 17.985 0.0 0 0 0
1948 1 16.1865 12.5895 21.582 0 0 0
311 1 30.5745 7.194 26.9775 0 0 0
31 1 34.1715 3.597 19.7835 0 0 0
272 1 30.5745 5.3955 25.179 0 0 0
782 1 28.776 16.1865 19.7835 0 0 0
700 1 26.9775 8.9925 14.388 0 0 0
1701 1 21.582 25.179 17.985 0 0 0
2114 1 17.985 26.9775 30.5745 0 0 0
3794 1 3.597 34.1715 30.5745 0 0 0
3665 1 3.597 21.582 21.582 0 0 0
945 1 28.776 28.776 21.582 0 0 0
2871 1 8.9925 21.582 26.9775 0 0 0
567 1 30.5745 32.373 5.3955 0 0 0
2564 1 12.5895 34.1715 0.0 0 0 0
1561 1 21.582 14.388 0.0 0 0 0
1885 1 17.985 7.194 3.597 0 0 0
1913 1 17.985 7.194 28.776 0 0 0
1764 1 19.7835 34.1715 0.0 0 0 0
3164 1 5.3955 16.1865 0.0 0 0 0
2352 1 12.5895 12.5895 25.179 0 0 0
1753 1 21.582 28.776 28.776 0 0 0
2074 1 17.985 23.3805 30.5745 0 0 0
855 1 26.9775 21.582 12.5895 0 0 0
925 1 28.776 28.776 3.597 0 0 0
3367 1 5.3955 32.373 5.3955 0 0 0
2110 1 17.985 26.9775 26.9775 0 0 0
843 1 26.9775 21.582 1.7985 0 0 0
1232 1 23.3805 19.7835 25.179 0 0 0
3777 1 3.597 32.373 14.388 0 0 0
1853 1 17.985 3.597 10.791 0 0 0
241 1 32.373 3.597 0.0 0 0 0
3924 1 0.0 23.3805 5.3955 0 0 0
2683 1 8.9925 7.194 1.7985 0 0 0
345 1 32.373 10.791 21.582 0 0 0
2394 1 14.388 16.1865 30.5745 0 0 0
3435 1 1.7985 0.0 30.5745 0 0 0
3331 1 5.3955 28.776 8.9925 0 0 0
2636 1 8.9925 1.7985 28.776 0 0 0
3915 1 0.0 17.985 25.179 0 0 0
3737 1 3.597 28.776 14.388 0 0 0
601 1 28.776 0.0 0.0 0 0 0
3898 1 0.0 16.1865 30.5745 0 0 0
265 1 32.373 3.597 21.582 0 0 0
1727 1 19.7835 28.776 5.3955 0 0 0
2662 1 10.791 5.3955 19.7835 0 0 0
1940 1 16.1865 12.5895 14.388 0 0 0
2287 1 12.5895 7.194 5.3955 0 0 0
1319 1 23.3805 25.179 34.1715 0 0 0
2495 1 12.5895 25.179 12.5895 0 0 0
1461 1 21.582 3.597 17.985 0 0 0
620 1 26.9775 1.7985 14.388 0 0 0
1301 1 25.179 25.179 17.985 0 0 0
1665 1 21.582 21.582 21.582 0 0 0
1751 1 19.7835 28.776 26.9775 0 0 0
417 1 32.373 17.985 14.388 0 0 0
3349 1 7.194 28.776 25.179 0 0 0
2002 1 17.985 19.7835 1.7985 0 0 0
2618 1 10.791 1.7985 16.1865 0 0 0
592 1 30.5745 34.1715 25.179 0 0 0
2546 1 14.388 30.5745 23.3805 0 0 0
1654 1 21.582 23.3805 12.5895 0 0 0
3381 1 7.194 32.373 17.985 0 0 0
1196 1 23.3805 16.1865 28.776 0 0 0
2137 1 17.985 28.776 14.388 0 0 0
1040 1 23.3805 1.7985 32.373 0 0 0
2479 1 12.5895 21.582 34.1715 0 0 0
937 1 28.776 28.776 14.388 0 0 0
1656 1 19.7835 23.3805 10.791 0 0 0
3261 1 7.194 21.582 17.985 0 0 0
423 1 30.5745 17.985 19.7835 0 0 0
2308 1 12.5895 8.9925 21.582 0 0 0
872 1 26.9775 23.3805 25.179 0 0 0
2376 1 12.5895 16.1865 10.791 0 0 0
1388 1 23.3805 34.1715 21.582 0 0 0
2982 1 10.791 34.1715 19.7835 0 0 0
1358 1 25.179 30.5745 34.1715 0 0 0
3657 1 3.597 21.582 14.388 0 0 0
1529 1 21.582 10.791 7.194 0 0 0
3538 1 3.597 12.5895 16.1865 0 0 0
635 1 26.9775 0.0 30.5745 0 0 0
458 1 32.373 23.3805 16.1865 0 0 0
3677 1 3.597 21.582 32.373 0 0 0
2848 1 8.9925 23.3805 3.597 0 0 0
813 1 28.776 17.985 10.791 0 0 0
215 1 30.5745 0.0 12.5895 0 0 0
2741 1 10.791 10.791 17.985 0 0 0
1546 1 21.582 12.5895 23.3805 0 0 0
2876 1 8.9925 23.3805 28.776 0 0 0
3722 1 3.597 30.5745 1.7985 0 0 0
347 1 30.5745 10.791 23.3805 0 0 0
2965 1 10.791 32.373 3.597 0 0 0
2825 1 10.791 17.985 21.582 0 0 0
204 1 30.5745 1.7985 0.0 0 0 0
441 1 32.373 21.582 0.0 0 0 0
2084 1 16.1865 26.9775 0.0 0 0 0
2847 1 8.9925 21.582 5.3955 0 0 0
2800 1 8.9925 16.1865 32.373 0 0 0
3472 1 1.7985 5.3955 25.179 0 0 0
1369 1 25.179 32.373 7.194 0 0 0
192 1 34.1715 34.1715 17.985 0 0 0
754 1 28.776 12.5895 30.5745 0 0 0
3147 1 5.3955 10.791 23.3805 0 0 0
319 1 30.5745 7.194 34.1715 0 0 0
3319 1 5.3955 25.179 34.1715 0 0 0
2897 1 10.791 25.179 14.388 0 0 0
2078 1 17.985 23.3805 34.1715 0 0 0
653 1 28.776 3.597 10.791 0 0 0
1703 1 19.7835 25.179 19.7835 0 0 0
341 1 32.373 10.791 17.985 0 0 0
598 1 32.373 34.1715 34.1715 0 0 0
2316 1 12.5895 8.9925 28.776 0 0 0
502 1 32.373 26.9775 19.7835 0 0 0
2586 1 14.388 34.1715 23.3805 0 0 0
2311 1 12.5895 7.194 26.9775 0 0 0
2221 1 14.388 0.0 17.985 0 0 0
2843 1 8.9925 21.582 1.7985 0 0 0
2685 1 10.791 7.194 3.597 0 0 0
626 1 28.776 1.7985 23.3805 0 0 0
559 1 30.5745 28.776 34.1715 0 0 0
3568 1 1.7985 16.1865 3.597 0 0 0
2049 1 17.985 21.582 7.194 0 0 0
3781 1 3.597 32.373 17.985 0 0 0
3632 1 1.7985 19.7835 25.179 0 0 0
3913 1 0.0 17.985 21.582 0 0 0
2498 1 14.388 26.9775 16.1865 0 0 0
3268 1 5.3955 23.3805 21.582 0 0 0
514 1 32.373 26.9775 30.5745 0 0 0
3832 1 0.0 5.3955 19.7835 0 0 0
2164 1 16.1865 34.1715 0.0 0 0 0
1626 1 21.582 19.7835 23.3805 0 0 0
1476 1 19.7835 5.3955 28.776 0 0 0
2136 1 16.1865 30.5745 10.791 0 0 0
3101 1 7.194 7.194 17.985 0 0 0
3387 1 5.3955 32.373 23.3805 0 0 0
2565 1 14.388 32.373 3.597 0 0 0
3274 1 7.194 23.3805 30.5745 0 0 0
3730 1 3.597 30.5745 8.9925 0 0 0
2640 1 8.9925 1.7985 32.373 0 0 0
446 1 32.373 23.3805 5.3955 0 0 0
3217 1 7.194 17.985 14.388 0 0 0
2675 1 8.9925 3.597 30.5745 0 0 0
3496 1 1.7985 8.9925 10.791 0 0 0
3873 1 0.0 10.791 21.582 0 0 0
3947 1 0.0 25.179 10.791 0 0 0
3192 1 5.3955 16.1865 25.179 0 0 0
247 1 30.5745 3.597 5.3955 0 0 0
1489 1 21.582 7.194 7.194 0 0 0
3046 1 7.194 5.3955 5.3955 0 0 0
3434 1 3.597 1.7985 30.5745 0 0 0
2292 1 12.5895 8.9925 7.194 0 0 0
3398 1 7.194 34.1715 34.1715 0 0 0
1138 1 25.179 12.5895 16.1865 0 0 0
2487 1 12.5895 25.179 5.3955 0 0 0
3785 1 3.597 32.373 21.582 0 0 0
129 1 34.1715 21.582 16.1865 0 0 0
1935 1 16.1865 10.791 12.5895 0 0 0
1003 1 23.3805 0.0 1.7985 0 0 0
741 1 28.776 10.791 17.985 0 0 0
3278 1 7.194 23.3805 34.1715 0 0 0
1947 1 16.1865 10.791 23.3805 0 0 0
3612 1 1.7985 19.7835 7.194 0 0 0
1442 1 21.582 5.3955 1.7985 0 0 0
2591 1 12.5895 32.373 26.9775 0 0 0
1182 1 25.179 16.1865 19.7835 0 0 0
1153 1 25.179 10.791 28.776 0 0 0
1939 1 16.1865 10.791 16.1865 0 0 0
3641 1 3.597 21.582 0.0 0 0 0
2418 1 14.388 19.7835 16.1865 0 0 0
1558 1 21.582 12.5895 34.1715 0 0 0
705 1 28.776 7.194 21.582 0 0 0
2798 1 10.791 16.1865 34.1715 0 0 0
2380 1 12.5895 16.1865 14.388 0 0 0
3552 1 1.7985 12.5895 25.179 0 0 0
669 1 28.776 3.597 25.179 0 0 0
3751 1 1.7985 28.776 26.9775 0 0 0
3314 1 7.194 26.9775 30.5745 0 0 0
3796 1 1.7985 34.1715 28.776 0 0 0
2092 1 16.1865 26.9775 7.194 0 0 0
1907 1 16.1865 7.194 23.3805 0 0 0
603 1 26.9775 0.0 1.7985 0 0 0
2375 1 12.5895 14.388 12.5895 0 0 0
324 1 30.5745 12.5895 0.0 0 0 0
2161 1 17.985 32.373 0.0 0 0 0
1818 1 17.985 1.7985 16.1865 0 0 0
647 1 26.9775 3.597 5.3955 0 0 0
3092 1 5.3955 8.9925 7.194 0 0 0
3148 1 5.3955 12.5895 21.582 0 0 0
2106 1 17.985 26.9775 23.3805 0 0 0
1120 1 23.3805 8.9925 32.373 0 0 0
1239 1 23.3805 17.985 34.1715 0 0 0
893 1 28.776 25.179 10.791 0 0 0
1576 1 19.7835 16.1865 10.791 0 0 0
848 1 26.9775 23.3805 3.597 0 0 0
2953 1 10.791 28.776 28.776 0 0 0
65 1 34.1715 10.791 8.9925 0 0 0
3678 1 3.597 23.3805 34.1715 0 0 0
3600 1 1.7985 16.1865 32.373 0 0 0
3169 1 7.194 14.388 7.194 0 0 0
3820 1 0.0 1.7985 34.1715 0 0 0
1132 1 23.3805 12.5895 7.194 0 0 0
3206 1 7.194 19.7835 5.3955 0 0 0
1643 1 19.7835 21.582 1.7985 0 0 0
2628 1 8.9925 1.7985 21.582 0 0 0
2700 1 8.9925 8.9925 14.388 0 0 0
1894 1 17.985 8.9925 12.5895 0 0 0
2927 1 8.9925 28.776 5.3955 0 0 0
2824 2 8.9925 19.7835 17.985 0 0 0
1440 2 19.7835 1.7985 32.373 0 0 0
900 2 26.9775 26.9775 14.388 0 0 0
2258 2 14.388 5.3955 16.1865 0 0 0
3972 2 0.0 30.5745 19.7835 0 0 0
2632 2 8.9925 1.7985 25.179 0 0 0
812 2 26.9775 19.7835 7.194 0 0 0
3024 2 5.3955 1.7985 17.985 0 0 0
2541 2 14.388 28.776 17.985 0 0 0
2199 2 16.1865 32.373 34.1715 0 0 0
3810 2 0.0 1.7985 16.1865 0 0 0
2997 2 10.791 32.373 32.373 0 0 0
1057 2 25.179 3.597 14.388 0 0 0
392 2 30.5745 16.1865 25.179 0 0 0
1353 2 25.179 28.776 28.776 0 0 0
1597 2 21.582 14.388 32.373 0 0 0
779 2 26.9775 14.388 16.1865 0 0 0
3957 2 0.0 25.179 28.776 0 0 0
1999 2 16.1865 14.388 34.1715 0 0 0
2338 2 14.388 12.5895 16.1865 0 0 0
1039 2 23.3805 0.0 34.1715 0 0 0
595 2 30.5745 32.373 30.5745 0 0 0
935 2 26.9775 28.776 12.5895 0 0 0
1633 2 21.582 17.985 28.776 0 0 0
3068 2 5.3955 5.3955 21.582 0 0 0
3761 2 3.597 32.373 0.0 0 0 0
3745 2 3.597 28.776 21.582 0 0 0
2465 2 14.388 21.582 21.582 0 0 0
1060 2 23.3805 5.3955 14.388 0 0 0
3593 2 3.597 14.388 28.776 0 0 0
2174 2 17.985 34.1715 12.5895 0 0 0
2913 2 10.791 25.179 28.776 0 0 0
2255 2 12.5895 3.597 12.5895 0 0 0
623 2 26.9775 0.0 19.7835 0 0 0
3717 2 3.597 25.179 32.373 0 0 0
3778 2 3.597 34.1715 16.1865 0 0 0
396 2 30.5745 16.1865 28.776 0 0 0
880 2 26.9775 23.3805 32.373 0 0 0
3130 2 7.194 12.5895 8.9925 0 0 0
3085 2 7.194 7.194 3.597 0 0 0
960 2 26.9775 30.5745 32.373 0 0 0
563 2 30.5745 32.373 1.7985 0 0 0
2708 2 8.9925 8.9925 21.582 0 0 0
1202 2 25.179 19.7835 1.7985 0 0 0
762 2 28.776 16.1865 1.7985 0 0 0
1859 2 16.1865 3.597 16.1865 0 0 0
1013 2 25.179 0.0 10.791 0 0 0
2101 2 17.985 25.179 17.985 0 0 0
1739 2 19.7835 28.776 16.1865 0 0 0
3497 2 3.597 7.194 14.388 0 0 0
1590 2 21.582 16.1865 26.9775 0 0 0
195 2 34.1715 32.373 26.9775 0 0 0
600 2 30.5745 34.1715 32.373 0 0 0
671 2 26.9775 3.597 26.9775 0 0 0
3443 2 1.7985 3.597 1.7985 0 0 0
1742 2 21.582 30.5745 19.7835 0 0 0
696 2 26.9775 8.9925 10.791 0 0 0
380 2 30.5745 16.1865 14.388 0 0 0
322 2 32.373 12.5895 1.7985 0 0 0
2172 2 16.1865 34.1715 7.194 0 0 0
3260 2 5.3955 23.3805 14.388 0 0 0
3511 2 1.7985 7.194 26.9775 0 0 0
3983 2 0.0 32.373 3.597 0 0 0
3427 2 1.7985 0.0 23.3805 0 0 0
2262 2 14.388 5.3955 19.7835 0 0 0
3405 2 3.597 0.0 3.597 0 0 0
1912 2 16.1865 8.9925 25.179 0 0 0
1737 2 21.582 28.776 14.388 0 0 0
1163 2 23.3805 14.388 1.7985 0 0 0
1713 2 21.582 25.179 28.776 0 0 0
792 2 26.9775 16.1865 25.179 0 0 0
1690 2 21.582 26.9775 8.9925 0 0 0
2639 2 8.9925 0.0 34.1715 0 0 0
3591 2 1.7985 14.388 26.9775 0 0 0
1481 2 21.582 7.194 0.0 0 0 0
1919 2 16.1865 7.194 34.1715 0 0 0
1210 2 25.179 19.7835 8.9925 0 0 0
1257 2 25.179 21.582 14.388 0 0 0
190 2 34.1715 34.1715 14.388 0 0 0
3718 2 3.597 26.9775 34.1715 0 0 0
3296 2 5.3955 26.9775 10.791 0 0 0
2718 2 10.791 8.9925 34.1715 0 0 0
1759 2 19.7835 28.776 34.1715 0 0 0
2344 2 12.5895 12.5895 17.985 0 0 0
3053 2 7.194 3.597 10.791 0 0 0
74 2 34.1715 12.5895 21.582 0 0 0
1905 2 17.985 7.194 21.582 0 0 0
3705 2 3.597 25.179 21.582 0 0 0
2326 2 14.388 12.5895 5.3955 0 0 0
48 2 34.1715 8.9925 10.791 0 0 0
3351 2 5.3955 28.776 26.9775 0 0 0
511 2 30.5745 25.179 26.9775 0 0 0
2346 2 14.388 12.5895 23.3805 0 0 0
2058 2 17.985 23.3805 16.1865 0 0 0
3163 2 5.3955 14.388 1.7985 0 0 0
3699 2 1.7985 25.179 16.1865 0 0 0
2040 2 16.1865 19.7835 32.373 0 0 0
2598 2 14.388 34.1715 34.1715 0 0 0
2873 2 10.791 21.582 28.776 0 0 0
1890 2 17.985 8.9925 8.9925 0 0 0
1668 2 19.7835 23.3805 21.582 0 0 0
1276 2 23.3805 23.3805 28.776 0 0 0
1892 2 16.1865 8.9925 7.194 0 0 0
3004 2 5.3955 1.7985 0.0 0 0 0
3468 2 1.7985 5.3955 21.582 0 0 0
1591 2 19.7835 14.388 26.9775 0 0 0
1498 2 21.582 8.9925 16.1865 0 0 0
3155 2 5.3955 10.791 30.5745 0 0 0
1118 2 25.179 8.9925 34.1715 0 0 0
1575 2 19.7835 14.388 12.5895 0 0 0
3161 2 7.194 14.388 0.0 0 0 0
1331 2 23.3805 28.776 8.9925 0 0 0
2865 2 10.791 21.582 21.582 0 0 0
2211 2 12.5895 0.0 8.9925 0 0 0
2828 2 8.9925 19.7835 21.582 0 0 0
1554 2 21.582 12.5895 30.5745 0 0 0
95 2 34.1715 14.388 26.9775 0 0 0
1251 2 23.3805 21.582 8.9925 0 0 0
761 2 28.776 14.388 0.0 0 0 0
1390 2 25.179 34.1715 26.9775 0 0 0
2300 2 12.5895 8.9925 14.388 0 0 0
2908 2 8.9925 26.9775 21.582 0 0 0
1451 2 19.7835 3.597 8.9925 0 0 0
2536 2 12.5895 30.5745 10.791 0 0 0
1846 2 17.985 5.3955 5.3955 0 0 0
3287 2 5.3955 25.179 5.3955 0 0 0
2579 2 12.5895 32.373 16.1865 0 0 0
1284 2 23.3805 26.9775 0.0 0 0 0
1628 2 19.7835 19.7835 21.582 0 0 0
992 2 26.9775 34.1715 25.179 0 0 0
3760 2 1.7985 30.5745 32.373 0 0 0
3875 2 0.0 10.791 25.179 0 0 0
1563 2 19.7835 14.388 1.7985 0 0 0
3376 2 5.3955 34.1715 10.791 0 0 0
1381 2 25.179 32.373 17.985 0 0 0
632 2 26.9775 1.7985 25.179 0 0 0
1129 2 25.179 10.791 7.194 0 0 0
1155 2 23.3805 10.791 30.5745 0 0 0
2056 2 16.1865 23.3805 10.791 0 0 0
3921 2 0.0 21.582 0.0 0 0 0
3013 2 7.194 0.0 10.791 0 0 0
2301 2 14.388 7.194 17.985 0 0 0
2228 2 12.5895 1.7985 21.582 0 0 0
2059 2 16.1865 21.582 16.1865 0 0 0
2333 2 14.388 10.791 10.791 0 0 0
1984 2 16.1865 16.1865 17.985 0 0 0
2995 2 8.9925 32.373 30.5745 0 0 0
2559 2 12.5895 28.776 34.1715 0 0 0
2630 2 10.791 1.7985 26.9775 0 0 0
3322 2 7.194 30.5745 1.7985 0 0 0
2567 2 12.5895 32.373 5.3955 0 0 0
640 2 26.9775 1.7985 32.373 0 0 0
3275 2 5.3955 21.582 30.5745 0 0 0
3203 2 5.3955 17.985 1.7985 0 0 0
1517 2 21.582 7.194 32.373 0 0 0
102 2 34.1715 19.7835 0.0 0 0 0
2894 2 10.791 26.9775 12.5895 0 0 0
172 2 34.1715 30.5745 17.985 0 0 0
2737 2 10.791 10.791 14.388 0 0 0
3379 2 5.3955 32.373 16.1865 0 0 0
691 2 26.9775 7.194 8.9925 0 0 0
3775 2 1.7985 32.373 12.5895 0 0 0
3457 2 3.597 3.597 14.388 0 0 0
2682 2 10.791 8.9925 1.7985 0 0 0
1901 2 17.985 7.194 17.985 0 0 0
1964 2 16.1865 16.1865 0.0 0 0 0
2695 2 8.9925 7.194 12.5895 0 0 0
3989 2 0.0 32.373 14.388 0 0 0
365 2 32.373 14.388 3.597 0 0 0
1990 2 17.985 16.1865 26.9775 0 0 0
3623 2 1.7985 17.985 19.7835 0 0 0
47 2 34.1715 7.194 12.5895 0 0 0
1903 2 16.1865 7.194 19.7835 0 0 0
1592 2 19.7835 16.1865 25.179 0 0 0
111 2 34.1715 17.985 19.7835 0 0 0
2787 2 8.9925 14.388 23.3805 0 0 0
1975 2 16.1865 14.388 12.5895 0 0 0
3129 2 7.194 10.791 7.194 0 0 0
1953 2 17.985 10.791 28.776 0 0 0
1359 2 23.3805 28.776 34.1715 0 0 0
3755 2 1.7985 28.776 30.5745 0 0 0
245 2 32.373 3.597 3.597 0 0 0
3744 2 1.7985 30.5745 17.985 0 0 0
608 2 26.9775 1.7985 3.597 0 0 0
2355 2 12.5895 10.791 30.5745 0 0 0
2971 2 8.9925 32.373 8.9925 0 0 0
1681 2 21.582 25.179 0.0 0 0 0
1795 2 19.7835 32.373 30.5745 0 0 0
1087 2 23.3805 7.194 5.3955 0 0 0
170 2 34.1715 30.5745 14.388 0 0 0
532 2 30.5745 30.5745 7.194 0 0 0
3862 2 0.0 12.5895 1.7985 0 0 0
2252 2 12.5895 5.3955 7.194 0 0 0
923 2 26.9775 28.776 1.7985 0 0 0
2403 2 12.5895 17.985 1.7985 0 0 0
2892 2 8.9925 26.9775 7.194 0 0 0
581 2 32.373 32.373 17.985 0 0 0
3631 2 1.7985 17.985 26.9775 0 0 0
1145 2 25.179 10.791 21.582 0 0 0
883 2 26.9775 25.179 1.7985 0 0 0
654 2 28.776 5.3955 12.5895 0 0 0
1923 2 16.1865 10.791 1.7985 0 0 0
410 2 32.373 19.7835 8.9925 0 0 0
447 2 30.5745 21.582 5.3955 0 0 0
3792 2 1.7985 34.1715 25.179 0 0 0
2441 2 14.388 21.582 0.0 0 0 0
3246 2 7.194 23.3805 5.3955 0 0 0
3814 2 0.0 1.7985 23.3805 0 0 0
1420 2 19.7835 1.7985 14.388 0 0 0
1081 2 25.179 7.194 0.0 0 0 0
1841 2 17.985 3.597 0.0 0 0 0
108 2 34.1715 19.7835 10.791 0 0 0
2254 2 14.388 5.3955 12.5895 0 0 0
3324 2 5.3955 30.5745 0.0 0 0 0
759 2 26.9775 10.791 34.1715 0 0 0
3099 2 5.3955 7.194 16.1865 0 0 0
2961 2 10.791 32.373 0.0 0 0 0
2568 2 12.5895 34.1715 3.597 0 0 0
1175 2 23.3805 14.388 12.5895 0 0 0
3180 2 5.3955 16.1865 14.388 0 0 0
1530 2 21.582 12.5895 8.9925 0 0 0
3190 2 7.194 16.1865 26.9775 0 0 0
622 2 28.776 1.7985 19.7835 0 0 0
1899 2 16.1865 7.194 16.1865 0 0 0
3204 2 5.3955 19.7835 0.0 0 0 0
1803 2 16.1865 0.0 1.7985 0 0 0
1788 2 19.7835 34.1715 21.582 0 0 0
1718 2 21.582 26.9775 34.1715 0 0 0
2468 2 12.5895 23.3805 21.582 0 0 0
1838 2 17.985 1.7985 34.1715 0 0 0
512 2 30.5745 26.9775 25.179 0 0 0
1877 2 17.985 3.597 32.373 0 0 0
1427 2 19.7835 0.0 23.3805 0 0 0
3787 2 1.7985 32.373 23.3805 0 0 0
1117 2 25.179 7.194 32.373 0 0 0
2670 2 10.791 5.3955 26.9775 0 0 0
3240 2 5.3955 19.7835 32.373 0 0 0
520 2 30.5745 26.9775 32.373 0 0 0
116 2 34.1715 19.7835 25.179 0 0 0
2796 2 8.9925 16.1865 28.776 0 0 0
1902 2 17.985 8.9925 19.7835 0 0 0
1985 2 17.985 14.388 21.582 0 0 0
3996 2 0.0 34.1715 26.9775 0 0 0
3057 2 7.194 3.597 14.388 0 0 0
3828 2 0.0 5.3955 12.5895 0 0 0
1539 2 19.7835 10.791 16.1865 0 0 0
3539 2 1.7985 10.791 16.1865 0 0 0
2330 2 14.388 12.5895 8.9925 0 0 0
3006 2 7.194 1.7985 5.3955 0 0 0
3513 2 3.597 7.194 28.776 0 0 0
1147 2 23.3805 10.791 23.3805 0 0 0
3779 2 1.7985 32.373 16.1865 0 0 0
3951 2 0.0 25.179 17.985 0 0 0
1835 2 16.1865 0.0 30.5745 0 0 0
2753 2 10.791 10.791 28.776 0 0 0
1880 2 16.1865 5.3955 32.373 0 0 0
2999 2 8.9925 32.373 34.1715 0 0 0
629 2 28.776 0.0 25.179 0 0 0
2862 2 10.791 23.3805 19.7835 0 0 0
1515 2 19.7835 7.194 30.5745 0 0 0
2133 2 17.985 28.776 10.791 0 0 0
952 2 26.9775 30.5745 25.179 0 0 0
1660 2 19.7835 23.3805 14.388 0 0 0
81 2 34.1715 14.388 1.7985 0 0 0
3674 2 3.597 23.3805 30.5745 0 0 0
3029 2 7.194 0.0 25.179 0 0 0
302 2 32.373 8.9925 19.7835 0 0 0
2790 2 10.791 16.1865 26.9775 0 0 0
263 2 30.5745 3.597 19.7835 0 0 0
3033 2 7.194 0.0 28.776 0 0 0
1114 2 25.179 8.9925 30.5745 0 0 0
2580 2 12.5895 34.1715 14.388 0 0 0
2910 2 10.791 26.9775 26.9775 0 0 0
3295 2 5.3955 25.179 12.5895 0 0 0
229 2 32.373 0.0 25.179 0 0 0
1726 2 21.582 30.5745 5.3955 0 0 0
3493 2 3.597 7.194 10.791 0 0 0
480 2 30.5745 23.3805 32.373 0 0 0
1177 2 25.179 14.388 14.388 0 0 0
185 2 34.1715 32.373 8.9925 0 0 0
1781 2 21.582 32.373 17.985 0 0 0
2373 2 14.388 14.388 10.791 0 0 0
2924 2 8.9925 30.5745 0.0 0 0 0
3707 2 1.7985 25.179 23.3805 0 0 0
518 2 32.373 26.9775 34.1715 0 0 0
3850 2 0.0 8.9925 16.1865 0 0 0
493 2 32.373 25.179 10.791 0 0 0
2648 2 8.9925 5.3955 3.597 0 0 0
3720 2 1.7985 26.9775 32.373 0 0 0
3910 2 0.0 19.7835 16.1865 0 0 0
1493 2 21.582 7.194 10.791 0 0 0
1941 2 17.985 10.791 17.985 0 0 0
737 2 28.776 10.791 14.388 0 0 0
3637 2 3.597 17.985 32.373 0 0 0
2435 2 12.5895 17.985 30.5745 0 0 0
2687 2 8.9925 7.194 5.3955 0 0 0
2217 2 14.388 0.0 14.388 0 0 0
252 2 30.5745 5.3955 7.194 0 0 0
2206 2 14.388 1.7985 5.3955 0 0 0
2629 2 10.791 0.0 25.179 0 0 0
815 2 26.9775 17.985 12.5895 0 0 0
878 2 28.776 23.3805 34.1715 0 0 0
970 2 28.776 34.1715 8.9925 0 0 0
2576 2 12.5895 34.1715 10.791 0 0 0
2220 2 12.5895 1.7985 14.388 0 0 0
3724 2 1.7985 30.5745 0.0 0 0 0
3742 2 3.597 30.5745 19.7835 0 0 0
3570 2 3.597 16.1865 8.9925 0 0 0
1326 2 25.179 30.5745 5.3955 0 0 0
2088 2 16.1865 26.9775 3.597 0 0 0
2034 2 17.985 19.7835 30.5745 0 0 0
576 2 30.5745 34.1715 10.791 0 0 0
1371 2 23.3805 32.373 8.9925 0 0 0
321 2 32.373 10.791 0.0 0 0 0
1028 2 23.3805 1.7985 21.582 0 0 0
2768 2 8.9925 16.1865 3.597 0 0 0
2278 2 14.388 5.3955 34.1715 0 0 0
3187 2 5.3955 14.388 23.3805 0 0 0
1380 2 23.3805 34.1715 14.388 0 0 0
1193 2 25.179 14.388 28.776 0 0 0
851 2 26.9775 21.582 8.9925 0 0 0
1337 2 25.179 28.776 14.388 0 0 0
1107 2 23.3805 7.194 23.3805 0 0 0
1320 2 23.3805 26.9775 32.373 0 0 0
2917 2 10.791 25.179 32.373 0 0 0
3229 2 7.194 17.985 25.179 0 0 0
127 2 34.1715 21.582 12.5895 0 0 0
891 2 26.9775 25.179 8.9925 0 0 0
1706 2 21.582 26.9775 23.3805 0 0 0
3640 2 1.7985 19.7835 32.373 0 0 0
832 2 26.9775 19.7835 25.179 0 0 0
1154 2 25.179 12.5895 30.5745 0 0 0
1429 2 21.582 0.0 25.179 0 0 0
959 2 26.9775 28.776 34.1715 0 0 0
2575 2 12.5895 32.373 12.5895 0 0 0
2701 2 10.791 7.194 17.985 0 0 0
1149 2 25.179 10.791 25.179 0 0 0
3945 2 0.0 25.179 7.194 0 0 0
3668 2 1.7985 23.3805 21.582 0 0 0
3938 2 0.0 23.3805 30.5745 0 0 0
3911 2 0.0 17.985 17.985 0 0 0
658 2 28.776 5.3955 16.1865 0 0 0
1599 2 19.7835 14.388 34.1715 0 0 0
2556 2 12.5895 30.5745 28.776 0 0 0
811 2 26.9775 17.985 8.9925 0 0 0
3095 2 5.3955 7.194 12.5895 0 0 0
728 2 26.9775 12.5895 3.597 0 0 0
2428 2 12.5895 19.7835 21.582 0 0 0
2752 2 8.9925 12.5895 25.179 0 0 0
444 2 30.5745 23.3805 0.0 0 0 0
2298 2 14.388 8.9925 16.1865 0 0 0
2284 2 12.5895 8.9925 0.0 0 0 0
1099 2 23.3805 7.194 16.1865 0 0 0
2193 2 17.985 32.373 28.776 0 0 0
2096 2 16.1865 26.9775 10.791 0 0 0
527 2 30.5745 28.776 5.3955 0 0 0
1115 2 23.3805 7.194 30.5745 0 0 0
1140 2 23.3805 12.5895 14.388 0 0 0
3597 2 3.597 14.388 32.373 0 0 0
3286 2 7.194 26.9775 5.3955 0 0 0
1042 2 25.179 5.3955 1.7985 0 0 0
2571 2 12.5895 32.373 8.9925 0 0 0
3032 2 5.3955 1.7985 25.179 0 0 0
871 2 26.9775 21.582 26.9775 0 0 0
2802 2 10.791 19.7835 1.7985 0 0 0
3811 2 0.0 0.0 17.985 0 0 0
1262 2 25.179 23.3805 19.7835 0 0 0
3152 2 5.3955 12.5895 25.179 0 0 0
2256 2 12.5895 5.3955 10.791 0 0 0
1351 2 23.3805 28.776 26.9775 0 0 0
3346 2 7.194 30.5745 23.3805 0 0 0
839 2 26.9775 17.985 34.1715 0 0 0
950 2 28.776 30.5745 26.9775 0 0 0
183 2 34.1715 32.373 5.3955 0 0 0
2416 2 12.5895 19.7835 10.791 0 0 0
501 2 32.373 25.179 17.985 0 0 0
2425 2 14.388 17.985 21.582 0 0 0
1884 2 16.1865 8.9925 0.0 0 0 0
3094 2 7.194 8.9925 12.5895 0 0 0
731 2 26.9775 10.791 8.9925 0 0 0
1327 2 23.3805 28.776 5.3955 0 0 0
1446 2 21.582 5.3955 5.3955 0 0 0
455 2 30.5745 21.582 12.5895 0 0 0
966 2 28.776 34.1715 5.3955 0 0 0
2406 2 14.388 19.7835 5.3955 0 0 0
2253 2 14.388 3.597 10.791 0 0 0
2504 2 12.5895 26.9775 17.985 0 0 0
3610 2 3.597 19.7835 8.9925 0 0 0
748 2 26.9775 12.5895 21.582 0 0 0
2500 2 12.5895 26.9775 14.388 0 0 0
2581 2 14.388 32.373 17.985 0 0 0
2139 2 16.1865 28.776 16.1865 0 0 0
454 2 32.373 23.3805 12.5895 0 0 0
3940 2 0.0 23.3805 34.1715 0 0 0
986 2 28.776 34.1715 23.3805 0 0 0
1631 2 19.7835 17.985 26.9775 0 0 0
3234 2 7.194 19.7835 30.5745 0 0 0
1858 2 17.985 5.3955 16.1865 0 0 0
3967 2 0.0 28.776 10.791 0 0 0
957 2 28.776 28.776 32.373 0 0 0
3736 2 1.7985 30.5745 10.791 0 0 0
3748 2 1.7985 30.5745 21.582 0 0 0
2626 2 10.791 1.7985 23.3805 0 0 0
1831 2 16.1865 0.0 26.9775 0 0 0
1854 2 17.985 5.3955 12.5895 0 0 0
175 2 34.1715 28.776 26.9775 0 0 0
1677 2 21.582 21.582 32.373 0 0 0
1762 2 21.582 34.1715 1.7985 0 0 0
573 2 32.373 32.373 10.791 0 0 0
2803 2 8.9925 17.985 1.7985 0 0 0
424 2 30.5745 19.7835 17.985 0 0 0
845 2 28.776 21.582 3.597 0 0 0
1197 2 25.179 14.388 32.373 0 0 0
2625 2 10.791 0.0 21.582 0 0 0
28 2 34.1715 5.3955 10.791 0 0 0
1418 2 21.582 1.7985 16.1865 0 0 0
1738 2 21.582 30.5745 16.1865 0 0 0
1288 2 23.3805 26.9775 3.597 0 0 0
2929 2 10.791 28.776 7.194 0 0 0
3131 2 5.3955 10.791 8.9925 0 0 0
836 3 26.9775 19.7835 28.776 0 0 0
2691 3 8.9925 7.194 8.9925 0 0 0
1357 3 25.179 28.776 32.373 0 0 0
130 3 34.1715 23.3805 14.388 0 0 0
1411 3 19.7835 0.0 8.9925 0 0 0
1029 3 25.179 0.0 25.179 0 0 0
2422 3 14.388 19.7835 19.7835 0 0 0
98 3 34.1715 16.1865 28.776 0 0 0
3179 3 5.3955 14.388 16.1865 0 0 0
1396 3 23.3805 34.1715 28.776 0 0 0
2145 3 17.985 28.776 21.582 0 0 0
1911 3 16.1865 7.194 26.9775 0 0 0
908 3 26.9775 26.9775 21.582 0 0 0
506 3 32.373 26.9775 23.3805 0 0 0
3098 3 7.194 8.9925 16.1865 0 0 0
1640 3 19.7835 19.7835 32.373 0 0 0
3923 3 0.0 21.582 3.597 0 0 0
2719 3 8.9925 7.194 34.1715 0 0 0
1944 3 16.1865 12.5895 17.985 0 0 0
2381 3 14.388 14.388 17.985 0 0 0
2885 3 10.791 25.179 3.597 0 0 0
2613 3 10.791 0.0 10.791 0 0 0
1872 3 16.1865 5.3955 25.179 0 0 0
2503 3 12.5895 25.179 19.7835 0 0 0
221 3 32.373 0.0 17.985 0 0 0
1741 3 21.582 28.776 17.985 0 0 0
2588 3 12.5895 34.1715 21.582 0 0 0
2248 3 12.5895 5.3955 3.597 0 0 0
827 3 26.9775 17.985 23.3805 0 0 0
3328 3 5.3955 30.5745 3.597 0 0 0
351 3 30.5745 10.791 26.9775 0 0 0
740 3 26.9775 12.5895 14.388 0 0 0
2493 3 14.388 25.179 10.791 0 0 0
732 3 26.9775 12.5895 7.194 0 0 0
3400 3 5.3955 34.1715 32.373 0 0 0
2569 3 14.388 32.373 7.194 0 0 0
1383 3 23.3805 32.373 19.7835 0 0 0
2690 3 10.791 8.9925 8.9925 0 0 0
3338 3 7.194 30.5745 16.1865 0 0 0
1702 3 21.582 26.9775 19.7835 0 0 0
314 3 32.373 8.9925 30.5745 0 0 0
2356 3 12.5895 12.5895 28.776 0 0 0
3410 3 3.597 1.7985 8.9925 0 0 0
230 3 32.373 1.7985 26.9775 0 0 0
1006 3 25.179 1.7985 5.3955 0 0 0
3484 3 1.7985 8.9925 0.0 0 0 0
1490 3 21.582 8.9925 8.9925 0 0 0
3982 3 0.0 34.1715 1.7985 0 0 0
3712 3 1.7985 26.9775 25.179 0 0 0
1644 3 19.7835 23.3805 0.0 0 0 0
3245 3 7.194 21.582 3.597 0 0 0
643 3 26.9775 3.597 1.7985 0 0 0
2951 3 8.9925 28.776 26.9775 0 0 0
2035 3 16.1865 17.985 30.5745 0 0 0
2822 3 10.791 19.7835 19.7835 0 0 0
154 3 34.1715 26.9775 21.582 0 0 0
3188 3 5.3955 16.1865 21.582 0 0 0
3819 3 0.0 0.0 32.373 0 0 0
1891 3 16.1865 7.194 8.9925 0 0 0
1045 3 25.179 3.597 3.597 0 0 0
668 3 26.9775 5.3955 21.582 0 0 0
488 3 30.5745 26.9775 3.597 0 0 0
2709 3 10.791 7.194 25.179 0 0 0
212 3 30.5745 1.7985 7.194 0 0 0
137 3 34.1715 21.582 30.5745 0 0 0
236 3 30.5745 1.7985 28.776 0 0 0
2688 3 8.9925 8.9925 3.597 0 0 0
223 3 30.5745 0.0 19.7835 0 0 0
1797 3 21.582 32.373 32.373 0 0 0
1124 3 23.3805 12.5895 0.0 0 0 0
2947 3 8.9925 28.776 23.3805 0 0 0
3992 3 0.0 34.1715 19.7835 0 0 0
713 3 28.776 7.194 28.776 0 0 0
150 3 34.1715 26.9775 14.388 0 0 0
138 3 34.1715 23.3805 28.776 0 0 0
2558 3 14.388 30.5745 34.1715 0 0 0
3491 3 1.7985 7.194 8.9925 0 0 0
549 3 32.373 28.776 25.179 0 0 0
3998 3 0.0 34.1715 30.5745 0 0 0
162 3 34.1715 30.5745 0.0 0 0 0
949 3 28.776 28.776 25.179 0 0 0
785 3 28.776 14.388 21.582 0 0 0
2057 3 17.985 21.582 14.388 0 0 0
1188 3 23.3805 16.1865 21.582 0 0 0
1329 3 25.179 28.776 7.194 0 0 0
113 3 34.1715 17.985 23.3805 0 0 0
3767 3 1.7985 32.373 5.3955 0 0 0
3055 3 5.3955 3.597 12.5895 0 0 0
3253 3 7.194 21.582 10.791 0 0 0
2832 3 8.9925 19.7835 25.179 0 0 0
852 3 26.9775 23.3805 7.194 0 0 0
1551 3 19.7835 10.791 26.9775 0 0 0
291 3 30.5745 7.194 8.9925 0 0 0
3869 3 0.0 10.791 14.388 0 0 0
1577 3 21.582 14.388 14.388 0 0 0
2321 3 14.388 10.791 0.0 0 0 0
1289 3 25.179 25.179 7.194 0 0 0
2590 3 14.388 34.1715 26.9775 0 0 0
1190 3 25.179 16.1865 26.9775 0 0 0
1095 3 23.3805 7.194 12.5895 0 0 0
1363 3 23.3805 32.373 1.7985 0 0 0
3904 3 0.0 19.7835 5.3955 0 0 0
2811 3 8.9925 17.985 8.9925 0 0 0
3714 3 3.597 26.9775 30.5745 0 0 0
3936 3 0.0 23.3805 26.9775 0 0 0
2053 3 17.985 21.582 10.791 0 0 0
3765 3 3.597 32.373 3.597 0 0 0
3430 3 3.597 1.7985 26.9775 0 0 0
3569 3 3.597 14.388 7.194 0 0 0
2154 3 17.985 30.5745 30.5745 0 0 0
307 3 30.5745 7.194 23.3805 0 0 0
1898 3 17.985 8.9925 16.1865 0 0 0
2157 3 17.985 28.776 32.373 0 0 0
649 3 28.776 3.597 7.194 0 0 0
298 3 32.373 8.9925 16.1865 0 0 0
2000 3 16.1865 16.1865 32.373 0 0 0
2013 3 17.985 17.985 10.791 0 0 0
858 3 28.776 23.3805 16.1865 0 0 0
2743 3 8.9925 10.791 19.7835 0 0 0
987 3 26.9775 32.373 23.3805 0 0 0
718 3 28.776 8.9925 34.1715 0 0 0
135 3 34.1715 21.582 26.9775 0 0 0
3530 3 3.597 12.5895 8.9925 0 0 0
3574 3 3.597 16.1865 12.5895 0 0 0
2930 3 10.791 30.5745 8.9925 0 0 0
1822 3 17.985 1.7985 19.7835 0 0 0
3017 3 7.194 0.0 14.388 0 0 0
2020 3 16.1865 19.7835 14.388 0 0 0
3494 3 3.597 8.9925 12.5895 0 0 0
2836 3 8.9925 19.7835 28.776 0 0 0
2990 3 10.791 34.1715 26.9775 0 0 0
1272 3 23.3805 23.3805 25.179 0 0 0
2920 3 8.9925 26.9775 32.373 0 0 0
684 3 26.9775 8.9925 0.0 0 0 0
2669 3 10.791 3.597 25.179 0 0 0
847 3 26.9775 21.582 5.3955 0 0 0
838 3 28.776 19.7835 34.1715 0 0 0
3654 3 3.597 23.3805 12.5895 0 0 0
574 3 32.373 34.1715 12.5895 0 0 0
1195 3 23.3805 14.388 30.5745 0 0 0
3634 3 3.597 19.7835 30.5745 0 0 0
3835 3 0.0 3.597 25.179 0 0 0
3908 3 0.0 19.7835 12.5895 0 0 0
3109 3 7.194 7.194 25.179 0 0 0
1044 3 23.3805 5.3955 0.0 0 0 0
2457 3 14.388 21.582 14.388 0 0 0
2635 3 8.9925 0.0 30.5745 0 0 0
3481 3 3.597 7.194 0.0 0 0 0
143 3 34.1715 25.179 5.3955 0 0 0
1484 3 19.7835 8.9925 0.0 0 0 0
2595 3 12.5895 32.373 30.5745 0 0 0
1618 3 21.582 19.7835 16.1865 0 0 0
2090 3 17.985 26.9775 8.9925 0 0 0
2015 3 16.1865 17.985 12.5895 0 0 0
168 3 34.1715 30.5745 10.791 0 0 0
46 3 34.1715 8.9925 7.194 0 0 0
1582 3 21.582 16.1865 19.7835 0 0 0
3167 3 5.3955 14.388 5.3955 0 0 0
3005 3 7.194 0.0 3.597 0 0 0
1221 3 25.179 17.985 17.985 0 0 0
1419 3 19.7835 0.0 16.1865 0 0 0
1370 3 25.179 34.1715 8.9925 0 0 0
3479 3 1.7985 3.597 34.1715 0 0 0
1102 3 25.179 8.9925 19.7835 0 0 0
3855 3 0.0 7.194 25.179 0 0 0
926 3 28.776 30.5745 5.3955 0 0 0
1063 3 23.3805 3.597 19.7835 0 0 0
1621 3 21.582 17.985 17.985 0 0 0
2481 3 14.388 25.179 0.0 0 0 0
3168 3 5.3955 16.1865 3.597 0 0 0
2774 3 10.791 16.1865 12.5895 0 0 0
1031 3 23.3805 0.0 26.9775 0 0 0
637 3 28.776 0.0 32.373 0 0 0
727 3 26.9775 10.791 5.3955 0 0 0
1896 3 16.1865 8.9925 10.791 0 0 0
798 3 28.776 16.1865 34.1715 0 0 0
1086 3 25.179 8.9925 5.3955 0 0 0
3997 3 0.0 32.373 28.776 0 0 0
1224 3 23.3805 19.7835 17.985 0 0 0
1796 3 19.7835 34.1715 28.776 0 0 0
1744 3 19.7835 30.5745 17.985 0 0 0
953 3 28.776 28.776 28.776 0 0 0
2934 3 10.791 30.5745 12.5895 0 0 0
1772 3 19.7835 34.1715 7.194 0 0 0
1949 3 17.985 10.791 25.179 0 0 0
1768 3 19.7835 34.1715 3.597 0 0 0
1567 3 19.7835 14.388 5.3955 0 0 0
1403 3 19.7835 0.0 1.7985 0 0 0
27 3 34.1715 3.597 12.5895 0 0 0
3440 3 1.7985 1.7985 32.373 0 0 0
3871 3 0.0 10.791 17.985 0 0 0
3111 3 5.3955 7.194 26.9775 0 0 0
2896 3 8.9925 26.9775 10.791 0 0 0
1074 3 25.179 5.3955 30.5745 0 0 0
3960 3 0.0 26.9775 34.1715 0 0 0
3700 3 1.7985 26.9775 14.388 0 0 0
3182 3 7.194 16.1865 19.7835 0 0 0
2089 3 17.985 25.179 7.194 0 0 0
721 3 28.776 10.791 0.0 0 0 0
231 3 30.5745 0.0 26.9775 0 0 0
2234 3 14.388 1.7985 30.5745 0 0 0
2004 3 16.1865 19.7835 0.0 0 0 0
1228 3 23.3805 19.7835 21.582 0 0 0
240 3 30.5745 1.7985 32.373 0 0 0
251 3 30.5745 3.597 8.9925 0 0 0
708 3 26.9775 8.9925 21.582 0 0 0
2026 3 17.985 19.7835 23.3805 0 0 0
764 3 26.9775 16.1865 0.0 0 0 0
4000 3 0.0 34.1715 34.1715 0 0 0
1312 3 23.3805 26.9775 25.179 0 0 0
1321 3 25.179 28.776 0.0 0 0 0
343 3 30.5745 10.791 19.7835 0 0 0
411 3 30.5745 17.985 8.9925 0 0 0
656 3 26.9775 5.3955 10.791 0 0 0
1038 3 25.179 1.7985 34.1715 0 0 0
699 3 26.9775 7.194 16.1865 0 0 0
706 3 28.776 8.9925 23.3805 0 0 0
2562 3 14.388 34.1715 1.7985 0 0 0
2168 3 16.1865 34.1715 3.597 0 0 0
199 3 34.1715 32.373 34.1715 0 0 0
1514 3 21.582 8.9925 30.5745 0 0 0
3021 3 7.194 0.0 17.985 0 0 0
1997 3 17.985 14.388 32.373 0 0 0
3649 3 3.597 21.582 7.194 0 0 0
1066 3 25.179 5.3955 23.3805 0 0 0
733 3 28.776 10.791 10.791 0 0 0
2617 3 10.791 0.0 14.388 0 0 0
1214 3 25.179 19.7835 12.5895 0 0 0
770 3 28.776 16.1865 8.9925 0 0 0
2191 3 16.1865 32.373 26.9775 0 0 0
2606 3 10.791 1.7985 5.3955 0 0 0
1134 3 25.179 12.5895 12.5895 0 0 0
2198 3 17.985 34.1715 34.1715 0 0 0
1516 3 19.7835 8.9925 28.776 0 0 0
2770 3 10.791 16.1865 8.9925 0 0 0
2533 3 14.388 28.776 10.791 0 0 0
186 3 34.1715 34.1715 7.194 0 0 0
3970 3 0.0 30.5745 16.1865 0 0 0
749 3 28.776 10.791 25.179 0 0 0
2889 3 10.791 25.179 7.194 0 0 0
2097 3 17.985 25.179 14.388 0 0 0
3380 3 5.3955 34.1715 14.388 0 0 0
2272 3 12.5895 5.3955 25.179 0 0 0
1547 3 19.7835 10.791 23.3805 0 0 0
1282 3 25.179 26.9775 1.7985 0 0 0
3447 3 1.7985 3.597 5.3955 0 0 0
1556 3 19.7835 12.5895 28.776 0 0 0
2713 3 10.791 7.194 28.776 0 0 0
800 3 26.9775 16.1865 32.373 0 0 0
2001 3 17.985 17.985 0.0 0 0 0
1925 3 17.985 10.791 3.597 0 0 0
284 3 30.5745 8.9925 0.0 0 0 0
378 3 32.373 16.1865 16.1865 0 0 0
1368 3 23.3805 34.1715 3.597 0 0 0
1324 3 23.3805 30.5745 0.0 0 0 0
1229 3 25.179 17.985 25.179 0 0 0
3798 3 3.597 34.1715 34.1715 0 0 0
1692 3 19.7835 26.9775 7.194 0 0 0
578 3 32.373 34.1715 16.1865 0 0 0
3636 3 1.7985 19.7835 28.776 0 0 0
2339 3 12.5895 10.791 16.1865 0 0 0
2919 3 8.9925 25.179 34.1715 0 0 0
72 3 34.1715 12.5895 17.985 0 0 0
757 3 28.776 10.791 32.373 0 0 0
2976 3 8.9925 34.1715 10.791 0 0 0
3213 3 7.194 17.985 10.791 0 0 0
988 3 26.9775 34.1715 21.582 0 0 0
636 3 26.9775 1.7985 28.776 0 0 0
3128 3 5.3955 12.5895 3.597 0 0 0
1607 3 19.7835 17.985 5.3955 0 0 0
54 3 34.1715 8.9925 21.582 0 0 0
2117 3 17.985 25.179 32.373 0 0 0
1059 3 23.3805 3.597 16.1865 0 0 0
1457 3 21.582 3.597 14.388 0 0 0
863 3 26.9775 21.582 19.7835 0 0 0
2608 3 8.9925 1.7985 3.597 0 0 0
3365 3 7.194 32.373 3.597 0 0 0
2510 3 14.388 26.9775 26.9775 0 0 0
1125 3 25.179 10.791 3.597 0 0 0
117 3 34.1715 17.985 30.5745 0 0 0
1757 3 21.582 28.776 32.373 0 0 0
414 3 32.373 19.7835 12.5895 0 0 0
2350 3 14.388 12.5895 26.9775 0 0 0
2783 3 8.9925 14.388 19.7835 0 0 0
443 3 30.5745 21.582 1.7985 0 0 0
3625 3 3.597 17.985 21.582 0 0 0
2650 3 10.791 5.3955 8.9925 0 0 0
2941 3 10.791 28.776 17.985 0 0 0
2149 3 17.985 28.776 25.179 0 0 0
1290 3 25.179 26.9775 8.9925 0 0 0
3174 3 7.194 16.1865 12.5895 0 0 0
2791 3 8.9925 14.388 26.9775 0 0 0
2668 3 8.9925 5.3955 21.582 0 0 0
2837 3 10.791 17.985 32.373 0 0 0
612 3 26.9775 1.7985 7.194 0 0 0
2725 3 10.791 10.791 3.597 0 0 0
1475 3 19.7835 3.597 30.5745 0 0 0
2736 3 8.9925 12.5895 10.791 0 0 0
2360 3 12.5895 12.5895 32.373 0 0 0
2138 3 17.985 30.5745 16.1865 0 0 0
2985 3 10.791 32.373 21.582 0 0 0
2795 3 8.9925 14.388 30.5745 0 0 0
1021 3 25.179 0.0 17.985 0 0 0
237 3 32.373 0.0 32.373 0 0 0
3160 3 5.3955 12.5895 32.373 0 0 0
1832 3 16.1865 1.7985 25.179 0 0 0
1691 3 19.7835 25.179 8.9925 0 0 0
3895 3 0.0 14.388 25.179 0 0 0
3471 3 1.7985 3.597 26.9775 0 0 0
181 3 34.1715 32.373 1.7985 0 0 0
3110 3 7.194 8.9925 26.9775 0 0 0
3074 3 7.194 5.3955 30.5745 0 0 0
496 3 30.5745 26.9775 10.791 0 0 0
1299 3 23.3805 25.179 16.1865 0 0 0
292 3 30.5745 8.9925 7.194 0 0 0
521 3 32.373 28.776 0.0 0 0 0
941 3 28.776 28.776 17.985 0 0 0
3170 3 7.194 16.1865 8.9925 0 0 0
2692 3 8.9925 8.9925 7.194 0 0 0
3507 3 1.7985 7.194 23.3805 0 0 0
209 3 32.373 0.0 7.194 0 0 0
3394 3 7.194 34.1715 30.5745 0 0 0
2218 3 14.388 1.7985 16.1865 0 0 0
3374 3 7.194 34.1715 12.5895 0 0 0
21 3 34.1715 3.597 1.7985 0 0 0
3149 3 7.194 10.791 25.179 0 0 0
40 3 34.1715 5.3955 32.373 0 0 0
440 3 30.5745 19.7835 32.373 0 0 0
1790 3 21.582 34.1715 26.9775 0 0 0
2998 3 10.791 34.1715 34.1715 0 0 0
1845 3 17.985 3.597 3.597 0 0 0
3255 3 5.3955 21.582 12.5895 0 0 0
1209 3 25.179 17.985 7.194 0 0 0
2382 3 14.388 16.1865 19.7835 0 0 0
2531 3 12.5895 28.776 8.9925 0 0 0
2215 3 12.5895 0.0 12.5895 0 0 0
524 3 30.5745 30.5745 0.0 0 0 0
300 3 30.5745 8.9925 14.388 0 0 0
3451 3 1.7985 3.597 8.9925 0 0 0
517 3 32.373 25.179 32.373 0 0 0
2494 3 14.388 26.9775 12.5895 0 0 0
2915 3 8.9925 25.179 30.5745 0 0 0
3236 3 5.3955 19.7835 28.776 0 0 0
1560 3 19.7835 12.5895 32.373 0 0 0
2619 3 8.9925 0.0 16.1865 0 0 0
1502 3 21.582 8.9925 19.7835 0 0 0
3826 3 0.0 5.3955 8.9925 0 0 0
1208 3 23.3805 19.7835 3.597 0 0 0
3038 3 7.194 1.7985 34.1715 0 0 0
43 3 34.1715 7.194 5.3955 0 0 0
413 3 32.373 17.985 10.791 0 0 0
797 3 28.776 14.388 32.373 0 0 0
407 3 30.5745 17.985 5.3955 0 0 0
2399 3 12.5895 14.388 34.1715 0 0 0
1391 3 23.3805 32.373 26.9775 0 0 0
784 3 26.9775 16.1865 17.985 0 0 0
3711 3 1.7985 25.179 26.9775 0 0 0
2242 3 14.388 5.3955 1.7985 0 0 0
3920 3 0.0 19.7835 34.1715 0 0 0
2686 3 10.791 8.9925 5.3955 0 0 0
2125 3 17.985 28.776 3.597 0 0 0
3316 3 5.3955 26.9775 28.776 0 0 0
1274 3 25.179 23.3805 30.5745 0 0 0
1541 3 21.582 10.791 17.985 0 0 0
2519 3 12.5895 25.179 34.1715 0 0 0
2557 3 14.388 28.776 32.373 0 0 0
2734 3 10.791 12.5895 12.5895 0 0 0
2952 3 8.9925 30.5745 25.179 0 0 0
1505 3 21.582 7.194 21.582 0 0 0
1315 3 23.3805 25.179 30.5745 0 0 0
2213 3 14.388 0.0 10.791 0 0 0
239 3 30.5745 0.0 34.1715 0 0 0
3327 3 5.3955 28.776 5.3955 0 0 0
470 3 32.373 23.3805 26.9775 0 0 0
3062 3 7.194 5.3955 19.7835 0 0 0
1150 3 25.179 12.5895 26.9775 0 0 0
158 3 34.1715 26.9775 28.776 0 0 0
2864 3 8.9925 23.3805 17.985 0 0 0
657 3 28.776 3.597 14.388 0 0 0
2572 3 12.5895 34.1715 7.194 0 0 0
2517 3 14.388 25.179 32.373 0 0 0
82 3 34.1715 16.1865 0.0 0 0 0
662 3 28.776 5.3955 19.7835 0 0 0
1313 3 25.179 25.179 28.776 0 0 0
3107 3 5.3955 7.194 23.3805 0 0 0
3441 3 3.597 3.597 0.0 0 0 0
133 3 34.1715 21.582 23.3805 0 0 0
308 3 30.5745 8.9925 21.582 0 0 0
125 3 34.1715 21.582 8.9925 0 0 0
3801 3 0.0 0.0 0.0 0 0 0
613 3 28.776 0.0 10.791 0 0 0
3885 3 0.0 14.388 7.194 0 0 0
525 3 32.373 28.776 3.597 0 0 0
1009 3 25.179 0.0 7.194 0 0 0
859 3 26.9775 21.582 16.1865 0 0 0
1962 3 17.985 16.1865 1.7985 0 0 0
3922 3 0.0 23.3805 1.7985 0 0 0
2988 3 8.9925 34.1715 21.582 0 0 0
169 3 34.1715 28.776 16.1865 0 0 0
3771 3 1.7985 32.373 8.9925 0 0 0
1711 3 19.7835 25.179 26.9775 0 0 0
257 3 32.373 3.597 14.388 0 0 0
484 3 30.5745 26.9775 0.0 0 0 0
329 3 32.373 10.791 7.194 0 0 0
3732 3 1.7985 30.5745 7.194 0 0 0
1027 3 23.3805 0.0 23.3805 0 0 0
2412 3 12.5895 19.7835 7.194 0 0 0
1173 3 25.179 14.388 10.791 0 0 0
356 3 30.5745 12.5895 28.776 0 0 0
2239 3 12.5895 0.0 34.1715 0 0 0
3087 3 5.3955 7.194 5.3955 0 0 0
680 3 26.9775 5.3955 32.373 0 0 0
2196 3 16.1865 34.1715 28.776 0 0 0
3818 3 0.0 1.7985 30.5745 0 0 0
1639 3 19.7835 17.985 34.1715 0 0 0
3470 3 3.597 5.3955 26.9775 0 0 0
3154 3 7.194 12.5895 30.5745 0 0 0
2094 3 17.985 26.9775 12.5895 0 0 0
449 3 32.373 21.582 7.194 0 0 0
3436 3 1.7985 1.7985 28.776 0 0 0
1466 3 21.582 5.3955 23.3805 0 0 0
804 3 26.9775 19.7835 0.0 0 0 0
3518 3 3.597 8.9925 34.1715 0 0 0
112 3 34.1715 19.7835 17.985 0 0 0
995 3 26.9775 32.373 30.5745 0 0 0
2367 3 12.5895 14.388 5.3955 0 0 0
3644 3 1.7985 23.3805 0.0 0 0 0
224 3 30.5745 1.7985 17.985 0 0 0
2124 3 16.1865 30.5745 0.0 0 0 0
2739 3 8.9925 10.791 16.1865 0 0 0
2940 3 8.9925 30.5745 14.388 0 0 0
2813 3 10.791 17.985 10.791 0 0 0
2166 3 17.985 34.1715 5.3955 0 0 0
2723 3 8.9925 10.791 1.7985 0 0 0
3521 3 3.597 10.791 0.0 0 0 0
1769 3 21.582 32.373 7.194 0 0 0
473 3 32.373 21.582 28.776 0 0 0
3716 3 1.7985 26.9775 28.776 0 0 0
3023 3 5.3955 0.0 19.7835 0 0 0
519 3 30.5745 25.179 34.1715 0 0 0
2959 3 8.9925 28.776 34.1715 0 0 0
2008 3 16.1865 19.7835 3.597 0 0 0
796 3 26.9775 16.1865 28.776 0 0 0
3768 3 1.7985 34.1715 3.597 0 0 0
2297 3 14.388 7.194 14.388 0 0 0
1850 3 17.985 5.3955 8.9925 0 0 0
2438 3 14.388 19.7835 34.1715 0 0 0
216 3 30.5745 1.7985 10.791 0 0 0
3176 3 5.3955 16.1865 10.791 0 0 0
1464 3 19.7835 5.3955 17.985 0 0 0
2358 3 14.388 12.5895 34.1715 0 0 0
1445 3 21.582 3.597 3.597 0 0 0
1689 3 21.582 25.179 7.194 0 0 0
3694 3 3.597 26.9775 12.5895 0 0 0
3210 3 7.194 19.7835 8.9925 0 0 0
550 3 32.373 30.5745 26.9775 0 0 0
2405 3 14.388 17.985 3.597 0 0 0
1988 3 16.1865 16.1865 21.582 0 0 0
1136 3 23.3805 12.5895 10.791 0 0 0
3889 3 0.0 14.388 14.388 0 0 0
2936 3 8.9925 30.5745 10.791 0 0 0
7 3 34.1715 0.0 12.5895 0 0 0
103 3 34.1715 17.985 5.3955 0 0 0
1062 3 25.179 5.3955 19.7835 0 0 0
84 3 34.1715 16.1865 3.597 0 0 0
2031 3 16.1865 17.985 26.9775 0 0 0
3841 3 0.0 7.194 0.0 0 0 0
3166 3 7.194 16.1865 5.3955 0 0 0
1562 3 21.582 16.1865 1.7985 0 0 0
188 3 34.1715 34.1715 10.791 0 0 0
2444 3 12.5895 23.3805 0.0 0 0 0
8 3 34.1715 1.7985 10.791 0 0 0
1793 3 21.582 32.373 28.776 0 0 0
3586 3 3.597 16.1865 23.3805 0 0 0
299 3 30.5745 7.194 16.1865 0 0 0
1927 3 16.1865 10.791 5.3955 0 0 0
714 3 28.776 8.9925 30.5745 0 0 0
2151 3 16.1865 28.776 26.9775 0 0 0
500 3 30.5745 26.9775 14.388 0 0 0
1720 3 19.7835 26.9775 32.373 0 0 0
214 3 32.373 1.7985 12.5895 0 0 0
2388 3 12.5895 16.1865 21.582 0 0 0
318 3 32.373 8.9925 34.1715 0 0 0
902 3 28.776 26.9775 19.7835 0 0 0
1637 3 21.582 17.985 32.373 0 0 0
3689 3 3.597 25.179 7.194 0 0 0
791 3 26.9775 14.388 26.9775 0 0 0
1271 3 23.3805 21.582 26.9775 0 0 0
1774 3 21.582 34.1715 12.5895 0 0 0
1716 3 19.7835 26.9775 28.776 0 0 0
494 3 32.373 26.9775 12.5895 0 0 0
2265 3 14.388 3.597 21.582 0 0 0
179 3 34.1715 28.776 34.1715 0 0 0
1137 3 25.179 10.791 14.388 0 0 0
3877 3 0.0 10.791 28.776 0 0 0
2299 3 12.5895 7.194 16.1865 0 0 0
3852 3 0.0 8.9925 19.7835 0 0 0
1878 3 17.985 5.3955 34.1715 0 0 0
2109 3 17.985 25.179 25.179 0 0 0
3064 3 5.3955 5.3955 17.985 0 0 0
346 3 32.373 12.5895 23.3805 0 0 0
2447 3 12.5895 21.582 5.3955 0 0 0
3520 3 1.7985 8.9925 32.373 0 0 0
293 3 32.373 7.194 10.791 0 0 0
3330 3 7.194 30.5745 8.9925 0 0 0
1293 3 25.179 25.179 10.791 0 0 0
3799 3 1.7985 32.373 34.1715 0 0 0
1385 3 25.179 32.373 21.582 0 0 0
1207 3 23.3805 17.985 5.3955 0 0 0
2969 3 10.791 32.373 7.194 0 0 0
3054 3 7.194 5.3955 12.5895 0 0 0
2470 3 14.388 23.3805 26.9775 0 0 0
3757 3 3.597 28.776 32.373 0 0 0
1844 3 16.1865 5.3955 0.0 0 0 0
1171 3 23.3805 14.388 8.9925 0 0 0
2397 3 14.388 14.388 32.373 0 0 0
938 3 28.776 30.5745 16.1865 0 0 0
753 3 28.776 10.791 28.776 0 0 0
3743 3 1.7985 28.776 19.7835 0 0 0
3060 3 5.3955 5.3955 14.388 0 0 0
3866 3 0.0 12.5895 8.9925 0 0 0
285 3 32.373 7.194 3.597 0 0 0
3022 3 7.194 1.7985 19.7835 0 0 0
1587 3 19.7835 14.388 23.3805 0 0 0
877 3 28.776 21.582 32.373 0 0 0
2511 3 12.5895 25.179 26.9775 0 0 0
2485 3 14.388 25.179 3.597 0 0 0
2016 3 16.1865 19.7835 10.791 0 0 0
3696 3 1.7985 26.9775 10.791 0 0 0
1693 3 21.582 25.179 10.791 0 0 0
3414 3 3.597 1.7985 12.5895 0 0 0
1684 3 19.7835 26.9775 0.0 0 0 0
2649 3 10.791 3.597 7.194 0 0 0
670 3 28.776 5.3955 26.9775 0 0 0
2112 3 16.1865 26.9775 25.179 0 0 0
3300 3 5.3955 26.9775 14.388 0 0 0
295 3 30.5745 7.194 12.5895 0 0 0
3429 3 3.597 0.0 25.179 0 0 0
2644 3 8.9925 5.3955 0.0 0 0 0
942 3 28.776 30.5745 19.7835 0 0 0
2514 3 14.388 26.9775 30.5745 0 0 0
3037 3 7.194 0.0 32.373 0 0 0
1555 3 19.7835 10.791 30.5745 0 0 0
2624 3 8.9925 1.7985 17.985 0 0 0
3882 3 0.0 16.1865 1.7985 0 0 0
393 3 32.373 14.388 28.776 0 0 0
516 3 30.5745 26.9775 28.776 0 0 0
1943 3 16.1865 10.791 19.7835 0 0 0
1349 3 25.179 28.776 25.179 0 0 0
2129 3 17.985 28.776 7.194 0 0 0
3307 3 5.3955 25.179 23.3805 0 0 0
2007 3 16.1865 17.985 5.3955 0 0 0
2116 3 16.1865 26.9775 28.776 0 0 0
462 3 32.373 23.3805 19.7835 0 0 0
556 3 30.5745 30.5745 28.776 0 0 0
153 3 34.1715 25.179 23.3805 0 0 0
270 3 32.373 5.3955 26.9775 0 0 0
2826 3 10.791 19.7835 23.3805 0 0 0
1655 3 19.7835 21.582 12.5895 0 0 0
1540 3 19.7835 12.5895 14.388 0 0 0
2244 3 12.5895 5.3955 0.0 0 0 0
3239 3 5.3955 17.985 34.1715 0 0 0
1097 3 25.179 7.194 14.388 0 0 0
2082 3 17.985 26.9775 1.7985 0 0 0
1156 3 23.3805 12.5895 28.776 0 0 0
167 3 34.1715 28.776 12.5895 0 0 0
3225 3 7.194 17.985 21.582 0 0 0
3298 3 7.194 26.9775 16.1865 0 0 0
106 3 34.1715 19.7835 7.194 0 0 0
2123 3 16.1865 28.776 1.7985 0 0 0
2812 3 8.9925 19.7835 7.194 0 0 0
58 3 34.1715 8.9925 28.776 0 0 0
435 3 30.5745 17.985 30.5745 0 0 0
1397 3 25.179 32.373 32.373 0 0 0
948 3 26.9775 30.5745 21.582 0 0 0
35 3 34.1715 3.597 26.9775 0 0 0
1865 3 17.985 3.597 21.582 0 0 0
1839 3 16.1865 0.0 34.1715 0 0 0
2023 3 16.1865 17.985 19.7835 0 0 0
3829 3 0.0 3.597 14.388 0 0 0
3614 3 3.597 19.7835 12.5895 0 0 0
1405 3 21.582 0.0 3.597 0 0 0
3973 3 0.0 28.776 21.582 0 0 0
3797 3 3.597 32.373 32.373 0 0 0
3682 3 3.597 26.9775 1.7985 0 0 0
688 3 26.9775 8.9925 3.597 0 0 0
560 3 30.5745 30.5745 32.373 0 0 0
3812 3 0.0 1.7985 19.7835 0 0 0
2085 3 17.985 25.179 3.597 0 0 0
904 3 26.9775 26.9775 17.985 0 0 0
2313 3 14.388 7.194 28.776 0 0 0
1895 3 16.1865 7.194 12.5895 0 0 0
2197 3 17.985 32.373 32.373 0 0 0
3442 3 3.597 5.3955 1.7985 0 0 0
2324 3 12.5895 12.5895 0.0 0 0 0
2202 3 14.388 1.7985 1.7985 0 0 0
783 3 26.9775 14.388 19.7835 0 0 0
3946 3 0.0 26.9775 8.9925 0 0 0
1043 3 23.3805 3.597 1.7985 0 0 0
3480 3 1.7985 5.3955 32.373 0 0 0
3466 3 3.597 5.3955 23.3805 0 0 0
1364 3 23.3805 34.1715 0.0 0 0 0
1477 3 21.582 3.597 32.373 0 0 0
3554 3 3.597 12.5895 30.5745 0 0 0
818 3 28.776 19.7835 16.1865 0 0 0
1534 3 21.582 12.5895 12.5895 0 0 0
1663 3 19.7835 21.582 19.7835 0 0 0
3672 3 1.7985 23.3805 25.179 0 0 0
422 3 32.373 19.7835 19.7835 0 0 0
477 3 32.373 21.582 32.373 0 0 0
2419 3 12.5895 17.985 16.1865 0 0 0
846 3 28.776 23.3805 5.3955 0 0 0
1930 3 17.985 12.5895 8.9925 0 0 0
968 3 26.9775 34.1715 3.597 0 0 0
1217 3 25.179 17.985 14.388 0 0 0
2759 3 8.9925 10.791 34.1715 0 0 0
2224 3 12.5895 1.7985 17.985 0 0 0
1951 3 16.1865 10.791 26.9775 0 0 0
3948 3 0.0 26.9775 12.5895 0 0 0
2979 3 8.9925 32.373 16.1865 0 0 0
3326 3 7.194 30.5745 5.3955 0 0 0
68 3 34.1715 12.5895 10.791 0 0 0
591 3 30.5745 32.373 26.9775 0 0 0
1160 3 23.3805 12.5895 32.373 0 0 0
121 3 34.1715 21.582 1.7985 0 0 0
1670 3 21.582 23.3805 26.9775 0 0 0
3681 3 3.597 25.179 0.0 0 0 0
3205 3 7.194 17.985 3.597 0 0 0
3776 3 1.7985 34.1715 10.791 0 0 0
2645 3 10.791 3.597 3.597 0 0 0
3277 3 7.194 21.582 32.373 0 0 0
781 3 28.776 14.388 17.985 0 0 0
1973 3 17.985 14.388 10.791 0 0 0
1281 3 25.179 25.179 0.0 0 0 0
1121 3 25.179 10.791 0.0 0 0 0
1573 3 21.582 14.388 10.791 0 0 0
2030 3 17.985 19.7835 26.9775 0 0 0
1152 3 23.3805 12.5895 25.179 0 0 0
1538 3 21.582 12.5895 16.1865 0 0 0
1091 3 23.3805 7.194 8.9925 0 0 0
3962 3 0.0 30.5745 1.7985 0 0 0
816 3 26.9775 19.7835 10.791 0 0 0
2679 3 8.9925 3.597 34.1715 0 0 0
593 3 32.373 32.373 28.776 0 0 0
3250 3 7.194 23.3805 8.9925 0 0 0
1367 3 23.3805 32.373 5.3955 0 0 0
206 3 32.373 1.7985 5.3955 0 0 0
3419 3 1.7985 0.0 16.1865 0 0 0
1883 3 16.1865 7.194 1.7985 0 0 0
1480 3 19.7835 5.3955 32.373 0 0 0
1345 3 25.179 28.776 21.582 0 0 0
222 3 32.373 1.7985 19.7835 0 0 0
1019 3 23.3805 0.0 16.1865 0 0 0
1928 3 16.1865 12.5895 3.597 0 0 0
1532 3 19.7835 12.5895 7.194 0 0 0
1886 3 17.985 8.9925 5.3955 0 0 0
1348 3 23.3805 30.5745 21.582 0 0 0
503 3 30.5745 25.179 19.7835 0 0 0
3670 3 3.597 23.3805 26.9775 0 0 0
1218 3 25.179 19.7835 16.1865 0 0 0
3840 3 0.0 5.3955 34.1715 0 0 0
1080 3 23.3805 5.3955 32.373 0 0 0
1709 3 21.582 25.179 25.179 0 0 0
3639 3 1.7985 17.985 34.1715 0 0 0
2076 3 16.1865 23.3805 28.776 0 0 0
3886 3 0.0 16.1865 8.9925 0 0 0
2 3 34.1715 1.7985 0.0 0 0 0
3633 3 3.597 17.985 28.776 0 0 0
2502 3 14.388 26.9775 19.7835 0 0 0
442 3 32.373 23.3805 1.7985 0 0 0
1834 3 17.985 1.7985 30.5745 0 0 0
1109 3 25.179 7.194 25.179 0 0 0
3313 3 7.194 25.179 28.776 0 0 0
1004 3 23.3805 1.7985 0.0 0 0 0
3437 3 3.597 0.0 32.373 0 0 0
448 3 30.5745 23.3805 3.597 0 0 0
2607 3 8.9925 0.0 5.3955 0 0 0
3454 3 3.597 5.3955 12.5895 0 0 0
631 3 26.9775 0.0 26.9775 0 0 0
1094 3 25.179 8.9925 12.5895 0 0 0
3117 3 7.194 7.194 32.373 0 0 0
3214 3 7.194 19.7835 12.5895 0 0 0
3237 3 7.194 17.985 32.373 0 0 0
710 3 28.776 8.9925 26.9775 0 0 0
101 3 34.1715 17.985 1.7985 0 0 0
1103 3 23.3805 7.194 19.7835 0 0 0
1852 3 16.1865 5.3955 7.194 0 0 0
200 3 34.1715 34.1715 32.373 0 0 0
1836 3 16.1865 1.7985 28.776 0 0 0
2499 3 12.5895 25.179 16.1865 0 0 0
331 3 30.5745 10.791 8.9925 0 0 0
3140 3 5.3955 12.5895 14.388 0 0 0
1277 3 25.179 21.582 32.373 0 0 0
2492 3 12.5895 26.9775 7.194 0 0 0
317 3 32.373 7.194 32.373 0 0 0
3993 3 0.0 32.373 21.582 0 0 0
2209 3 14.388 0.0 7.194 0 0 0
434 3 32.373 19.7835 30.5745 0 0 0
2656 3 8.9925 5.3955 10.791 0 0 0
1011 3 23.3805 0.0 8.9925 0 0 0
3813 3 0.0 0.0 21.582 0 0 0
3106 3 7.194 8.9925 23.3805 0 0 0
2563 3 12.5895 32.373 1.7985 0 0 0
3467 3 1.7985 3.597 23.3805 0 0 0
1318 3 25.179 26.9775 34.1715 0 0 0
513 3 32.373 25.179 28.776 0 0 0
3247 3 5.3955 21.582 5.3955 0 0 0
3469 3 3.597 3.597 25.179 0 0 0
194 3 34.1715 34.1715 21.582 0 0 0
1453 3 21.582 3.597 10.791 0 0 0
1296 3 23.3805 26.9775 10.791 0 0 0
3012 3 5.3955 1.7985 7.194 0 0 0
1053 3 25.179 3.597 10.791 0 0 0
735 3 26.9775 10.791 12.5895 0 0 0
683 3 26.9775 7.194 1.7985 0 0 0
56 3 34.1715 8.9925 25.179 0 0 0
866 3 28.776 23.3805 23.3805 0 0 0
2954 3 10.791 30.5745 30.5745 0 0 0
3359 3 5.3955 28.776 34.1715 0 0 0
2821 3 10.791 17.985 17.985 0 0 0
3056 3 5.3955 5.3955 10.791 0 0 0
1581 3 21.582 14.388 17.985 0 0 0
3045 3 7.194 3.597 3.597 0 0 0
565 3 32.373 32.373 3.597 0 0 0
2043 3 16.1865 21.582 1.7985 0 0 0
2984 3 8.9925 34.1715 17.985 0 0 0
2410 3 14.388 19.7835 8.9925 0 0 0
3867 3 0.0 10.791 10.791 0 0 0
2075 3 16.1865 21.582 30.5745 0 0 0
30 3 34.1715 5.3955 14.388 0 0 0
34 3 34.1715 5.3955 21.582 0 0 0
3456 3 1.7985 5.3955 10.791 0 0 0
2777 3 10.791 14.388 14.388 0 0 0
1111 3 23.3805 7.194 26.9775 0 0 0
3896 3 0.0 16.1865 26.9775 0 0 0
3655 3 1.7985 21.582 12.5895 0 0 0
1194 3 25.179 16.1865 30.5745 0 0 0
3656 3 1.7985 23.3805 10.791 0 0 0
1292 3 23.3805 26.9775 7.194 0 0 0
1226 3 25.179 19.7835 23.3805 0 0 0
1265 3 25.179 21.582 21.582 0 0 0
2453 3 14.388 21.582 10.791 0 0 0
134 3 34.1715 23.3805 21.582 0 0 0
1921 3 17.985 10.791 0.0 0 0 0
3230 3 7.194 19.7835 26.9775 0 0 0
210 3 32.373 1.7985 8.9925 0 0 0
1174 3 25.179 16.1865 12.5895 0 0 0
1472 3 19.7835 5.3955 25.179 0 0 0
3943 3 0.0 25.179 3.597 0 0 0
1995 3 16.1865 14.388 30.5745 0 0 0
2749 3 10.791 10.791 25.179 0 0 0
375 3 30.5745 14.388 12.5895 0 0 0
2017 3 17.985 17.985 14.388 0 0 0
2474 3 14.388 23.3805 30.5745 0 0 0
1033 3 25.179 0.0 28.776 0 0 0
2420 3 12.5895 19.7835 14.388 0 0 0
551 3 30.5745 28.776 26.9775 0 0 0
2705 3 10.791 7.194 21.582 0 0 0
187 3 34.1715 32.373 12.5895 0 0 0
3849 3 0.0 7.194 14.388 0 0 0
3207 3 5.3955 17.985 5.3955 0 0 0
931 3 26.9775 28.776 8.9925 0 0 0
2587 3 12.5895 32.373 23.3805 0 0 0
1583 3 19.7835 14.388 19.7835 0 0 0
773 3 28.776 14.388 10.791 0 0 0
1543 3 19.7835 10.791 19.7835 0 0 0
3942 3 0.0 26.9775 1.7985 0 0 0
1170 3 25.179 16.1865 8.9925 0 0 0
2423 3 12.5895 17.985 19.7835 0 0 0
1584 3 19.7835 16.1865 17.985 0 0 0
2945 3 10.791 28.776 21.582 0 0 0
2769 3 10.791 14.388 7.194 0 0 0
1671 3 19.7835 21.582 26.9775 0 0 0
468 3 30.5745 23.3805 21.582 0 0 0
1987 3 16.1865 14.388 23.3805 0 0 0
672 3 26.9775 5.3955 25.179 0 0 0
3377 3 7.194 32.373 14.388 0 0 0
1259 3 23.3805 21.582 16.1865 0 0 0
3894 3 0.0 16.1865 23.3805 0 0 0
2268 3 12.5895 5.3955 21.582 0 0 0
2454 3 14.388 23.3805 12.5895 0 0 0
715 3 26.9775 7.194 30.5745 0 0 0
922 3 28.776 30.5745 1.7985 0 0 0
1728 3 19.7835 30.5745 3.597 0 0 0
3891 3 0.0 14.388 17.985 0 0 0
2810 3 10.791 19.7835 8.9925 0 0 0
1161 3 25.179 14.388 0.0 0 0 0
353 3 32.373 10.791 28.776 0 0 0
3228 3 5.3955 19.7835 21.582 0 0 0
2547 3 12.5895 28.776 23.3805 0 0 0
3282 3 7.194 26.9775 1.7985 0 0 0
3890 3 0.0 16.1865 16.1865 0 0 0
2340 3 12.5895 12.5895 14.388 0 0 0
3181 3 7.194 14.388 17.985 0 0 0
1465 3 21.582 3.597 21.582 0 0 0
1994 3 17.985 16.1865 30.5745 0 0 0
907 3 26.9775 25.179 23.3805 0 0 0
2727 3 8.9925 10.791 5.3955 0 0 0
2623 3 8.9925 0.0 19.7835 0 0 0
374 3 32.373 16.1865 12.5895 0 0 0
2638 3 10.791 1.7985 34.1715 0 0 0
2336 3 12.5895 12.5895 10.791 0 0 0
3034 3 7.194 1.7985 30.5745 0 0 0
3525 3 3.597 10.791 3.597 0 0 0
3026 3 7.194 1.7985 23.3805 0 0 0
1362 3 25.179 34.1715 1.7985 0 0 0
1058 3 25.179 5.3955 16.1865 0 0 0
2232 3 12.5895 1.7985 25.179 0 0 0
1250 3 25.179 23.3805 8.9925 0 0 0
853 3 28.776 21.582 10.791 0 0 0
1598 3 21.582 16.1865 34.1715 0 0 0
2681 3 10.791 7.194 0.0 0 0 0
849 3 28.776 21.582 7.194 0 0 0
3974 3 0.0 30.5745 23.3805 0 0 0
3473 3 3.597 3.597 28.776 0 0 0
3964 3 0.0 30.5745 5.3955 0 0 0
3652 3 1.7985 23.3805 7.194 0 0 0
2975 3 8.9925 32.373 12.5895 0 0 0
1127 3 23.3805 10.791 5.3955 0 0 0
3883 3 0.0 14.388 3.597 0 0 0
3315 3 5.3955 25.179 30.5745 0 0 0
3102 3 7.194 8.9925 19.7835 0 0 0
526 3 32.373 30.5745 5.3955 0 0 0
913 3 28.776 25.179 28.776 0 0 0
3215 3 5.3955 17.985 12.5895 0 0 0
2363 3 12.5895 14.388 1.7985 0 0 0
614 3 28.776 1.7985 12.5895 0 0 0
323 3 30.5745 10.791 1.7985 0 0 0
3272 3 5.3955 23.3805 25.179 0 0 0
1462 3 21.582 5.3955 19.7835 0 0 0
2140 3 16.1865 30.5745 14.388 0 0 0
3800 3 1.7985 34.1715 32.373 0 0 0
3602 3 3.597 19.7835 1.7985 0 0 0
3759 3 1.7985 28.776 34.1715 0 0 0
2359 3 12.5895 10.791 34.1715 0 0 0
1503 3 19.7835 7.194 19.7835 0 0 0
3824 3 0.0 5.3955 5.3955 0 0 0
202 3 32.373 1.7985 1.7985 0 0 0
543 3 30.5745 28.776 19.7835 0 0 0
3872 3 0.0 12.5895 19.7835 0 0 0
1840 3 16.1865 1.7985 32.373 0 0 0
164 3 34.1715 30.5745 3.597 0 0 0
2928 3 8.9925 30.5745 3.597 0 0 0
2194 3 17.985 34.1715 30.5745 0 0 0
3695 3 1.7985 25.179 12.5895 0 0 0
1335 3 23.3805 28.776 12.5895 0 0 0
1455 3 19.7835 3.597 12.5895 0 0 0
2343 3 12.5895 10.791 19.7835 0 0 0
666 3 28.776 5.3955 23.3805 0 0 0
464 3 30.5745 23.3805 17.985 0 0 0
3078 3 7.194 5.3955 34.1715 0 0 0
1724 3 19.7835 30.5745 0.0 0 0 0
3123 3 5.3955 10.791 1.7985 0 0 0
339 3 30.5745 10.791 16.1865 0 0 0
1501 3 21.582 7.194 17.985 0 0 0
1857 3 17.985 3.597 14.388 0 0 0
1521 3 21.582 10.791 0.0 0 0 0
3077 3 7.194 3.597 32.373 0 0 0
1725 3 21.582 28.776 3.597 0 0 0
2898 3 10.791 26.9775 16.1865 0 0 0
1571 3 19.7835 14.388 8.9925 0 0 0
1 3 34.1715 0.0 1.7985 0 0 0
2882 3 10.791 26.9775 1.7985 0 0 0
2921 3 10.791 28.776 0.0 0 0 0
568 3 30.5745 34.1715 3.597 0 0 0
2235 3 12.5895 0.0 30.5745 0 0 0
602 3 28.776 1.7985 1.7985 0 0 0
2251 3 12.5895 3.597 8.9925 0 0 0
1017 3 25.179 0.0 14.388 0 0 0
2095 3 16.1865 25.179 12.5895 0 0 0
3195 3 5.3955 14.388 30.5745 0 0 0
2047 3 16.1865 21.582 5.3955 0 0 0
2755 3 8.9925 10.791 30.5745 0 0 0
3343 3 5.3955 28.776 19.7835 0 0 0
594 3 32.373 34.1715 30.5745 0 0 0
2054 3 17.985 23.3805 12.5895 0 0 0
1322 3 25.179 30.5745 1.7985 0 0 0
327 3 30.5745 10.791 5.3955 0 0 0
3309 3 7.194 25.179 25.179 0 0 0
979 3 26.9775 32.373 16.1865 0 0 0
750 3 28.776 12.5895 26.9775 0 0 0
67 3 34.1715 10.791 12.5895 0 0 0
2361 3 14.388 14.388 0.0 0 0 0
2178 3 17.985 34.1715 16.1865 0 0 0
289 3 32.373 7.194 7.194 0 0 0
2605 3 10.791 0.0 3.597 0 0 0
3676 3 1.7985 23.3805 28.776 0 0 0
1225 3 25.179 17.985 21.582 0 0 0
1450 3 21.582 5.3955 8.9925 0 0 0
44 3 34.1715 8.9925 3.597 0 0 0
3461 3 3.597 3.597 17.985 0 0 0
177 3 34.1715 28.776 30.5745 0 0 0
541 3 32.373 28.776 17.985 0 0 0
2857 3 10.791 21.582 14.388 0 0 0
165 3 34.1715 28.776 8.9925 0 0 0
605 3 28.776 0.0 3.597 0 0 0
3036 3 5.3955 1.7985 28.776 0 0 0
3868 3 0.0 12.5895 12.5895 0 0 0
2851 3 8.9925 21.582 8.9925 0 0 0
3860 3 0.0 8.9925 34.1715 0 0 0
1553 3 21.582 10.791 28.776 0 0 0
3643 3 1.7985 21.582 1.7985 0 0 0
3306 3 7.194 26.9775 23.3805 0 0 0
1635 3 19.7835 17.985 30.5745 0 0 0
3222 3 7.194 19.7835 19.7835 0 0 0
2612 3 8.9925 1.7985 7.194 0 0 0
3903 3 0.0 17.985 3.597 0 0 0
2659 3 8.9925 3.597 16.1865 0 0 0
2484 3 12.5895 26.9775 0.0 0 0 0
2854 3 10.791 23.3805 12.5895 0 0 0
3984 3 0.0 34.1715 5.3955 0 0 0
2331 3 12.5895 10.791 8.9925 0 0 0
3611 3 1.7985 17.985 8.9925 0 0 0
3455 3 1.7985 3.597 12.5895 0 0 0
2233 3 14.388 0.0 28.776 0 0 0
3793 3 3.597 32.373 28.776 0 0 0
2216 3 12.5895 1.7985 10.791 0 0 0
2200 3 16.1865 34.1715 32.373 0 0 0
3783 3 1.7985 32.373 19.7835 0 0 0
2027 3 16.1865 17.985 23.3805 0 0 0
2637 3 10.791 0.0 32.373 0 0 0
460 3 30.5745 23.3805 14.388 0 0 0
1166 3 25.179 16.1865 5.3955 0 0 0
1316 3 23.3805 26.9775 28.776 0 0 0
2707 3 8.9925 7.194 23.3805 0 0 0
1945 3 17.985 10.791 21.582 0 0 0
874 3 28.776 23.3805 30.5745 0 0 0
3208 3 5.3955 19.7835 3.597 0 0 0
2238 3 14.388 1.7985 34.1715 0 0 0
3137 3 7.194 10.791 14.388 0 0 0
2327 3 12.5895 10.791 5.3955 0 0 0
2699 3 8.9925 7.194 16.1865 0 0 0
2809 3 10.791 17.985 7.194 0 0 0
15 3 34.1715 0.0 26.9775 0 0 0
1100 3 23.3805 8.9925 14.388 0 0 0
3235 3 5.3955 17.985 30.5745 0 0 0
2402 3 14.388 19.7835 1.7985 0 0 0
1139 3 23.3805 10.791 16.1865 0 0 0
1325 3 25.179 28.776 3.597 0 0 0
1733 3 21.582 28.776 10.791 0 0 0
1162 3 25.179 16.1865 1.7985 0 0 0
400 3 30.5745 16.1865 32.373 0 0 0
3929 3 0.0 21.582 14.388 0 0 0
2398 3 14.388 16.1865 34.1715 0 0 0
1843 3 16.1865 3.597 1.7985 0 0 0
886 3 28.776 26.9775 5.3955 0 0 0
2785 3 10.791 14.388 21.582 0 0 0
3752 3 1.7985 30.5745 25.179 0 0 0
1652 3 19.7835 23.3805 7.194 0 0 0
1664 3 19.7835 23.3805 17.985 0 0 0
367 3 30.5745 14.388 5.3955 0 0 0
381 3 32.373 14.388 17.985 0 0 0
366 3 32.373 16.1865 5.3955 0 0 0
1165 3 25.179 14.388 3.597 0 0 0
3688 3 1.7985 26.9775 3.597 0 0 0
3595 3 1.7985 14.388 30.5745 0 0 0
1696 3 19.7835 26.9775 10.791 0 0 0
3058 3 7.194 5.3955 16.1865 0 0 0
3914 3 0.0 19.7835 23.3805 0 0 0
3615 3 1.7985 17.985 12.5895 0 0 0
86 3 34.1715 16.1865 7.194 0 0 0
564 3 30.5745 34.1715 0.0 0 0 0
2010 3 17.985 19.7835 8.9925 0 0 0
1401 3 21.582 0.0 0.0 0 0 0
1294 3 25.179 26.9775 12.5895 0 0 0
2050 3 17.985 23.3805 8.9925 0 0 0
985 3 28.776 32.373 21.582 0 0 0
60 3 34.1715 8.9925 32.373 0 0 0
3011 3 5.3955 0.0 8.9925 0 0 0
1864 3 16.1865 5.3955 17.985 0 0 0
1791 3 19.7835 32.373 26.9775 0 0 0
1352 3 23.3805 30.5745 25.179 0 0 0
123 3 34.1715 21.582 5.3955 0 0 0
1421 3 21.582 0.0 17.985 0 0 0
325 3 32.373 10.791 3.597 0 0 0
2160 3 16.1865 30.5745 32.373 0 0 0
3953 3 0.0 25.179 21.582 0 0 0
1638 3 21.582 19.7835 34.1715 0 0 0
690 3 28.776 8.9925 8.9925 0 0 0
2735 3 8.9925 10.791 12.5895 0 0 0
3219 3 5.3955 17.985 16.1865 0 0 0
3172 3 5.3955 16.1865 7.194 0 0 0
991 3 26.9775 32.373 26.9775 0 0 0
352 3 30.5745 12.5895 25.179 0 0 0
1233 3 25.179 17.985 28.776 0 0 0
3499 3 1.7985 7.194 16.1865 0 0 0
52 3 34.1715 8.9925 17.985 0 0 0
487 3 30.5745 25.179 5.3955 0 0 0
930 3 28.776 30.5745 8.9925 0 0 0
1729 3 21.582 28.776 7.194 0 0 0
3 3 34.1715 0.0 5.3955 0 0 0
2039 3 16.1865 17.985 34.1715 0 0 0
3618 3 3.597 19.7835 16.1865 0 0 0
3991 3 0.0 32.373 17.985 0 0 0
3564 3 1.7985 16.1865 0.0 0 0 0
2970 3 10.791 34.1715 8.9925 0 0 0
2521 3 14.388 28.776 0.0 0 0 0
1310 3 25.179 26.9775 26.9775 0 0 0
2983 3 8.9925 32.373 19.7835 0 0 0
2772 3 8.9925 16.1865 7.194 0 0 0
3739 3 1.7985 28.776 16.1865 0 0 0
1340 3 23.3805 30.5745 14.388 0 0 0
3340 3 5.3955 30.5745 14.388 0 0 0
1970 3 17.985 16.1865 8.9925 0 0 0
844 3 26.9775 23.3805 0.0 0 0 0
3726 3 3.597 30.5745 5.3955 0 0 0
685 3 28.776 7.194 3.597 0 0 0
2509 3 14.388 25.179 25.179 0 0 0
1295 3 23.3805 25.179 12.5895 0 0 0
1620 3 19.7835 19.7835 14.388 0 0 0
3548 3 1.7985 12.5895 21.582 0 0 0
1361 3 25.179 32.373 0.0 0 0 0
1675 3 19.7835 21.582 30.5745 0 0 0
1384 3 23.3805 34.1715 17.985 0 0 0
3090 3 7.194 8.9925 8.9925 0 0 0
3336 3 5.3955 30.5745 10.791 0 0 0
2763 3 8.9925 14.388 1.7985 0 0 0
3585 3 3.597 14.388 21.582 0 0 0
2704 3 8.9925 8.9925 17.985 0 0 0
3361 3 7.194 32.373 0.0 0 0 0
841 3 28.776 21.582 0.0 0 0 0
1382 3 25.179 34.1715 19.7835 0 0 0
2949 3 10.791 28.776 25.179 0 0 0
3795 3 1.7985 32.373 30.5745 0 0 0
3415 3 1.7985 0.0 12.5895 0 0 0
3944 3 0.0 26.9775 5.3955 0 0 0
1219 3 23.3805 17.985 16.1865 0 0 0
667 3 26.9775 3.597 23.3805 0 0 0
166 3 34.1715 30.5745 7.194 0 0 0
1252 3 23.3805 23.3805 7.194 0 0 0
3258 3 7.194 23.3805 16.1865 0 0 0
860 3 26.9775 23.3805 14.388 0 0 0
664 3 26.9775 5.3955 17.985 0 0 0
1323 3 23.3805 28.776 1.7985 0 0 0
32 4 34.1715 5.3955 17.985 0 0 0
3252 4 5.3955 23.3805 7.194 0 0 0
2732 4 8.9925 12.5895 7.194 0 0 0
1000 4 26.9775 34.1715 32.373 0 0 0
2525 4 14.388 28.776 3.597 0 0 0
1192 4 23.3805 16.1865 25.179 0 0 0
3651 4 1.7985 21.582 8.9925 0 0 0
3512 4 1.7985 8.9925 25.179 0 0 0
3126 4 7.194 12.5895 5.3955 0 0 0
695 4 26.9775 7.194 12.5895 0 0 0
962 4 28.776 34.1715 1.7985 0 0 0
3355 4 5.3955 28.776 30.5745 0 0 0
1549 4 21.582 10.791 25.179 0 0 0
152 4 34.1715 26.9775 17.985 0 0 0
1868 4 16.1865 5.3955 21.582 0 0 0
2740 4 8.9925 12.5895 14.388 0 0 0
817 4 28.776 17.985 14.388 0 0 0
596 4 30.5745 34.1715 28.776 0 0 0
3158 4 7.194 12.5895 34.1715 0 0 0
1068 4 23.3805 5.3955 21.582 0 0 0
193 4 34.1715 32.373 23.3805 0 0 0
963 4 26.9775 32.373 1.7985 0 0 0
1653 4 21.582 21.582 10.791 0 0 0
2553 4 14.388 28.776 28.776 0 0 0
2462 4 14.388 23.3805 19.7835 0 0 0
1594 4 21.582 16.1865 30.5745 0 0 0
2293 4 14.388 7.194 10.791 0 0 0
3487 4 1.7985 7.194 5.3955 0 0 0
3040 4 5.3955 1.7985 32.373 0 0 0
920 4 26.9775 26.9775 32.373 0 0 0
2102 4 17.985 26.9775 19.7835 0 0 0
3412 4 1.7985 1.7985 7.194 0 0 0
2113 4 17.985 25.179 28.776 0 0 0
768 4 26.9775 16.1865 3.597 0 0 0
2545 4 14.388 28.776 21.582 0 0 0
616 4 26.9775 1.7985 10.791 0 0 0
1946 4 17.985 12.5895 23.3805 0 0 0
906 4 28.776 26.9775 23.3805 0 0 0
1183 4 23.3805 14.388 19.7835 0 0 0
3805 4 0.0 0.0 7.194 0 0 0
3492 4 1.7985 8.9925 7.194 0 0 0
1258 4 25.179 23.3805 16.1865 0 0 0
2496 4 12.5895 26.9775 10.791 0 0 0
639 4 26.9775 0.0 34.1715 0 0 0
989 4 28.776 32.373 25.179 0 0 0
2899 4 8.9925 25.179 16.1865 0 0 0
3281 4 7.194 25.179 0.0 0 0 0
2870 4 10.791 23.3805 26.9775 0 0 0
2860 4 8.9925 23.3805 14.388 0 0 0
1026 4 25.179 1.7985 23.3805 0 0 0
1143 4 23.3805 10.791 19.7835 0 0 0
66 4 34.1715 12.5895 7.194 0 0 0
1819 4 16.1865 0.0 16.1865 0 0 0
3426 4 3.597 1.7985 23.3805 0 0 0
2280 4 12.5895 5.3955 32.373 0 0 0
3853 4 0.0 7.194 21.582 0 0 0
1697 4 21.582 25.179 14.388 0 0 0
615 4 26.9775 0.0 12.5895 0 0 0
2126 4 17.985 30.5745 5.3955 0 0 0
2807 4 8.9925 17.985 5.3955 0 0 0
3476 4 1.7985 5.3955 28.776 0 0 0
1842 4 17.985 5.3955 1.7985 0 0 0
2991 4 8.9925 32.373 26.9775 0 0 0
3000 4 8.9925 34.1715 32.373 0 0 0
934 4 28.776 30.5745 12.5895 0 0 0
2820 4 8.9925 19.7835 14.388 0 0 0
704 4 26.9775 8.9925 17.985 0 0 0
2277 4 14.388 3.597 32.373 0 0 0
2408 4 12.5895 19.7835 3.597 0 0 0
3750 4 3.597 30.5745 26.9775 0 0 0
1820 4 16.1865 1.7985 14.388 0 0 0
1792 4 19.7835 34.1715 25.179 0 0 0
2011 4 16.1865 17.985 8.9925 0 0 0
2872 4 8.9925 23.3805 25.179 0 0 0
3293 4 7.194 25.179 10.791 0 0 0
2526 4 14.388 30.5745 5.3955 0 0 0
2842 4 10.791 23.3805 1.7985 0 0 0
1641 4 21.582 21.582 0.0 0 0 0
775 4 26.9775 14.388 12.5895 0 0 0
3816 4 0.0 1.7985 26.9775 0 0 0
3063 4 5.3955 3.597 19.7835 0 0 0
332 4 30.5745 12.5895 7.194 0 0 0
3007 4 5.3955 0.0 5.3955 0 0 0
2455 4 12.5895 21.582 12.5895 0 0 0
3069 4 7.194 3.597 25.179 0 0 0
233 4 32.373 0.0 28.776 0 0 0
2738 4 10.791 12.5895 16.1865 0 0 0
3223 4 5.3955 17.985 19.7835 0 0 0
1482 4 21.582 8.9925 1.7985 0 0 0
2852 4 8.9925 23.3805 7.194 0 0 0
3609 4 3.597 17.985 7.194 0 0 0
96 4 34.1715 16.1865 25.179 0 0 0
1254 4 25.179 23.3805 12.5895 0 0 0
1101 4 25.179 7.194 17.985 0 0 0
41 4 34.1715 7.194 1.7985 0 0 0
1837 4 17.985 0.0 32.373 0 0 0
1700 4 19.7835 26.9775 14.388 0 0 0
1146 4 25.179 12.5895 23.3805 0 0 0
1847 4 16.1865 3.597 5.3955 0 0 0
3791 4 1.7985 32.373 26.9775 0 0 0
618 4 28.776 1.7985 16.1865 0 0 0
1035 4 23.3805 0.0 30.5745 0 0 0
2834 4 10.791 19.7835 30.5745 0 0 0
1008 4 23.3805 1.7985 3.597 0 0 0
2652 4 8.9925 5.3955 7.194 0 0 0
3834 4 0.0 5.3955 23.3805 0 0 0
3999 4 0.0 32.373 32.373 0 0 0
2274 4 14.388 5.3955 30.5745 0 0 0
1077 4 25.179 3.597 32.373 0 0 0
1280 4 23.3805 23.3805 32.373 0 0 0
3772 4 1.7985 34.1715 7.194 0 0 0
3517 4 3.597 7.194 32.373 0 0 0
774 4 28.776 16.1865 12.5895 0 0 0
1642 4 21.582 23.3805 1.7985 0 0 0
2289 4 14.388 7.194 7.194 0 0 0
144 4 34.1715 26.9775 3.597 0 0 0
3264 4 5.3955 23.3805 17.985 0 0 0
2535 4 12.5895 28.776 12.5895 0 0 0
2042 4 17.985 23.3805 1.7985 0 0 0
3356 4 5.3955 30.5745 28.776 0 0 0
2111 4 16.1865 25.179 26.9775 0 0 0
1784 4 19.7835 34.1715 17.985 0 0 0
198 4 34.1715 34.1715 28.776 0 0 0
1181 4 25.179 14.388 17.985 0 0 0
1568 4 19.7835 16.1865 3.597 0 0 0
2391 4 12.5895 14.388 26.9775 0 0 0
3048 4 5.3955 5.3955 3.597 0 0 0
244 4 30.5745 5.3955 0.0 0 0 0
45 4 34.1715 7.194 8.9925 0 0 0
3084 4 5.3955 8.9925 0.0 0 0 0
1255 4 23.3805 21.582 12.5895 0 0 0
2225 4 14.388 0.0 21.582 0 0 0
932 4 26.9775 30.5745 7.194 0 0 0
3620 4 1.7985 19.7835 14.388 0 0 0
1090 4 25.179 8.9925 8.9925 0 0 0
64 4 34.1715 12.5895 3.597 0 0 0
80 4 34.1715 12.5895 32.373 0 0 0
1366 4 25.179 34.1715 5.3955 0 0 0
2022 4 17.985 19.7835 19.7835 0 0 0
2065 4 17.985 21.582 21.582 0 0 0
569 4 32.373 32.373 7.194 0 0 0
2401 4 14.388 17.985 0.0 0 0 0
3270 4 7.194 23.3805 26.9775 0 0 0
1374 4 25.179 34.1715 12.5895 0 0 0
3931 4 0.0 21.582 17.985 0 0 0
1974 4 17.985 16.1865 12.5895 0 0 0
3201 4 7.194 17.985 0.0 0 0 0
22 4 34.1715 5.3955 0.0 0 0 0
1956 4 16.1865 12.5895 28.776 0 0 0
2729 4 10.791 10.791 7.194 0 0 0
609 4 28.776 0.0 7.194 0 0 0
1991 4 16.1865 14.388 26.9775 0 0 0
1061 4 25.179 3.597 17.985 0 0 0
1572 4 19.7835 16.1865 7.194 0 0 0
2797 4 10.791 14.388 32.373 0 0 0
829 4 28.776 17.985 25.179 0 0 0
3728 4 1.7985 30.5745 3.597 0 0 0
1522 4 21.582 12.5895 1.7985 0 0 0
3754 4 3.597 30.5745 30.5745 0 0 0
1246 4 25.179 23.3805 5.3955 0 0 0
3762 4 3.597 34.1715 1.7985 0 0 0
929 4 28.776 28.776 7.194 0 0 0
25 4 34.1715 3.597 8.9925 0 0 0
3589 4 3.597 14.388 25.179 0 0 0
1176 4 23.3805 16.1865 10.791 0 0 0
1860 4 16.1865 5.3955 14.388 0 0 0
2463 4 12.5895 21.582 19.7835 0 0 0
275 4 30.5745 3.597 30.5745 0 0 0
3624 4 1.7985 19.7835 17.985 0 0 0
3851 4 0.0 7.194 17.985 0 0 0
868 4 26.9775 23.3805 21.582 0 0 0
2144 4 16.1865 30.5745 17.985 0 0 0
3559 4 1.7985 10.791 34.1715 0 0 0
1496 4 19.7835 8.9925 10.791 0 0 0
726 4 28.776 12.5895 5.3955 0 0 0
1731 4 19.7835 28.776 8.9925 0 0 0
3409 4 3.597 0.0 7.194 0 0 0
3052 4 5.3955 5.3955 7.194 0 0 0
1848 4 16.1865 5.3955 3.597 0 0 0
2260 4 12.5895 5.3955 14.388 0 0 0
971 4 26.9775 32.373 8.9925 0 0 0
3839 4 0.0 3.597 32.373 0 0 0
2371 4 12.5895 14.388 8.9925 0 0 0
1904 4 16.1865 8.9925 17.985 0 0 0
1406 4 21.582 1.7985 5.3955 0 0 0
701 4 28.776 7.194 17.985 0 0 0
1054 4 25.179 5.3955 12.5895 0 0 0
2730 4 10.791 12.5895 8.9925 0 0 0
76 4 34.1715 12.5895 25.179 0 0 0
433 4 32.373 17.985 28.776 0 0 0
3495 4 1.7985 7.194 12.5895 0 0 0
1851 4 16.1865 3.597 8.9925 0 0 0
3544 4 1.7985 12.5895 17.985 0 0 0
1533 4 21.582 10.791 10.791 0 0 0
1056 4 23.3805 5.3955 10.791 0 0 0
408 4 30.5745 19.7835 3.597 0 0 0
3276 4 5.3955 23.3805 28.776 0 0 0
3105 4 7.194 7.194 21.582 0 0 0
983 4 26.9775 32.373 19.7835 0 0 0
763 4 26.9775 14.388 1.7985 0 0 0
997 4 28.776 32.373 32.373 0 0 0
2219 4 12.5895 0.0 16.1865 0 0 0
2024 4 16.1865 19.7835 17.985 0 0 0
3658 4 3.597 23.3805 16.1865 0 0 0
2540 4 12.5895 30.5745 14.388 0 0 0
2143 4 16.1865 28.776 19.7835 0 0 0
3917 4 0.0 17.985 28.776 0 0 0
2349 4 14.388 10.791 25.179 0 0 0
3550 4 3.597 12.5895 26.9775 0 0 0
867 4 26.9775 21.582 23.3805 0 0 0
140 4 34.1715 23.3805 32.373 0 0 0
404 4 30.5745 19.7835 0.0 0 0 0
3049 4 7.194 3.597 7.194 0 0 0
3774 4 3.597 34.1715 12.5895 0 0 0
790 4 28.776 16.1865 26.9775 0 0 0
254 4 32.373 5.3955 12.5895 0 0 0
3178 4 7.194 16.1865 16.1865 0 0 0
2603 4 8.9925 0.0 1.7985 0 0 0
2866 4 10.791 23.3805 23.3805 0 0 0
767 4 26.9775 14.388 5.3955 0 0 0
3393 4 7.194 32.373 28.776 0 0 0
2715 4 8.9925 7.194 30.5745 0 0 0
2018 4 17.985 19.7835 16.1865 0 0 0
243 4 30.5745 3.597 1.7985 0 0 0
2858 4 10.791 23.3805 16.1865 0 0 0
3619 4 1.7985 17.985 16.1865 0 0 0
2786 4 10.791 16.1865 23.3805 0 0 0
479 4 30.5745 21.582 34.1715 0 0 0
2622 4 10.791 1.7985 19.7835 0 0 0
363 4 30.5745 14.388 1.7985 0 0 0
2524 4 12.5895 30.5745 0.0 0 0 0
1338 4 25.179 30.5745 16.1865 0 0 0
509 4 32.373 25.179 25.179 0 0 0
1078 4 25.179 5.3955 34.1715 0 0 0
3089 4 7.194 7.194 7.194 0 0 0
1072 4 23.3805 5.3955 25.179 0 0 0
1786 4 21.582 34.1715 23.3805 0 0 0
2383 4 12.5895 14.388 19.7835 0 0 0
1669 4 21.582 21.582 25.179 0 0 0
561 4 32.373 32.373 0.0 0 0 0
1314 4 25.179 26.9775 30.5745 0 0 0
980 4 26.9775 34.1715 14.388 0 0 0
1024 4 23.3805 1.7985 17.985 0 0 0
395 4 30.5745 14.388 30.5745 0 0 0
182 4 34.1715 34.1715 0.0 0 0 0
898 4 28.776 26.9775 16.1865 0 0 0
1104 4 23.3805 8.9925 17.985 0 0 0
344 4 30.5745 12.5895 17.985 0 0 0
2131 4 16.1865 28.776 8.9925 0 0 0
806 4 28.776 19.7835 5.3955 0 0 0
2697 4 10.791 7.194 14.388 0 0 0
865 4 28.776 21.582 21.582 0 0 0
2025 4 17.985 17.985 21.582 0 0 0
2119 4 16.1865 25.179 34.1715 0 0 0
2916 4 8.9925 26.9775 28.776 0 0 0
3546 4 3.597 12.5895 23.3805 0 0 0
1507 4 19.7835 7.194 23.3805 0 0 0
2342 4 14.388 12.5895 19.7835 0 0 0
1509 4 21.582 7.194 25.179 0 0 0
3601 4 3.597 17.985 0.0 0 0 0
698 4 28.776 8.9925 16.1865 0 0 0
619 4 26.9775 0.0 16.1865 0 0 0
219 4 30.5745 0.0 16.1865 0 0 0
1527 4 19.7835 10.791 5.3955 0 0 0
1448 4 19.7835 5.3955 3.597 0 0 0
2806 4 10.791 19.7835 5.3955 0 0 0
2118 4 17.985 26.9775 34.1715 0 0 0
1438 4 21.582 1.7985 34.1715 0 0 0
3075 4 5.3955 3.597 30.5745 0 0 0
1698 4 21.582 26.9775 16.1865 0 0 0
1144 4 23.3805 12.5895 17.985 0 0 0
156 4 34.1715 26.9775 25.179 0 0 0
2667 4 8.9925 3.597 23.3805 0 0 0
1339 4 23.3805 28.776 16.1865 0 0 0
1308 4 23.3805 26.9775 21.582 0 0 0
1717 4 21.582 25.179 32.373 0 0 0
2722 4 10.791 12.5895 1.7985 0 0 0
2226 4 14.388 1.7985 23.3805 0 0 0
1354 4 25.179 30.5745 30.5745 0 0 0
1151 4 23.3805 10.791 26.9775 0 0 0
248 4 30.5745 5.3955 3.597 0 0 0
1402 4 21.582 1.7985 1.7985 0 0 0
3606 4 3.597 19.7835 5.3955 0 0 0
2210 4 14.388 1.7985 8.9925 0 0 0
2814 4 10.791 19.7835 12.5895 0 0 0
1869 4 17.985 3.597 25.179 0 0 0
1025 4 25.179 0.0 21.582 0 0 0
2115 4 16.1865 25.179 30.5745 0 0 0
401 4 32.373 17.985 0.0 0 0 0
2593 4 14.388 32.373 28.776 0 0 0
3127 4 5.3955 10.791 5.3955 0 0 0
1961 4 17.985 14.388 0.0 0 0 0
1436 4 19.7835 1.7985 28.776 0 0 0
627 4 26.9775 0.0 23.3805 0 0 0
730 4 28.776 12.5895 8.9925 0 0 0
2185 4 17.985 32.373 21.582 0 0 0
1754 4 21.582 30.5745 30.5745 0 0 0
2175 4 16.1865 32.373 12.5895 0 0 0
1815 4 16.1865 0.0 12.5895 0 0 0
3766 4 3.597 34.1715 5.3955 0 0 0
1625 4 21.582 17.985 21.582 0 0 0
3088 4 5.3955 8.9925 3.597 0 0 0
2378 4 14.388 16.1865 16.1865 0 0 0
1492 4 19.7835 8.9925 7.194 0 0 0
1070 4 25.179 5.3955 26.9775 0 0 0
1410 4 21.582 1.7985 8.9925 0 0 0
1377 4 25.179 32.373 14.388 0 0 0
2515 4 12.5895 25.179 30.5745 0 0 0
2611 4 8.9925 0.0 8.9925 0 0 0
2555 4 12.5895 28.776 30.5745 0 0 0
697 4 28.776 7.194 14.388 0 0 0
2694 4 10.791 8.9925 12.5895 0 0 0
2066 4 17.985 23.3805 23.3805 0 0 0
2003 4 16.1865 17.985 1.7985 0 0 0
3350 4 7.194 30.5745 26.9775 0 0 0
180 4 34.1715 30.5745 32.373 0 0 0
2621 4 10.791 0.0 17.985 0 0 0
1413 4 21.582 0.0 10.791 0 0 0
2841 4 10.791 21.582 0.0 0 0 0
2804 4 8.9925 19.7835 0.0 0 0 0
967 4 26.9775 32.373 5.3955 0 0 0
3035 4 5.3955 0.0 30.5745 0 0 0
2038 4 17.985 19.7835 34.1715 0 0 0
625 4 28.776 0.0 21.582 0 0 0
2141 4 17.985 28.776 17.985 0 0 0
1745 4 21.582 28.776 21.582 0 0 0
928 4 26.9775 30.5745 3.597 0 0 0
3146 4 7.194 12.5895 23.3805 0 0 0
1416 4 19.7835 1.7985 10.791 0 0 0
342 4 32.373 12.5895 19.7835 0 0 0
739 4 26.9775 10.791 16.1865 0 0 0
1055 4 23.3805 3.597 12.5895 0 0 0
3560 4 1.7985 12.5895 32.373 0 0 0
2550 4 14.388 30.5745 26.9775 0 0 0
835 4 26.9775 17.985 30.5745 0 0 0
1423 4 19.7835 0.0 19.7835 0 0 0
621 4 28.776 0.0 17.985 0 0 0
2279 4 12.5895 3.597 34.1715 0 0 0
2486 4 14.388 26.9775 5.3955 0 0 0
2334 4 14.388 12.5895 12.5895 0 0 0
271 4 30.5745 3.597 26.9775 0 0 0
1347 4 23.3805 28.776 23.3805 0 0 0
537 4 32.373 28.776 14.388 0 0 0
794 4 28.776 16.1865 30.5745 0 0 0
1699 4 19.7835 25.179 16.1865 0 0 0
2938 4 10.791 30.5745 16.1865 0 0 0
148 4 34.1715 26.9775 10.791 0 0 0
3854 4 0.0 8.9925 23.3805 0 0 0
94 4 34.1715 16.1865 21.582 0 0 0
3224 4 5.3955 19.7835 17.985 0 0 0
1732 4 19.7835 30.5745 7.194 0 0 0
1542 4 21.582 12.5895 19.7835 0 0 0
821 4 28.776 17.985 17.985 0 0 0
831 4 26.9775 17.985 26.9775 0 0 0
481 4 32.373 25.179 0.0 0 0 0
1264 4 23.3805 23.3805 17.985 0 0 0
310 4 32.373 8.9925 26.9775 0 0 0
92 4 34.1715 16.1865 17.985 0 0 0
1646 4 21.582 23.3805 5.3955 0 0 0
1073 4 25.179 3.597 28.776 0 0 0
3900 4 0.0 16.1865 34.1715 0 0 0
1871 4 16.1865 3.597 26.9775 0 0 0
3803 4 0.0 0.0 3.597 0 0 0
3995 4 0.0 32.373 25.179 0 0 0
673 4 28.776 3.597 28.776 0 0 0
2981 4 10.791 32.373 17.985 0 0 0
2237 4 14.388 0.0 32.373 0 0 0
1917 4 17.985 7.194 32.373 0 0 0
1980 4 16.1865 16.1865 14.388 0 0 0
3445 4 3.597 3.597 3.597 0 0 0
3713 4 3.597 25.179 28.776 0 0 0
837 4 28.776 17.985 32.373 0 0 0
2351 4 12.5895 10.791 26.9775 0 0 0
3734 4 3.597 30.5745 12.5895 0 0 0
3070 4 7.194 5.3955 26.9775 0 0 0
1023 4 23.3805 0.0 19.7835 0 0 0
3133 4 7.194 10.791 10.791 0 0 0
3837 4 0.0 3.597 28.776 0 0 0
139 4 34.1715 21.582 34.1715 0 0 0
2329 4 14.388 10.791 7.194 0 0 0
1924 4 16.1865 12.5895 0.0 0 0 0
3823 4 0.0 3.597 3.597 0 0 0
663 4 26.9775 3.597 19.7835 0 0 0
1336 4 23.3805 30.5745 10.791 0 0 0
3404 4 1.7985 1.7985 0.0 0 0 0
242 4 32.373 5.3955 1.7985 0 0 0
136 4 34.1715 23.3805 25.179 0 0 0
2731 4 8.9925 10.791 8.9925 0 0 0
2246 4 14.388 5.3955 5.3955 0 0 0
399 4 30.5745 14.388 34.1715 0 0 0
1586 4 21.582 16.1865 23.3805 0 0 0
1708 4 19.7835 26.9775 21.582 0 0 0
2594 4 14.388 34.1715 30.5745 0 0 0
2678 4 10.791 5.3955 34.1715 0 0 0
370 4 32.373 16.1865 8.9925 0 0 0
3233 4 7.194 17.985 28.776 0 0 0
2706 4 10.791 8.9925 23.3805 0 0 0
203 4 30.5745 0.0 1.7985 0 0 0
2400 4 12.5895 16.1865 32.373 0 0 0
2778 4 10.791 16.1865 16.1865 0 0 0
1248 4 23.3805 23.3805 3.597 0 0 0
3449 4 3.597 3.597 7.194 0 0 0
2322 4 14.388 12.5895 1.7985 0 0 0
3464 4 1.7985 5.3955 17.985 0 0 0
471 4 30.5745 21.582 26.9775 0 0 0
1494 4 21.582 8.9925 12.5895 0 0 0
3039 4 5.3955 0.0 34.1715 0 0 0
1678 4 21.582 23.3805 34.1715 0 0 0
99 4 34.1715 14.388 34.1715 0 0 0
1260 4 23.3805 23.3805 14.388 0 0 0
3318 4 7.194 26.9775 34.1715 0 0 0
2780 4 8.9925 16.1865 14.388 0 0 0
2827 4 8.9925 17.985 23.3805 0 0 0
51 4 34.1715 7.194 19.7835 0 0 0
2596 4 12.5895 34.1715 28.776 0 0 0
2392 4 12.5895 16.1865 25.179 0 0 0
2543 4 12.5895 28.776 19.7835 0 0 0
738 4 28.776 12.5895 16.1865 0 0 0
1261 4 25.179 21.582 17.985 0 0 0
3863 4 0.0 10.791 3.597 0 0 0
1849 4 17.985 3.597 7.194 0 0 0
2539 4 12.5895 28.776 16.1865 0 0 0
2762 4 10.791 16.1865 1.7985 0 0 0
758 4 28.776 12.5895 34.1715 0 0 0
53 4 34.1715 7.194 23.3805 0 0 0
1052 4 23.3805 5.3955 7.194 0 0 0
1443 4 19.7835 3.597 1.7985 0 0 0
1863 4 16.1865 3.597 19.7835 0 0 0
943 4 26.9775 28.776 19.7835 0 0 0
3294 4 7.194 26.9775 12.5895 0 0 0
1760 4 19.7835 30.5745 32.373 0 0 0
1231 4 23.3805 17.985 26.9775 0 0 0
1093 4 25.179 7.194 10.791 0 0 0
3462 4 3.597 5.3955 19.7835 0 0 0
3302 4 7.194 26.9775 19.7835 0 0 0
1398 4 25.179 34.1715 34.1715 0 0 0
3971 4 0.0 28.776 17.985 0 0 0
1437 4 21.582 0.0 32.373 0 0 0
677 4 28.776 3.597 32.373 0 0 0
1317 4 25.179 25.179 32.373 0 0 0
388 4 30.5745 16.1865 21.582 0 0 0
1285 4 25.179 25.179 3.597 0 0 0
1600 4 19.7835 16.1865 32.373 0 0 0
1524 4 19.7835 12.5895 0.0 0 0 0
996 4 26.9775 34.1715 28.776 0 0 0
1777 4 21.582 32.373 14.388 0 0 0
3216 4 5.3955 19.7835 10.791 0 0 0
2415 4 12.5895 17.985 12.5895 0 0 0
2689 4 10.791 7.194 7.194 0 0 0
3782 4 3.597 34.1715 19.7835 0 0 0
1569 4 21.582 14.388 7.194 0 0 0
3906 4 0.0 19.7835 8.9925 0 0 0
1306 4 25.179 26.9775 23.3805 0 0 0
2863 4 8.9925 21.582 19.7835 0 0 0
3605 4 3.597 17.985 3.597 0 0 0
306 4 32.373 8.9925 23.3805 0 0 0
2449 4 14.388 21.582 7.194 0 0 0
451 4 30.5745 21.582 8.9925 0 0 0
1341 4 25.179 28.776 17.985 0 0 0
2122 4 17.985 30.5745 1.7985 0 0 0
3933 4 0.0 21.582 21.582 0 0 0
1304 4 23.3805 26.9775 17.985 0 0 0
2817 4 10.791 17.985 14.388 0 0 0
1752 4 19.7835 30.5745 25.179 0 0 0
3567 4 1.7985 14.388 5.3955 0 0 0
2726 4 10.791 12.5895 5.3955 0 0 0
2147 4 16.1865 28.776 23.3805 0 0 0
1399 4 23.3805 32.373 34.1715 0 0 0
2071 4 16.1865 21.582 26.9775 0 0 0
475 4 30.5745 21.582 30.5745 0 0 0
281 4 32.373 7.194 0.0 0 0 0
3510 4 3.597 8.9925 26.9775 0 0 0
1076 4 23.3805 5.3955 28.776 0 0 0
1414 4 21.582 1.7985 12.5895 0 0 0
1198 4 25.179 16.1865 34.1715 0 0 0
1428 4 19.7835 1.7985 21.582 0 0 0
2364 4 12.5895 16.1865 0.0 0 0 0
3241 4 7.194 21.582 0.0 0 0 0
273 4 32.373 3.597 28.776 0 0 0
3345 4 7.194 28.776 21.582 0 0 0
652 4 26.9775 5.3955 7.194 0 0 0
940 4 26.9775 30.5745 14.388 0 0 0
2993 4 10.791 32.373 28.776 0 0 0
3556 4 1.7985 12.5895 28.776 0 0 0
857 4 28.776 21.582 14.388 0 0 0
1888 4 16.1865 8.9925 3.597 0 0 0
2604 4 8.9925 1.7985 0.0 0 0 0
2658 4 10.791 5.3955 16.1865 0 0 0
1676 4 19.7835 23.3805 28.776 0 0 0
297 4 32.373 7.194 14.388 0 0 0
903 4 26.9775 25.179 19.7835 0 0 0
1954 4 17.985 12.5895 30.5745 0 0 0
964 4 26.9775 34.1715 0.0 0 0 0
2083 4 16.1865 25.179 1.7985 0 0 0
2483 4 12.5895 25.179 1.7985 0 0 0
105 4 34.1715 17.985 8.9925 0 0 0
2818 4 10.791 19.7835 16.1865 0 0 0
3831 4 0.0 3.597 17.985 0 0 0
3690 4 3.597 26.9775 8.9925 0 0 0
2450 4 14.388 23.3805 8.9925 0 0 0
2417 4 14.388 17.985 14.388 0 0 0
2823 4 8.9925 17.985 19.7835 0 0 0
789 4 28.776 14.388 25.179 0 0 0
1393 4 25.179 32.373 28.776 0 0 0
2384 4 12.5895 16.1865 17.985 0 0 0
39 4 34.1715 3.597 34.1715 0 0 0
1186 4 25.179 16.1865 23.3805 0 0 0
993 4 28.776 32.373 28.776 0 0 0
3373 4 7.194 32.373 10.791 0 0 0
3503 4 1.7985 7.194 19.7835 0 0 0
897 4 28.776 25.179 14.388 0 0 0
2801 4 10.791 17.985 0.0 0 0 0
452 4 30.5745 23.3805 7.194 0 0 0
2584 4 12.5895 34.1715 17.985 0 0 0
1431 4 19.7835 0.0 26.9775 0 0 0
702 4 28.776 8.9925 19.7835 0 0 0
1089 4 25.179 7.194 7.194 0 0 0
3450 4 3.597 5.3955 8.9925 0 0 0
100 4 34.1715 16.1865 32.373 0 0 0
1373 4 25.179 32.373 10.791 0 0 0
2270 4 14.388 5.3955 26.9775 0 0 0
1432 4 19.7835 1.7985 25.179 0 0 0
2430 4 14.388 19.7835 26.9775 0 0 0
1650 4 21.582 23.3805 8.9925 0 0 0
368 4 30.5745 16.1865 3.597 0 0 0
2696 4 8.9925 8.9925 10.791 0 0 0
412 4 30.5745 19.7835 7.194 0 0 0
3584 4 1.7985 16.1865 17.985 0 0 0
3422 4 3.597 1.7985 19.7835 0 0 0
1824 4 16.1865 1.7985 17.985 0 0 0
3342 4 7.194 30.5745 19.7835 0 0 0
606 4 28.776 1.7985 5.3955 0 0 0
18 4 34.1715 1.7985 28.776 0 0 0
3320 4 5.3955 26.9775 32.373 0 0 0
2566 4 14.388 34.1715 5.3955 0 0 0
548 4 30.5745 30.5745 21.582 0 0 0
3423 4 1.7985 0.0 19.7835 0 0 0
2634 4 10.791 1.7985 30.5745 0 0 0
1817 4 17.985 0.0 14.388 0 0 0
3725 4 3.597 28.776 3.597 0 0 0
2901 4 10.791 25.179 17.985 0 0 0
3789 4 3.597 32.373 25.179 0 0 0
259 4 30.5745 3.597 16.1865 0 0 0
1500 4 19.7835 8.9925 14.388 0 0 0
1605 4 21.582 17.985 3.597 0 0 0
3418 4 3.597 1.7985 16.1865 0 0 0
3221 4 7.194 17.985 17.985 0 0 0
115 4 34.1715 17.985 26.9775 0 0 0
246 4 32.373 5.3955 5.3955 0 0 0
2080 4 16.1865 23.3805 32.373 0 0 0
390 4 32.373 16.1865 26.9775 0 0 0
2761 4 10.791 14.388 0.0 0 0 0
497 4 32.373 25.179 14.388 0 0 0
2267 4 12.5895 3.597 23.3805 0 0 0
2181 4 17.985 32.373 17.985 0 0 0
2522 4 14.388 30.5745 1.7985 0 0 0
1425 4 21.582 0.0 21.582 0 0 0
1686 4 21.582 26.9775 5.3955 0 0 0
1365 4 25.179 32.373 3.597 0 0 0
743 4 26.9775 10.791 19.7835 0 0 0
3648 4 1.7985 23.3805 3.597 0 0 0
3165 4 7.194 14.388 3.597 0 0 0
3535 4 1.7985 10.791 12.5895 0 0 0
1595 4 19.7835 14.388 30.5745 0 0 0
1189 4 25.179 14.388 25.179 0 0 0
892 4 26.9775 26.9775 7.194 0 0 0
62 4 34.1715 12.5895 0.0 0 0 0
3825 4 0.0 3.597 7.194 0 0 0
2512 4 12.5895 26.9775 25.179 0 0 0
2674 4 10.791 5.3955 30.5745 0 0 0
912 4 26.9775 26.9775 25.179 0 0 0
29 4 34.1715 3.597 16.1865 0 0 0
1634 4 21.582 19.7835 30.5745 0 0 0
2379 4 12.5895 14.388 16.1865 0 0 0
1900 4 16.1865 8.9925 14.388 0 0 0
2169 4 17.985 32.373 7.194 0 0 0
1126 4 25.179 12.5895 5.3955 0 0 0
3486 4 3.597 8.9925 5.3955 0 0 0
3843 4 0.0 7.194 3.597 0 0 0
2693 4 10.791 7.194 10.791 0 0 0
274 4 32.373 5.3955 30.5745 0 0 0
1191 4 23.3805 14.388 26.9775 0 0 0
3016 4 5.3955 1.7985 10.791 0 0 0
3558 4 3.597 12.5895 34.1715 0 0 0
3576 4 1.7985 16.1865 10.791 0 0 0
1187 4 23.3805 14.388 23.3805 0 0 0
1966 4 17.985 16.1865 5.3955 0 0 0
3051 4 5.3955 3.597 8.9925 0 0 0
689 4 28.776 7.194 7.194 0 0 0
157 4 34.1715 25.179 30.5745 0 0 0
1971 4 16.1865 14.388 8.9925 0 0 0
1135 4 23.3805 10.791 12.5895 0 0 0
1454 4 21.582 5.3955 12.5895 0 0 0
1550 4 21.582 12.5895 26.9775 0 0 0
3269 4 7.194 21.582 25.179 0 0 0
1394 4 25.179 34.1715 30.5745 0 0 0
3650 4 3.597 23.3805 8.9925 0 0 0
1758 4 21.582 30.5745 34.1715 0 0 0
3930 4 0.0 23.3805 16.1865 0 0 0
2091 4 16.1865 25.179 8.9925 0 0 0
3104 4 5.3955 8.9925 17.985 0 0 0
1596 4 19.7835 16.1865 28.776 0 0 0
361 4 32.373 14.388 0.0 0 0 0
3515 4 1.7985 7.194 30.5745 0 0 0
1721 4 21.582 28.776 0.0 0 0 0
2840 4 8.9925 19.7835 32.373 0 0 0
507 4 30.5745 25.179 23.3805 0 0 0
3067 4 5.3955 3.597 23.3805 0 0 0
3199 4 5.3955 14.388 34.1715 0 0 0
1808 4 16.1865 1.7985 3.597 0 0 0
3407 4 1.7985 0.0 5.3955 0 0 0
2601 4 10.791 0.0 0.0 0 0 0
3685 4 3.597 25.179 3.597 0 0 0
2549 4 14.388 28.776 25.179 0 0 0
1734 4 21.582 30.5745 12.5895 0 0 0
418 4 32.373 19.7835 16.1865 0 0 0
707 4 26.9775 7.194 23.3805 0 0 0
3802 4 0.0 1.7985 1.7985 0 0 0
2103 4 16.1865 25.179 19.7835 0 0 0
1050 4 25.179 5.3955 8.9925 0 0 0
1806 4 17.985 1.7985 5.3955 0 0 0
2918 4 10.791 26.9775 34.1715 0 0 0
2714 4 10.791 8.9925 30.5745 0 0 0
766 4 28.776 16.1865 5.3955 0 0 0
2281 4 14.388 7.194 0.0 0 0 0
428 4 30.5745 19.7835 21.582 0 0 0
914 4 28.776 26.9775 30.5745 0 0 0
1343 4 23.3805 28.776 19.7835 0 0 0
2029 4 17.985 17.985 25.179 0 0 0
523 4 30.5745 28.776 1.7985 0 0 0
1617 4 21.582 17.985 14.388 0 0 0
1914 4 17.985 8.9925 30.5745 0 0 0
2907 4 8.9925 25.179 23.3805 0 0 0
1034 4 25.179 1.7985 30.5745 0 0 0
1615 4 19.7835 17.985 12.5895 0 0 0
580 4 30.5745 34.1715 14.388 0 0 0
547 4 30.5745 28.776 23.3805 0 0 0
1123 4 23.3805 10.791 1.7985 0 0 0
333 4 32.373 10.791 10.791 0 0 0
20 4 34.1715 1.7985 32.373 0 0 0
504 4 30.5745 26.9775 17.985 0 0 0
803 4 26.9775 17.985 1.7985 0 0 0
3927 4 0.0 21.582 10.791 0 0 0
1955 4 16.1865 10.791 30.5745 0 0 0
2283 4 12.5895 7.194 1.7985 0 0 0
3354 4 7.194 30.5745 30.5745 0 0 0
2676 4 8.9925 5.3955 28.776 0 0 0
693 4 28.776 7.194 10.791 0 0 0
276 4 30.5745 5.3955 28.776 0 0 0
3458 4 3.597 5.3955 16.1865 0 0 0
1049 4 25.179 3.597 7.194 0 0 0
916 4 26.9775 26.9775 28.776 0 0 0
109 4 34.1715 17.985 16.1865 0 0 0
2045 4 17.985 21.582 3.597 0 0 0
3901 4 0.0 17.985 0.0 0 0 0
269 4 32.373 3.597 25.179 0 0 0
895 4 26.9775 25.179 12.5895 0 0 0
3534 4 3.597 12.5895 12.5895 0 0 0
2893 4 10.791 25.179 10.791 0 0 0
1452 4 19.7835 5.3955 7.194 0 0 0
431 4 30.5745 17.985 26.9775 0 0 0
515 4 30.5745 25.179 30.5745 0 0 0
49 4 34.1715 7.194 16.1865 0 0 0
2653 4 10.791 3.597 10.791 0 0 0
3804 4 0.0 1.7985 5.3955 0 0 0
3156 4 5.3955 12.5895 28.776 0 0 0
1386 4 25.179 34.1715 23.3805 0 0 0
2077 4 17.985 21.582 32.373 0 0 0
2881 4 10.791 25.179 0.0 0 0 0
787 4 26.9775 14.388 23.3805 0 0 0
3845 4 0.0 7.194 7.194 0 0 0
2150 4 17.985 30.5745 26.9775 0 0 0
3370 4 7.194 34.1715 8.9925 0 0 0
2303 4 12.5895 7.194 19.7835 0 0 0
716 4 26.9775 8.9925 28.776 0 0 0
2523 4 12.5895 28.776 1.7985 0 0 0
2407 4 12.5895 17.985 5.3955 0 0 0
905 4 28.776 25.179 21.582 0 0 0
3151 4 5.3955 10.791 26.9775 0 0 0
1613 4 21.582 17.985 10.791 0 0 0
3918 4 0.0 19.7835 30.5745 0 0 0
326 4 32.373 12.5895 5.3955 0 0 0
2968 4 8.9925 34.1715 3.597 0 0 0
2466 4 14.388 23.3805 23.3805 0 0 0
1245 4 25.179 21.582 3.597 0 0 0
2467 4 12.5895 21.582 23.3805 0 0 0
2006 4 17.985 19.7835 5.3955 0 0 0
571 4 30.5745 32.373 8.9925 0 0 0
1256 4 23.3805 23.3805 10.791 0 0 0
678 4 28.776 5.3955 34.1715 0 0 0
2574 4 14.388 34.1715 12.5895 0 0 0
3827 4 0.0 3.597 10.791 0 0 0
1376 4 23.3805 34.1715 10.791 0 0 0
2583 4 12.5895 32.373 19.7835 0 0 0
854 4 28.776 23.3805 12.5895 0 0 0
1826 4 17.985 1.7985 23.3805 0 0 0
1672 4 19.7835 23.3805 25.179 0 0 0
1632 4 19.7835 19.7835 25.179 0 0 0
780 4 26.9775 16.1865 14.388 0 0 0
3790 4 3.597 34.1715 26.9775 0 0 0
3786 4 3.597 34.1715 23.3805 0 0 0
1611 4 19.7835 17.985 8.9925 0 0 0
2600 4 12.5895 34.1715 32.373 0 0 0
2207 4 12.5895 0.0 5.3955 0 0 0
2366 4 14.388 16.1865 5.3955 0 0 0
840 4 26.9775 19.7835 32.373 0 0 0
3317 4 7.194 25.179 32.373 0 0 0
1674 4 21.582 23.3805 30.5745 0 0 0
703 4 26.9775 7.194 19.7835 0 0 0
1037 4 25.179 0.0 32.373 0 0 0
1580 4 19.7835 16.1865 14.388 0 0 0
1279 4 23.3805 21.582 34.1715 0 0 0
3935 4 0.0 21.582 25.179 0 0 0
3508 4 1.7985 8.9925 21.582 0 0 0
3448 4 1.7985 5.3955 3.597 0 0 0
2404 4 12.5895 19.7835 0.0 0 0 0
3185 4 7.194 14.388 21.582 0 0 0
2062 4 17.985 23.3805 19.7835 0 0 0
881 4 28.776 25.179 0.0 0 0 0
2021 4 17.985 17.985 17.985 0 0 0
1178 4 25.179 16.1865 16.1865 0 0 0
2179 4 16.1865 32.373 16.1865 0 0 0
2560 4 12.5895 30.5745 32.373 0 0 0
305 4 32.373 7.194 21.582 0 0 0
917 4 28.776 25.179 32.373 0 0 0
651 4 26.9775 3.597 8.9925 0 0 0
234 4 32.373 1.7985 30.5745 0 0 0
2009 4 17.985 17.985 7.194 0 0 0
1085 4 25.179 7.194 3.597 0 0 0
1661 4 21.582 21.582 17.985 0 0 0
2068 4 16.1865 23.3805 21.582 0 0 0
2846 4 10.791 23.3805 5.3955 0 0 0
2055 4 16.1865 21.582 12.5895 0 0 0
2369 4 14.388 14.388 7.194 0 0 0
2888 4 8.9925 26.9775 3.597 0 0 0
535 4 30.5745 28.776 12.5895 0 0 0
1829 4 17.985 0.0 25.179 0 0 0
587 4 30.5745 32.373 23.3805 0 0 0
3709 4 3.597 25.179 25.179 0 0 0
981 4 28.776 32.373 17.985 0 0 0
3932 4 0.0 23.3805 19.7835 0 0 0
1305 4 25.179 25.179 21.582 0 0 0
1213 4 25.179 17.985 10.791 0 0 0
834 4 28.776 19.7835 30.5745 0 0 0
3738 4 3.597 30.5745 16.1865 0 0 0
3817 4 0.0 0.0 28.776 0 0 0
2186 4 17.985 34.1715 23.3805 0 0 0
3399 4 5.3955 32.373 34.1715 0 0 0
755 4 26.9775 10.791 30.5745 0 0 0
828 4 26.9775 19.7835 21.582 0 0 0
2156 4 16.1865 30.5745 28.776 0 0 0
1439 4 19.7835 0.0 34.1715 0 0 0
972 4 26.9775 34.1715 7.194 0 0 0
3080 4 5.3955 5.3955 32.373 0 0 0
2033 4 17.985 17.985 28.776 0 0 0
1269 4 25.179 21.582 25.179 0 0 0
3596 4 1.7985 16.1865 28.776 0 0 0
2835 4 8.9925 17.985 30.5745 0 0 0
2891 4 8.9925 25.179 8.9925 0 0 0
1243 4 23.3805 21.582 1.7985 0 0 0
3227 4 5.3955 17.985 23.3805 0 0 0
1286 4 25.179 26.9775 5.3955 0 0 0
2616 4 8.9925 1.7985 10.791 0 0 0
1958 4 17.985 12.5895 34.1715 0 0 0
3378 4 7.194 34.1715 16.1865 0 0 0
2189 4 17.985 32.373 25.179 0 0 0
3284 4 5.3955 26.9775 0.0 0 0 0
2192 4 16.1865 34.1715 25.179 0 0 0
1608 4 19.7835 19.7835 3.597 0 0 0
1705 4 21.582 25.179 21.582 0 0 0
3878 4 0.0 12.5895 30.5745 0 0 0
1704 4 19.7835 26.9775 17.985 0 0 0
1022 4 25.179 1.7985 19.7835 0 0 0
42 4 34.1715 8.9925 0.0 0 0 0
357 4 32.373 10.791 32.373 0 0 0
2437 4 14.388 17.985 32.373 0 0 0
3001 4 7.194 0.0 0.0 0 0 0
2585 4 14.388 32.373 21.582 0 0 0
538 4 32.373 30.5745 16.1865 0 0 0
1776 4 19.7835 34.1715 10.791 0 0 0
1088 4 23.3805 8.9925 3.597 0 0 0
939 4 26.9775 28.776 16.1865 0 0 0
1002 4 25.179 1.7985 1.7985 0 0 0
2152 4 16.1865 30.5745 25.179 0 0 0
3100 4 5.3955 8.9925 14.388 0 0 0
1798 4 21.582 34.1715 34.1715 0 0 0
1723 4 19.7835 28.776 1.7985 0 0 0
1938 4 17.985 12.5895 16.1865 0 0 0
1578 4 21.582 16.1865 16.1865 0 0 0
1610 4 21.582 19.7835 8.9925 0 0 0
1814 4 17.985 1.7985 12.5895 0 0 0
3113 4 7.194 7.194 28.776 0 0 0
3723 4 1.7985 28.776 1.7985 0 0 0
1015 4 23.3805 0.0 12.5895 0 0 0
1805 4 17.985 0.0 3.597 0 0 0
3243 4 5.3955 21.582 1.7985 0 0 0
1311 4 23.3805 25.179 26.9775 0 0 0
2120 4 16.1865 26.9775 32.373 0 0 0
24 4 34.1715 5.3955 3.597 0 0 0
2672 4 8.9925 5.3955 25.179 0 0 0
1910 4 17.985 8.9925 26.9775 0 0 0
2781 4 10.791 14.388 17.985 0 0 0
3540 4 1.7985 12.5895 14.388 0 0 0
142 4 34.1715 26.9775 0.0 0 0 0
2666 4 10.791 5.3955 23.3805 0 0 0
2955 4 8.9925 28.776 30.5745 0 0 0
3899 4 0.0 14.388 32.373 0 0 0
2751 4 8.9925 10.791 26.9775 0 0 0
3288 4 5.3955 26.9775 3.597 0 0 0
1240 4 23.3805 19.7835 32.373 0 0 0
184 4 34.1715 34.1715 3.597 0 0 0
2290 4 14.388 8.9925 8.9925 0 0 0
445 4 32.373 21.582 3.597 0 0 0
3329 4 7.194 28.776 7.194 0 0 0
2657 4 10.791 3.597 14.388 0 0 0
1740 4 19.7835 30.5745 14.388 0 0 0
456 4 30.5745 23.3805 10.791 0 0 0
1032 4 23.3805 1.7985 25.179 0 0 0
1873 4 17.985 3.597 28.776 0 0 0
1168 4 23.3805 16.1865 3.597 0 0 0
3543 4 1.7985 10.791 19.7835 0 0 0
3132 4 5.3955 12.5895 7.194 0 0 0
2633 4 10.791 0.0 28.776 0 0 0
3838 4 0.0 5.3955 30.5745 0 0 0
296 4 30.5745 8.9925 10.791 0 0 0
1471 4 19.7835 3.597 26.9775 0 0 0
3305 4 7.194 25.179 21.582 0 0 0
2163 4 16.1865 32.373 1.7985 0 0 0
2323 4 12.5895 10.791 1.7985 0 0 0
1122 4 25.179 12.5895 1.7985 0 0 0
1730 4 21.582 30.5745 8.9925 0 0 0
505 4 32.373 25.179 21.582 0 0 0
2610 4 10.791 1.7985 8.9925 0 0 0
3416 4 1.7985 1.7985 10.791 0 0 0
882 4 28.776 26.9775 1.7985 0 0 0
3184 4 5.3955 16.1865 17.985 0 0 0
2868 4 8.9925 23.3805 21.582 0 0 0
2627 4 8.9925 0.0 23.3805 0 0 0
1778 4 21.582 34.1715 16.1865 0 0 0
2347 4 12.5895 10.791 23.3805 0 0 0
2127 4 16.1865 28.776 5.3955 0 0 0
4 5 34.1715 1.7985 3.597 0 0 0
6 5 34.1715 1.7985 7.194 0 0 0
9 5 34.1715 0.0 16.1865 0 0 0
12 5 34.1715 1.7985 17.985 0 0 0
17 5 34.1715 0.0 30.5745 0 0 0
19 5 34.1715 0.0 34.1715 0 0 0
26 5 34.1715 5.3955 7.194 0 0 0
33 5 34.1715 3.597 23.3805 0 0 0
36 5 34.1715 5.3955 25.179 0 0 0
37 5 34.1715 3.597 30.5745 0 0 0
50 5 34.1715 8.9925 14.388 0 0 0
55 5 34.1715 7.194 26.9775 0 0 0
57 5 34.1715 7.194 30.5745 0 0 0
61 5 34.1715 10.791 1.7985 0 0 0
69 5 34.1715 10.791 16.1865 0 0 0
71 5 34.1715 10.791 19.7835 0 0 0
75 5 34.1715 10.791 26.9775 0 0 0
77 5 34.1715 10.791 30.5745 0 0 0
79 5 34.1715 10.791 34.1715 0 0 0
83 5 34.1715 14.388 5.3955 0 0 0
85 5 34.1715 14.388 8.9925 0 0 0
90 5 34.1715 16.1865 14.388 0 0 0
91 5 34.1715 14.388 19.7835 0 0 0
93 5 34.1715 14.388 23.3805 0 0 0
97 5 34.1715 14.388 30.5745 0 0 0
104 5 34.1715 19.7835 3.597 0 0 0
107 5 34.1715 17.985 12.5895 0 0 0
110 5 34.1715 19.7835 14.388 0 0 0
114 5 34.1715 19.7835 21.582 0 0 0
118 5 34.1715 19.7835 28.776 0 0 0
119 5 34.1715 17.985 34.1715 0 0 0
120 5 34.1715 19.7835 32.373 0 0 0
122 5 34.1715 23.3805 0.0 0 0 0
124 5 34.1715 23.3805 3.597 0 0 0
126 5 34.1715 23.3805 7.194 0 0 0
128 5 34.1715 23.3805 10.791 0 0 0
141 5 34.1715 25.179 1.7985 0 0 0
146 5 34.1715 26.9775 7.194 0 0 0
147 5 34.1715 25.179 12.5895 0 0 0
151 5 34.1715 25.179 19.7835 0 0 0
155 5 34.1715 25.179 26.9775 0 0 0
160 5 34.1715 26.9775 32.373 0 0 0
163 5 34.1715 28.776 5.3955 0 0 0
174 5 34.1715 30.5745 21.582 0 0 0
176 5 34.1715 30.5745 25.179 0 0 0
178 5 34.1715 30.5745 28.776 0 0 0
189 5 34.1715 32.373 16.1865 0 0 0
191 5 34.1715 32.373 19.7835 0 0 0
197 5 34.1715 32.373 30.5745 0 0 0
201 5 32.373 0.0 0.0 0 0 0
205 5 32.373 0.0 3.597 0 0 0
207 5 30.5745 0.0 5.3955 0 0 0
208 5 30.5745 1.7985 3.597 0 0 0
211 5 30.5745 0.0 8.9925 0 0 0
217 5 32.373 0.0 14.388 0 0 0
218 5 32.373 1.7985 16.1865 0 0 0
220 5 30.5745 1.7985 14.388 0 0 0
226 5 32.373 1.7985 23.3805 0 0 0
227 5 30.5745 0.0 23.3805 0 0 0
228 5 30.5745 1.7985 21.582 0 0 0
235 5 30.5745 0.0 30.5745 0 0 0
238 5 32.373 1.7985 34.1715 0 0 0
249 5 32.373 3.597 7.194 0 0 0
250 5 32.373 5.3955 8.9925 0 0 0
255 5 30.5745 3.597 12.5895 0 0 0
258 5 32.373 5.3955 16.1865 0 0 0
262 5 32.373 5.3955 19.7835 0 0 0
266 5 32.373 5.3955 23.3805 0 0 0
267 5 30.5745 3.597 23.3805 0 0 0
268 5 30.5745 5.3955 21.582 0 0 0
277 5 32.373 3.597 32.373 0 0 0
280 5 30.5745 5.3955 32.373 0 0 0
282 5 32.373 8.9925 1.7985 0 0 0
283 5 30.5745 7.194 1.7985 0 0 0
286 5 32.373 8.9925 5.3955 0 0 0
294 5 32.373 8.9925 12.5895 0 0 0
303 5 30.5745 7.194 19.7835 0 0 0
312 5 30.5745 8.9925 25.179 0 0 0
315 5 30.5745 7.194 30.5745 0 0 0
316 5 30.5745 8.9925 28.776 0 0 0
328 5 30.5745 12.5895 3.597 0 0 0
335 5 30.5745 10.791 12.5895 0 0 0
337 5 32.373 10.791 14.388 0 0 0
338 5 32.373 12.5895 16.1865 0 0 0
340 5 30.5745 12.5895 14.388 0 0 0
348 5 30.5745 12.5895 21.582 0 0 0
350 5 32.373 12.5895 26.9775 0 0 0
354 5 32.373 12.5895 30.5745 0 0 0
355 5 30.5745 10.791 30.5745 0 0 0
359 5 30.5745 10.791 34.1715 0 0 0
360 5 30.5745 12.5895 32.373 0 0 0
362 5 32.373 16.1865 1.7985 0 0 0
369 5 32.373 14.388 7.194 0 0 0
379 5 30.5745 14.388 16.1865 0 0 0
383 5 30.5745 14.388 19.7835 0 0 0
384 5 30.5745 16.1865 17.985 0 0 0
385 5 32.373 14.388 21.582 0 0 0
387 5 30.5745 14.388 23.3805 0 0 0
389 5 32.373 14.388 25.179 0 0 0
391 5 30.5745 14.388 26.9775 0 0 0
397 5 32.373 14.388 32.373 0 0 0
398 5 32.373 16.1865 34.1715 0 0 0
402 5 32.373 19.7835 1.7985 0 0 0
403 5 30.5745 17.985 1.7985 0 0 0
405 5 32.373 17.985 3.597 0 0 0
406 5 32.373 19.7835 5.3955 0 0 0
409 5 32.373 17.985 7.194 0 0 0
415 5 30.5745 17.985 12.5895 0 0 0
416 5 30.5745 19.7835 10.791 0 0 0
419 5 30.5745 17.985 16.1865 0 0 0
421 5 32.373 17.985 17.985 0 0 0
429 5 32.373 17.985 25.179 0 0 0
432 5 30.5745 19.7835 25.179 0 0 0
437 5 32.373 17.985 32.373 0 0 0
438 5 32.373 19.7835 34.1715 0 0 0
439 5 30.5745 17.985 34.1715 0 0 0
450 5 32.373 23.3805 8.9925 0 0 0
457 5 32.373 21.582 14.388 0 0 0
459 5 30.5745 21.582 16.1865 0 0 0
461 5 32.373 21.582 17.985 0 0 0
463 5 30.5745 21.582 19.7835 0 0 0
469 5 32.373 21.582 25.179 0 0 0
472 5 30.5745 23.3805 25.179 0 0 0
474 5 32.373 23.3805 30.5745 0 0 0
478 5 32.373 23.3805 34.1715 0 0 0
482 5 32.373 26.9775 1.7985 0 0 0
485 5 32.373 25.179 3.597 0 0 0
486 5 32.373 26.9775 5.3955 0 0 0
489 5 32.373 25.179 7.194 0 0 0
490 5 32.373 26.9775 8.9925 0 0 0
491 5 30.5745 25.179 8.9925 0 0 0
495 5 30.5745 25.179 12.5895 0 0 0
498 5 32.373 26.9775 16.1865 0 0 0
499 5 30.5745 25.179 16.1865 0 0 0
510 5 32.373 26.9775 26.9775 0 0 0
529 5 32.373 28.776 7.194 0 0 0
530 5 32.373 30.5745 8.9925 0 0 0
533 5 32.373 28.776 10.791 0 0 0
534 5 32.373 30.5745 12.5895 0 0 0
536 5 30.5745 30.5745 10.791 0 0 0
542 5 32.373 30.5745 19.7835 0 0 0
545 5 32.373 28.776 21.582 0 0 0
546 5 32.373 30.5745 23.3805 0 0 0
552 5 30.5745 30.5745 25.179 0 0 0
553 5 32.373 28.776 28.776 0 0 0
554 5 32.373 30.5745 30.5745 0 0 0
555 5 30.5745 28.776 30.5745 0 0 0
557 5 32.373 28.776 32.373 0 0 0
558 5 32.373 30.5745 34.1715 0 0 0
562 5 32.373 34.1715 1.7985 0 0 0
566 5 32.373 34.1715 5.3955 0 0 0
570 5 32.373 34.1715 8.9925 0 0 0
575 5 30.5745 32.373 12.5895 0 0 0
577 5 32.373 32.373 14.388 0 0 0
579 5 30.5745 32.373 16.1865 0 0 0
582 5 32.373 34.1715 19.7835 0 0 0
584 5 30.5745 34.1715 17.985 0 0 0
585 5 32.373 32.373 21.582 0 0 0
586 5 32.373 34.1715 23.3805 0 0 0
588 5 30.5745 34.1715 21.582 0 0 0
597 5 32.373 32.373 32.373 0 0 0
604 5 26.9775 1.7985 0.0 0 0 0
607 5 26.9775 0.0 5.3955 0 0 0
611 5 26.9775 0.0 8.9925 0 0 0
617 5 28.776 0.0 14.388 0 0 0
624 5 26.9775 1.7985 17.985 0 0 0
630 5 28.776 1.7985 26.9775 0 0 0
633 5 28.776 0.0 28.776 0 0 0
634 5 28.776 1.7985 30.5745 0 0 0
641 5 28.776 3.597 0.0 0 0 0
642 5 28.776 5.3955 1.7985 0 0 0
644 5 26.9775 5.3955 0.0 0 0 0
646 5 28.776 5.3955 5.3955 0 0 0
655 5 26.9775 3.597 12.5895 0 0 0
659 5 26.9775 3.597 16.1865 0 0 0
661 5 28.776 3.597 17.985 0 0 0
681 5 28.776 7.194 0.0 0 0 0
682 5 28.776 8.9925 1.7985 0 0 0
686 5 28.776 8.9925 5.3955 0 0 0
692 5 26.9775 8.9925 7.194 0 0 0
694 5 28.776 8.9925 12.5895 0 0 0
712 5 26.9775 8.9925 25.179 0 0 0
717 5 28.776 7.194 32.373 0 0 0
720 5 26.9775 8.9925 32.373 0 0 0
722 5 28.776 12.5895 1.7985 0 0 0
723 5 26.9775 10.791 1.7985 0 0 0
729 5 28.776 10.791 7.194 0 0 0
736 5 26.9775 12.5895 10.791 0 0 0
742 5 28.776 12.5895 19.7835 0 0 0
744 5 26.9775 12.5895 17.985 0 0 0
745 5 28.776 10.791 21.582 0 0 0
747 5 26.9775 10.791 23.3805 0 0 0
751 5 26.9775 10.791 26.9775 0 0 0
752 5 26.9775 12.5895 25.179 0 0 0
756 5 26.9775 12.5895 28.776 0 0 0
769 5 28.776 14.388 7.194 0 0 0
771 5 26.9775 14.388 8.9925 0 0 0
772 5 26.9775 16.1865 7.194 0 0 0
776 5 26.9775 16.1865 10.791 0 0 0
778 5 28.776 16.1865 16.1865 0 0 0
786 5 28.776 16.1865 23.3805 0 0 0
793 5 28.776 14.388 28.776 0 0 0
795 5 26.9775 14.388 30.5745 0 0 0
799 5 26.9775 14.388 34.1715 0 0 0
802 5 28.776 19.7835 1.7985 0 0 0
808 5 26.9775 19.7835 3.597 0 0 0
809 5 28.776 17.985 7.194 0 0 0
810 5 28.776 19.7835 8.9925 0 0 0
819 5 26.9775 17.985 16.1865 0 0 0
820 5 26.9775 19.7835 14.388 0 0 0
822 5 28.776 19.7835 19.7835 0 0 0
824 5 26.9775 19.7835 17.985 0 0 0
825 5 28.776 17.985 21.582 0 0 0
850 5 28.776 23.3805 8.9925 0 0 0
856 5 26.9775 23.3805 10.791 0 0 0
861 5 28.776 21.582 17.985 0 0 0
862 5 28.776 23.3805 19.7835 0 0 0
864 5 26.9775 23.3805 17.985 0 0 0
869 5 28.776 21.582 25.179 0 0 0
873 5 28.776 21.582 28.776 0 0 0
875 5 26.9775 21.582 30.5745 0 0 0
876 5 26.9775 23.3805 28.776 0 0 0
885 5 28.776 25.179 3.597 0 0 0
887 5 26.9775 25.179 5.3955 0 0 0
890 5 28.776 26.9775 8.9925 0 0 0
894 5 28.776 26.9775 12.5895 0 0 0
899 5 26.9775 25.179 16.1865 0 0 0
901 5 28.776 25.179 17.985 0 0 0
909 5 28.776 25.179 25.179 0 0 0
911 5 26.9775 25.179 26.9775 0 0 0
915 5 26.9775 25.179 30.5745 0 0 0
918 5 28.776 26.9775 34.1715 0 0 0
919 5 26.9775 25.179 34.1715 0 0 0
927 5 26.9775 28.776 5.3955 0 0 0
933 5 28.776 28.776 10.791 0 0 0
936 5 26.9775 30.5745 10.791 0 0 0
951 5 26.9775 28.776 26.9775 0 0 0
954 5 28.776 30.5745 30.5745 0 0 0
955 5 26.9775 28.776 30.5745 0 0 0
956 5 26.9775 30.5745 28.776 0 0 0
958 5 28.776 30.5745 34.1715 0 0 0
961 5 28.776 32.373 0.0 0 0 0
965 5 28.776 32.373 3.597 0 0 0
969 5 28.776 32.373 7.194 0 0 0
973 5 28.776 32.373 10.791 0 0 0
974 5 28.776 34.1715 12.5895 0 0 0
976 5 26.9775 34.1715 10.791 0 0 0
977 5 28.776 32.373 14.388 0 0 0
978 5 28.776 34.1715 16.1865 0 0 0
982 5 28.776 34.1715 19.7835 0 0 0
984 5 26.9775 34.1715 17.985 0 0 0
990 5 28.776 34.1715 26.9775 0 0 0
994 5 28.776 34.1715 30.5745 0 0 0
998 5 28.776 34.1715 34.1715 0 0 0
999 5 26.9775 32.373 34.1715 0 0 0
1005 5 25.179 0.0 3.597 0 0 0
1010 5 25.179 1.7985 8.9925 0 0 0
1012 5 23.3805 1.7985 7.194 0 0 0
1014 5 25.179 1.7985 12.5895 0 0 0
1020 5 23.3805 1.7985 14.388 0 0 0
1030 5 25.179 1.7985 26.9775 0 0 0
1041 5 25.179 3.597 0.0 0 0 0
1046 5 25.179 5.3955 5.3955 0 0 0
1047 5 23.3805 3.597 5.3955 0 0 0
1051 5 23.3805 3.597 8.9925 0 0 0
1064 5 23.3805 5.3955 17.985 0 0 0
1065 5 25.179 3.597 21.582 0 0 0
1069 5 25.179 3.597 25.179 0 0 0
1071 5 23.3805 3.597 26.9775 0 0 0
1075 5 23.3805 3.597 30.5745 0 0 0
1079 5 23.3805 3.597 34.1715 0 0 0
1083 5 23.3805 7.194 1.7985 0 0 0
1084 5 23.3805 8.9925 0.0 0 0 0
1092 5 23.3805 8.9925 7.194 0 0 0
1096 5 23.3805 8.9925 10.791 0 0 0
1098 5 25.179 8.9925 16.1865 0 0 0
1108 5 23.3805 8.9925 21.582 0 0 0
1110 5 25.179 8.9925 26.9775 0 0 0
1112 5 23.3805 8.9925 25.179 0 0 0
1113 5 25.179 7.194 28.776 0 0 0
1116 5 23.3805 8.9925 28.776 0 0 0
1128 5 23.3805 12.5895 3.597 0 0 0
1130 5 25.179 12.5895 8.9925 0 0 0
1131 5 23.3805 10.791 8.9925 0 0 0
1148 5 23.3805 12.5895 21.582 0 0 0
1158 5 25.179 12.5895 34.1715 0 0 0
1159 5 23.3805 10.791 34.1715 0 0 0
1164 5 23.3805 16.1865 0.0 0 0 0
1172 5 23.3805 16.1865 7.194 0 0 0
1179 5 23.3805 14.388 16.1865 0 0 0
1180 5 23.3805 16.1865 14.388 0 0 0
1184 5 23.3805 16.1865 17.985 0 0 0
1185 5 25.179 14.388 21.582 0 0 0
1199 5 23.3805 14.388 34.1715 0 0 0
1203 5 23.3805 17.985 1.7985 0 0 0
1205 5 25.179 17.985 3.597 0 0 0
1206 5 25.179 19.7835 5.3955 0 0 0
1211 5 23.3805 17.985 8.9925 0 0 0
1212 5 23.3805 19.7835 7.194 0 0 0
1216 5 23.3805 19.7835 10.791 0 0 0
1220 5 23.3805 19.7835 14.388 0 0 0
1222 5 25.179 19.7835 19.7835 0 0 0
1223 5 23.3805 17.985 19.7835 0 0 0
1235 5 23.3805 17.985 30.5745 0 0 0
1236 5 23.3805 19.7835 28.776 0 0 0
1237 5 25.179 17.985 32.373 0 0 0
1238 5 25.179 19.7835 34.1715 0 0 0
1242 5 25.179 23.3805 1.7985 0 0 0
1244 5 23.3805 23.3805 0.0 0 0 0
1247 5 23.3805 21.582 5.3955 0 0 0
1253 5 25.179 21.582 10.791 0 0 0
1266 5 25.179 23.3805 23.3805 0 0 0
1267 5 23.3805 21.582 23.3805 0 0 0
1268 5 23.3805 23.3805 21.582 0 0 0
1273 5 25.179 21.582 28.776 0 0 0
1275 5 23.3805 21.582 30.5745 0 0 0
1278 5 25.179 23.3805 34.1715 0 0 0
1283 5 23.3805 25.179 1.7985 0 0 0
1291 5 23.3805 25.179 8.9925 0 0 0
1297 5 25.179 25.179 14.388 0 0 0
1298 5 25.179 26.9775 16.1865 0 0 0
1300 5 23.3805 26.9775 14.388 0 0 0
1302 5 25.179 26.9775 19.7835 0 0 0
1303 5 23.3805 25.179 19.7835 0 0 0
1328 5 23.3805 30.5745 3.597 0 0 0
1333 5 25.179 28.776 10.791 0 0 0
1334 5 25.179 30.5745 12.5895 0 0 0
1344 5 23.3805 30.5745 17.985 0 0 0
1355 5 23.3805 28.776 30.5745 0 0 0
1360 5 23.3805 30.5745 32.373 0 0 0
1372 5 23.3805 34.1715 7.194 0 0 0
1378 5 25.179 34.1715 16.1865 0 0 0
1379 5 23.3805 32.373 16.1865 0 0 0
1392 5 23.3805 34.1715 25.179 0 0 0
1395 5 23.3805 32.373 30.5745 0 0 0
1400 5 23.3805 34.1715 32.373 0 0 0
1404 5 19.7835 1.7985 0.0 0 0 0
1409 5 21.582 0.0 7.194 0 0 0
1412 5 19.7835 1.7985 7.194 0 0 0
1415 5 19.7835 0.0 12.5895 0 0 0
1422 5 21.582 1.7985 19.7835 0 0 0
1424 5 19.7835 1.7985 17.985 0 0 0
1426 5 21.582 1.7985 23.3805 0 0 0
1430 5 21.582 1.7985 26.9775 0 0 0
1433 5 21.582 0.0 28.776 0 0 0
1435 5 19.7835 0.0 30.5745 0 0 0
1441 5 21.582 3.597 0.0 0 0 0
1444 5 19.7835 5.3955 0.0 0 0 0
1447 5 19.7835 3.597 5.3955 0 0 0
1449 5 21.582 3.597 7.194 0 0 0
1456 5 19.7835 5.3955 10.791 0 0 0
1459 5 19.7835 3.597 16.1865 0 0 0
1460 5 19.7835 5.3955 14.388 0 0 0
1463 5 19.7835 3.597 19.7835 0 0 0
1467 5 19.7835 3.597 23.3805 0 0 0
1469 5 21.582 3.597 25.179 0 0 0
1473 5 21.582 3.597 28.776 0 0 0
1474 5 21.582 5.3955 30.5745 0 0 0
1478 5 21.582 5.3955 34.1715 0 0 0
1483 5 19.7835 7.194 1.7985 0 0 0
1485 5 21.582 7.194 3.597 0 0 0
1486 5 21.582 8.9925 5.3955 0 0 0
1487 5 19.7835 7.194 5.3955 0 0 0
1491 5 19.7835 7.194 8.9925 0 0 0
1495 5 19.7835 7.194 12.5895 0 0 0
1497 5 21.582 7.194 14.388 0 0 0
1499 5 19.7835 7.194 16.1865 0 0 0
1504 5 19.7835 8.9925 17.985 0 0 0
1518 5 21.582 8.9925 34.1715 0 0 0
1520 5 19.7835 8.9925 32.373 0 0 0
1526 5 21.582 12.5895 5.3955 0 0 0
1528 5 19.7835 12.5895 3.597 0 0 0
1544 5 19.7835 12.5895 17.985 0 0 0
1548 5 19.7835 12.5895 21.582 0 0 0
1557 5 21.582 10.791 32.373 0 0 0
1559 5 19.7835 10.791 34.1715 0 0 0
1564 5 19.7835 16.1865 0.0 0 0 0
1565 5 21.582 14.388 3.597 0 0 0
1566 5 21.582 16.1865 5.3955 0 0 0
1574 5 21.582 16.1865 12.5895 0 0 0
1579 5 19.7835 14.388 16.1865 0 0 0
1585 5 21.582 14.388 21.582 0 0 0
1588 5 19.7835 16.1865 21.582 0 0 0
1593 5 21.582 14.388 28.776 0 0 0
1601 5 21.582 17.985 0.0 0 0 0
1604 5 19.7835 19.7835 0.0 0 0 0
1609 5 21.582 17.985 7.194 0 0 0
1612 5 19.7835 19.7835 7.194 0 0 0
1619 5 19.7835 17.985 16.1865 0 0 0
1622 5 21.582 19.7835 19.7835 0 0 0
1624 5 19.7835 19.7835 17.985 0 0 0
1630 5 21.582 19.7835 26.9775 0 0 0
1636 5 19.7835 19.7835 28.776 0 0 0
1645 5 21.582 21.582 3.597 0 0 0
1647 5 19.7835 21.582 5.3955 0 0 0
1648 5 19.7835 23.3805 3.597 0 0 0
1658 5 21.582 23.3805 16.1865 0 0 0
1659 5 19.7835 21.582 16.1865 0 0 0
1662 5 21.582 23.3805 19.7835 0 0 0
1679 5 19.7835 21.582 34.1715 0 0 0
1680 5 19.7835 23.3805 32.373 0 0 0
1682 5 21.582 26.9775 1.7985 0 0 0
1687 5 19.7835 25.179 5.3955 0 0 0
1694 5 21.582 26.9775 12.5895 0 0 0
1695 5 19.7835 25.179 12.5895 0 0 0
1707 5 19.7835 25.179 23.3805 0 0 0
1710 5 21.582 26.9775 26.9775 0 0 0
1712 5 19.7835 26.9775 25.179 0 0 0
1715 5 19.7835 25.179 30.5745 0 0 0
1719 5 19.7835 25.179 34.1715 0 0 0
1722 5 21.582 30.5745 1.7985 0 0 0
1736 5 19.7835 30.5745 10.791 0 0 0
1743 5 19.7835 28.776 19.7835 0 0 0
1746 5 21.582 30.5745 23.3805 0 0 0
1748 5 19.7835 30.5745 21.582 0 0 0
1749 5 21.582 28.776 25.179 0 0 0
1755 5 19.7835 28.776 30.5745 0 0 0
1756 5 19.7835 30.5745 28.776 0 0 0
1761 5 21.582 32.373 0.0 0 0 0
1766 5 21.582 34.1715 5.3955 0 0 0
1767 5 19.7835 32.373 5.3955 0 0 0
1773 5 21.582 32.373 10.791 0 0 0
1780 5 19.7835 34.1715 14.388 0 0 0
1782 5 21.582 34.1715 19.7835 0 0 0
1785 5 21.582 32.373 21.582 0 0 0
1787 5 19.7835 32.373 23.3805 0 0 0
1789 5 21.582 32.373 25.179 0 0 0
1800 5 19.7835 34.1715 32.373 0 0 0
1804 5 16.1865 1.7985 0.0 0 0 0
1807 5 16.1865 0.0 5.3955 0 0 0
1810 5 17.985 1.7985 8.9925 0 0 0
1811 5 16.1865 0.0 8.9925 0 0 0
1812 5 16.1865 1.7985 7.194 0 0 0
1813 5 17.985 0.0 10.791 0 0 0
1821 5 17.985 0.0 17.985 0 0 0
1823 5 16.1865 0.0 19.7835 0 0 0
1827 5 16.1865 0.0 23.3805 0 0 0
1830 5 17.985 1.7985 26.9775 0 0 0
1833 5 17.985 0.0 28.776 0 0 0
1855 5 16.1865 3.597 12.5895 0 0 0
1856 5 16.1865 5.3955 10.791 0 0 0
1861 5 17.985 3.597 17.985 0 0 0
1862 5 17.985 5.3955 19.7835 0 0 0
1866 5 17.985 5.3955 23.3805 0 0 0
1867 5 16.1865 3.597 23.3805 0 0 0
1870 5 17.985 5.3955 26.9775 0 0 0
1874 5 17.985 5.3955 30.5745 0 0 0
1875 5 16.1865 3.597 30.5745 0 0 0
1876 5 16.1865 5.3955 28.776 0 0 0
1879 5 16.1865 3.597 34.1715 0 0 0
1881 5 17.985 7.194 0.0 0 0 0
1887 5 16.1865 7.194 5.3955 0 0 0
1889 5 17.985 7.194 7.194 0 0 0
1897 5 17.985 7.194 14.388 0 0 0
1908 5 16.1865 8.9925 21.582 0 0 0
1909 5 17.985 7.194 25.179 0 0 0
1916 5 16.1865 8.9925 28.776 0 0 0
1918 5 17.985 8.9925 34.1715 0 0 0
1920 5 16.1865 8.9925 32.373 0 0 0
1926 5 17.985 12.5895 5.3955 0 0 0
1931 5 16.1865 10.791 8.9925 0 0 0
1933 5 17.985 10.791 10.791 0 0 0
1934 5 17.985 12.5895 12.5895 0 0 0
1936 5 16.1865 12.5895 10.791 0 0 0
1937 5 17.985 10.791 14.388 0 0 0
1942 5 17.985 12.5895 19.7835 0 0 0
1957 5 17.985 10.791 32.373 0 0 0
1959 5 16.1865 10.791 34.1715 0 0 0
1960 5 16.1865 12.5895 32.373 0 0 0
1965 5 17.985 14.388 3.597 0 0 0
1967 5 16.1865 14.388 5.3955 0 0 0
1968 5 16.1865 16.1865 3.597 0 0 0
1969 5 17.985 14.388 7.194 0 0 0
1972 5 16.1865 16.1865 7.194 0 0 0
1977 5 17.985 14.388 14.388 0 0 0
1979 5 16.1865 14.388 16.1865 0 0 0
1981 5 17.985 14.388 17.985 0 0 0
1982 5 17.985 16.1865 19.7835 0 0 0
1983 5 16.1865 14.388 19.7835 0 0 0
1989 5 17.985 14.388 25.179 0 0 0
1992 5 16.1865 16.1865 25.179 0 0 0
1993 5 17.985 14.388 28.776 0 0 0
1996 5 16.1865 16.1865 28.776 0 0 0
1998 5 17.985 16.1865 34.1715 0 0 0
2012 5 16.1865 19.7835 7.194 0 0 0
2014 5 17.985 19.7835 12.5895 0 0 0
2019 5 16.1865 17.985 16.1865 0 0 0
2028 5 16.1865 19.7835 21.582 0 0 0
2032 5 16.1865 19.7835 25.179 0 0 0
2037 5 17.985 17.985 32.373 0 0 0
2044 5 16.1865 23.3805 0.0 0 0 0
2046 5 17.985 23.3805 5.3955 0 0 0
2051 5 16.1865 21.582 8.9925 0 0 0
2060 5 16.1865 23.3805 14.388 0 0 0
2063 5 16.1865 21.582 19.7835 0 0 0
2067 5 16.1865 21.582 23.3805 0 0 0
2069 5 17.985 21.582 25.179 0 0 0
2070 5 17.985 23.3805 26.9775 0 0 0
2072 5 16.1865 23.3805 25.179 0 0 0
2081 5 17.985 25.179 0.0 0 0 0
2087 5 16.1865 25.179 5.3955 0 0 0
2093 5 17.985 25.179 10.791 0 0 0
2098 5 17.985 26.9775 16.1865 0 0 0
2099 5 16.1865 25.179 16.1865 0 0 0
2105 5 17.985 25.179 21.582 0 0 0
2108 5 16.1865 26.9775 21.582 0 0 0
2128 5 16.1865 30.5745 3.597 0 0 0
2130 5 17.985 30.5745 8.9925 0 0 0
2142 5 17.985 30.5745 19.7835 0 0 0
2148 5 16.1865 30.5745 21.582 0 0 0
2153 5 17.985 28.776 28.776 0 0 0
2155 5 16.1865 28.776 30.5745 0 0 0
2159 5 16.1865 28.776 34.1715 0 0 0
2162 5 17.985 34.1715 1.7985 0 0 0
2165 5 17.985 32.373 3.597 0 0 0
2167 5 16.1865 32.373 5.3955 0 0 0
2170 5 17.985 34.1715 8.9925 0 0 0
2176 5 16.1865 34.1715 10.791 0 0 0
2177 5 17.985 32.373 14.388 0 0 0
2180 5 16.1865 34.1715 14.388 0 0 0
2182 5 17.985 34.1715 19.7835 0 0 0
2183 5 16.1865 32.373 19.7835 0 0 0
2184 5 16.1865 34.1715 17.985 0 0 0
2188 5 16.1865 34.1715 21.582 0 0 0
2190 5 17.985 34.1715 26.9775 0 0 0
2201 5 14.388 0.0 0.0 0 0 0
2203 5 12.5895 0.0 1.7985 0 0 0
2204 5 12.5895 1.7985 0.0 0 0 0
2205 5 14.388 0.0 3.597 0 0 0
2212 5 12.5895 1.7985 7.194 0 0 0
2214 5 14.388 1.7985 12.5895 0 0 0
2222 5 14.388 1.7985 19.7835 0 0 0
2223 5 12.5895 0.0 19.7835 0 0 0
2227 5 12.5895 0.0 23.3805 0 0 0
2231 5 12.5895 0.0 26.9775 0 0 0
2236 5 12.5895 1.7985 28.776 0 0 0
2240 5 12.5895 1.7985 32.373 0 0 0
2243 5 12.5895 3.597 1.7985 0 0 0
2245 5 14.388 3.597 3.597 0 0 0
2249 5 14.388 3.597 7.194 0 0 0
2257 5 14.388 3.597 14.388 0 0 0
2259 5 12.5895 3.597 16.1865 0 0 0
2261 5 14.388 3.597 17.985 0 0 0
2263 5 12.5895 3.597 19.7835 0 0 0
2264 5 12.5895 5.3955 17.985 0 0 0
2266 5 14.388 5.3955 23.3805 0 0 0
2273 5 14.388 3.597 28.776 0 0 0
2275 5 12.5895 3.597 30.5745 0 0 0
2276 5 12.5895 5.3955 28.776 0 0 0
2282 5 14.388 8.9925 1.7985 0 0 0
2285 5 14.388 7.194 3.597 0 0 0
2288 5 12.5895 8.9925 3.597 0 0 0
2294 5 14.388 8.9925 12.5895 0 0 0
2295 5 12.5895 7.194 12.5895 0 0 0
2296 5 12.5895 8.9925 10.791 0 0 0
2302 5 14.388 8.9925 19.7835 0 0 0
2304 5 12.5895 8.9925 17.985 0 0 0
2305 5 14.388 7.194 21.582 0 0 0
2306 5 14.388 8.9925 23.3805 0 0 0
2307 5 12.5895 7.194 23.3805 0 0 0
2309 5 14.388 7.194 25.179 0 0 0
2310 5 14.388 8.9925 26.9775 0 0 0
2314 5 14.388 8.9925 30.5745 0 0 0
2315 5 12.5895 7.194 30.5745 0 0 0
2317 5 14.388 7.194 32.373 0 0 0
2318 5 14.388 8.9925 34.1715 0 0 0
2319 5 12.5895 7.194 34.1715 0 0 0
2320 5 12.5895 8.9925 32.373 0 0 0
2325 5 14.388 10.791 3.597 0 0 0
2328 5 12.5895 12.5895 3.597 0 0 0
2332 5 12.5895 12.5895 7.194 0 0 0
2341 5 14.388 10.791 17.985 0 0 0
2348 5 12.5895 12.5895 21.582 0 0 0
2354 5 14.388 12.5895 30.5745 0 0 0
2357 5 14.388 10.791 32.373 0 0 0
2362 5 14.388 16.1865 1.7985 0 0 0
2368 5 12.5895 16.1865 3.597 0 0 0
2370 5 14.388 16.1865 8.9925 0 0 0
2377 5 14.388 14.388 14.388 0 0 0
2385 5 14.388 14.388 21.582 0 0 0
2386 5 14.388 16.1865 23.3805 0 0 0
2387 5 12.5895 14.388 23.3805 0 0 0
2389 5 14.388 14.388 25.179 0 0 0
2390 5 14.388 16.1865 26.9775 0 0 0
2395 5 12.5895 14.388 30.5745 0 0 0
2414 5 14.388 19.7835 12.5895 0 0 0
2426 5 14.388 19.7835 23.3805 0 0 0
2427 5 12.5895 17.985 23.3805 0 0 0
2429 5 14.388 17.985 25.179 0 0 0
2431 5 12.5895 17.985 26.9775 0 0 0
2432 5 12.5895 19.7835 25.179 0 0 0
2433 5 14.388 17.985 28.776 0 0 0
2434 5 14.388 19.7835 30.5745 0 0 0
2436 5 12.5895 19.7835 28.776 0 0 0
2439 5 12.5895 17.985 34.1715 0 0 0
2440 5 12.5895 19.7835 32.373 0 0 0
2442 5 14.388 23.3805 1.7985 0 0 0
2445 5 14.388 21.582 3.597 0 0 0
2446 5 14.388 23.3805 5.3955 0 0 0
2448 5 12.5895 23.3805 3.597 0 0 0
2452 5 12.5895 23.3805 7.194 0 0 0
2456 5 12.5895 23.3805 10.791 0 0 0
2459 5 12.5895 21.582 16.1865 0 0 0
2460 5 12.5895 23.3805 14.388 0 0 0
2461 5 14.388 21.582 17.985 0 0 0
2469 5 14.388 21.582 25.179 0 0 0
2471 5 12.5895 21.582 26.9775 0 0 0
2473 5 14.388 21.582 28.776 0 0 0
2475 5 12.5895 21.582 30.5745 0 0 0
2476 5 12.5895 23.3805 28.776 0 0 0
2478 5 14.388 23.3805 34.1715 0 0 0
2480 5 12.5895 23.3805 32.373 0 0 0
2488 5 12.5895 26.9775 3.597 0 0 0
2490 5 14.388 26.9775 8.9925 0 0 0
2491 5 12.5895 25.179 8.9925 0 0 0
2501 5 14.388 25.179 17.985 0 0 0
2505 5 14.388 25.179 21.582 0 0 0
2506 5 14.388 26.9775 23.3805 0 0 0
2507 5 12.5895 25.179 23.3805 0 0 0
2508 5 12.5895 26.9775 21.582 0 0 0
2520 5 12.5895 26.9775 32.373 0 0 0
2528 5 12.5895 30.5745 3.597 0 0 0
2529 5 14.388 28.776 7.194 0 0 0
2530 5 14.388 30.5745 8.9925 0 0 0
2532 5 12.5895 30.5745 7.194 0 0 0
2542 5 14.388 30.5745 19.7835 0 0 0
2544 5 12.5895 30.5745 17.985 0 0 0
2548 5 12.5895 30.5745 21.582 0 0 0
2561 5 14.388 32.373 0.0 0 0 0
2570 5 14.388 34.1715 8.9925 0 0 0
2573 5 14.388 32.373 10.791 0 0 0
2582 5 14.388 34.1715 19.7835 0 0 0
2597 5 14.388 32.373 32.373 0 0 0
2599 5 12.5895 32.373 34.1715 0 0 0
2614 5 10.791 1.7985 12.5895 0 0 0
2620 5 8.9925 1.7985 14.388 0 0 0
2631 5 8.9925 0.0 26.9775 0 0 0
2642 5 10.791 5.3955 1.7985 0 0 0
2643 5 8.9925 3.597 1.7985 0 0 0
2646 5 10.791 5.3955 5.3955 0 0 0
2647 5 8.9925 3.597 5.3955 0 0 0
2651 5 8.9925 3.597 8.9925 0 0 0
2654 5 10.791 5.3955 12.5895 0 0 0
2655 5 8.9925 3.597 12.5895 0 0 0
2660 5 8.9925 5.3955 14.388 0 0 0
2661 5 10.791 3.597 17.985 0 0 0
2664 5 8.9925 5.3955 17.985 0 0 0
2665 5 10.791 3.597 21.582 0 0 0
2671 5 8.9925 3.597 26.9775 0 0 0
2673 5 10.791 3.597 28.776 0 0 0
2677 5 10.791 3.597 32.373 0 0 0
2680 5 8.9925 5.3955 32.373 0 0 0
2698 5 10.791 8.9925 16.1865 0 0 0
2702 5 10.791 8.9925 19.7835 0 0 0
2710 5 10.791 8.9925 26.9775 0 0 0
2711 5 8.9925 7.194 26.9775 0 0 0
2716 5 8.9925 8.9925 28.776 0 0 0
2720 5 8.9925 8.9925 32.373 0 0 0
2721 5 10.791 10.791 0.0 0 0 0
2724 5 8.9925 12.5895 0.0 0 0 0
2733 5 10.791 10.791 10.791 0 0 0
2742 5 10.791 12.5895 19.7835 0 0 0
2744 5 8.9925 12.5895 17.985 0 0 0
2746 5 10.791 12.5895 23.3805 0 0 0
2748 5 8.9925 12.5895 21.582 0 0 0
2750 5 10.791 12.5895 26.9775 0 0 0
2754 5 10.791 12.5895 30.5745 0 0 0
2756 5 8.9925 12.5895 28.776 0 0 0
2760 5 8.9925 12.5895 32.373 0 0 0
2773 5 10.791 14.388 10.791 0 0 0
2776 5 8.9925 16.1865 10.791 0 0 0
2782 5 10.791 16.1865 19.7835 0 0 0
2784 5 8.9925 16.1865 17.985 0 0 0
2793 5 10.791 14.388 28.776 0 0 0
2805 5 10.791 17.985 3.597 0 0 0
2808 5 8.9925 19.7835 3.597 0 0 0
2816 5 8.9925 19.7835 10.791 0 0 0
2829 5 10.791 17.985 25.179 0 0 0
2830 5 10.791 19.7835 26.9775 0 0 0
2831 5 8.9925 17.985 26.9775 0 0 0
2844 5 8.9925 23.3805 0.0 0 0 0
2845 5 10.791 21.582 3.597 0 0 0
2849 5 10.791 21.582 7.194 0 0 0
2855 5 8.9925 21.582 12.5895 0 0 0
2856 5 8.9925 23.3805 10.791 0 0 0
2861 5 10.791 21.582 17.985 0 0 0
2867 5 8.9925 21.582 23.3805 0 0 0
2869 5 10.791 21.582 25.179 0 0 0
2874 5 10.791 23.3805 30.5745 0 0 0
2875 5 8.9925 21.582 30.5745 0 0 0
2877 5 10.791 21.582 32.373 0 0 0
2880 5 8.9925 23.3805 32.373 0 0 0
2883 5 8.9925 25.179 1.7985 0 0 0
2884 5 8.9925 26.9775 0.0 0 0 0
2886 5 10.791 26.9775 5.3955 0 0 0
2887 5 8.9925 25.179 5.3955 0 0 0
2890 5 10.791 26.9775 8.9925 0 0 0
2902 5 10.791 26.9775 19.7835 0 0 0
2903 5 8.9925 25.179 19.7835 0 0 0
2904 5 8.9925 26.9775 17.985 0 0 0
2905 5 10.791 25.179 21.582 0 0 0
2906 5 10.791 26.9775 23.3805 0 0 0
2911 5 8.9925 25.179 26.9775 0 0 0
2922 5 10.791 30.5745 1.7985 0 0 0
2923 5 8.9925 28.776 1.7985 0 0 0
2925 5 10.791 28.776 3.597 0 0 0
2931 5 8.9925 28.776 8.9925 0 0 0
2933 5 10.791 28.776 10.791 0 0 0
2935 5 8.9925 28.776 12.5895 0 0 0
2943 5 8.9925 28.776 19.7835 0 0 0
2946 5 10.791 30.5745 23.3805 0 0 0
2948 5 8.9925 30.5745 21.582 0 0 0
2950 5 10.791 30.5745 26.9775 0 0 0
2957 5 10.791 28.776 32.373 0 0 0
2960 5 8.9925 30.5745 32.373 0 0 0
2962 5 10.791 34.1715 1.7985 0 0 0
2963 5 8.9925 32.373 1.7985 0 0 0
2964 5 8.9925 34.1715 0.0 0 0 0
2972 5 8.9925 34.1715 7.194 0 0 0
2973 5 10.791 32.373 10.791 0 0 0
2974 5 10.791 34.1715 12.5895 0 0 0
2977 5 10.791 32.373 14.388 0 0 0
2978 5 10.791 34.1715 16.1865 0 0 0
2980 5 8.9925 34.1715 14.388 0 0 0
2986 5 10.791 34.1715 23.3805 0 0 0
2987 5 8.9925 32.373 23.3805 0 0 0
2989 5 10.791 32.373 25.179 0 0 0
2994 5 10.791 34.1715 30.5745 0 0 0
2996 5 8.9925 34.1715 28.776 0 0 0
3002 5 7.194 1.7985 1.7985 0 0 0
3003 5 5.3955 0.0 1.7985 0 0 0
3008 5 5.3955 1.7985 3.597 0 0 0
3009 5 7.194 0.0 7.194 0 0 0
3010 5 7.194 1.7985 8.9925 0 0 0
3014 5 7.194 1.7985 12.5895 0 0 0
3018 5 7.194 1.7985 16.1865 0 0 0
3019 5 5.3955 0.0 16.1865 0 0 0
3020 5 5.3955 1.7985 14.388 0 0 0
3025 5 7.194 0.0 21.582 0 0 0
3027 5 5.3955 0.0 23.3805 0 0 0
3028 5 5.3955 1.7985 21.582 0 0 0
3031 5 5.3955 0.0 26.9775 0 0 0
3043 5 5.3955 3.597 1.7985 0 0 0
3044 5 5.3955 5.3955 0.0 0 0 0
3047 5 5.3955 3.597 5.3955 0 0 0
3061 5 7.194 3.597 17.985 0 0 0
3065 5 7.194 3.597 21.582 0 0 0
3066 5 7.194 5.3955 23.3805 0 0 0
3072 5 5.3955 5.3955 25.179 0 0 0
3073 5 7.194 3.597 28.776 0 0 0
3076 5 5.3955 5.3955 28.776 0 0 0
3081 5 7.194 7.194 0.0 0 0 0
3082 5 7.194 8.9925 1.7985 0 0 0
3083 5 5.3955 7.194 1.7985 0 0 0
3091 5 5.3955 7.194 8.9925 0 0 0
3096 5 5.3955 8.9925 10.791 0 0 0
3097 5 7.194 7.194 14.388 0 0 0
3103 5 5.3955 7.194 19.7835 0 0 0
3115 5 5.3955 7.194 30.5745 0 0 0
3118 5 7.194 8.9925 34.1715 0 0 0
3119 5 5.3955 7.194 34.1715 0 0 0
3122 5 7.194 12.5895 1.7985 0 0 0
3125 5 7.194 10.791 3.597 0 0 0
3134 5 7.194 12.5895 12.5895 0 0 0
3139 5 5.3955 10.791 16.1865 0 0 0
3141 5 7.194 10.791 17.985 0 0 0
3143 5 5.3955 10.791 19.7835 0 0 0
3144 5 5.3955 12.5895 17.985 0 0 0
3150 5 7.194 12.5895 26.9775 0 0 0
3153 5 7.194 10.791 28.776 0 0 0
3157 5 7.194 10.791 32.373 0 0 0
3159 5 5.3955 10.791 34.1715 0 0 0
3171 5 5.3955 14.388 8.9925 0 0 0
3177 5 7.194 14.388 14.388 0 0 0
3183 5 5.3955 14.388 19.7835 0 0 0
3193 5 7.194 14.388 28.776 0 0 0
3194 5 7.194 16.1865 30.5745 0 0 0
3197 5 7.194 14.388 32.373 0 0 0
3198 5 7.194 16.1865 34.1715 0 0 0
3200 5 5.3955 16.1865 32.373 0 0 0
3209 5 7.194 17.985 7.194 0 0 0
3211 5 5.3955 17.985 8.9925 0 0 0
3220 5 5.3955 19.7835 14.388 0 0 0
3226 5 7.194 19.7835 23.3805 0 0 0
3231 5 5.3955 17.985 26.9775 0 0 0
3238 5 7.194 19.7835 34.1715 0 0 0
3242 5 7.194 23.3805 1.7985 0 0 0
3248 5 5.3955 23.3805 3.597 0 0 0
3249 5 7.194 21.582 7.194 0 0 0
3251 5 5.3955 21.582 8.9925 0 0 0
3256 5 5.3955 23.3805 10.791 0 0 0
3257 5 7.194 21.582 14.388 0 0 0
3259 5 5.3955 21.582 16.1865 0 0 0
3265 5 7.194 21.582 21.582 0 0 0
3266 5 7.194 23.3805 23.3805 0 0 0
3267 5 5.3955 21.582 23.3805 0 0 0
3279 5 5.3955 21.582 34.1715 0 0 0
3280 5 5.3955 23.3805 32.373 0 0 0
3285 5 7.194 25.179 3.597 0 0 0
3289 5 7.194 25.179 7.194 0 0 0
3297 5 7.194 25.179 14.388 0 0 0
3299 5 5.3955 25.179 16.1865 0 0 0
3301 5 7.194 25.179 17.985 0 0 0
3303 5 5.3955 25.179 19.7835 0 0 0
3310 5 7.194 26.9775 26.9775 0 0 0
3312 5 5.3955 26.9775 25.179 0 0 0
3325 5 7.194 28.776 3.597 0 0 0
3333 5 7.194 28.776 10.791 0 0 0
3334 5 7.194 30.5745 12.5895 0 0 0
3335 5 5.3955 28.776 12.5895 0 0 0
3337 5 7.194 28.776 14.388 0 0 0
3341 5 7.194 28.776 17.985 0 0 0
3344 5 5.3955 30.5745 17.985 0 0 0
3348 5 5.3955 30.5745 21.582 0 0 0
3352 5 5.3955 30.5745 25.179 0 0 0
3353 5 7.194 28.776 28.776 0 0 0
3357 5 7.194 28.776 32.373 0 0 0
3362 5 7.194 34.1715 1.7985 0 0 0
3364 5 5.3955 34.1715 0.0 0 0 0
3366 5 7.194 34.1715 5.3955 0 0 0
3368 5 5.3955 34.1715 3.597 0 0 0
3369 5 7.194 32.373 7.194 0 0 0
3371 5 5.3955 32.373 8.9925 0 0 0
3372 5 5.3955 34.1715 7.194 0 0 0
3375 5 5.3955 32.373 12.5895 0 0 0
3383 5 5.3955 32.373 19.7835 0 0 0
3384 5 5.3955 34.1715 17.985 0 0 0
3385 5 7.194 32.373 21.582 0 0 0
3389 5 7.194 32.373 25.179 0 0 0
3391 5 5.3955 32.373 26.9775 0 0 0
3392 5 5.3955 34.1715 25.179 0 0 0
3395 5 5.3955 32.373 30.5745 0 0 0
3401 5 3.597 0.0 0.0 0 0 0
3402 5 3.597 1.7985 1.7985 0 0 0
3403 5 1.7985 0.0 1.7985 0 0 0
3406 5 3.597 1.7985 5.3955 0 0 0
3413 5 3.597 0.0 10.791 0 0 0
3417 5 3.597 0.0 14.388 0 0 0
3420 5 1.7985 1.7985 14.388 0 0 0
3421 5 3.597 0.0 17.985 0 0 0
3428 5 1.7985 1.7985 21.582 0 0 0
3431 5 1.7985 0.0 26.9775 0 0 0
3433 5 3.597 0.0 28.776 0 0 0
3444 5 1.7985 5.3955 0.0 0 0 0
3446 5 3.597 5.3955 5.3955 0 0 0
3452 5 1.7985 5.3955 7.194 0 0 0
3459 5 1.7985 3.597 16.1865 0 0 0
3463 5 1.7985 3.597 19.7835 0 0 0
3465 5 3.597 3.597 21.582 0 0 0
3474 5 3.597 5.3955 30.5745 0 0 0
3477 5 3.597 3.597 32.373 0 0 0
3482 5 3.597 8.9925 1.7985 0 0 0
3489 5 3.597 7.194 7.194 0 0 0
3490 5 3.597 8.9925 8.9925 0 0 0
3498 5 3.597 8.9925 16.1865 0 0 0
3500 5 1.7985 8.9925 14.388 0 0 0
3501 5 3.597 7.194 17.985 0 0 0
3502 5 3.597 8.9925 19.7835 0 0 0
3504 5 1.7985 8.9925 17.985 0 0 0
3505 5 3.597 7.194 21.582 0 0 0
3506 5 3.597 8.9925 23.3805 0 0 0
3509 5 3.597 7.194 25.179 0 0 0
3514 5 3.597 8.9925 30.5745 0 0 0
3522 5 3.597 12.5895 1.7985 0 0 0
3526 5 3.597 12.5895 5.3955 0 0 0
3527 5 1.7985 10.791 5.3955 0 0 0
3528 5 1.7985 12.5895 3.597 0 0 0
3529 5 3.597 10.791 7.194 0 0 0
3532 5 1.7985 12.5895 7.194 0 0 0
3533 5 3.597 10.791 10.791 0 0 0
3541 5 3.597 10.791 17.985 0 0 0
3542 5 3.597 12.5895 19.7835 0 0 0
3545 5 3.597 10.791 21.582 0 0 0
3547 5 1.7985 10.791 23.3805 0 0 0
3551 5 1.7985 10.791 26.9775 0 0 0
3557 5 3.597 10.791 32.373 0 0 0
3566 5 3.597 16.1865 5.3955 0 0 0
3572 5 1.7985 16.1865 7.194 0 0 0
3575 5 1.7985 14.388 12.5895 0 0 0
3577 5 3.597 14.388 14.388 0 0 0
3578 5 3.597 16.1865 16.1865 0 0 0
3579 5 1.7985 14.388 16.1865 0 0 0
3581 5 3.597 14.388 17.985 0 0 0
3582 5 3.597 16.1865 19.7835 0 0 0
3583 5 1.7985 14.388 19.7835 0 0 0
3587 5 1.7985 14.388 23.3805 0 0 0
3592 5 1.7985 16.1865 25.179 0 0 0
3594 5 3.597 16.1865 30.5745 0 0 0
3598 5 3.597 16.1865 34.1715 0 0 0
3599 5 1.7985 14.388 34.1715 0 0 0
3608 5 1.7985 19.7835 3.597 0 0 0
3622 5 3.597 19.7835 19.7835 0 0 0
3626 5 3.597 19.7835 23.3805 0 0 0
3627 5 1.7985 17.985 23.3805 0 0 0
3628 5 1.7985 19.7835 21.582 0 0 0
3629 5 3.597 17.985 25.179 0 0 0
3630 5 3.597 19.7835 26.9775 0 0 0
3638 5 3.597 19.7835 34.1715 0 0 0
3642 5 3.597 23.3805 1.7985 0 0 0
3645 5 3.597 21.582 3.597 0 0 0
3646 5 3.597 23.3805 5.3955 0 0 0
3647 5 1.7985 21.582 5.3955 0 0 0
3653 5 3.597 21.582 10.791 0 0 0
3659 5 1.7985 21.582 16.1865 0 0 0
3660 5 1.7985 23.3805 14.388 0 0 0
3662 5 3.597 23.3805 19.7835 0 0 0
3666 5 3.597 23.3805 23.3805 0 0 0
3667 5 1.7985 21.582 23.3805 0 0 0
3675 5 1.7985 21.582 30.5745 0 0 0
3680 5 1.7985 23.3805 32.373 0 0 0
3683 5 1.7985 25.179 1.7985 0 0 0
3684 5 1.7985 26.9775 0.0 0 0 0
3687 5 1.7985 25.179 5.3955 0 0 0
3692 5 1.7985 26.9775 7.194 0 0 0
3693 5 3.597 25.179 10.791 0 0 0
3698 5 3.597 26.9775 16.1865 0 0 0
3701 5 3.597 25.179 17.985 0 0 0
3702 5 3.597 26.9775 19.7835 0 0 0
3703 5 1.7985 25.179 19.7835 0 0 0
3704 5 1.7985 26.9775 17.985 0 0 0
3708 5 1.7985 26.9775 21.582 0 0 0
3727 5 1.7985 28.776 5.3955 0 0 0
3731 5 1.7985 28.776 8.9925 0 0 0
3733 5 3.597 28.776 10.791 0 0 0
3746 5 3.597 30.5745 23.3805 0 0 0
3747 5 1.7985 28.776 23.3805 0 0 0
3753 5 3.597 28.776 28.776 0 0 0
3758 5 3.597 30.5745 34.1715 0 0 0
3763 5 1.7985 32.373 1.7985 0 0 0
3764 5 1.7985 34.1715 0.0 0 0 0
3769 5 3.597 32.373 7.194 0 0 0
3770 5 3.597 34.1715 8.9925 0 0 0
3773 5 3.597 32.373 10.791 0 0 0
3780 5 1.7985 34.1715 14.388 0 0 0
3788 5 1.7985 34.1715 21.582 0 0 0
3807 5 0.0 0.0 10.791 0 0 0
3808 5 0.0 1.7985 12.5895 0 0 0
3815 5 0.0 0.0 25.179 0 0 0
3821 5 0.0 3.597 0.0 0 0 0
3822 5 0.0 5.3955 1.7985 0 0 0
3830 5 0.0 5.3955 16.1865 0 0 0
3833 5 0.0 3.597 21.582 0 0 0
3836 5 0.0 5.3955 26.9775 0 0 0
3842 5 0.0 8.9925 1.7985 0 0 0
3844 5 0.0 8.9925 5.3955 0 0 0
3846 5 0.0 8.9925 8.9925 0 0 0
3847 5 0.0 7.194 10.791 0 0 0
3857 5 0.0 7.194 28.776 0 0 0
3859 5 0.0 7.194 32.373 0 0 0
3864 5 0.0 12.5895 5.3955 0 0 0
3870 5 0.0 12.5895 16.1865 0 0 0
3874 5 0.0 12.5895 23.3805 0 0 0
3876 5 0.0 12.5895 26.9775 0 0 0
3879 5 0.0 10.791 32.373 0 0 0
3880 5 0.0 12.5895 34.1715 0 0 0
3881 5 0.0 14.388 0.0 0 0 0
3887 5 0.0 14.388 10.791 0 0 0
3888 5 0.0 16.1865 12.5895 0 0 0
3892 5 0.0 16.1865 19.7835 0 0 0
3893 5 0.0 14.388 21.582 0 0 0
3897 5 0.0 14.388 28.776 0 0 0
3902 5 0.0 19.7835 1.7985 0 0 0
3905 5 0.0 17.985 7.194 0 0 0
3907 5 0.0 17.985 10.791 0 0 0
3912 5 0.0 19.7835 19.7835 0 0 0
3919 5 0.0 17.985 32.373 0 0 0
3925 5 0.0 21.582 7.194 0 0 0
3926 5 0.0 23.3805 8.9925 0 0 0
3928 5 0.0 23.3805 12.5895 0 0 0
3934 5 0.0 23.3805 23.3805 0 0 0
3939 5 0.0 21.582 32.373 0 0 0
3941 5 0.0 25.179 0.0 0 0 0
3949 5 0.0 25.179 14.388 0 0 0
3950 5 0.0 26.9775 16.1865 0 0 0
3954 5 0.0 26.9775 23.3805 0 0 0
3955 5 0.0 25.179 25.179 0 0 0
3958 5 0.0 26.9775 30.5745 0 0 0
3961 5 0.0 28.776 0.0 0 0 0
3963 5 0.0 28.776 3.597 0 0 0
3968 5 0.0 30.5745 12.5895 0 0 0
3975 5 0.0 28.776 25.179 0 0 0
3976 5 0.0 30.5745 26.9775 0 0 0
3977 5 0.0 28.776 28.776 0 0 0
3978 5 0.0 30.5745 30.5745 0 0 0
3979 5 0.0 28.776 32.373 0 0 0
3980 5 0.0 30.5745 34.1715 0 0 0
3986 5 0.0 34.1715 8.9925 0 0 0
3987 5 0.0 32.373 10.791 0 0 0
3988 5 0.0 34.1715 12.5895 0 0 0
3990 5 0.0 34.1715 16.1865 0 0 0
3994 5 0.0 34.1715 23.3805 0 0 0
