LAMMPS data file via write_data version 30 Jul 2021 timestep = 0
4000 atoms
5 atom types
0 35.97 xlo xhi
0 35.97 ylo yhi
0 35.97 zlo zhi
0.0 0.0 0.0 xy xz yz
 
Masses
 
1 1.0
2 2.0
3 3.0
4 4.0
5 5.0
 
Atoms  # atomic
 
1728 1 19.7835 30.5745 3.597 0 0 0
1053 1 25.179 3.597 10.791 0 0 0
562 1 32.373 34.1715 1.7985 0 0 0
3034 1 7.194 1.7985 30.5745 0 0 0
335 1 30.5745 10.791 12.5895 0 0 0
138 1 34.1715 23.3805 28.776 0 0 0
3709 1 3.597 25.179 25.179 0 0 0
3723 1 1.7985 28.776 1.7985 0 0 0
3229 1 7.194 17.985 25.179 0 0 0
1009 1 25.179 0.0 7.194 0 0 0
2019 1 16.1865 17.985 16.1865 0 0 0
3234 1 7.194 19.7835 30.5745 0 0 0
354 1 32.373 12.5895 30.5745 0 0 0
2224 1 12.5895 1.7985 17.985 0 0 0
2465 1 14.388 21.582 21.582 0 0 0
3523 1 1.7985 10.791 1.7985 0 0 0
2520 1 12.5895 26.9775 32.373 0 0 0
146 1 34.1715 26.9775 7.194 0 0 0
2956 1 8.9925 30.5745 28.776 0 0 0
3604 1 1.7985 19.7835 0.0 0 0 0
1003 1 23.3805 0.0 1.7985 0 0 0
2902 1 10.791 26.9775 19.7835 0 0 0
1676 1 19.7835 23.3805 28.776 0 0 0
1012 1 23.3805 1.7985 7.194 0 0 0
61 1 34.1715 10.791 1.7985 0 0 0
1467 1 19.7835 3.597 23.3805 0 0 0
492 1 30.5745 26.9775 7.194 0 0 0
846 1 28.776 23.3805 5.3955 0 0 0
1194 1 25.179 16.1865 30.5745 0 0 0
466 1 32.373 23.3805 23.3805 0 0 0
3068 1 5.3955 5.3955 21.582 0 0 0
450 1 32.373 23.3805 8.9925 0 0 0
3267 1 5.3955 21.582 23.3805 0 0 0
2125 1 17.985 28.776 3.597 0 0 0
3048 1 5.3955 5.3955 3.597 0 0 0
666 1 28.776 5.3955 23.3805 0 0 0
623 1 26.9775 0.0 19.7835 0 0 0
1198 1 25.179 16.1865 34.1715 0 0 0
3721 1 3.597 28.776 0.0 0 0 0
1684 1 19.7835 26.9775 0.0 0 0 0
187 1 34.1715 32.373 12.5895 0 0 0
3909 1 0.0 17.985 14.388 0 0 0
1875 1 16.1865 3.597 30.5745 0 0 0
906 1 28.776 26.9775 23.3805 0 0 0
1430 1 21.582 1.7985 26.9775 0 0 0
1983 1 16.1865 14.388 19.7835 0 0 0
3380 1 5.3955 34.1715 14.388 0 0 0
626 1 28.776 1.7985 23.3805 0 0 0
3245 1 7.194 21.582 3.597 0 0 0
2314 1 14.388 8.9925 30.5745 0 0 0
1163 1 23.3805 14.388 1.7985 0 0 0
2410 1 14.388 19.7835 8.9925 0 0 0
1098 1 25.179 8.9925 16.1865 0 0 0
1966 1 17.985 16.1865 5.3955 0 0 0
3791 1 1.7985 32.373 26.9775 0 0 0
2459 1 12.5895 21.582 16.1865 0 0 0
3186 1 7.194 16.1865 23.3805 0 0 0
1479 1 19.7835 3.597 34.1715 0 0 0
1351 1 23.3805 28.776 26.9775 0 0 0
3274 1 7.194 23.3805 30.5745 0 0 0
1743 1 19.7835 28.776 19.7835 0 0 0
3657 1 3.597 21.582 14.388 0 0 0
3788 1 1.7985 34.1715 21.582 0 0 0
2750 1 10.791 12.5895 26.9775 0 0 0
2164 1 16.1865 34.1715 0.0 0 0 0
2748 1 8.9925 12.5895 21.582 0 0 0
269 1 32.373 3.597 25.179 0 0 0
2264 1 12.5895 5.3955 17.985 0 0 0
2635 1 8.9925 0.0 30.5745 0 0 0
2383 1 12.5895 14.388 19.7835 0 0 0
3126 1 7.194 12.5895 5.3955 0 0 0
2348 1 12.5895 12.5895 21.582 0 0 0
1786 1 21.582 34.1715 23.3805 0 0 0
334 1 32.373 12.5895 12.5895 0 0 0
3866 1 0.0 12.5895 8.9925 0 0 0
1483 1 19.7835 7.194 1.7985 0 0 0
3931 1 0.0 21.582 17.985 0 0 0
1698 1 21.582 26.9775 16.1865 0 0 0
748 1 26.9775 12.5895 21.582 0 0 0
2528 1 12.5895 30.5745 3.597 0 0 0
3712 1 1.7985 26.9775 25.179 0 0 0
2833 1 10.791 17.985 28.776 0 0 0
3989 1 0.0 32.373 14.388 0 0 0
2267 1 12.5895 3.597 23.3805 0 0 0
1689 1 21.582 25.179 7.194 0 0 0
1620 1 19.7835 19.7835 14.388 0 0 0
1054 1 25.179 5.3955 12.5895 0 0 0
3114 1 7.194 8.9925 30.5745 0 0 0
116 1 34.1715 19.7835 25.179 0 0 0
1294 1 25.179 26.9775 12.5895 0 0 0
1824 1 16.1865 1.7985 17.985 0 0 0
1638 1 21.582 19.7835 34.1715 0 0 0
3350 1 7.194 30.5745 26.9775 0 0 0
2526 1 14.388 30.5745 5.3955 0 0 0
359 1 30.5745 10.791 34.1715 0 0 0
2691 1 8.9925 7.194 8.9925 0 0 0
1895 1 16.1865 7.194 12.5895 0 0 0
373 1 32.373 14.388 10.791 0 0 0
1892 1 16.1865 8.9925 7.194 0 0 0
3492 1 1.7985 8.9925 7.194 0 0 0
563 1 30.5745 32.373 1.7985 0 0 0
2244 1 12.5895 5.3955 0.0 0 0 0
911 1 26.9775 25.179 26.9775 0 0 0
3897 1 0.0 14.388 28.776 0 0 0
1192 1 23.3805 16.1865 25.179 0 0 0
3059 1 5.3955 3.597 16.1865 0 0 0
1912 1 16.1865 8.9925 25.179 0 0 0
2087 1 16.1865 25.179 5.3955 0 0 0
3251 1 5.3955 21.582 8.9925 0 0 0
3594 1 3.597 16.1865 30.5745 0 0 0
679 1 26.9775 3.597 34.1715 0 0 0
657 1 28.776 3.597 14.388 0 0 0
2300 1 12.5895 8.9925 14.388 0 0 0
402 1 32.373 19.7835 1.7985 0 0 0
2578 1 14.388 34.1715 16.1865 0 0 0
1714 1 21.582 26.9775 30.5745 0 0 0
3475 1 1.7985 3.597 30.5745 0 0 0
2891 1 8.9925 25.179 8.9925 0 0 0
1498 1 21.582 8.9925 16.1865 0 0 0
2859 1 8.9925 21.582 16.1865 0 0 0
1666 1 21.582 23.3805 23.3805 0 0 0
2137 1 17.985 28.776 14.388 0 0 0
2202 1 14.388 1.7985 1.7985 0 0 0
1926 1 17.985 12.5895 5.3955 0 0 0
2897 1 10.791 25.179 14.388 0 0 0
3839 1 0.0 3.597 32.373 0 0 0
1147 1 23.3805 10.791 23.3805 0 0 0
2154 1 17.985 30.5745 30.5745 0 0 0
1079 1 23.3805 3.597 34.1715 0 0 0
828 1 26.9775 19.7835 21.582 0 0 0
3727 1 1.7985 28.776 5.3955 0 0 0
2294 1 14.388 8.9925 12.5895 0 0 0
3834 1 0.0 5.3955 23.3805 0 0 0
508 1 30.5745 26.9775 21.582 0 0 0
2120 1 16.1865 26.9775 32.373 0 0 0
681 1 28.776 7.194 0.0 0 0 0
3813 1 0.0 0.0 21.582 0 0 0
3051 1 5.3955 3.597 8.9925 0 0 0
2369 1 14.388 14.388 7.194 0 0 0
3419 1 1.7985 0.0 16.1865 0 0 0
3417 1 3.597 0.0 14.388 0 0 0
781 1 28.776 14.388 17.985 0 0 0
2830 1 10.791 19.7835 26.9775 0 0 0
213 1 32.373 0.0 10.791 0 0 0
2788 1 8.9925 16.1865 21.582 0 0 0
1632 1 19.7835 19.7835 25.179 0 0 0
3117 1 7.194 7.194 32.373 0 0 0
1861 1 17.985 3.597 17.985 0 0 0
1584 1 19.7835 16.1865 17.985 0 0 0
3678 1 3.597 23.3805 34.1715 0 0 0
1264 1 23.3805 23.3805 17.985 0 0 0
2257 1 14.388 3.597 14.388 0 0 0
1677 1 21.582 21.582 32.373 0 0 0
1156 1 23.3805 12.5895 28.776 0 0 0
2789 1 10.791 14.388 25.179 0 0 0
3571 1 1.7985 14.388 8.9925 0 0 0
1836 1 16.1865 1.7985 28.776 0 0 0
260 1 30.5745 5.3955 14.388 0 0 0
1201 1 25.179 17.985 0.0 0 0 0
1462 1 21.582 5.3955 19.7835 0 0 0
1024 1 23.3805 1.7985 17.985 0 0 0
3423 1 1.7985 0.0 19.7835 0 0 0
1956 1 16.1865 12.5895 28.776 0 0 0
2416 1 12.5895 19.7835 10.791 0 0 0
21 1 34.1715 3.597 1.7985 0 0 0
1996 1 16.1865 16.1865 28.776 0 0 0
56 1 34.1715 8.9925 25.179 0 0 0
985 1 28.776 32.373 21.582 0 0 0
805 1 28.776 17.985 3.597 0 0 0
1534 1 21.582 12.5895 12.5895 0 0 0
3021 1 7.194 0.0 17.985 0 0 0
2669 1 10.791 3.597 25.179 0 0 0
1646 1 21.582 23.3805 5.3955 0 0 0
2345 1 14.388 10.791 21.582 0 0 0
2174 1 17.985 34.1715 12.5895 0 0 0
761 1 28.776 14.388 0.0 0 0 0
5 1 34.1715 0.0 8.9925 0 0 0
3759 1 1.7985 28.776 34.1715 0 0 0
1507 1 19.7835 7.194 23.3805 0 0 0
85 1 34.1715 14.388 8.9925 0 0 0
762 1 28.776 16.1865 1.7985 0 0 0
3205 1 7.194 17.985 3.597 0 0 0
3525 1 3.597 10.791 3.597 0 0 0
1358 1 25.179 30.5745 34.1715 0 0 0
384 1 30.5745 16.1865 17.985 0 0 0
3499 1 1.7985 7.194 16.1865 0 0 0
1125 1 25.179 10.791 3.597 0 0 0
1196 1 23.3805 16.1865 28.776 0 0 0
1709 1 21.582 25.179 25.179 0 0 0
245 1 32.373 3.597 3.597 0 0 0
264 1 30.5745 5.3955 17.985 0 0 0
2102 1 17.985 26.9775 19.7835 0 0 0
280 1 30.5745 5.3955 32.373 0 0 0
1451 1 19.7835 3.597 8.9925 0 0 0
774 1 28.776 16.1865 12.5895 0 0 0
1811 1 16.1865 0.0 8.9925 0 0 0
2535 1 12.5895 28.776 12.5895 0 0 0
398 1 32.373 16.1865 34.1715 0 0 0
3713 1 3.597 25.179 28.776 0 0 0
1685 1 21.582 25.179 3.597 0 0 0
3800 1 1.7985 34.1715 32.373 0 0 0
826 1 28.776 19.7835 23.3805 0 0 0
2037 1 17.985 17.985 32.373 0 0 0
3214 1 7.194 19.7835 12.5895 0 0 0
3684 1 1.7985 26.9775 0.0 0 0 0
3611 1 1.7985 17.985 8.9925 0 0 0
3707 1 1.7985 25.179 23.3805 0 0 0
2084 1 16.1865 26.9775 0.0 0 0 0
988 1 26.9775 34.1715 21.582 0 0 0
1298 1 25.179 26.9775 16.1865 0 0 0
205 1 32.373 0.0 3.597 0 0 0
1008 1 23.3805 1.7985 3.597 0 0 0
1817 1 17.985 0.0 14.388 0 0 0
3093 1 7.194 7.194 10.791 0 0 0
2672 1 8.9925 5.3955 25.179 0 0 0
916 1 26.9775 26.9775 28.776 0 0 0
2954 1 10.791 30.5745 30.5745 0 0 0
668 1 26.9775 5.3955 21.582 0 0 0
804 1 26.9775 19.7835 0.0 0 0 0
1336 1 23.3805 30.5745 10.791 0 0 0
1831 1 16.1865 0.0 26.9775 0 0 0
1410 1 21.582 1.7985 8.9925 0 0 0
517 1 32.373 25.179 32.373 0 0 0
1910 1 17.985 8.9925 26.9775 0 0 0
793 1 28.776 14.388 28.776 0 0 0
2283 1 12.5895 7.194 1.7985 0 0 0
3790 1 3.597 34.1715 26.9775 0 0 0
2394 1 14.388 16.1865 30.5745 0 0 0
1424 1 19.7835 1.7985 17.985 0 0 0
1974 1 17.985 16.1865 12.5895 0 0 0
943 1 26.9775 28.776 19.7835 0 0 0
2422 1 14.388 19.7835 19.7835 0 0 0
1036 1 23.3805 1.7985 28.776 0 0 0
2798 1 10.791 16.1865 34.1715 0 0 0
1585 1 21.582 14.388 21.582 0 0 0
810 1 28.776 19.7835 8.9925 0 0 0
2384 1 12.5895 16.1865 17.985 0 0 0
2677 1 10.791 3.597 32.373 0 0 0
485 1 32.373 25.179 3.597 0 0 0
1523 1 19.7835 10.791 1.7985 0 0 0
3459 1 1.7985 3.597 16.1865 0 0 0
1781 1 21.582 32.373 17.985 0 0 0
1612 1 19.7835 19.7835 7.194 0 0 0
2444 1 12.5895 23.3805 0.0 0 0 0
431 1 30.5745 17.985 26.9775 0 0 0
669 1 28.776 3.597 25.179 0 0 0
1044 1 23.3805 5.3955 0.0 0 0 0
1085 1 25.179 7.194 3.597 0 0 0
101 1 34.1715 17.985 1.7985 0 0 0
3645 1 3.597 21.582 3.597 0 0 0
3661 1 3.597 21.582 17.985 0 0 0
905 1 28.776 25.179 21.582 0 0 0
3530 1 3.597 12.5895 8.9925 0 0 0
1779 1 19.7835 32.373 16.1865 0 0 0
1252 1 23.3805 23.3805 7.194 0 0 0
754 1 28.776 12.5895 30.5745 0 0 0
424 1 30.5745 19.7835 17.985 0 0 0
147 1 34.1715 25.179 12.5895 0 0 0
3560 1 1.7985 12.5895 32.373 0 0 0
3999 1 0.0 32.373 32.373 0 0 0
3919 1 0.0 17.985 32.373 0 0 0
313 1 32.373 7.194 28.776 0 0 0
1701 1 21.582 25.179 17.985 0 0 0
3362 1 7.194 34.1715 1.7985 0 0 0
3082 1 7.194 8.9925 1.7985 0 0 0
779 1 26.9775 14.388 16.1865 0 0 0
3686 1 3.597 26.9775 5.3955 0 0 0
2626 1 10.791 1.7985 23.3805 0 0 0
2256 1 12.5895 5.3955 10.791 0 0 0
1411 1 19.7835 0.0 8.9925 0 0 0
1562 1 21.582 16.1865 1.7985 0 0 0
1189 1 25.179 14.388 25.179 0 0 0
2115 1 16.1865 25.179 30.5745 0 0 0
2094 1 17.985 26.9775 12.5895 0 0 0
1661 1 21.582 21.582 17.985 0 0 0
1876 1 16.1865 5.3955 28.776 0 0 0
2297 1 14.388 7.194 14.388 0 0 0
62 1 34.1715 12.5895 0.0 0 0 0
2879 1 8.9925 21.582 34.1715 0 0 0
899 1 26.9775 25.179 16.1865 0 0 0
1525 1 21.582 10.791 3.597 0 0 0
1046 1 25.179 5.3955 5.3955 0 0 0
513 1 32.373 25.179 28.776 0 0 0
904 1 26.9775 26.9775 17.985 0 0 0
1440 1 19.7835 1.7985 32.373 0 0 0
44 1 34.1715 8.9925 3.597 0 0 0
3667 1 1.7985 21.582 23.3805 0 0 0
3760 1 1.7985 30.5745 32.373 0 0 0
1076 1 23.3805 5.3955 28.776 0 0 0
2984 1 8.9925 34.1715 17.985 0 0 0
953 1 28.776 28.776 28.776 0 0 0
3454 1 3.597 5.3955 12.5895 0 0 0
1227 1 23.3805 17.985 23.3805 0 0 0
2634 1 10.791 1.7985 30.5745 0 0 0
3681 1 3.597 25.179 0.0 0 0 0
2376 1 12.5895 16.1865 10.791 0 0 0
1320 1 23.3805 26.9775 32.373 0 0 0
1335 1 23.3805 28.776 12.5895 0 0 0
3319 1 5.3955 25.179 34.1715 0 0 0
1111 1 23.3805 7.194 26.9775 0 0 0
952 1 26.9775 30.5745 25.179 0 0 0
2207 1 12.5895 0.0 5.3955 0 0 0
3036 1 5.3955 1.7985 28.776 0 0 0
2927 1 8.9925 28.776 5.3955 0 0 0
2364 1 12.5895 16.1865 0.0 0 0 0
1847 1 16.1865 3.597 5.3955 0 0 0
214 1 32.373 1.7985 12.5895 0 0 0
3024 1 5.3955 1.7985 17.985 0 0 0
1225 1 25.179 17.985 21.582 0 0 0
888 1 26.9775 26.9775 3.597 0 0 0
3493 1 3.597 7.194 10.791 0 0 0
1878 1 17.985 5.3955 34.1715 0 0 0
3614 1 3.597 19.7835 12.5895 0 0 0
1295 1 23.3805 25.179 12.5895 0 0 0
3247 1 5.3955 21.582 5.3955 0 0 0
3806 1 0.0 1.7985 8.9925 0 0 0
521 1 32.373 28.776 0.0 0 0 0
1343 1 23.3805 28.776 19.7835 0 0 0
976 1 26.9775 34.1715 10.791 0 0 0
3650 1 3.597 23.3805 8.9925 0 0 0
1060 1 23.3805 5.3955 14.388 0 0 0
3227 1 5.3955 17.985 23.3805 0 0 0
1546 1 21.582 12.5895 23.3805 0 0 0
55 1 34.1715 7.194 26.9775 0 0 0
3156 1 5.3955 12.5895 28.776 0 0 0
2024 1 16.1865 19.7835 17.985 0 0 0
2423 1 12.5895 17.985 19.7835 0 0 0
3648 1 1.7985 23.3805 3.597 0 0 0
707 1 26.9775 7.194 23.3805 0 0 0
1204 1 23.3805 19.7835 0.0 0 0 0
652 1 26.9775 5.3955 7.194 0 0 0
2109 1 17.985 25.179 25.179 0 0 0
869 1 28.776 21.582 25.179 0 0 0
3378 1 7.194 34.1715 16.1865 0 0 0
3688 1 1.7985 26.9775 3.597 0 0 0
541 1 32.373 28.776 17.985 0 0 0
75 1 34.1715 10.791 26.9775 0 0 0
1946 1 17.985 12.5895 23.3805 0 0 0
1510 1 21.582 8.9925 26.9775 0 0 0
2408 1 12.5895 19.7835 3.597 0 0 0
891 1 26.9775 25.179 8.9925 0 0 0
1970 1 17.985 16.1865 8.9925 0 0 0
3446 1 3.597 5.3955 5.3955 0 0 0
1814 1 17.985 1.7985 12.5895 0 0 0
851 1 26.9775 21.582 8.9925 0 0 0
3103 1 5.3955 7.194 19.7835 0 0 0
3933 1 0.0 21.582 21.582 0 0 0
258 1 32.373 5.3955 16.1865 0 0 0
3880 1 0.0 12.5895 34.1715 0 0 0
353 1 32.373 10.791 28.776 0 0 0
1659 1 19.7835 21.582 16.1865 0 0 0
772 1 26.9775 16.1865 7.194 0 0 0
3947 1 0.0 25.179 10.791 0 0 0
2509 1 14.388 25.179 25.179 0 0 0
1990 1 17.985 16.1865 26.9775 0 0 0
3476 1 1.7985 5.3955 28.776 0 0 0
1173 1 25.179 14.388 10.791 0 0 0
1181 1 25.179 14.388 17.985 0 0 0
1265 1 25.179 21.582 21.582 0 0 0
708 1 26.9775 8.9925 21.582 0 0 0
3500 1 1.7985 8.9925 14.388 0 0 0
1775 1 19.7835 32.373 12.5895 0 0 0
1449 1 21.582 3.597 7.194 0 0 0
3062 1 7.194 5.3955 19.7835 0 0 0
386 1 32.373 16.1865 23.3805 0 0 0
1117 1 25.179 7.194 32.373 0 0 0
861 1 28.776 21.582 17.985 0 0 0
3977 1 0.0 28.776 28.776 0 0 0
792 1 26.9775 16.1865 25.179 0 0 0
885 1 28.776 25.179 3.597 0 0 0
2558 1 14.388 30.5745 34.1715 0 0 0
3970 1 0.0 30.5745 16.1865 0 0 0
1130 1 25.179 12.5895 8.9925 0 0 0
90 1 34.1715 16.1865 14.388 0 0 0
3413 1 3.597 0.0 10.791 0 0 0
1500 1 19.7835 8.9925 14.388 0 0 0
2510 1 14.388 26.9775 26.9775 0 0 0
1987 1 16.1865 14.388 23.3805 0 0 0
1488 1 19.7835 8.9925 3.597 0 0 0
1083 1 23.3805 7.194 1.7985 0 0 0
881 1 28.776 25.179 0.0 0 0 0
3930 1 0.0 23.3805 16.1865 0 0 0
299 1 30.5745 7.194 16.1865 0 0 0
1004 1 23.3805 1.7985 0.0 0 0 0
3574 1 3.597 16.1865 12.5895 0 0 0
1555 1 19.7835 10.791 30.5745 0 0 0
427 1 30.5745 17.985 23.3805 0 0 0
3478 1 3.597 5.3955 34.1715 0 0 0
3039 1 5.3955 0.0 34.1715 0 0 0
486 1 32.373 26.9775 5.3955 0 0 0
856 1 26.9775 23.3805 10.791 0 0 0
540 1 30.5745 30.5745 14.388 0 0 0
1043 1 23.3805 3.597 1.7985 0 0 0
2911 1 8.9925 25.179 26.9775 0 0 0
2482 1 14.388 26.9775 1.7985 0 0 0
3685 1 3.597 25.179 3.597 0 0 0
425 1 32.373 17.985 21.582 0 0 0
2455 1 12.5895 21.582 12.5895 0 0 0
778 1 28.776 16.1865 16.1865 0 0 0
919 1 26.9775 25.179 34.1715 0 0 0
3696 1 1.7985 26.9775 10.791 0 0 0
2177 1 17.985 32.373 14.388 0 0 0
3484 1 1.7985 8.9925 0.0 0 0 0
3416 1 1.7985 1.7985 10.791 0 0 0
2763 1 8.9925 14.388 1.7985 0 0 0
1257 1 25.179 21.582 14.388 0 0 0
871 1 26.9775 21.582 26.9775 0 0 0
3796 1 1.7985 34.1715 28.776 0 0 0
502 1 32.373 26.9775 19.7835 0 0 0
1378 1 25.179 34.1715 16.1865 0 0 0
620 1 26.9775 1.7985 14.388 0 0 0
1707 1 19.7835 25.179 23.3805 0 0 0
2588 1 12.5895 34.1715 21.582 0 0 0
2590 1 14.388 34.1715 26.9775 0 0 0
1657 1 21.582 21.582 14.388 0 0 0
3464 1 1.7985 5.3955 17.985 0 0 0
3887 1 0.0 14.388 10.791 0 0 0
282 1 32.373 8.9925 1.7985 0 0 0
1323 1 23.3805 28.776 1.7985 0 0 0
3037 1 7.194 0.0 32.373 0 0 0
3974 1 0.0 30.5745 23.3805 0 0 0
2981 1 10.791 32.373 17.985 0 0 0
2639 1 8.9925 0.0 34.1715 0 0 0
266 1 32.373 5.3955 23.3805 0 0 0
1120 1 23.3805 8.9925 32.373 0 0 0
2625 1 10.791 0.0 21.582 0 0 0
3635 1 1.7985 17.985 30.5745 0 0 0
700 1 26.9775 8.9925 14.388 0 0 0
3013 1 7.194 0.0 10.791 0 0 0
2190 1 17.985 34.1715 26.9775 0 0 0
3019 1 5.3955 0.0 16.1865 0 0 0
355 1 30.5745 10.791 30.5745 0 0 0
1115 1 23.3805 7.194 30.5745 0 0 0
852 1 26.9775 23.3805 7.194 0 0 0
1485 1 21.582 7.194 3.597 0 0 0
1516 1 19.7835 8.9925 28.776 0 0 0
1825 1 17.985 0.0 21.582 0 0 0
2159 1 16.1865 28.776 34.1715 0 0 0
28 1 34.1715 5.3955 10.791 0 0 0
3746 1 3.597 30.5745 23.3805 0 0 0
2155 1 16.1865 28.776 30.5745 0 0 0
2829 1 10.791 17.985 25.179 0 0 0
1178 1 25.179 16.1865 16.1865 0 0 0
2069 1 17.985 21.582 25.179 0 0 0
2706 1 10.791 8.9925 23.3805 0 0 0
2453 1 14.388 21.582 10.791 0 0 0
2728 1 8.9925 12.5895 3.597 0 0 0
2945 1 10.791 28.776 21.582 0 0 0
706 1 28.776 8.9925 23.3805 0 0 0
1631 1 19.7835 17.985 26.9775 0 0 0
3129 1 7.194 10.791 7.194 0 0 0
1412 1 19.7835 1.7985 7.194 0 0 0
1777 1 21.582 32.373 14.388 0 0 0
1000 1 26.9775 34.1715 32.373 0 0 0
799 1 26.9775 14.388 34.1715 0 0 0
1492 1 19.7835 8.9925 7.194 0 0 0
3981 1 0.0 32.373 0.0 0 0 0
2716 1 8.9925 8.9925 28.776 0 0 0
3647 1 1.7985 21.582 5.3955 0 0 0
185 1 34.1715 32.373 8.9925 0 0 0
3171 1 5.3955 14.388 8.9925 0 0 0
3008 1 5.3955 1.7985 3.597 0 0 0
318 1 32.373 8.9925 34.1715 0 0 0
3557 1 3.597 10.791 32.373 0 0 0
2729 1 10.791 10.791 7.194 0 0 0
3986 1 0.0 34.1715 8.9925 0 0 0
3848 1 0.0 8.9925 12.5895 0 0 0
4 1 34.1715 1.7985 3.597 0 0 0
317 1 32.373 7.194 32.373 0 0 0
2656 1 8.9925 5.3955 10.791 0 0 0
3879 1 0.0 10.791 32.373 0 0 0
2157 1 17.985 28.776 32.373 0 0 0
1377 1 25.179 32.373 14.388 0 0 0
1737 1 21.582 28.776 14.388 0 0 0
1418 1 21.582 1.7985 16.1865 0 0 0
2933 1 10.791 28.776 10.791 0 0 0
686 1 28.776 8.9925 5.3955 0 0 0
2370 1 14.388 16.1865 8.9925 0 0 0
1233 1 25.179 17.985 28.776 0 0 0
3260 1 5.3955 23.3805 14.388 0 0 0
3576 1 1.7985 16.1865 10.791 0 0 0
3690 1 3.597 26.9775 8.9925 0 0 0
3923 1 0.0 21.582 3.597 0 0 0
3660 1 1.7985 23.3805 14.388 0 0 0
3939 1 0.0 21.582 32.373 0 0 0
2676 1 8.9925 5.3955 28.776 0 0 0
2290 1 14.388 8.9925 8.9925 0 0 0
2791 1 8.9925 14.388 26.9775 0 0 0
2353 1 14.388 10.791 28.776 0 0 0
2703 1 8.9925 7.194 19.7835 0 0 0
2877 1 10.791 21.582 32.373 0 0 0
3867 1 0.0 10.791 10.791 0 0 0
931 1 26.9775 28.776 8.9925 0 0 0
74 1 34.1715 12.5895 21.582 0 0 0
630 1 28.776 1.7985 26.9775 0 0 0
647 1 26.9775 3.597 5.3955 0 0 0
2424 1 12.5895 19.7835 17.985 0 0 0
1187 1 23.3805 14.388 23.3805 0 0 0
3886 1 0.0 16.1865 8.9925 0 0 0
1477 1 21.582 3.597 32.373 0 0 0
3067 1 5.3955 3.597 23.3805 0 0 0
3636 1 1.7985 19.7835 28.776 0 0 0
1868 1 16.1865 5.3955 21.582 0 0 0
1978 1 17.985 16.1865 16.1865 0 0 0
1590 1 21.582 16.1865 26.9775 0 0 0
2117 1 17.985 25.179 32.373 0 0 0
1064 1 23.3805 5.3955 17.985 0 0 0
3852 1 0.0 8.9925 19.7835 0 0 0
454 1 32.373 23.3805 12.5895 0 0 0
2619 1 8.9925 0.0 16.1865 0 0 0
2043 1 16.1865 21.582 1.7985 0 0 0
38 1 34.1715 5.3955 28.776 0 0 0
3445 1 3.597 3.597 3.597 0 0 0
2737 1 10.791 10.791 14.388 0 0 0
110 1 34.1715 19.7835 14.388 0 0 0
168 1 34.1715 30.5745 10.791 0 0 0
250 1 32.373 5.3955 8.9925 0 0 0
742 1 28.776 12.5895 19.7835 0 0 0
1482 1 21.582 8.9925 1.7985 0 0 0
2642 1 10.791 5.3955 1.7985 0 0 0
2431 1 12.5895 17.985 26.9775 0 0 0
2822 1 10.791 19.7835 19.7835 0 0 0
3715 1 1.7985 25.179 30.5745 0 0 0
584 1 30.5745 34.1715 17.985 0 0 0
2163 1 16.1865 32.373 1.7985 0 0 0
2078 1 17.985 23.3805 34.1715 0 0 0
3849 1 0.0 7.194 14.388 0 0 0
3355 1 5.3955 28.776 30.5745 0 0 0
1269 1 25.179 21.582 25.179 0 0 0
1177 1 25.179 14.388 14.388 0 0 0
709 1 28.776 7.194 25.179 0 0 0
3408 1 1.7985 1.7985 3.597 0 0 0
2743 1 8.9925 10.791 19.7835 0 0 0
825 1 28.776 17.985 21.582 0 0 0
3092 1 5.3955 8.9925 7.194 0 0 0
3058 1 7.194 5.3955 16.1865 0 0 0
638 1 28.776 1.7985 34.1715 0 0 0
271 1 30.5745 3.597 26.9775 0 0 0
459 1 30.5745 21.582 16.1865 0 0 0
2962 1 10.791 34.1715 1.7985 0 0 0
3429 1 3.597 0.0 25.179 0 0 0
3230 1 7.194 19.7835 26.9775 0 0 0
351 1 30.5745 10.791 26.9775 0 0 0
2138 1 17.985 30.5745 16.1865 0 0 0
1944 1 16.1865 12.5895 17.985 0 0 0
1414 1 21.582 1.7985 12.5895 0 0 0
1773 1 21.582 32.373 10.791 0 0 0
1068 1 23.3805 5.3955 21.582 0 0 0
443 1 30.5745 21.582 1.7985 0 0 0
1404 1 19.7835 1.7985 0.0 0 0 0
501 1 32.373 25.179 17.985 0 0 0
3837 1 0.0 3.597 28.776 0 0 0
1478 1 21.582 5.3955 34.1715 0 0 0
1674 1 21.582 23.3805 30.5745 0 0 0
179 1 34.1715 28.776 34.1715 0 0 0
3163 1 5.3955 14.388 1.7985 0 0 0
312 1 30.5745 8.9925 25.179 0 0 0
3310 1 7.194 26.9775 26.9775 0 0 0
2336 1 12.5895 12.5895 10.791 0 0 0
3900 1 0.0 16.1865 34.1715 0 0 0
1300 1 23.3805 26.9775 14.388 0 0 0
1542 1 21.582 12.5895 19.7835 0 0 0
1463 1 19.7835 3.597 19.7835 0 0 0
423 1 30.5745 17.985 19.7835 0 0 0
1390 1 25.179 34.1715 26.9775 0 0 0
2245 1 14.388 3.597 3.597 0 0 0
140 1 34.1715 23.3805 32.373 0 0 0
2442 1 14.388 23.3805 1.7985 0 0 0
967 1 26.9775 32.373 5.3955 0 0 0
396 1 30.5745 16.1865 28.776 0 0 0
3359 1 5.3955 28.776 34.1715 0 0 0
3561 1 3.597 14.388 0.0 0 0 0
3549 1 3.597 10.791 25.179 0 0 0
3504 1 1.7985 8.9925 17.985 0 0 0
3631 1 1.7985 17.985 26.9775 0 0 0
3133 1 7.194 10.791 10.791 0 0 0
272 1 30.5745 5.3955 25.179 0 0 0
1384 1 23.3805 34.1715 17.985 0 0 0
3220 1 5.3955 19.7835 14.388 0 0 0
2362 1 14.388 16.1865 1.7985 0 0 0
408 1 30.5745 19.7835 3.597 0 0 0
1321 1 25.179 28.776 0.0 0 0 0
2806 1 10.791 19.7835 5.3955 0 0 0
3782 1 3.597 34.1715 19.7835 0 0 0
1953 1 17.985 10.791 28.776 0 0 0
3626 1 3.597 19.7835 23.3805 0 0 0
2292 1 12.5895 8.9925 7.194 0 0 0
2470 1 14.388 23.3805 26.9775 0 0 0
3687 1 1.7985 25.179 5.3955 0 0 0
119 1 34.1715 17.985 34.1715 0 0 0
1245 1 25.179 21.582 3.597 0 0 0
1013 1 25.179 0.0 10.791 0 0 0
2360 1 12.5895 12.5895 32.373 0 0 0
1654 1 21.582 23.3805 12.5895 0 0 0
1719 1 19.7835 25.179 34.1715 0 0 0
2606 1 10.791 1.7985 5.3955 0 0 0
2901 1 10.791 25.179 17.985 0 0 0
3747 1 1.7985 28.776 23.3805 0 0 0
1374 1 25.179 34.1715 12.5895 0 0 0
2504 1 12.5895 26.9775 17.985 0 0 0
1138 1 25.179 12.5895 16.1865 0 0 0
1853 1 17.985 3.597 10.791 0 0 0
3031 1 5.3955 0.0 26.9775 0 0 0
1354 1 25.179 30.5745 30.5745 0 0 0
3676 1 1.7985 23.3805 28.776 0 0 0
3370 1 7.194 34.1715 8.9925 0 0 0
2905 1 10.791 25.179 21.582 0 0 0
453 1 32.373 21.582 10.791 0 0 0
2777 1 10.791 14.388 14.388 0 0 0
1236 1 23.3805 19.7835 28.776 0 0 0
348 1 30.5745 12.5895 21.582 0 0 0
1945 1 17.985 10.791 21.582 0 0 0
3639 1 1.7985 17.985 34.1715 0 0 0
130 1 34.1715 23.3805 14.388 0 0 0
166 1 34.1715 30.5745 7.194 0 0 0
3177 1 7.194 14.388 14.388 0 0 0
292 1 30.5745 8.9925 7.194 0 0 0
3802 1 0.0 1.7985 1.7985 0 0 0
2393 1 14.388 14.388 28.776 0 0 0
581 1 32.373 32.373 17.985 0 0 0
2512 1 12.5895 26.9775 25.179 0 0 0
2922 1 10.791 30.5745 1.7985 0 0 0
2907 1 8.9925 25.179 23.3805 0 0 0
7 1 34.1715 0.0 12.5895 0 0 0
2668 1 8.9925 5.3955 21.582 0 0 0
2234 1 14.388 1.7985 30.5745 0 0 0
1859 1 16.1865 3.597 16.1865 0 0 0
1025 1 25.179 0.0 21.582 0 0 0
1325 1 25.179 28.776 3.597 0 0 0
651 1 26.9775 3.597 8.9925 0 0 0
572 1 30.5745 34.1715 7.194 0 0 0
2265 1 14.388 3.597 21.582 0 0 0
3902 1 0.0 19.7835 1.7985 0 0 0
3285 1 7.194 25.179 3.597 0 0 0
2347 1 12.5895 10.791 23.3805 0 0 0
582 1 32.373 34.1715 19.7835 0 0 0
2740 1 8.9925 12.5895 14.388 0 0 0
3134 1 7.194 12.5895 12.5895 0 0 0
2103 1 16.1865 25.179 19.7835 0 0 0
2063 1 16.1865 21.582 19.7835 0 0 0
1536 1 19.7835 12.5895 10.791 0 0 0
3433 1 3.597 0.0 28.776 0 0 0
722 1 28.776 12.5895 1.7985 0 0 0
201 1 32.373 0.0 0.0 0 0 0
3643 1 1.7985 21.582 1.7985 0 0 0
493 1 32.373 25.179 10.791 0 0 0
2722 1 10.791 12.5895 1.7985 0 0 0
663 1 26.9775 3.597 19.7835 0 0 0
358 1 32.373 12.5895 34.1715 0 0 0
3608 1 1.7985 19.7835 3.597 0 0 0
780 1 26.9775 16.1865 14.388 0 0 0
3883 1 0.0 14.388 3.597 0 0 0
1260 1 23.3805 23.3805 14.388 0 0 0
2540 1 12.5895 30.5745 14.388 0 0 0
1303 1 23.3805 25.179 19.7835 0 0 0
1742 1 21.582 30.5745 19.7835 0 0 0
143 1 34.1715 25.179 5.3955 0 0 0
2261 1 14.388 3.597 17.985 0 0 0
1292 1 23.3805 26.9775 7.194 0 0 0
2537 1 14.388 28.776 14.388 0 0 0
3238 1 7.194 19.7835 34.1715 0 0 0
568 1 30.5745 34.1715 3.597 0 0 0
385 1 32.373 14.388 21.582 0 0 0
36 1 34.1715 5.3955 25.179 0 0 0
2647 1 8.9925 3.597 5.3955 0 0 0
3149 1 7.194 10.791 25.179 0 0 0
727 1 26.9775 10.791 5.3955 0 0 0
3750 1 3.597 30.5745 26.9775 0 0 0
1818 1 17.985 1.7985 16.1865 0 0 0
624 1 26.9775 1.7985 17.985 0 0 0
2712 1 8.9925 8.9925 25.179 0 0 0
768 1 26.9775 16.1865 3.597 0 0 0
1692 1 19.7835 26.9775 7.194 0 0 0
3060 1 5.3955 5.3955 14.388 0 0 0
1151 1 23.3805 10.791 26.9775 0 0 0
1154 1 25.179 12.5895 30.5745 0 0 0
1143 1 23.3805 10.791 19.7835 0 0 0
1710 1 21.582 26.9775 26.9775 0 0 0
3767 1 1.7985 32.373 5.3955 0 0 0
747 1 26.9775 10.791 23.3805 0 0 0
1275 1 23.3805 21.582 30.5745 0 0 0
803 1 26.9775 17.985 1.7985 0 0 0
3752 1 1.7985 30.5745 25.179 0 0 0
263 1 30.5745 3.597 19.7835 0 0 0
2774 1 10.791 16.1865 12.5895 0 0 0
2474 1 14.388 23.3805 30.5745 0 0 0
3018 1 7.194 1.7985 16.1865 0 0 0
3962 1 0.0 30.5745 1.7985 0 0 0
2119 1 16.1865 25.179 34.1715 0 0 0
1153 1 25.179 10.791 28.776 0 0 0
2574 1 14.388 34.1715 12.5895 0 0 0
2872 1 8.9925 23.3805 25.179 0 0 0
1413 1 21.582 0.0 10.791 0 0 0
368 1 30.5745 16.1865 3.597 0 0 0
3376 1 5.3955 34.1715 10.791 0 0 0
3570 1 3.597 16.1865 8.9925 0 0 0
1854 1 17.985 5.3955 12.5895 0 0 0
3609 1 3.597 17.985 7.194 0 0 0
2896 1 8.9925 26.9775 10.791 0 0 0
734 1 28.776 12.5895 12.5895 0 0 0
3785 1 3.597 32.373 21.582 0 0 0
1466 1 21.582 5.3955 23.3805 0 0 0
1167 1 23.3805 14.388 5.3955 0 0 0
2328 1 12.5895 12.5895 3.597 0 0 0
3332 1 5.3955 30.5745 7.194 0 0 0
3020 1 5.3955 1.7985 14.388 0 0 0
2569 1 14.388 32.373 7.194 0 0 0
1798 1 21.582 34.1715 34.1715 0 0 0
2505 1 14.388 25.179 21.582 0 0 0
1051 1 23.3805 3.597 8.9925 0 0 0
2381 1 14.388 14.388 17.985 0 0 0
3555 1 1.7985 10.791 30.5745 0 0 0
1050 1 25.179 5.3955 8.9925 0 0 0
1750 1 21.582 30.5745 26.9775 0 0 0
3540 1 1.7985 12.5895 14.388 0 0 0
3702 1 3.597 26.9775 19.7835 0 0 0
951 1 26.9775 28.776 26.9775 0 0 0
137 1 34.1715 21.582 30.5745 0 0 0
2123 1 16.1865 28.776 1.7985 0 0 0
332 1 30.5745 12.5895 7.194 0 0 0
3807 1 0.0 0.0 10.791 0 0 0
1838 1 17.985 1.7985 34.1715 0 0 0
1886 1 17.985 8.9925 5.3955 0 0 0
614 1 28.776 1.7985 12.5895 0 0 0
196 1 34.1715 34.1715 25.179 0 0 0
1425 1 21.582 0.0 21.582 0 0 0
848 1 26.9775 23.3805 3.597 0 0 0
1402 1 21.582 1.7985 1.7985 0 0 0
3958 1 0.0 26.9775 30.5745 0 0 0
57 1 34.1715 7.194 30.5745 0 0 0
2730 1 10.791 12.5895 8.9925 0 0 0
1985 1 17.985 14.388 21.582 0 0 0
3184 1 5.3955 16.1865 17.985 0 0 0
870 1 28.776 23.3805 26.9775 0 0 0
716 1 26.9775 8.9925 28.776 0 0 0
3789 1 3.597 32.373 25.179 0 0 0
22 1 34.1715 5.3955 0.0 0 0 0
1550 1 21.582 12.5895 26.9775 0 0 0
2884 1 8.9925 26.9775 0.0 0 0 0
2900 1 8.9925 26.9775 14.388 0 0 0
1723 1 19.7835 28.776 1.7985 0 0 0
2573 1 14.388 32.373 10.791 0 0 0
1904 1 16.1865 8.9925 17.985 0 0 0
1927 1 16.1865 10.791 5.3955 0 0 0
2316 1 12.5895 8.9925 28.776 0 0 0
2538 1 14.388 30.5745 16.1865 0 0 0
1672 1 19.7835 23.3805 25.179 0 0 0
2752 1 8.9925 12.5895 25.179 0 0 0
3348 1 5.3955 30.5745 21.582 0 0 0
3333 1 7.194 28.776 10.791 0 0 0
1353 1 25.179 28.776 28.776 0 0 0
1744 1 19.7835 30.5745 17.985 0 0 0
3016 1 5.3955 1.7985 10.791 0 0 0
815 1 26.9775 17.985 12.5895 0 0 0
1984 1 16.1865 16.1865 17.985 0 0 0
2873 1 10.791 21.582 28.776 0 0 0
564 1 30.5745 34.1715 0.0 0 0 0
3427 1 1.7985 0.0 23.3805 0 0 0
3700 1 1.7985 26.9775 14.388 0 0 0
2860 1 8.9925 23.3805 14.388 0 0 0
1190 1 25.179 16.1865 26.9775 0 0 0
2979 1 8.9925 32.373 16.1865 0 0 0
3935 1 0.0 21.582 25.179 0 0 0
3253 1 7.194 21.582 10.791 0 0 0
2628 1 8.9925 1.7985 21.582 0 0 0
2711 1 8.9925 7.194 26.9775 0 0 0
2906 1 10.791 26.9775 23.3805 0 0 0
1193 1 25.179 14.388 28.776 0 0 0
2766 1 10.791 16.1865 5.3955 0 0 0
401 1 32.373 17.985 0.0 0 0 0
1373 1 25.179 32.373 10.791 0 0 0
1420 1 19.7835 1.7985 14.388 0 0 0
2659 1 8.9925 3.597 16.1865 0 0 0
2196 1 16.1865 34.1715 28.776 0 0 0
1715 1 19.7835 25.179 30.5745 0 0 0
619 1 26.9775 0.0 16.1865 0 0 0
621 1 28.776 0.0 17.985 0 0 0
465 1 32.373 21.582 21.582 0 0 0
1308 1 23.3805 26.9775 21.582 0 0 0
456 1 30.5745 23.3805 10.791 0 0 0
159 1 34.1715 25.179 34.1715 0 0 0
2200 1 16.1865 34.1715 32.373 0 0 0
3651 1 1.7985 21.582 8.9925 0 0 0
2330 1 14.388 12.5895 8.9925 0 0 0
276 1 30.5745 5.3955 28.776 0 0 0
3198 1 7.194 16.1865 34.1715 0 0 0
2171 1 16.1865 32.373 8.9925 0 0 0
3392 1 5.3955 34.1715 25.179 0 0 0
3941 1 0.0 25.179 0.0 0 0 0
1589 1 21.582 14.388 25.179 0 0 0
407 1 30.5745 17.985 5.3955 0 0 0
1170 1 25.179 16.1865 8.9925 0 0 0
1034 1 25.179 1.7985 30.5745 0 0 0
1748 1 19.7835 30.5745 21.582 0 0 0
811 1 26.9775 17.985 8.9925 0 0 0
1998 1 17.985 16.1865 34.1715 0 0 0
2681 1 10.791 7.194 0.0 0 0 0
1155 1 23.3805 10.791 30.5745 0 0 0
586 1 32.373 34.1715 23.3805 0 0 0
2804 1 8.9925 19.7835 0.0 0 0 0
1310 1 25.179 26.9775 26.9775 0 0 0
2684 1 8.9925 8.9925 0.0 0 0 0
2521 1 14.388 28.776 0.0 0 0 0
1182 1 25.179 16.1865 19.7835 0 0 0
164 1 34.1715 30.5745 3.597 0 0 0
1211 1 23.3805 17.985 8.9925 0 0 0
1145 1 25.179 10.791 21.582 0 0 0
1960 1 16.1865 12.5895 32.373 0 0 0
2601 1 10.791 0.0 0.0 0 0 0
3618 1 3.597 19.7835 16.1865 0 0 0
3099 1 5.3955 7.194 16.1865 0 0 0
2430 1 14.388 19.7835 26.9775 0 0 0
2500 1 12.5895 26.9775 14.388 0 0 0
2034 1 17.985 19.7835 30.5745 0 0 0
2236 1 12.5895 1.7985 28.776 0 0 0
193 1 34.1715 32.373 23.3805 0 0 0
301 1 32.373 7.194 17.985 0 0 0
1028 1 23.3805 1.7985 21.582 0 0 0
2931 1 8.9925 28.776 8.9925 0 0 0
275 1 30.5745 3.597 30.5745 0 0 0
1121 1 25.179 10.791 0.0 0 0 0
3407 1 1.7985 0.0 5.3955 0 0 0
73 1 34.1715 10.791 23.3805 0 0 0
104 1 34.1715 19.7835 3.597 0 0 0
1754 1 21.582 30.5745 30.5745 0 0 0
2949 1 10.791 28.776 25.179 0 0 0
2415 1 12.5895 17.985 12.5895 0 0 0
2108 1 16.1865 26.9775 21.582 0 0 0
980 1 26.9775 34.1715 14.388 0 0 0
2778 1 10.791 16.1865 16.1865 0 0 0
3100 1 5.3955 8.9925 14.388 0 0 0
3810 1 0.0 1.7985 16.1865 0 0 0
3007 1 5.3955 0.0 5.3955 0 0 0
2620 1 8.9925 1.7985 14.388 0 0 0
3197 1 7.194 14.388 32.373 0 0 0
1864 1 16.1865 5.3955 17.985 0 0 0
2641 1 10.791 3.597 0.0 0 0 0
2498 1 14.388 26.9775 16.1865 0 0 0
855 1 26.9775 21.582 12.5895 0 0 0
1140 1 23.3805 12.5895 14.388 0 0 0
2092 1 16.1865 26.9775 7.194 0 0 0
3078 1 7.194 5.3955 34.1715 0 0 0
3924 1 0.0 23.3805 5.3955 0 0 0
740 1 26.9775 12.5895 14.388 0 0 0
609 1 28.776 0.0 7.194 0 0 0
3335 1 5.3955 28.776 12.5895 0 0 0
1774 1 21.582 34.1715 12.5895 0 0 0
3288 1 5.3955 26.9775 3.597 0 0 0
1858 1 17.985 5.3955 16.1865 0 0 0
30 1 34.1715 5.3955 14.388 0 0 0
3845 1 0.0 7.194 7.194 0 0 0
446 1 32.373 23.3805 5.3955 0 0 0
999 1 26.9775 32.373 34.1715 0 0 0
8 1 34.1715 1.7985 10.791 0 0 0
2563 1 12.5895 32.373 1.7985 0 0 0
1444 1 19.7835 5.3955 0.0 0 0 0
1345 1 25.179 28.776 21.582 0 0 0
3966 1 0.0 30.5745 8.9925 0 0 0
713 1 28.776 7.194 28.776 0 0 0
1625 1 21.582 17.985 21.582 0 0 0
1228 1 23.3805 19.7835 21.582 0 0 0
314 1 32.373 8.9925 30.5745 0 0 0
2184 1 16.1865 34.1715 17.985 0 0 0
2491 1 12.5895 25.179 8.9925 0 0 0
2794 1 10.791 16.1865 30.5745 0 0 0
655 1 26.9775 3.597 12.5895 0 0 0
337 1 32.373 10.791 14.388 0 0 0
2380 1 12.5895 16.1865 14.388 0 0 0
1560 1 19.7835 12.5895 32.373 0 0 0
667 1 26.9775 3.597 23.3805 0 0 0
2405 1 14.388 17.985 3.597 0 0 0
115 1 34.1715 17.985 26.9775 0 0 0
901 1 28.776 25.179 17.985 0 0 0
2556 1 12.5895 30.5745 28.776 0 0 0
2851 1 8.9925 21.582 8.9925 0 0 0
1717 1 21.582 25.179 32.373 0 0 0
268 1 30.5745 5.3955 21.582 0 0 0
1234 1 25.179 19.7835 30.5745 0 0 0
3588 1 1.7985 16.1865 21.582 0 0 0
468 1 30.5745 23.3805 21.582 0 0 0
457 1 32.373 21.582 14.388 0 0 0
1417 1 21.582 0.0 14.388 0 0 0
3263 1 5.3955 21.582 19.7835 0 0 0
3256 1 5.3955 23.3805 10.791 0 0 0
3199 1 5.3955 14.388 34.1715 0 0 0
2208 1 12.5895 1.7985 3.597 0 0 0
3460 1 1.7985 5.3955 14.388 0 0 0
1042 1 25.179 5.3955 1.7985 0 0 0
2268 1 12.5895 5.3955 21.582 0 0 0
1856 1 16.1865 5.3955 10.791 0 0 0
963 1 26.9775 32.373 1.7985 0 0 0
2070 1 17.985 23.3805 26.9775 0 0 0
607 1 26.9775 0.0 5.3955 0 0 0
3898 1 0.0 16.1865 30.5745 0 0 0
1820 1 16.1865 1.7985 14.388 0 0 0
3975 1 0.0 28.776 25.179 0 0 0
2136 1 16.1865 30.5745 10.791 0 0 0
1673 1 21.582 21.582 28.776 0 0 0
283 1 30.5745 7.194 1.7985 0 0 0
291 1 30.5745 7.194 8.9925 0 0 0
749 1 28.776 10.791 25.179 0 0 0
1091 1 23.3805 7.194 8.9925 0 0 0
1799 1 19.7835 32.373 34.1715 0 0 0
2934 1 10.791 30.5745 12.5895 0 0 0
3805 1 0.0 0.0 7.194 0 0 0
1961 1 17.985 14.388 0.0 0 0 0
617 1 28.776 0.0 14.388 0 0 0
1149 1 25.179 10.791 25.179 0 0 0
1499 1 19.7835 7.194 16.1865 0 0 0
3980 1 0.0 30.5745 34.1715 0 0 0
2151 1 16.1865 28.776 26.9775 0 0 0
2281 1 14.388 7.194 0.0 0 0 0
1389 1 25.179 32.373 25.179 0 0 0
1902 1 17.985 8.9925 19.7835 0 0 0
571 1 30.5745 32.373 8.9925 0 0 0
26 1 34.1715 5.3955 7.194 0 0 0
1017 1 25.179 0.0 14.388 0 0 0
2237 1 14.388 0.0 32.373 0 0 0
1493 1 21.582 7.194 10.791 0 0 0
279 1 30.5745 3.597 34.1715 0 0 0
903 1 26.9775 25.179 19.7835 0 0 0
40 1 34.1715 5.3955 32.373 0 0 0
1544 1 19.7835 12.5895 17.985 0 0 0
3911 1 0.0 17.985 17.985 0 0 0
529 1 32.373 28.776 7.194 0 0 0
2792 1 8.9925 16.1865 25.179 0 0 0
3703 1 1.7985 25.179 19.7835 0 0 0
2402 1 14.388 19.7835 1.7985 0 0 0
3666 1 3.597 23.3805 23.3805 0 0 0
3293 1 7.194 25.179 10.791 0 0 0
218 1 32.373 1.7985 16.1865 0 0 0
1829 1 17.985 0.0 25.179 0 0 0
854 1 28.776 23.3805 12.5895 0 0 0
3516 1 1.7985 8.9925 28.776 0 0 0
88 1 34.1715 16.1865 10.791 0 0 0
2179 1 16.1865 32.373 16.1865 0 0 0
992 1 26.9775 34.1715 25.179 0 0 0
2667 1 8.9925 3.597 23.3805 0 0 0
2813 1 10.791 17.985 10.791 0 0 0
3191 1 5.3955 14.388 26.9775 0 0 0
2775 1 8.9925 14.388 12.5895 0 0 0
3948 1 0.0 26.9775 12.5895 0 0 0
228 1 30.5745 1.7985 21.582 0 0 0
2758 1 10.791 12.5895 34.1715 0 0 0
3987 1 0.0 32.373 10.791 0 0 0
1915 1 16.1865 7.194 30.5745 0 0 0
3452 1 1.7985 5.3955 7.194 0 0 0
158 1 34.1715 26.9775 28.776 0 0 0
895 1 26.9775 25.179 12.5895 0 0 0
2351 1 12.5895 10.791 26.9775 0 0 0
2898 1 10.791 26.9775 16.1865 0 0 0
487 1 30.5745 25.179 5.3955 0 0 0
2772 1 8.9925 16.1865 7.194 0 0 0
773 1 28.776 14.388 10.791 0 0 0
1727 1 19.7835 28.776 5.3955 0 0 0
2536 1 12.5895 30.5745 10.791 0 0 0
2414 1 14.388 19.7835 12.5895 0 0 0
19 1 34.1715 0.0 34.1715 0 0 0
217 1 32.373 0.0 14.388 0 0 0
933 1 28.776 28.776 10.791 0 0 0
2406 1 14.388 19.7835 5.3955 0 0 0
267 1 30.5745 3.597 23.3805 0 0 0
87 1 34.1715 14.388 12.5895 0 0 0
794 1 28.776 16.1865 30.5745 0 0 0
3619 1 1.7985 17.985 16.1865 0 0 0
1346 1 25.179 30.5745 23.3805 0 0 0
3936 1 0.0 23.3805 26.9775 0 0 0
3128 1 5.3955 12.5895 3.597 0 0 0
1380 1 23.3805 34.1715 14.388 0 0 0
1848 1 16.1865 5.3955 3.597 0 0 0
2633 1 10.791 0.0 28.776 0 0 0
2978 1 10.791 34.1715 16.1865 0 0 0
1764 1 19.7835 34.1715 0.0 0 0 0
433 1 32.373 17.985 28.776 0 0 0
1314 1 25.179 26.9775 30.5745 0 0 0
593 1 32.373 32.373 28.776 0 0 0
1688 1 19.7835 26.9775 3.597 0 0 0
1481 1 21.582 7.194 0.0 0 0 0
1726 1 21.582 30.5745 5.3955 0 0 0
2471 1 12.5895 21.582 26.9775 0 0 0
1032 1 23.3805 1.7985 25.179 0 0 0
2916 1 8.9925 26.9775 28.776 0 0 0
2344 1 12.5895 12.5895 17.985 0 0 0
2614 1 10.791 1.7985 12.5895 0 0 0
1135 1 23.3805 10.791 12.5895 0 0 0
304 1 30.5745 8.9925 17.985 0 0 0
2278 1 14.388 5.3955 34.1715 0 0 0
1144 1 23.3805 12.5895 17.985 0 0 0
834 1 28.776 19.7835 30.5745 0 0 0
419 1 30.5745 17.985 16.1865 0 0 0
3532 1 1.7985 12.5895 7.194 0 0 0
2971 1 8.9925 32.373 8.9925 0 0 0
2940 1 8.9925 30.5745 14.388 0 0 0
3145 1 7.194 10.791 21.582 0 0 0
249 1 32.373 3.597 7.194 0 0 0
1528 1 19.7835 12.5895 3.597 0 0 0
2452 1 12.5895 23.3805 7.194 0 0 0
360 1 30.5745 12.5895 32.373 0 0 0
1164 1 23.3805 16.1865 0.0 0 0 0
3542 1 3.597 12.5895 19.7835 0 0 0
220 1 30.5745 1.7985 14.388 0 0 0
809 1 28.776 17.985 7.194 0 0 0
2988 1 8.9925 34.1715 21.582 0 0 0
847 1 26.9775 21.582 5.3955 0 0 0
3054 1 7.194 5.3955 12.5895 0 0 0
653 1 28.776 3.597 10.791 0 0 0
3741 1 3.597 28.776 17.985 0 0 0
665 1 28.776 3.597 21.582 0 0 0
2008 1 16.1865 19.7835 3.597 0 0 0
195 1 34.1715 32.373 26.9775 0 0 0
2612 1 8.9925 1.7985 7.194 0 0 0
897 1 28.776 25.179 14.388 0 0 0
3670 1 3.597 23.3805 26.9775 0 0 0
1547 1 19.7835 10.791 23.3805 0 0 0
390 1 32.373 16.1865 26.9775 0 0 0
3283 1 5.3955 25.179 1.7985 0 0 0
2767 1 8.9925 14.388 5.3955 0 0 0
3405 1 3.597 0.0 3.597 0 0 0
1027 1 23.3805 0.0 23.3805 0 0 0
2142 1 17.985 30.5745 19.7835 0 0 0
634 1 28.776 1.7985 30.5745 0 0 0
2249 1 14.388 3.597 7.194 0 0 0
475 1 30.5745 21.582 30.5745 0 0 0
206 1 32.373 1.7985 5.3955 0 0 0
33 1 34.1715 3.597 23.3805 0 0 0
1315 1 23.3805 25.179 30.5745 0 0 0
2613 1 10.791 0.0 10.791 0 0 0
1168 1 23.3805 16.1865 3.597 0 0 0
2616 1 8.9925 1.7985 10.791 0 0 0
3862 1 0.0 12.5895 1.7985 0 0 0
2479 1 12.5895 21.582 34.1715 0 0 0
1367 1 23.3805 32.373 5.3955 0 0 0
3317 1 7.194 25.179 32.373 0 0 0
253 1 32.373 3.597 10.791 0 0 0
1746 1 21.582 30.5745 23.3805 0 0 0
2023 1 16.1865 17.985 19.7835 0 0 0
2398 1 14.388 16.1865 34.1715 0 0 0
3901 1 0.0 17.985 0.0 0 0 0
3153 1 7.194 10.791 28.776 0 0 0
3303 1 5.3955 25.179 19.7835 0 0 0
2173 1 17.985 32.373 10.791 0 0 0
3522 1 3.597 12.5895 1.7985 0 0 0
3259 1 5.3955 21.582 16.1865 0 0 0
364 1 30.5745 16.1865 0.0 0 0 0
2693 1 10.791 7.194 10.791 0 0 0
843 1 26.9775 21.582 1.7985 0 0 0
824 1 26.9775 19.7835 17.985 0 0 0
3495 1 1.7985 7.194 12.5895 0 0 0
841 1 28.776 21.582 0.0 0 0 0
3264 1 5.3955 23.3805 17.985 0 0 0
2047 1 16.1865 21.582 5.3955 0 0 0
3003 1 5.3955 0.0 1.7985 0 0 0
3270 1 7.194 23.3805 26.9775 0 0 0
3388 1 5.3955 34.1715 21.582 0 0 0
1942 1 17.985 12.5895 19.7835 0 0 0
769 1 28.776 14.388 7.194 0 0 0
2697 1 10.791 7.194 14.388 0 0 0
1740 1 19.7835 30.5745 14.388 0 0 0
3541 1 3.597 10.791 17.985 0 0 0
3969 1 0.0 28.776 14.388 0 0 0
591 1 30.5745 32.373 26.9775 0 0 0
89 1 34.1715 14.388 16.1865 0 0 0
3183 1 5.3955 14.388 19.7835 0 0 0
3868 1 0.0 12.5895 12.5895 0 0 0
3592 1 1.7985 16.1865 25.179 0 0 0
3262 1 7.194 23.3805 19.7835 0 0 0
2991 1 8.9925 32.373 26.9775 0 0 0
171 1 34.1715 28.776 19.7835 0 0 0
1277 1 25.179 21.582 32.373 0 0 0
1400 1 23.3805 34.1715 32.373 0 0 0
3778 1 3.597 34.1715 16.1865 0 0 0
789 1 28.776 14.388 25.179 0 0 0
1637 1 21.582 17.985 32.373 0 0 0
1131 1 23.3805 10.791 8.9925 0 0 0
2910 1 10.791 26.9775 26.9775 0 0 0
2437 1 14.388 17.985 32.373 0 0 0
637 1 28.776 0.0 32.373 0 0 0
413 1 32.373 17.985 10.791 0 0 0
345 1 32.373 10.791 21.582 0 0 0
2191 1 16.1865 32.373 26.9775 0 0 0
1318 1 25.179 26.9775 34.1715 0 0 0
277 1 32.373 3.597 32.373 0 0 0
3739 1 1.7985 28.776 16.1865 0 0 0
3219 1 5.3955 17.985 16.1865 0 0 0
1993 1 17.985 14.388 28.776 0 0 0
2745 2 10.791 10.791 21.582 0 0 0
3691 2 1.7985 25.179 8.9925 0 0 0
1490 2 21.582 8.9925 8.9925 0 0 0
2198 2 17.985 34.1715 34.1715 0 0 0
2664 2 8.9925 5.3955 17.985 0 0 0
3551 2 1.7985 10.791 26.9775 0 0 0
1705 2 21.582 25.179 21.582 0 0 0
887 2 26.9775 25.179 5.3955 0 0 0
510 2 32.373 26.9775 26.9775 0 0 0
1452 2 19.7835 5.3955 7.194 0 0 0
3372 2 5.3955 34.1715 7.194 0 0 0
222 2 32.373 1.7985 19.7835 0 0 0
3387 2 5.3955 32.373 23.3805 0 0 0
588 2 30.5745 34.1715 21.582 0 0 0
2054 2 17.985 23.3805 12.5895 0 0 0
1636 2 19.7835 19.7835 28.776 0 0 0
973 2 28.776 32.373 10.791 0 0 0
746 2 28.776 12.5895 23.3805 0 0 0
1468 2 19.7835 5.3955 21.582 0 0 0
3318 2 7.194 26.9775 34.1715 0 0 0
3030 2 7.194 1.7985 26.9775 0 0 0
123 2 34.1715 21.582 5.3955 0 0 0
162 2 34.1715 30.5745 0.0 0 0 0
3724 2 1.7985 30.5745 0.0 0 0 0
3000 2 8.9925 34.1715 32.373 0 0 0
3545 2 3.597 10.791 21.582 0 0 0
528 2 30.5745 30.5745 3.597 0 0 0
893 2 28.776 25.179 10.791 0 0 0
914 2 28.776 26.9775 30.5745 0 0 0
1287 2 23.3805 25.179 5.3955 0 0 0
1127 2 23.3805 10.791 5.3955 0 0 0
1597 2 21.582 14.388 32.373 0 0 0
1469 2 21.582 3.597 25.179 0 0 0
2065 2 17.985 21.582 21.582 0 0 0
756 2 26.9775 12.5895 28.776 0 0 0
86 2 34.1715 16.1865 7.194 0 0 0
1214 2 25.179 19.7835 12.5895 0 0 0
2977 2 10.791 32.373 14.388 0 0 0
2899 2 8.9925 25.179 16.1865 0 0 0
3944 2 0.0 26.9775 5.3955 0 0 0
1455 2 19.7835 3.597 12.5895 0 0 0
3520 2 1.7985 8.9925 32.373 0 0 0
1166 2 25.179 16.1865 5.3955 0 0 0
369 2 32.373 14.388 7.194 0 0 0
1286 2 25.179 26.9775 5.3955 0 0 0
1921 2 17.985 10.791 0.0 0 0 0
1948 2 16.1865 12.5895 21.582 0 0 0
1496 2 19.7835 8.9925 10.791 0 0 0
51 2 34.1715 7.194 19.7835 0 0 0
2114 2 17.985 26.9775 30.5745 0 0 0
1842 2 17.985 5.3955 1.7985 0 0 0
2039 2 16.1865 17.985 34.1715 0 0 0
3508 2 1.7985 8.9925 21.582 0 0 0
1952 2 16.1865 12.5895 25.179 0 0 0
954 2 28.776 30.5745 30.5745 0 0 0
3654 2 3.597 23.3805 12.5895 0 0 0
3818 2 0.0 1.7985 30.5745 0 0 0
900 2 26.9775 26.9775 14.388 0 0 0
1686 2 21.582 26.9775 5.3955 0 0 0
3116 2 5.3955 8.9925 28.776 0 0 0
3174 2 7.194 16.1865 12.5895 0 0 0
3888 2 0.0 16.1865 12.5895 0 0 0
1124 2 23.3805 12.5895 0.0 0 0 0
579 2 30.5745 32.373 16.1865 0 0 0
3586 2 3.597 16.1865 23.3805 0 0 0
3101 2 7.194 7.194 17.985 0 0 0
3467 2 1.7985 3.597 23.3805 0 0 0
912 2 26.9775 26.9775 25.179 0 0 0
2107 2 16.1865 25.179 23.3805 0 0 0
545 2 32.373 28.776 21.582 0 0 0
1610 2 21.582 19.7835 8.9925 0 0 0
321 2 32.373 10.791 0.0 0 0 0
1106 2 25.179 8.9925 23.3805 0 0 0
1052 2 23.3805 5.3955 7.194 0 0 0
1487 2 19.7835 7.194 5.3955 0 0 0
2886 2 10.791 26.9775 5.3955 0 0 0
3168 2 5.3955 16.1865 3.597 0 0 0
1309 2 25.179 25.179 25.179 0 0 0
775 2 26.9775 14.388 12.5895 0 0 0
2310 2 14.388 8.9925 26.9775 0 0 0
194 2 34.1715 34.1715 21.582 0 0 0
3877 2 0.0 10.791 28.776 0 0 0
2525 2 14.388 28.776 3.597 0 0 0
3855 2 0.0 7.194 25.179 0 0 0
3729 2 3.597 28.776 7.194 0 0 0
2385 2 14.388 14.388 21.582 0 0 0
1725 2 21.582 28.776 3.597 0 0 0
1095 2 23.3805 7.194 12.5895 0 0 0
1583 2 19.7835 14.388 19.7835 0 0 0
3826 2 0.0 5.3955 8.9925 0 0 0
3764 2 1.7985 34.1715 0.0 0 0 0
1634 2 21.582 19.7835 30.5745 0 0 0
3711 2 1.7985 25.179 26.9775 0 0 0
91 2 34.1715 14.388 19.7835 0 0 0
2477 2 14.388 21.582 32.373 0 0 0
2720 2 8.9925 8.9925 32.373 0 0 0
674 2 28.776 5.3955 30.5745 0 0 0
785 2 28.776 14.388 21.582 0 0 0
569 2 32.373 32.373 7.194 0 0 0
3828 2 0.0 5.3955 12.5895 0 0 0
2209 2 14.388 0.0 7.194 0 0 0
2648 2 8.9925 5.3955 3.597 0 0 0
2542 2 14.388 30.5745 19.7835 0 0 0
31 2 34.1715 3.597 19.7835 0 0 0
2076 2 16.1865 23.3805 28.776 0 0 0
1881 2 17.985 7.194 0.0 0 0 0
1649 2 21.582 21.582 7.194 0 0 0
1256 2 23.3805 23.3805 10.791 0 0 0
1241 2 25.179 21.582 0.0 0 0 0
9 2 34.1715 0.0 16.1865 0 0 0
3 2 34.1715 0.0 5.3955 0 0 0
327 2 30.5745 10.791 5.3955 0 0 0
2923 2 8.9925 28.776 1.7985 0 0 0
1872 2 16.1865 5.3955 25.179 0 0 0
714 2 28.776 8.9925 30.5745 0 0 0
2861 2 10.791 21.582 17.985 0 0 0
975 2 26.9775 32.373 12.5895 0 0 0
840 2 26.9775 19.7835 32.373 0 0 0
2322 2 14.388 12.5895 1.7985 0 0 0
1484 2 19.7835 8.9925 0.0 0 0 0
3236 2 5.3955 19.7835 28.776 0 0 0
986 2 28.776 34.1715 23.3805 0 0 0
1337 2 25.179 28.776 14.388 0 0 0
3856 2 0.0 8.9925 26.9775 0 0 0
3448 2 1.7985 5.3955 3.597 0 0 0
3111 2 5.3955 7.194 26.9775 0 0 0
113 2 34.1715 17.985 23.3805 0 0 0
2662 2 10.791 5.3955 19.7835 0 0 0
1810 2 17.985 1.7985 8.9925 0 0 0
1370 2 25.179 34.1715 8.9925 0 0 0
2725 2 10.791 10.791 3.597 0 0 0
2598 2 14.388 34.1715 34.1715 0 0 0
1202 2 25.179 19.7835 1.7985 0 0 0
1955 2 16.1865 10.791 30.5745 0 0 0
3395 2 5.3955 32.373 30.5745 0 0 0
723 2 26.9775 10.791 1.7985 0 0 0
676 2 26.9775 5.3955 28.776 0 0 0
3612 2 1.7985 19.7835 7.194 0 0 0
1388 2 23.3805 34.1715 21.582 0 0 0
1827 2 16.1865 0.0 23.3805 0 0 0
1445 2 21.582 3.597 3.597 0 0 0
2053 2 17.985 21.582 10.791 0 0 0
1248 2 23.3805 23.3805 3.597 0 0 0
244 2 30.5745 5.3955 0.0 0 0 0
2150 2 17.985 30.5745 26.9775 0 0 0
1428 2 19.7835 1.7985 21.582 0 0 0
565 2 32.373 32.373 3.597 0 0 0
907 2 26.9775 25.179 23.3805 0 0 0
3728 2 1.7985 30.5745 3.597 0 0 0
2066 2 17.985 23.3805 23.3805 0 0 0
2162 2 17.985 34.1715 1.7985 0 0 0
2263 2 12.5895 3.597 19.7835 0 0 0
178 2 34.1715 30.5745 28.776 0 0 0
3418 2 3.597 1.7985 16.1865 0 0 0
1128 2 23.3805 12.5895 3.597 0 0 0
186 2 34.1715 34.1715 7.194 0 0 0
3674 2 3.597 23.3805 30.5745 0 0 0
3235 2 5.3955 17.985 30.5745 0 0 0
49 2 34.1715 7.194 16.1865 0 0 0
3575 2 1.7985 14.388 12.5895 0 0 0
910 2 28.776 26.9775 26.9775 0 0 0
1554 2 21.582 12.5895 30.5745 0 0 0
3125 2 7.194 10.791 3.597 0 0 0
3920 2 0.0 19.7835 34.1715 0 0 0
1572 2 19.7835 16.1865 7.194 0 0 0
1741 2 21.582 28.776 17.985 0 0 0
2780 2 8.9925 16.1865 14.388 0 0 0
615 2 26.9775 0.0 12.5895 0 0 0
1497 2 21.582 7.194 14.388 0 0 0
2637 2 10.791 0.0 32.373 0 0 0
1365 2 25.179 32.373 3.597 0 0 0
3383 2 5.3955 32.373 19.7835 0 0 0
2513 2 14.388 25.179 28.776 0 0 0
3083 2 5.3955 7.194 1.7985 0 0 0
987 2 26.9775 32.373 23.3805 0 0 0
604 2 26.9775 1.7985 0.0 0 0 0
2033 2 17.985 17.985 28.776 0 0 0
1002 2 25.179 1.7985 1.7985 0 0 0
2486 2 14.388 26.9775 5.3955 0 0 0
1716 2 19.7835 26.9775 28.776 0 0 0
2953 2 10.791 28.776 28.776 0 0 0
243 2 30.5745 3.597 1.7985 0 0 0
248 2 30.5745 5.3955 3.597 0 0 0
1934 2 17.985 12.5895 12.5895 0 0 0
3708 2 1.7985 26.9775 21.582 0 0 0
2596 2 12.5895 34.1715 28.776 0 0 0
1633 2 21.582 17.985 28.776 0 0 0
3907 2 0.0 17.985 10.791 0 0 0
2749 2 10.791 10.791 25.179 0 0 0
877 2 28.776 21.582 32.373 0 0 0
2497 2 14.388 25.179 14.388 0 0 0
3180 2 5.3955 16.1865 14.388 0 0 0
3534 2 3.597 12.5895 12.5895 0 0 0
3841 2 0.0 7.194 0.0 0 0 0
3330 2 7.194 30.5745 8.9925 0 0 0
1532 2 19.7835 12.5895 7.194 0 0 0
2514 2 14.388 26.9775 30.5745 0 0 0
525 2 32.373 28.776 3.597 0 0 0
1250 2 25.179 23.3805 8.9925 0 0 0
210 2 32.373 1.7985 8.9925 0 0 0
3239 2 5.3955 17.985 34.1715 0 0 0
599 2 30.5745 32.373 34.1715 0 0 0
3221 2 7.194 17.985 17.985 0 0 0
3315 2 5.3955 25.179 30.5745 0 0 0
3553 2 3.597 10.791 28.776 0 0 0
2675 2 8.9925 3.597 30.5745 0 0 0
3600 2 1.7985 16.1865 32.373 0 0 0
504 2 30.5745 26.9775 17.985 0 0 0
2773 2 10.791 14.388 10.791 0 0 0
2831 2 8.9925 17.985 26.9775 0 0 0
639 2 26.9775 0.0 34.1715 0 0 0
3950 2 0.0 26.9775 16.1865 0 0 0
2214 2 14.388 1.7985 12.5895 0 0 0
2874 2 10.791 23.3805 30.5745 0 0 0
1268 2 23.3805 23.3805 21.582 0 0 0
1020 2 23.3805 1.7985 14.388 0 0 0
1567 2 19.7835 14.388 5.3955 0 0 0
497 2 32.373 25.179 14.388 0 0 0
484 2 30.5745 26.9775 0.0 0 0 0
1276 2 23.3805 23.3805 28.776 0 0 0
1839 2 16.1865 0.0 34.1715 0 0 0
1304 2 23.3805 26.9775 17.985 0 0 0
2915 2 8.9925 25.179 30.5745 0 0 0
1736 2 19.7835 30.5745 10.791 0 0 0
2921 2 10.791 28.776 0.0 0 0 0
3138 2 7.194 12.5895 16.1865 0 0 0
1141 2 25.179 10.791 17.985 0 0 0
2161 2 17.985 32.373 0.0 0 0 0
662 2 28.776 5.3955 19.7835 0 0 0
3641 2 3.597 21.582 0.0 0 0 0
3822 2 0.0 5.3955 1.7985 0 0 0
2597 2 14.388 32.373 32.373 0 0 0
587 2 30.5745 32.373 23.3805 0 0 0
1152 2 23.3805 12.5895 25.179 0 0 0
894 2 28.776 26.9775 12.5895 0 0 0
2630 2 10.791 1.7985 26.9775 0 0 0
3437 2 3.597 0.0 32.373 0 0 0
1889 2 17.985 7.194 7.194 0 0 0
2299 2 12.5895 7.194 16.1865 0 0 0
3341 2 7.194 28.776 17.985 0 0 0
633 2 28.776 0.0 28.776 0 0 0
867 2 26.9775 21.582 23.3805 0 0 0
1882 2 17.985 8.9925 1.7985 0 0 0
1595 2 19.7835 14.388 30.5745 0 0 0
1762 2 21.582 34.1715 1.7985 0 0 0
996 2 26.9775 34.1715 28.776 0 0 0
311 2 30.5745 7.194 26.9775 0 0 0
2485 2 14.388 25.179 3.597 0 0 0
3268 2 5.3955 23.3805 21.582 0 0 0
3501 2 3.597 7.194 17.985 0 0 0
882 2 28.776 26.9775 1.7985 0 0 0
1683 2 19.7835 25.179 1.7985 0 0 0
989 2 28.776 32.373 25.179 0 0 0
310 2 32.373 8.9925 26.9775 0 0 0
1914 2 17.985 8.9925 30.5745 0 0 0
3181 2 7.194 14.388 17.985 0 0 0
796 2 26.9775 16.1865 28.776 0 0 0
3122 2 7.194 12.5895 1.7985 0 0 0
1212 2 23.3805 19.7835 7.194 0 0 0
2091 2 16.1865 25.179 8.9925 0 0 0
2210 2 14.388 1.7985 8.9925 0 0 0
1399 2 23.3805 32.373 34.1715 0 0 0
2544 2 12.5895 30.5745 17.985 0 0 0
2089 2 17.985 25.179 7.194 0 0 0
2213 2 14.388 0.0 10.791 0 0 0
567 2 30.5745 32.373 5.3955 0 0 0
1564 2 19.7835 16.1865 0.0 0 0 0
3797 2 3.597 32.373 32.373 0 0 0
1217 2 25.179 17.985 14.388 0 0 0
3022 2 7.194 1.7985 19.7835 0 0 0
1687 2 19.7835 25.179 5.3955 0 0 0
2285 2 14.388 7.194 3.597 0 0 0
3175 2 5.3955 14.388 12.5895 0 0 0
930 2 28.776 30.5745 8.9925 0 0 0
412 2 30.5745 19.7835 7.194 0 0 0
467 2 30.5745 21.582 23.3805 0 0 0
1266 2 25.179 23.3805 23.3805 0 0 0
3487 2 1.7985 7.194 5.3955 0 0 0
2335 2 12.5895 10.791 12.5895 0 0 0
3436 2 1.7985 1.7985 28.776 0 0 0
1001 2 25.179 0.0 0.0 0 0 0
3385 2 7.194 32.373 21.582 0 0 0
3954 2 0.0 26.9775 23.3805 0 0 0
705 2 28.776 7.194 21.582 0 0 0
3109 2 7.194 7.194 25.179 0 0 0
1700 2 19.7835 26.9775 14.388 0 0 0
2419 2 12.5895 17.985 16.1865 0 0 0
2797 2 10.791 14.388 32.373 0 0 0
1982 2 17.985 16.1865 19.7835 0 0 0
2571 2 12.5895 32.373 8.9925 0 0 0
3085 2 7.194 7.194 3.597 0 0 0
2523 2 12.5895 28.776 1.7985 0 0 0
1480 2 19.7835 5.3955 32.373 0 0 0
2938 2 10.791 30.5745 16.1865 0 0 0
966 2 28.776 34.1715 5.3955 0 0 0
3927 2 0.0 21.582 10.791 0 0 0
3662 2 3.597 23.3805 19.7835 0 0 0
3675 2 1.7985 21.582 30.5745 0 0 0
1837 2 17.985 0.0 32.373 0 0 0
3653 2 3.597 21.582 10.791 0 0 0
2338 2 14.388 12.5895 16.1865 0 0 0
3773 2 3.597 32.373 10.791 0 0 0
3237 2 7.194 17.985 32.373 0 0 0
2795 2 8.9925 14.388 30.5745 0 0 0
3354 2 7.194 30.5745 30.5745 0 0 0
1808 2 16.1865 1.7985 3.597 0 0 0
3535 2 1.7985 10.791 12.5895 0 0 0
3748 2 1.7985 30.5745 21.582 0 0 0
2270 2 14.388 5.3955 26.9775 0 0 0
3409 2 3.597 0.0 7.194 0 0 0
3052 2 5.3955 5.3955 7.194 0 0 0
913 2 28.776 25.179 28.776 0 0 0
3422 2 3.597 1.7985 19.7835 0 0 0
1795 2 19.7835 32.373 30.5745 0 0 0
13 2 34.1715 0.0 23.3805 0 0 0
3157 2 7.194 10.791 32.373 0 0 0
940 2 26.9775 30.5745 14.388 0 0 0
50 2 34.1715 8.9925 14.388 0 0 0
3346 2 7.194 30.5745 23.3805 0 0 0
2301 2 14.388 7.194 17.985 0 0 0
2203 2 12.5895 0.0 1.7985 0 0 0
2195 2 16.1865 32.373 30.5745 0 0 0
1527 2 19.7835 10.791 5.3955 0 0 0
2732 2 8.9925 12.5895 7.194 0 0 0
3613 2 3.597 17.985 10.791 0 0 0
3210 2 7.194 19.7835 8.9925 0 0 0
1103 2 23.3805 7.194 19.7835 0 0 0
2201 2 14.388 0.0 0.0 0 0 0
2515 2 12.5895 25.179 30.5745 0 0 0
1023 2 23.3805 0.0 19.7835 0 0 0
902 2 28.776 26.9775 19.7835 0 0 0
2178 2 17.985 34.1715 16.1865 0 0 0
853 2 28.776 21.582 10.791 0 0 0
126 2 34.1715 23.3805 7.194 0 0 0
2799 2 8.9925 14.388 34.1715 0 0 0
1442 2 21.582 5.3955 1.7985 0 0 0
2987 2 8.9925 32.373 23.3805 0 0 0
1067 2 23.3805 3.597 23.3805 0 0 0
2057 2 17.985 21.582 14.388 0 0 0
3776 2 1.7985 34.1715 10.791 0 0 0
2246 2 14.388 5.3955 5.3955 0 0 0
169 2 34.1715 28.776 16.1865 0 0 0
3113 2 7.194 7.194 28.776 0 0 0
3836 2 0.0 5.3955 26.9775 0 0 0
3098 2 7.194 8.9925 16.1865 0 0 0
1757 2 21.582 28.776 32.373 0 0 0
18 2 34.1715 1.7985 28.776 0 0 0
3689 2 3.597 25.179 7.194 0 0 0
751 2 26.9775 10.791 26.9775 0 0 0
2584 2 12.5895 34.1715 17.985 0 0 0
896 2 26.9775 26.9775 10.791 0 0 0
1105 2 25.179 7.194 21.582 0 0 0
622 2 28.776 1.7985 19.7835 0 0 0
2982 2 10.791 34.1715 19.7835 0 0 0
2832 2 8.9925 19.7835 25.179 0 0 0
3173 2 7.194 14.388 10.791 0 0 0
1602 2 21.582 19.7835 1.7985 0 0 0
2248 2 12.5895 5.3955 3.597 0 0 0
3743 2 1.7985 28.776 19.7835 0 0 0
1504 2 19.7835 8.9925 17.985 0 0 0
298 2 32.373 8.9925 16.1865 0 0 0
409 2 32.373 17.985 7.194 0 0 0
3698 2 3.597 26.9775 16.1865 0 0 0
1954 2 17.985 12.5895 30.5745 0 0 0
256 2 30.5745 5.3955 10.791 0 0 0
1587 2 19.7835 14.388 23.3805 0 0 0
1860 2 16.1865 5.3955 14.388 0 0 0
3224 2 5.3955 19.7835 17.985 0 0 0
3593 2 3.597 14.388 28.776 0 0 0
155 2 34.1715 25.179 26.9775 0 0 0
1718 2 21.582 26.9775 34.1715 0 0 0
570 2 32.373 34.1715 8.9925 0 0 0
2027 2 16.1865 17.985 23.3805 0 0 0
1407 2 19.7835 0.0 5.3955 0 0 0
2958 2 10.791 30.5745 34.1715 0 0 0
1288 2 23.3805 26.9775 3.597 0 0 0
2104 2 16.1865 26.9775 17.985 0 0 0
3244 2 5.3955 23.3805 0.0 0 0 0
3695 2 1.7985 25.179 12.5895 0 0 0
2456 2 12.5895 23.3805 10.791 0 0 0
3502 2 3.597 8.9925 19.7835 0 0 0
1530 2 21.582 12.5895 8.9925 0 0 0
2401 2 14.388 17.985 0.0 0 0 0
2220 2 12.5895 1.7985 14.388 0 0 0
293 2 32.373 7.194 10.791 0 0 0
2865 2 10.791 21.582 21.582 0 0 0
3255 2 5.3955 21.582 12.5895 0 0 0
1776 2 19.7835 34.1715 10.791 0 0 0
719 2 26.9775 7.194 34.1715 0 0 0
3136 2 5.3955 12.5895 10.791 0 0 0
2937 2 10.791 28.776 14.388 0 0 0
285 2 32.373 7.194 3.597 0 0 0
2404 2 12.5895 19.7835 0.0 0 0 0
1822 2 17.985 1.7985 19.7835 0 0 0
2441 2 14.388 21.582 0.0 0 0 0
557 2 32.373 28.776 32.373 0 0 0
3336 2 5.3955 30.5745 10.791 0 0 0
2413 2 14.388 17.985 10.791 0 0 0
865 2 28.776 21.582 21.582 0 0 0
1006 2 25.179 1.7985 5.3955 0 0 0
3379 2 5.3955 32.373 16.1865 0 0 0
1093 2 25.179 7.194 10.791 0 0 0
461 2 32.373 21.582 17.985 0 0 0
1907 2 16.1865 7.194 23.3805 0 0 0
1520 2 19.7835 8.9925 32.373 0 0 0
2857 2 10.791 21.582 14.388 0 0 0
144 2 34.1715 26.9775 3.597 0 0 0
2701 2 10.791 7.194 17.985 0 0 0
2169 2 17.985 32.373 7.194 0 0 0
2985 2 10.791 32.373 21.582 0 0 0
366 2 32.373 16.1865 5.3955 0 0 0
978 2 28.776 34.1715 16.1865 0 0 0
2952 2 8.9925 30.5745 25.179 0 0 0
2266 2 14.388 5.3955 23.3805 0 0 0
2357 2 14.388 10.791 32.373 0 0 0
236 2 30.5745 1.7985 28.776 0 0 0
3272 2 5.3955 23.3805 25.179 0 0 0
447 2 30.5745 21.582 5.3955 0 0 0
1905 2 17.985 7.194 21.582 0 0 0
813 2 28.776 17.985 10.791 0 0 0
1918 2 17.985 8.9925 34.1715 0 0 0
3347 2 5.3955 28.776 23.3805 0 0 0
3112 2 5.3955 8.9925 25.179 0 0 0
3038 2 7.194 1.7985 34.1715 0 0 0
2714 2 10.791 8.9925 30.5745 0 0 0
1391 2 23.3805 32.373 26.9775 0 0 0
3074 2 7.194 5.3955 30.5745 0 0 0
2277 2 14.388 3.597 32.373 0 0 0
644 2 26.9775 5.3955 0.0 0 0 0
695 2 26.9775 7.194 12.5895 0 0 0
580 2 30.5745 34.1715 14.388 0 0 0
2894 2 10.791 26.9775 12.5895 0 0 0
3988 2 0.0 34.1715 12.5895 0 0 0
428 2 30.5745 19.7835 21.582 0 0 0
2081 2 17.985 25.179 0.0 0 0 0
135 2 34.1715 21.582 26.9775 0 0 0
3402 2 3.597 1.7985 1.7985 0 0 0
1668 2 19.7835 23.3805 21.582 0 0 0
771 2 26.9775 14.388 8.9925 0 0 0
2809 2 10.791 17.985 7.194 0 0 0
598 2 32.373 34.1715 34.1715 0 0 0
1429 2 21.582 0.0 25.179 0 0 0
3275 2 5.3955 21.582 30.5745 0 0 0
499 2 30.5745 25.179 16.1865 0 0 0
704 2 26.9775 8.9925 17.985 0 0 0
1913 2 17.985 7.194 28.776 0 0 0
1398 2 25.179 34.1715 34.1715 0 0 0
2604 2 8.9925 1.7985 0.0 0 0 0
2817 2 10.791 17.985 14.388 0 0 0
3265 2 7.194 21.582 21.582 0 0 0
1431 2 19.7835 0.0 26.9775 0 0 0
736 2 26.9775 12.5895 10.791 0 0 0
3479 2 1.7985 3.597 34.1715 0 0 0
2605 2 10.791 0.0 3.597 0 0 0
2483 2 12.5895 25.179 1.7985 0 0 0
1150 2 25.179 12.5895 26.9775 0 0 0
17 2 34.1715 0.0 30.5745 0 0 0
1386 2 25.179 34.1715 23.3805 0 0 0
3854 2 0.0 8.9925 23.3805 0 0 0
2042 2 17.985 23.3805 1.7985 0 0 0
3079 2 5.3955 3.597 34.1715 0 0 0
458 2 32.373 23.3805 16.1865 0 0 0
1065 2 25.179 3.597 21.582 0 0 0
1081 2 25.179 7.194 0.0 0 0 0
3393 2 7.194 32.373 28.776 0 0 0
3119 2 5.3955 7.194 34.1715 0 0 0
1877 2 17.985 3.597 32.373 0 0 0
1505 2 21.582 7.194 21.582 0 0 0
1475 2 19.7835 3.597 30.5745 0 0 0
3088 2 5.3955 8.9925 3.597 0 0 0
531 2 30.5745 28.776 8.9925 0 0 0
1408 2 19.7835 1.7985 3.597 0 0 0
3934 2 0.0 23.3805 23.3805 0 0 0
3943 2 0.0 25.179 3.597 0 0 0
307 2 30.5745 7.194 23.3805 0 0 0
1919 2 16.1865 7.194 34.1715 0 0 0
523 2 30.5745 28.776 1.7985 0 0 0
2247 2 12.5895 3.597 5.3955 0 0 0
2974 2 10.791 34.1715 12.5895 0 0 0
3829 2 0.0 3.597 14.388 0 0 0
2840 2 8.9925 19.7835 32.373 0 0 0
3277 2 7.194 21.582 32.373 0 0 0
1344 2 23.3805 30.5745 17.985 0 0 0
2965 2 10.791 32.373 3.597 0 0 0
3881 2 0.0 14.388 0.0 0 0 0
2436 2 12.5895 19.7835 28.776 0 0 0
3041 2 7.194 3.597 0.0 0 0 0
2735 2 8.9925 10.791 12.5895 0 0 0
2995 2 8.9925 32.373 30.5745 0 0 0
822 2 28.776 19.7835 19.7835 0 0 0
3301 2 7.194 25.179 17.985 0 0 0
60 2 34.1715 8.9925 32.373 0 0 0
2941 2 10.791 28.776 17.985 0 0 0
3485 2 3.597 7.194 3.597 0 0 0
1503 2 19.7835 7.194 19.7835 0 0 0
2243 2 12.5895 3.597 1.7985 0 0 0
3505 2 3.597 7.194 21.582 0 0 0
3622 2 3.597 19.7835 19.7835 0 0 0
1813 2 17.985 0.0 10.791 0 0 0
440 2 30.5745 19.7835 32.373 0 0 0
341 2 32.373 10.791 17.985 0 0 0
2274 2 14.388 5.3955 30.5745 0 0 0
2530 2 14.388 30.5745 8.9925 0 0 0
1617 2 21.582 17.985 14.388 0 0 0
3942 2 0.0 26.9775 1.7985 0 0 0
3420 2 1.7985 1.7985 14.388 0 0 0
3537 2 3.597 10.791 14.388 0 0 0
1458 2 21.582 5.3955 16.1865 0 0 0
3548 2 1.7985 12.5895 21.582 0 0 0
3456 2 1.7985 5.3955 10.791 0 0 0
3404 2 1.7985 1.7985 0.0 0 0 0
886 2 28.776 26.9775 5.3955 0 0 0
3873 2 0.0 10.791 21.582 0 0 0
1161 2 25.179 14.388 0.0 0 0 0
2318 2 14.388 8.9925 34.1715 0 0 0
2212 2 12.5895 1.7985 7.194 0 0 0
239 2 30.5745 0.0 34.1715 0 0 0
2013 2 17.985 17.985 10.791 0 0 0
3892 2 0.0 16.1865 19.7835 0 0 0
2827 2 8.9925 17.985 23.3805 0 0 0
302 2 32.373 8.9925 19.7835 0 0 0
977 2 28.776 32.373 14.388 0 0 0
3668 2 1.7985 23.3805 21.582 0 0 0
1601 2 21.582 17.985 0.0 0 0 0
67 2 34.1715 10.791 12.5895 0 0 0
576 2 30.5745 34.1715 10.791 0 0 0
1730 2 21.582 30.5745 8.9925 0 0 0
3299 2 5.3955 25.179 16.1865 0 0 0
3352 2 5.3955 30.5745 25.179 0 0 0
2816 2 8.9925 19.7835 10.791 0 0 0
1578 2 21.582 16.1865 16.1865 0 0 0
750 2 28.776 12.5895 26.9775 0 0 0
1273 2 25.179 21.582 28.776 0 0 0
1911 2 16.1865 7.194 26.9775 0 0 0
595 2 30.5745 32.373 30.5745 0 0 0
3620 2 1.7985 19.7835 14.388 0 0 0
2698 2 10.791 8.9925 16.1865 0 0 0
2649 2 10.791 3.597 7.194 0 0 0
2890 2 10.791 26.9775 8.9925 0 0 0
546 2 32.373 30.5745 23.3805 0 0 0
1222 2 25.179 19.7835 19.7835 0 0 0
743 2 26.9775 10.791 19.7835 0 0 0
554 2 32.373 30.5745 30.5745 0 0 0
908 2 26.9775 26.9775 21.582 0 0 0
1670 2 21.582 23.3805 26.9775 0 0 0
46 2 34.1715 8.9925 7.194 0 0 0
289 2 32.373 7.194 7.194 0 0 0
3081 2 7.194 7.194 0.0 0 0 0
1900 2 16.1865 8.9925 14.388 0 0 0
2100 2 16.1865 26.9775 14.388 0 0 0
561 2 32.373 32.373 0.0 0 0 0
3228 2 5.3955 19.7835 21.582 0 0 0
819 2 26.9775 17.985 16.1865 0 0 0
2768 2 8.9925 16.1865 3.597 0 0 0
2687 2 8.9925 7.194 5.3955 0 0 0
3400 2 5.3955 34.1715 32.373 0 0 0
2919 2 8.9925 25.179 34.1715 0 0 0
53 2 34.1715 7.194 23.3805 0 0 0
2685 2 10.791 7.194 3.597 0 0 0
1059 2 23.3805 3.597 16.1865 0 0 0
3451 2 1.7985 3.597 8.9925 0 0 0
3838 2 0.0 5.3955 30.5745 0 0 0
296 2 30.5745 8.9925 10.791 0 0 0
2036 2 16.1865 19.7835 28.776 0 0 0
2892 2 8.9925 26.9775 7.194 0 0 0
2755 2 8.9925 10.791 30.5745 0 0 0
2392 2 12.5895 16.1865 25.179 0 0 0
2550 2 14.388 30.5745 26.9775 0 0 0
726 2 28.776 12.5895 5.3955 0 0 0
1959 2 16.1865 10.791 34.1715 0 0 0
2289 2 14.388 7.194 7.194 0 0 0
1624 2 19.7835 19.7835 17.985 0 0 0
2242 2 14.388 5.3955 1.7985 0 0 0
1804 2 16.1865 1.7985 0.0 0 0 0
2228 2 12.5895 1.7985 21.582 0 0 0
972 2 26.9775 34.1715 7.194 0 0 0
2599 3 12.5895 32.373 34.1715 0 0 0
1254 3 25.179 23.3805 12.5895 0 0 0
1639 3 19.7835 17.985 34.1715 0 0 0
1941 3 17.985 10.791 17.985 0 0 0
3621 3 3.597 17.985 17.985 0 0 0
3669 3 3.597 21.582 25.179 0 0 0
2592 3 12.5895 34.1715 25.179 0 0 0
320 3 30.5745 8.9925 32.373 0 0 0
3497 3 3.597 7.194 14.388 0 0 0
3323 3 5.3955 28.776 1.7985 0 0 0
1593 3 21.582 14.388 28.776 0 0 0
3769 3 3.597 32.373 7.194 0 0 0
1096 3 23.3805 8.9925 10.791 0 0 0
970 3 28.776 34.1715 8.9925 0 0 0
2232 3 12.5895 1.7985 25.179 0 0 0
1220 3 23.3805 19.7835 14.388 0 0 0
1665 3 21.582 21.582 21.582 0 0 0
2559 3 12.5895 28.776 34.1715 0 0 0
3725 3 3.597 28.776 3.597 0 0 0
3590 3 3.597 16.1865 26.9775 0 0 0
2959 3 8.9925 28.776 34.1715 0 0 0
814 3 28.776 19.7835 12.5895 0 0 0
1038 3 25.179 1.7985 34.1715 0 0 0
489 3 32.373 25.179 7.194 0 0 0
2631 3 8.9925 0.0 26.9775 0 0 0
3202 3 7.194 19.7835 1.7985 0 0 0
3294 3 7.194 26.9775 12.5895 0 0 0
3223 3 5.3955 17.985 19.7835 0 0 0
2742 3 10.791 12.5895 19.7835 0 0 0
78 3 34.1715 12.5895 28.776 0 0 0
281 3 32.373 7.194 0.0 0 0 0
1263 3 23.3805 21.582 19.7835 0 0 0
192 3 34.1715 34.1715 17.985 0 0 0
2699 3 8.9925 7.194 16.1865 0 0 0
339 3 30.5745 10.791 16.1865 0 0 0
2825 3 10.791 17.985 21.582 0 0 0
1784 3 19.7835 34.1715 17.985 0 0 0
3701 3 3.597 25.179 17.985 0 0 0
2658 3 10.791 5.3955 16.1865 0 0 0
3945 3 0.0 25.179 7.194 0 0 0
112 3 34.1715 19.7835 17.985 0 0 0
2508 3 12.5895 26.9775 21.582 0 0 0
991 3 26.9775 32.373 26.9775 0 0 0
392 3 30.5745 16.1865 25.179 0 0 0
3091 3 5.3955 7.194 8.9925 0 0 0
3997 3 0.0 32.373 28.776 0 0 0
3976 3 0.0 30.5745 26.9775 0 0 0
632 3 26.9775 1.7985 25.179 0 0 0
1844 3 16.1865 5.3955 0.0 0 0 0
2002 3 17.985 19.7835 1.7985 0 0 0
2847 3 8.9925 21.582 5.3955 0 0 0
3450 3 3.597 5.3955 8.9925 0 0 0
1438 3 21.582 1.7985 34.1715 0 0 0
1122 3 25.179 12.5895 1.7985 0 0 0
2561 3 14.388 32.373 0.0 0 0 0
2090 3 17.985 26.9775 8.9925 0 0 0
3749 3 3.597 28.776 25.179 0 0 0
1890 3 17.985 8.9925 8.9925 0 0 0
3693 3 3.597 25.179 10.791 0 0 0
2875 3 8.9925 21.582 30.5745 0 0 0
180 3 34.1715 30.5745 32.373 0 0 0
2182 3 17.985 34.1715 19.7835 0 0 0
3217 3 7.194 17.985 14.388 0 0 0
2129 3 17.985 28.776 7.194 0 0 0
1681 3 21.582 25.179 0.0 0 0 0
2221 3 14.388 0.0 17.985 0 0 0
2713 3 10.791 7.194 28.776 0 0 0
2721 3 10.791 10.791 0.0 0 0 0
3543 3 1.7985 10.791 19.7835 0 0 0
1761 3 21.582 32.373 0.0 0 0 0
2007 3 16.1865 17.985 5.3955 0 0 0
1456 3 19.7835 5.3955 10.791 0 0 0
2186 3 17.985 34.1715 23.3805 0 0 0
3486 3 3.597 8.9925 5.3955 0 0 0
1963 3 16.1865 14.388 1.7985 0 0 0
2199 3 16.1865 32.373 34.1715 0 0 0
3089 3 7.194 7.194 7.194 0 0 0
3249 3 7.194 21.582 7.194 0 0 0
1118 3 25.179 8.9925 34.1715 0 0 0
2223 3 12.5895 0.0 19.7835 0 0 0
3261 3 7.194 21.582 17.985 0 0 0
875 3 26.9775 21.582 30.5745 0 0 0
1397 3 25.179 32.373 32.373 0 0 0
941 3 28.776 28.776 17.985 0 0 0
837 3 28.776 17.985 32.373 0 0 0
3193 3 7.194 14.388 28.776 0 0 0
77 3 34.1715 10.791 30.5745 0 0 0
1731 3 19.7835 28.776 8.9925 0 0 0
1566 3 21.582 16.1865 5.3955 0 0 0
1989 3 17.985 14.388 25.179 0 0 0
1898 3 17.985 8.9925 16.1865 0 0 0
1812 3 16.1865 1.7985 7.194 0 0 0
2862 3 10.791 23.3805 19.7835 0 0 0
909 3 28.776 25.179 25.179 0 0 0
2361 3 14.388 14.388 0.0 0 0 0
1879 3 16.1865 3.597 34.1715 0 0 0
3967 3 0.0 28.776 10.791 0 0 0
2017 3 17.985 17.985 14.388 0 0 0
3664 3 1.7985 23.3805 17.985 0 0 0
918 3 28.776 26.9775 34.1715 0 0 0
673 3 28.776 3.597 28.776 0 0 0
1077 3 25.179 3.597 32.373 0 0 0
1651 3 19.7835 21.582 8.9925 0 0 0
3627 3 1.7985 17.985 23.3805 0 0 0
1297 3 25.179 25.179 14.388 0 0 0
23 3 34.1715 3.597 5.3955 0 0 0
514 3 32.373 26.9775 30.5745 0 0 0
191 3 34.1715 32.373 19.7835 0 0 0
1311 3 23.3805 25.179 26.9775 0 0 0
1622 3 21.582 19.7835 19.7835 0 0 0
2025 3 17.985 17.985 21.582 0 0 0
3340 3 5.3955 30.5745 14.388 0 0 0
2056 3 16.1865 23.3805 10.791 0 0 0
2121 3 17.985 28.776 0.0 0 0 0
449 3 32.373 21.582 7.194 0 0 0
1112 3 23.3805 8.9925 25.179 0 0 0
1819 3 16.1865 0.0 16.1865 0 0 0
2670 3 10.791 5.3955 26.9775 0 0 0
2082 3 17.985 26.9775 1.7985 0 0 0
2554 3 14.388 30.5745 30.5745 0 0 0
3053 3 7.194 3.597 10.791 0 0 0
1094 3 25.179 8.9925 12.5895 0 0 0
1317 3 25.179 25.179 32.373 0 0 0
3218 3 7.194 19.7835 16.1865 0 0 0
1409 3 21.582 0.0 7.194 0 0 0
2205 3 14.388 0.0 3.597 0 0 0
1271 3 23.3805 21.582 26.9775 0 0 0
1930 3 17.985 12.5895 8.9925 0 0 0
131 3 34.1715 21.582 19.7835 0 0 0
2255 3 12.5895 3.597 12.5895 0 0 0
2765 3 10.791 14.388 3.597 0 0 0
3733 3 3.597 28.776 10.791 0 0 0
1769 3 21.582 32.373 7.194 0 0 0
2075 3 16.1865 21.582 30.5745 0 0 0
3922 3 0.0 23.3805 1.7985 0 0 0
820 3 26.9775 19.7835 14.388 0 0 0
3151 3 5.3955 10.791 26.9775 0 0 0
2097 3 17.985 25.179 14.388 0 0 0
3371 3 5.3955 32.373 8.9925 0 0 0
603 3 26.9775 0.0 1.7985 0 0 0
1772 3 19.7835 34.1715 7.194 0 0 0
1434 3 21.582 1.7985 30.5745 0 0 0
3567 3 1.7985 14.388 5.3955 0 0 0
208 3 30.5745 1.7985 3.597 0 0 0
2627 3 8.9925 0.0 23.3805 0 0 0
2026 3 17.985 19.7835 23.3805 0 0 0
1471 3 19.7835 3.597 26.9775 0 0 0
3658 3 3.597 23.3805 16.1865 0 0 0
1988 3 16.1865 16.1865 21.582 0 0 0
1846 3 17.985 5.3955 5.3955 0 0 0
1531 3 19.7835 10.791 8.9925 0 0 0
1734 3 21.582 30.5745 12.5895 0 0 0
344 3 30.5745 12.5895 17.985 0 0 0
938 3 28.776 30.5745 16.1865 0 0 0
2096 3 16.1865 26.9775 10.791 0 0 0
2557 3 14.388 28.776 32.373 0 0 0
3550 3 3.597 12.5895 26.9775 0 0 0
3084 3 5.3955 8.9925 0.0 0 0 0
3905 3 0.0 17.985 7.194 0 0 0
1724 3 19.7835 30.5745 0.0 0 0 0
786 3 28.776 16.1865 23.3805 0 0 0
3754 3 3.597 30.5745 30.5745 0 0 0
3971 3 0.0 28.776 17.985 0 0 0
2374 3 14.388 16.1865 12.5895 0 0 0
1026 3 25.179 1.7985 23.3805 0 0 0
530 3 32.373 30.5745 8.9925 0 0 0
2309 3 14.388 7.194 25.179 0 0 0
926 3 28.776 30.5745 5.3955 0 0 0
2924 3 8.9925 30.5745 0.0 0 0 0
535 3 30.5745 28.776 12.5895 0 0 0
3983 3 0.0 32.373 3.597 0 0 0
784 3 26.9775 16.1865 17.985 0 0 0
3792 3 1.7985 34.1715 25.179 0 0 0
2864 3 8.9925 23.3805 17.985 0 0 0
3794 3 3.597 34.1715 30.5745 0 0 0
827 3 26.9775 17.985 23.3805 0 0 0
2517 3 14.388 25.179 32.373 0 0 0
2665 3 10.791 3.597 21.582 0 0 0
1721 3 21.582 28.776 0.0 0 0 0
1474 3 21.582 5.3955 30.5745 0 0 0
2098 3 17.985 26.9775 16.1865 0 0 0
2779 3 8.9925 14.388 16.1865 0 0 0
1299 3 23.3805 25.179 16.1865 0 0 0
3891 3 0.0 14.388 17.985 0 0 0
868 3 26.9775 23.3805 21.582 0 0 0
817 3 28.776 17.985 14.388 0 0 0
273 3 32.373 3.597 28.776 0 0 0
154 3 34.1715 26.9775 21.582 0 0 0
1022 3 25.179 1.7985 19.7835 0 0 0
2293 3 14.388 7.194 10.791 0 0 0
216 3 30.5745 1.7985 10.791 0 0 0
798 3 28.776 16.1865 34.1715 0 0 0
1055 3 23.3805 3.597 12.5895 0 0 0
2821 3 10.791 17.985 17.985 0 0 0
3959 3 0.0 25.179 32.373 0 0 0
2666 3 10.791 5.3955 23.3805 0 0 0
4000 3 0.0 34.1715 34.1715 0 0 0
2757 3 10.791 10.791 32.373 0 0 0
3351 3 5.3955 28.776 26.9775 0 0 0
2341 3 14.388 10.791 17.985 0 0 0
2650 3 10.791 5.3955 8.9925 0 0 0
1366 3 25.179 34.1715 5.3955 0 0 0
3809 3 0.0 0.0 14.388 0 0 0
1614 3 21.582 19.7835 12.5895 0 0 0
3080 3 5.3955 5.3955 32.373 0 0 0
16 3 34.1715 1.7985 25.179 0 0 0
265 3 32.373 3.597 21.582 0 0 0
1197 3 25.179 14.388 32.373 0 0 0
1207 3 23.3805 17.985 5.3955 0 0 0
3659 3 1.7985 21.582 16.1865 0 0 0
1893 3 17.985 7.194 10.791 0 0 0
3447 3 1.7985 3.597 5.3955 0 0 0
2746 3 10.791 12.5895 23.3805 0 0 0
3833 3 0.0 3.597 21.582 0 0 0
3859 3 0.0 7.194 32.373 0 0 0
39 3 34.1715 3.597 34.1715 0 0 0
3391 3 5.3955 32.373 26.9775 0 0 0
2502 3 14.388 26.9775 19.7835 0 0 0
3334 3 7.194 30.5745 12.5895 0 0 0
3860 3 0.0 8.9925 34.1715 0 0 0
917 3 28.776 25.179 32.373 0 0 0
842 3 28.776 23.3805 1.7985 0 0 0
3130 3 7.194 12.5895 8.9925 0 0 0
1682 3 21.582 26.9775 1.7985 0 0 0
1569 3 21.582 14.388 7.194 0 0 0
2448 3 12.5895 23.3805 3.597 0 0 0
2593 3 14.388 32.373 28.776 0 0 0
3786 3 3.597 34.1715 23.3805 0 0 0
2258 3 14.388 5.3955 16.1865 0 0 0
2399 3 12.5895 14.388 34.1715 0 0 0
309 3 32.373 7.194 25.179 0 0 0
2942 3 10.791 30.5745 19.7835 0 0 0
1972 3 16.1865 16.1865 7.194 0 0 0
2928 3 8.9925 30.5745 3.597 0 0 0
422 3 32.373 19.7835 19.7835 0 0 0
2187 3 16.1865 32.373 23.3805 0 0 0
3358 3 7.194 30.5745 34.1715 0 0 0
2819 3 8.9925 17.985 16.1865 0 0 0
3624 3 1.7985 19.7835 17.985 0 0 0
2680 3 8.9925 5.3955 32.373 0 0 0
1422 3 21.582 1.7985 19.7835 0 0 0
969 3 28.776 32.373 7.194 0 0 0
1401 3 21.582 0.0 0.0 0 0 0
2250 3 14.388 5.3955 8.9925 0 0 0
3844 3 0.0 8.9925 5.3955 0 0 0
1305 3 25.179 25.179 21.582 0 0 0
555 3 30.5745 28.776 30.5745 0 0 0
3851 3 0.0 7.194 17.985 0 0 0
968 3 26.9775 34.1715 3.597 0 0 0
2784 3 8.9925 16.1865 17.985 0 0 0
1916 3 16.1865 8.9925 28.776 0 0 0
942 3 28.776 30.5745 19.7835 0 0 0
2803 3 8.9925 17.985 1.7985 0 0 0
132 3 34.1715 23.3805 17.985 0 0 0
1244 3 23.3805 23.3805 0.0 0 0 0
98 3 34.1715 16.1865 28.776 0 0 0
1800 3 19.7835 34.1715 32.373 0 0 0
859 3 26.9775 21.582 16.1865 0 0 0
3345 3 7.194 28.776 21.582 0 0 0
770 3 28.776 16.1865 8.9925 0 0 0
1114 3 25.179 8.9925 30.5745 0 0 0
3498 3 3.597 8.9925 16.1865 0 0 0
2689 3 10.791 7.194 7.194 0 0 0
2692 3 8.9925 8.9925 7.194 0 0 0
1224 3 23.3805 19.7835 17.985 0 0 0
1219 3 23.3805 17.985 16.1865 0 0 0
69 3 34.1715 10.791 16.1865 0 0 0
2551 3 12.5895 28.776 26.9775 0 0 0
2683 3 8.9925 7.194 1.7985 0 0 0
524 3 30.5745 30.5745 0.0 0 0 0
1283 3 23.3805 25.179 1.7985 0 0 0
1549 3 21.582 10.791 25.179 0 0 0
2298 3 14.388 8.9925 16.1865 0 0 0
2751 3 8.9925 10.791 26.9775 0 0 0
2738 3 10.791 12.5895 16.1865 0 0 0
1821 3 17.985 0.0 17.985 0 0 0
2303 3 12.5895 7.194 19.7835 0 0 0
857 3 28.776 21.582 14.388 0 0 0
1005 3 25.179 0.0 3.597 0 0 0
3808 3 0.0 1.7985 12.5895 0 0 0
2072 3 16.1865 23.3805 25.179 0 0 0
3744 3 1.7985 30.5745 17.985 0 0 0
2088 3 16.1865 26.9775 3.597 0 0 0
300 3 30.5745 8.9925 14.388 0 0 0
1262 3 25.179 23.3805 19.7835 0 0 0
3394 3 7.194 34.1715 30.5745 0 0 0
3166 3 7.194 16.1865 5.3955 0 0 0
261 3 32.373 3.597 17.985 0 0 0
741 3 28.776 10.791 17.985 0 0 0
2823 3 8.9925 17.985 19.7835 0 0 0
149 3 34.1715 25.179 16.1865 0 0 0
1887 3 16.1865 7.194 5.3955 0 0 0
1280 3 23.3805 23.3805 32.373 0 0 0
703 3 26.9775 7.194 19.7835 0 0 0
3349 3 7.194 28.776 25.179 0 0 0
543 3 30.5745 28.776 19.7835 0 0 0
3396 3 5.3955 34.1715 28.776 0 0 0
471 3 30.5745 21.582 26.9775 0 0 0
338 3 32.373 12.5895 16.1865 0 0 0
1922 3 17.985 12.5895 1.7985 0 0 0
83 3 34.1715 14.388 5.3955 0 0 0
1160 3 23.3805 12.5895 32.373 0 0 0
2885 3 10.791 25.179 3.597 0 0 0
1045 3 25.179 3.597 3.597 0 0 0
1920 3 16.1865 8.9925 32.373 0 0 0
2226 3 14.388 1.7985 23.3805 0 0 0
3027 3 5.3955 0.0 23.3805 0 0 0
821 3 28.776 17.985 17.985 0 0 0
3831 3 0.0 3.597 17.985 0 0 0
141 3 34.1715 25.179 1.7985 0 0 0
2736 3 8.9925 12.5895 10.791 0 0 0
2824 3 8.9925 19.7835 17.985 0 0 0
2964 3 8.9925 34.1715 0.0 0 0 0
182 3 34.1715 34.1715 0.0 0 0 0
1381 3 25.179 32.373 17.985 0 0 0
2943 3 8.9925 28.776 19.7835 0 0 0
3521 3 3.597 10.791 0.0 0 0 0
3457 3 3.597 3.597 14.388 0 0 0
3994 3 0.0 34.1715 23.3805 0 0 0
2139 3 16.1865 28.776 16.1865 0 0 0
3430 3 3.597 1.7985 26.9775 0 0 0
3572 3 1.7985 16.1865 7.194 0 0 0
1815 3 16.1865 0.0 12.5895 0 0 0
3865 3 0.0 10.791 7.194 0 0 0
3617 3 3.597 17.985 14.388 0 0 0
1501 3 21.582 7.194 17.985 0 0 0
1592 3 19.7835 16.1865 25.179 0 0 0
1513 3 21.582 7.194 28.776 0 0 0
527 3 30.5745 28.776 5.3955 0 0 0
3638 3 3.597 19.7835 34.1715 0 0 0
3780 3 1.7985 34.1715 14.388 0 0 0
2132 3 16.1865 30.5745 7.194 0 0 0
1751 3 19.7835 28.776 26.9775 0 0 0
3960 3 0.0 26.9775 34.1715 0 0 0
2397 3 14.388 14.388 32.373 0 0 0
3162 3 7.194 16.1865 1.7985 0 0 0
342 3 32.373 12.5895 19.7835 0 0 0
3910 3 0.0 19.7835 16.1865 0 0 0
1553 3 21.582 10.791 28.776 0 0 0
1883 3 16.1865 7.194 1.7985 0 0 0
2346 3 14.388 12.5895 23.3805 0 0 0
998 3 28.776 34.1715 34.1715 0 0 0
2807 3 8.9925 17.985 5.3955 0 0 0
3716 3 1.7985 26.9775 28.776 0 0 0
2331 3 12.5895 10.791 8.9925 0 0 0
3547 3 1.7985 10.791 23.3805 0 0 0
2280 3 12.5895 5.3955 32.373 0 0 0
150 3 34.1715 26.9775 14.388 0 0 0
1116 3 23.3805 8.9925 28.776 0 0 0
577 3 32.373 32.373 14.388 0 0 0
420 3 30.5745 19.7835 14.388 0 0 0
2044 3 16.1865 23.3805 0.0 0 0 0
2522 3 14.388 30.5745 1.7985 0 0 0
511 3 30.5745 25.179 26.9775 0 0 0
2973 3 10.791 32.373 10.791 0 0 0
1995 3 16.1865 14.388 30.5745 0 0 0
82 3 34.1715 16.1865 0.0 0 0 0
1924 3 16.1865 12.5895 0.0 0 0 0
1867 3 16.1865 3.597 23.3805 0 0 0
3105 3 7.194 7.194 21.582 0 0 0
1289 3 25.179 25.179 7.194 0 0 0
2783 3 8.9925 14.388 19.7835 0 0 0
2334 3 14.388 12.5895 12.5895 0 0 0
204 3 30.5745 1.7985 0.0 0 0 0
1183 3 23.3805 14.388 19.7835 0 0 0
3248 3 5.3955 23.3805 3.597 0 0 0
2645 3 10.791 3.597 3.597 0 0 0
3123 3 5.3955 10.791 1.7985 0 0 0
2035 3 16.1865 17.985 30.5745 0 0 0
1855 3 16.1865 3.597 12.5895 0 0 0
3646 3 3.597 23.3805 5.3955 0 0 0
3587 3 1.7985 14.388 23.3805 0 0 0
2845 3 10.791 21.582 3.597 0 0 0
343 3 30.5745 10.791 19.7835 0 0 0
1660 3 19.7835 23.3805 14.388 0 0 0
3649 3 3.597 21.582 7.194 0 0 0
1162 3 25.179 16.1865 1.7985 0 0 0
460 3 30.5745 23.3805 14.388 0 0 0
1284 3 23.3805 26.9775 0.0 0 0 0
611 3 26.9775 0.0 8.9925 0 0 0
139 3 34.1715 21.582 34.1715 0 0 0
2271 3 12.5895 3.597 26.9775 0 0 0
290 3 32.373 8.9925 8.9925 0 0 0
3489 3 3.597 7.194 7.194 0 0 0
1188 3 23.3805 16.1865 21.582 0 0 0
879 3 26.9775 21.582 34.1715 0 0 0
1967 3 16.1865 14.388 5.3955 0 0 0
2957 3 10.791 28.776 32.373 0 0 0
2673 3 10.791 3.597 28.776 0 0 0
3411 3 1.7985 0.0 8.9925 0 0 0
1259 3 23.3805 21.582 16.1865 0 0 0
410 3 32.373 19.7835 8.9925 0 0 0
1 3 34.1715 0.0 1.7985 0 0 0
66 3 34.1715 12.5895 7.194 0 0 0
550 3 32.373 30.5745 26.9775 0 0 0
2480 3 12.5895 23.3805 32.373 0 0 0
3510 3 3.597 8.9925 26.9775 0 0 0
2999 3 8.9925 32.373 34.1715 0 0 0
3367 3 5.3955 32.373 5.3955 0 0 0
2022 3 17.985 19.7835 19.7835 0 0 0
3366 3 7.194 34.1715 5.3955 0 0 0
1884 3 16.1865 8.9925 0.0 0 0 0
151 3 34.1715 25.179 19.7835 0 0 0
1735 3 19.7835 28.776 12.5895 0 0 0
1626 3 21.582 19.7835 23.3805 0 0 0
2539 3 12.5895 28.776 16.1865 0 0 0
1072 3 23.3805 5.3955 25.179 0 0 0
2377 3 14.388 14.388 14.388 0 0 0
2306 3 14.388 8.9925 23.3805 0 0 0
3607 3 1.7985 17.985 5.3955 0 0 0
2438 3 14.388 19.7835 34.1715 0 0 0
812 3 26.9775 19.7835 7.194 0 0 0
685 3 28.776 7.194 3.597 0 0 0
3196 3 5.3955 16.1865 28.776 0 0 0
1301 3 25.179 25.179 17.985 0 0 0
215 3 30.5745 0.0 12.5895 0 0 0
330 3 32.373 12.5895 8.9925 0 0 0
3952 3 0.0 26.9775 19.7835 0 0 0
2660 3 8.9925 5.3955 14.388 0 0 0
890 3 28.776 26.9775 8.9925 0 0 0
654 3 28.776 5.3955 12.5895 0 0 0
3147 3 5.3955 10.791 23.3805 0 0 0
2997 3 10.791 32.373 32.373 0 0 0
1642 3 21.582 23.3805 1.7985 0 0 0
118 3 34.1715 19.7835 28.776 0 0 0
2776 3 8.9925 16.1865 10.791 0 0 0
689 3 28.776 7.194 7.194 0 0 0
3095 3 5.3955 7.194 12.5895 0 0 0
3606 3 3.597 19.7835 5.3955 0 0 0
3998 3 0.0 34.1715 30.5745 0 0 0
2031 3 16.1865 17.985 26.9775 0 0 0
2367 3 12.5895 14.388 5.3955 0 0 0
2602 3 10.791 1.7985 1.7985 0 0 0
2326 3 14.388 12.5895 5.3955 0 0 0
389 3 32.373 14.388 25.179 0 0 0
2516 3 12.5895 26.9775 28.776 0 0 0
2562 3 14.388 34.1715 1.7985 0 0 0
1376 3 23.3805 34.1715 10.791 0 0 0
1232 3 23.3805 19.7835 25.179 0 0 0
3992 3 0.0 34.1715 19.7835 0 0 0
1576 3 19.7835 16.1865 10.791 0 0 0
1575 3 19.7835 14.388 12.5895 0 0 0
133 3 34.1715 21.582 23.3805 0 0 0
3033 3 7.194 0.0 28.776 0 0 0
1291 3 23.3805 25.179 8.9925 0 0 0
105 3 34.1715 17.985 8.9925 0 0 0
2718 3 10.791 8.9925 34.1715 0 0 0
1929 3 17.985 10.791 7.194 0 0 0
3899 3 0.0 14.388 32.373 0 0 0
3991 3 0.0 32.373 17.985 0 0 0
1937 3 17.985 10.791 14.388 0 0 0
2254 3 14.388 5.3955 12.5895 0 0 0
286 3 32.373 8.9925 5.3955 0 0 0
1069 3 25.179 3.597 25.179 0 0 0
3730 3 3.597 30.5745 8.9925 0 0 0
3864 3 0.0 12.5895 5.3955 0 0 0
3581 3 3.597 14.388 17.985 0 0 0
2759 3 8.9925 10.791 34.1715 0 0 0
3885 3 0.0 14.388 7.194 0 0 0
2235 3 12.5895 0.0 30.5745 0 0 0
350 3 32.373 12.5895 26.9775 0 0 0
1272 3 23.3805 23.3805 25.179 0 0 0
1423 3 19.7835 0.0 19.7835 0 0 0
2655 3 8.9925 3.597 12.5895 0 0 0
2323 3 12.5895 10.791 1.7985 0 0 0
2462 3 14.388 23.3805 19.7835 0 0 0
181 3 34.1715 32.373 1.7985 0 0 0
3763 3 1.7985 32.373 1.7985 0 0 0
3148 3 5.3955 12.5895 21.582 0 0 0
559 3 30.5745 28.776 34.1715 0 0 0
1588 3 19.7835 16.1865 21.582 0 0 0
231 3 30.5745 0.0 26.9775 0 0 0
2468 3 12.5895 23.3805 21.582 0 0 0
2391 3 12.5895 14.388 26.9775 0 0 0
3772 3 1.7985 34.1715 7.194 0 0 0
76 3 34.1715 12.5895 25.179 0 0 0
2918 3 10.791 26.9775 34.1715 0 0 0
2603 3 8.9925 0.0 1.7985 0 0 0
3216 3 5.3955 19.7835 10.791 0 0 0
3374 3 7.194 34.1715 12.5895 0 0 0
3869 3 0.0 10.791 14.388 0 0 0
2871 3 8.9925 21.582 26.9775 0 0 0
3890 3 0.0 16.1865 16.1865 0 0 0
3552 3 1.7985 12.5895 25.179 0 0 0
259 3 30.5745 3.597 16.1865 0 0 0
1403 3 19.7835 0.0 1.7985 0 0 0
2579 3 12.5895 32.373 16.1865 0 0 0
2796 3 8.9925 16.1865 28.776 0 0 0
1057 3 25.179 3.597 14.388 0 0 0
1238 3 25.179 19.7835 34.1715 0 0 0
100 3 34.1715 16.1865 32.373 0 0 0
955 3 26.9775 28.776 30.5745 0 0 0
1101 3 25.179 7.194 17.985 0 0 0
1616 3 19.7835 19.7835 10.791 0 0 0
2621 3 10.791 0.0 17.985 0 0 0
1865 3 17.985 3.597 21.582 0 0 0
3893 3 0.0 14.388 21.582 0 0 0
3564 3 1.7985 16.1865 0.0 0 0 0
3704 3 1.7985 26.9775 17.985 0 0 0
1281 3 25.179 25.179 0.0 0 0 0
1791 3 19.7835 32.373 26.9775 0 0 0
629 3 28.776 0.0 25.179 0 0 0
1758 3 21.582 30.5745 34.1715 0 0 0
2011 3 16.1865 17.985 8.9925 0 0 0
3921 3 0.0 21.582 0.0 0 0 0
3118 3 7.194 8.9925 34.1715 0 0 0
997 3 28.776 32.373 32.373 0 0 0
1396 3 23.3805 34.1715 28.776 0 0 0
2507 3 12.5895 25.179 23.3805 0 0 0
2315 3 12.5895 7.194 30.5745 0 0 0
167 3 34.1715 28.776 12.5895 0 0 0
3337 3 7.194 28.776 14.388 0 0 0
1092 3 23.3805 8.9925 7.194 0 0 0
3652 3 1.7985 23.3805 7.194 0 0 0
1783 3 19.7835 32.373 19.7835 0 0 0
3115 3 5.3955 7.194 30.5745 0 0 0
1047 3 23.3805 3.597 5.3955 0 0 0
1229 3 25.179 17.985 25.179 0 0 0
2812 3 8.9925 19.7835 7.194 0 0 0
1621 3 21.582 17.985 17.985 0 0 0
1695 3 19.7835 25.179 12.5895 0 0 0
806 3 28.776 19.7835 5.3955 0 0 0
542 3 32.373 30.5745 19.7835 0 0 0
3004 3 5.3955 1.7985 0.0 0 0 0
2747 3 8.9925 10.791 23.3805 0 0 0
660 3 26.9775 5.3955 14.388 0 0 0
1393 3 25.179 32.373 28.776 0 0 0
2440 3 12.5895 19.7835 32.373 0 0 0
725 3 28.776 10.791 3.597 0 0 0
1421 3 21.582 0.0 17.985 0 0 0
2469 3 14.388 21.582 25.179 0 0 0
2276 3 12.5895 5.3955 28.776 0 0 0
1208 3 23.3805 19.7835 3.597 0 0 0
849 3 28.776 21.582 7.194 0 0 0
2739 3 8.9925 10.791 16.1865 0 0 0
2587 3 12.5895 32.373 23.3805 0 0 0
3023 3 5.3955 0.0 19.7835 0 0 0
675 3 26.9775 3.597 30.5745 0 0 0
3514 3 3.597 8.9925 30.5745 0 0 0
3573 3 3.597 14.388 10.791 0 0 0
718 3 28.776 8.9925 34.1715 0 0 0
1016 3 23.3805 1.7985 10.791 0 0 0
1891 3 16.1865 7.194 8.9925 0 0 0
1600 3 19.7835 16.1865 32.373 0 0 0
2238 3 14.388 1.7985 34.1715 0 0 0
3211 3 5.3955 17.985 8.9925 0 0 0
3298 3 7.194 26.9775 16.1865 0 0 0
165 3 34.1715 28.776 8.9925 0 0 0
2754 3 10.791 12.5895 30.5745 0 0 0
2835 3 8.9925 17.985 30.5745 0 0 0
519 3 30.5745 25.179 34.1715 0 0 0
1307 3 23.3805 25.179 23.3805 0 0 0
1029 3 25.179 0.0 25.179 0 0 0
3895 3 0.0 14.388 25.179 0 0 0
2488 3 12.5895 26.9775 3.597 0 0 0
3872 3 0.0 12.5895 19.7835 0 0 0
3300 3 5.3955 26.9775 14.388 0 0 0
1235 3 23.3805 17.985 30.5745 0 0 0
760 3 26.9775 12.5895 32.373 0 0 0
720 3 26.9775 8.9925 32.373 0 0 0
2064 3 16.1865 23.3805 17.985 0 0 0
3314 3 7.194 26.9775 30.5745 0 0 0
1628 3 19.7835 19.7835 21.582 0 0 0
3599 3 1.7985 14.388 34.1715 0 0 0
1899 3 16.1865 7.194 16.1865 0 0 0
376 3 30.5745 16.1865 10.791 0 0 0
3120 3 5.3955 8.9925 32.373 0 0 0
3603 3 1.7985 17.985 1.7985 0 0 0
3589 3 3.597 14.388 25.179 0 0 0
3468 3 1.7985 5.3955 21.582 0 0 0
2888 3 8.9925 26.9775 3.597 0 0 0
2682 3 10.791 8.9925 1.7985 0 0 0
2541 3 14.388 28.776 17.985 0 0 0
936 3 26.9775 30.5745 10.791 0 0 0
84 3 34.1715 16.1865 3.597 0 0 0
227 3 30.5745 0.0 23.3805 0 0 0
1997 3 17.985 14.388 32.373 0 0 0
3533 3 3.597 10.791 10.791 0 0 0
436 3 30.5745 19.7835 28.776 0 0 0
981 3 28.776 32.373 17.985 0 0 0
3172 3 5.3955 16.1865 7.194 0 0 0
1302 3 25.179 26.9775 19.7835 0 0 0
924 3 26.9775 30.5745 0.0 0 0 0
3466 3 3.597 5.3955 23.3805 0 0 0
2059 3 16.1865 21.582 16.1865 0 0 0
1176 3 23.3805 16.1865 10.791 0 0 0
2889 3 10.791 25.179 7.194 0 0 0
223 3 30.5745 0.0 19.7835 0 0 0
2643 3 8.9925 3.597 1.7985 0 0 0
3176 3 5.3955 16.1865 10.791 0 0 0
448 3 30.5745 23.3805 3.597 0 0 0
1559 3 19.7835 10.791 34.1715 0 0 0
3057 3 7.194 3.597 14.388 0 0 0
1577 3 21.582 14.388 14.388 0 0 0
732 3 26.9775 12.5895 7.194 0 0 0
3329 3 7.194 28.776 7.194 0 0 0
1459 3 19.7835 3.597 16.1865 0 0 0
532 3 30.5745 30.5745 7.194 0 0 0
3386 3 7.194 34.1715 23.3805 0 0 0
2990 3 10.791 34.1715 26.9775 0 0 0
2565 3 14.388 32.373 3.597 0 0 0
2801 3 10.791 17.985 0.0 0 0 0
211 3 30.5745 0.0 8.9925 0 0 0
395 3 30.5745 14.388 30.5745 0 0 0
2101 3 17.985 25.179 17.985 0 0 0
3795 3 1.7985 32.373 30.5745 0 0 0
2719 3 8.9925 7.194 34.1715 0 0 0
1925 3 17.985 10.791 3.597 0 0 0
2882 3 10.791 26.9775 1.7985 0 0 0
915 3 26.9775 25.179 30.5745 0 0 0
478 3 32.373 23.3805 34.1715 0 0 0
3993 3 0.0 32.373 21.582 0 0 0
3742 3 3.597 30.5745 19.7835 0 0 0
488 3 30.5745 26.9775 3.597 0 0 0
3279 3 5.3955 21.582 34.1715 0 0 0
2463 3 12.5895 21.582 19.7835 0 0 0
2189 3 17.985 32.373 25.179 0 0 0
2854 3 10.791 23.3805 12.5895 0 0 0
2769 3 10.791 14.388 7.194 0 0 0
3443 3 1.7985 3.597 1.7985 0 0 0
2786 3 10.791 16.1865 23.3805 0 0 0
284 3 30.5745 8.9925 0.0 0 0 0
340 3 30.5745 12.5895 14.388 0 0 0
496 3 30.5745 26.9775 10.791 0 0 0
1371 3 23.3805 32.373 8.9925 0 0 0
583 3 30.5745 32.373 19.7835 0 0 0
3642 3 3.597 23.3805 1.7985 0 0 0
3706 3 3.597 26.9775 23.3805 0 0 0
432 3 30.5745 19.7835 25.179 0 0 0
537 3 32.373 28.776 14.388 0 0 0
922 3 28.776 30.5745 1.7985 0 0 0
1439 3 19.7835 0.0 34.1715 0 0 0
949 3 28.776 28.776 25.179 0 0 0
2158 3 17.985 30.5745 34.1715 0 0 0
3006 3 7.194 1.7985 5.3955 0 0 0
2409 3 14.388 17.985 7.194 0 0 0
3710 3 3.597 26.9775 26.9775 0 0 0
3821 3 0.0 3.597 0.0 0 0 0
1021 3 25.179 0.0 17.985 0 0 0
2849 3 10.791 21.582 7.194 0 0 0
3291 3 5.3955 25.179 8.9925 0 0 0
3531 3 1.7985 10.791 8.9925 0 0 0
658 3 28.776 5.3955 16.1865 0 0 0
10 3 34.1715 1.7985 14.388 0 0 0
3107 3 5.3955 7.194 23.3805 0 0 0
1694 3 21.582 26.9775 12.5895 0 0 0
590 3 32.373 34.1715 26.9775 0 0 0
558 3 32.373 30.5745 34.1715 0 0 0
2168 3 16.1865 34.1715 3.597 0 0 0
367 3 30.5745 14.388 5.3955 0 0 0
3344 3 5.3955 30.5745 17.985 0 0 0
3357 3 7.194 28.776 32.373 0 0 0
2800 3 8.9925 16.1865 32.373 0 0 0
3963 3 0.0 28.776 3.597 0 0 0
2893 3 10.791 25.179 10.791 0 0 0
2122 3 17.985 30.5745 1.7985 0 0 0
1148 3 23.3805 12.5895 21.582 0 0 0
1969 3 17.985 14.388 7.194 0 0 0
578 3 32.373 34.1715 16.1865 0 0 0
1521 3 21.582 10.791 0.0 0 0 0
3212 3 5.3955 19.7835 7.194 0 0 0
1696 3 19.7835 26.9775 10.791 0 0 0
3453 3 3.597 3.597 10.791 0 0 0
3233 3 7.194 17.985 28.776 0 0 0
2686 3 10.791 8.9925 5.3955 0 0 0
2382 3 14.388 16.1865 19.7835 0 0 0
1957 3 17.985 10.791 32.373 0 0 0
2764 3 8.9925 16.1865 0.0 0 0 0
2144 3 16.1865 30.5745 17.985 0 0 0
1796 3 19.7835 34.1715 28.776 0 0 0
3731 3 1.7985 28.776 8.9925 0 0 0
606 3 28.776 1.7985 5.3955 0 0 0
437 3 32.373 17.985 32.373 0 0 0
3517 3 3.597 7.194 32.373 0 0 0
114 3 34.1715 19.7835 21.582 0 0 0
1573 3 21.582 14.388 10.791 0 0 0
3421 3 3.597 0.0 17.985 0 0 0
1834 3 17.985 1.7985 30.5745 0 0 0
2529 3 14.388 28.776 7.194 0 0 0
1976 3 16.1865 16.1865 10.791 0 0 0
2466 3 14.388 23.3805 23.3805 0 0 0
2006 3 17.985 19.7835 5.3955 0 0 0
2489 3 14.388 25.179 7.194 0 0 0
306 3 32.373 8.9925 23.3805 0 0 0
3010 3 7.194 1.7985 8.9925 0 0 0
2564 4 12.5895 34.1715 0.0 0 0 0
2951 4 8.9925 28.776 26.9775 0 0 0
414 4 32.373 19.7835 12.5895 0 0 0
1075 4 23.3805 3.597 30.5745 0 0 0
3814 4 0.0 1.7985 23.3805 0 0 0
3124 4 5.3955 12.5895 0.0 0 0 0
923 4 26.9775 28.776 1.7985 0 0 0
1058 4 25.179 5.3955 16.1865 0 0 0
1648 4 19.7835 23.3805 3.597 0 0 0
2050 4 17.985 23.3805 8.9925 0 0 0
3213 4 7.194 17.985 10.791 0 0 0
2961 4 10.791 32.373 0.0 0 0 0
3307 4 5.3955 25.179 23.3805 0 0 0
3045 4 7.194 3.597 3.597 0 0 0
1980 4 16.1865 16.1865 14.388 0 0 0
2950 4 10.791 30.5745 26.9775 0 0 0
738 4 28.776 12.5895 16.1865 0 0 0
898 4 28.776 26.9775 16.1865 0 0 0
1448 4 19.7835 5.3955 3.597 0 0 0
189 4 34.1715 32.373 16.1865 0 0 0
1733 4 21.582 28.776 10.791 0 0 0
1221 4 25.179 17.985 17.985 0 0 0
1324 4 23.3805 30.5745 0.0 0 0 0
2532 4 12.5895 30.5745 7.194 0 0 0
1437 4 21.582 0.0 32.373 0 0 0
1739 4 19.7835 28.776 16.1865 0 0 0
2000 4 16.1865 16.1865 32.373 0 0 0
2533 4 14.388 28.776 10.791 0 0 0
3940 4 0.0 23.3805 34.1715 0 0 0
1185 4 25.179 14.388 21.582 0 0 0
3226 4 7.194 19.7835 23.3805 0 0 0
2153 4 17.985 28.776 28.776 0 0 0
2461 4 14.388 21.582 17.985 0 0 0
2311 4 12.5895 7.194 26.9775 0 0 0
1326 4 25.179 30.5745 5.3955 0 0 0
3506 4 3.597 8.9925 23.3805 0 0 0
3278 4 7.194 23.3805 34.1715 0 0 0
3491 4 1.7985 7.194 8.9925 0 0 0
934 4 28.776 30.5745 12.5895 0 0 0
2077 4 17.985 21.582 32.373 0 0 0
2130 4 17.985 30.5745 8.9925 0 0 0
3201 4 7.194 17.985 0.0 0 0 0
1943 4 16.1865 10.791 19.7835 0 0 0
1158 4 25.179 12.5895 34.1715 0 0 0
1658 4 21.582 23.3805 16.1865 0 0 0
2815 4 8.9925 17.985 12.5895 0 0 0
374 4 32.373 16.1865 12.5895 0 0 0
787 4 26.9775 14.388 23.3805 0 0 0
393 4 32.373 14.388 28.776 0 0 0
2848 4 8.9925 23.3805 3.597 0 0 0
2970 4 10.791 34.1715 8.9925 0 0 0
3481 4 3.597 7.194 0.0 0 0 0
1215 4 23.3805 17.985 12.5895 0 0 0
2180 4 16.1865 34.1715 14.388 0 0 0
3241 4 7.194 21.582 0.0 0 0 0
2176 4 16.1865 34.1715 10.791 0 0 0
3556 4 1.7985 12.5895 28.776 0 0 0
1186 4 25.179 16.1865 23.3805 0 0 0
1537 4 21.582 10.791 14.388 0 0 0
602 4 28.776 1.7985 1.7985 0 0 0
3699 4 1.7985 25.179 16.1865 0 0 0
34 4 34.1715 5.3955 21.582 0 0 0
1581 4 21.582 14.388 17.985 0 0 0
1780 4 19.7835 34.1715 14.388 0 0 0
1246 4 25.179 23.3805 5.3955 0 0 0
3449 4 3.597 3.597 7.194 0 0 0
152 4 34.1715 26.9775 17.985 0 0 0
202 4 32.373 1.7985 1.7985 0 0 0
1711 4 19.7835 25.179 26.9775 0 0 0
2313 4 14.388 7.194 28.776 0 0 0
2594 4 14.388 34.1715 30.5745 0 0 0
692 4 26.9775 8.9925 7.194 0 0 0
2770 4 10.791 16.1865 8.9925 0 0 0
1565 4 21.582 14.388 3.597 0 0 0
2756 4 8.9925 12.5895 28.776 0 0 0
2583 4 12.5895 32.373 19.7835 0 0 0
3040 4 5.3955 1.7985 32.373 0 0 0
1792 4 19.7835 34.1715 25.179 0 0 0
2679 4 8.9925 3.597 34.1715 0 0 0
2365 4 14.388 14.388 3.597 0 0 0
226 4 32.373 1.7985 23.3805 0 0 0
3692 4 1.7985 26.9775 7.194 0 0 0
1933 4 17.985 10.791 10.791 0 0 0
1172 4 23.3805 16.1865 7.194 0 0 0
3312 4 5.3955 26.9775 25.179 0 0 0
3990 4 0.0 34.1715 16.1865 0 0 0
1033 4 25.179 0.0 28.776 0 0 0
783 4 26.9775 14.388 19.7835 0 0 0
322 4 32.373 12.5895 1.7985 0 0 0
2227 4 12.5895 0.0 23.3805 0 0 0
3066 4 7.194 5.3955 23.3805 0 0 0
1738 4 21.582 30.5745 16.1865 0 0 0
1644 4 19.7835 23.3805 0.0 0 0 0
1543 4 19.7835 10.791 19.7835 0 0 0
1652 4 19.7835 23.3805 7.194 0 0 0
2068 4 16.1865 23.3805 21.582 0 0 0
3843 4 0.0 7.194 3.597 0 0 0
363 4 30.5745 14.388 1.7985 0 0 0
1174 4 25.179 16.1865 12.5895 0 0 0
3903 4 0.0 17.985 3.597 0 0 0
3515 4 1.7985 7.194 30.5745 0 0 0
262 4 32.373 5.3955 19.7835 0 0 0
3529 4 3.597 10.791 7.194 0 0 0
1200 4 23.3805 16.1865 32.373 0 0 0
1940 4 16.1865 12.5895 14.388 0 0 0
2661 4 10.791 3.597 17.985 0 0 0
2304 4 12.5895 8.9925 17.985 0 0 0
2131 4 16.1865 28.776 8.9925 0 0 0
678 4 28.776 5.3955 34.1715 0 0 0
1306 4 25.179 26.9775 23.3805 0 0 0
2947 4 8.9925 28.776 23.3805 0 0 0
3768 4 1.7985 34.1715 3.597 0 0 0
462 4 32.373 23.3805 19.7835 0 0 0
641 4 28.776 3.597 0.0 0 0 0
574 4 32.373 34.1715 12.5895 0 0 0
1977 4 17.985 14.388 14.388 0 0 0
3266 4 7.194 23.3805 23.3805 0 0 0
1146 4 25.179 12.5895 23.3805 0 0 0
3756 4 1.7985 30.5745 28.776 0 0 0
928 4 26.9775 30.5745 3.597 0 0 0
1126 4 25.179 12.5895 5.3955 0 0 0
3462 4 3.597 5.3955 19.7835 0 0 0
3683 4 1.7985 25.179 1.7985 0 0 0
14 4 34.1715 1.7985 21.582 0 0 0
1789 4 21.582 32.373 25.179 0 0 0
3204 4 5.3955 19.7835 0.0 0 0 0
1071 4 23.3805 3.597 26.9775 0 0 0
1871 4 16.1865 3.597 26.9775 0 0 0
507 4 30.5745 25.179 23.3805 0 0 0
735 4 26.9775 10.791 12.5895 0 0 0
2818 4 10.791 19.7835 16.1865 0 0 0
1541 4 21.582 10.791 17.985 0 0 0
2387 4 12.5895 14.388 23.3805 0 0 0
2473 4 14.388 21.582 28.776 0 0 0
1086 4 25.179 8.9925 5.3955 0 0 0
2443 4 12.5895 21.582 1.7985 0 0 0
2028 4 16.1865 19.7835 21.582 0 0 0
659 4 26.9775 3.597 16.1865 0 0 0
589 4 32.373 32.373 25.179 0 0 0
107 4 34.1715 17.985 12.5895 0 0 0
117 4 34.1715 17.985 30.5745 0 0 0
534 4 32.373 30.5745 12.5895 0 0 0
1133 4 25.179 10.791 10.791 0 0 0
3144 4 5.3955 12.5895 17.985 0 0 0
2589 4 14.388 32.373 25.179 0 0 0
3781 4 3.597 32.373 17.985 0 0 0
2501 4 14.388 25.179 17.985 0 0 0
2998 4 10.791 34.1715 34.1715 0 0 0
3458 4 3.597 5.3955 16.1865 0 0 0
959 4 26.9775 28.776 34.1715 0 0 0
1806 4 17.985 1.7985 5.3955 0 0 0
3655 4 1.7985 21.582 12.5895 0 0 0
3812 4 0.0 1.7985 19.7835 0 0 0
481 4 32.373 25.179 0.0 0 0 0
1476 4 19.7835 5.3955 28.776 0 0 0
612 4 26.9775 1.7985 7.194 0 0 0
3296 4 5.3955 26.9775 10.791 0 0 0
1489 4 21.582 7.194 7.194 0 0 0
3528 4 1.7985 12.5895 3.597 0 0 0
295 4 30.5745 7.194 12.5895 0 0 0
2340 4 12.5895 12.5895 14.388 0 0 0
2972 4 8.9925 34.1715 7.194 0 0 0
2653 4 10.791 3.597 10.791 0 0 0
1199 4 23.3805 14.388 34.1715 0 0 0
3009 4 7.194 0.0 7.194 0 0 0
2782 4 10.791 16.1865 19.7835 0 0 0
628 4 26.9775 1.7985 21.582 0 0 0
1939 4 16.1865 10.791 16.1865 0 0 0
2946 4 10.791 30.5745 23.3805 0 0 0
573 4 32.373 32.373 10.791 0 0 0
3602 4 3.597 19.7835 1.7985 0 0 0
2058 4 17.985 23.3805 16.1865 0 0 0
1863 4 16.1865 3.597 19.7835 0 0 0
2844 4 8.9925 23.3805 0.0 0 0 0
190 4 34.1715 34.1715 14.388 0 0 0
477 4 32.373 21.582 32.373 0 0 0
1832 4 16.1865 1.7985 25.179 0 0 0
1675 4 19.7835 21.582 30.5745 0 0 0
664 4 26.9775 5.3955 17.985 0 0 0
3203 4 5.3955 17.985 1.7985 0 0 0
600 4 30.5745 34.1715 32.373 0 0 0
3884 4 0.0 16.1865 5.3955 0 0 0
3403 4 1.7985 0.0 1.7985 0 0 0
3671 4 1.7985 21.582 26.9775 0 0 0
3916 4 0.0 19.7835 26.9775 0 0 0
618 4 28.776 1.7985 16.1865 0 0 0
2194 4 17.985 34.1715 30.5745 0 0 0
2802 4 10.791 19.7835 1.7985 0 0 0
184 4 34.1715 34.1715 3.597 0 0 0
2185 4 17.985 32.373 21.582 0 0 0
3616 4 1.7985 19.7835 10.791 0 0 0
1247 4 23.3805 21.582 5.3955 0 0 0
1571 4 19.7835 14.388 8.9925 0 0 0
2935 4 8.9925 28.776 12.5895 0 0 0
2717 4 10.791 7.194 32.373 0 0 0
2841 4 10.791 21.582 0.0 0 0 0
3494 4 3.597 8.9925 12.5895 0 0 0
3630 4 3.597 19.7835 26.9775 0 0 0
1226 4 25.179 19.7835 23.3805 0 0 0
2608 4 8.9925 1.7985 3.597 0 0 0
1512 4 19.7835 8.9925 25.179 0 0 0
971 4 26.9775 32.373 8.9925 0 0 0
677 4 28.776 3.597 32.373 0 0 0
2284 4 12.5895 8.9925 0.0 0 0 0
3368 4 5.3955 34.1715 3.597 0 0 0
1708 4 19.7835 26.9775 21.582 0 0 0
702 4 28.776 8.9925 19.7835 0 0 0
1450 4 21.582 5.3955 8.9925 0 0 0
1347 4 23.3805 28.776 23.3805 0 0 0
3913 4 0.0 17.985 21.582 0 0 0
1580 4 19.7835 16.1865 14.388 0 0 0
1123 4 23.3805 10.791 1.7985 0 0 0
3770 4 3.597 34.1715 8.9925 0 0 0
161 4 34.1715 28.776 1.7985 0 0 0
3361 4 7.194 32.373 0.0 0 0 0
2051 4 16.1865 21.582 8.9925 0 0 0
3601 4 3.597 17.985 0.0 0 0 0
2260 4 12.5895 5.3955 14.388 0 0 0
1830 4 17.985 1.7985 26.9775 0 0 0
2654 4 10.791 5.3955 12.5895 0 0 0
2386 4 14.388 16.1865 23.3805 0 0 0
3878 4 0.0 12.5895 30.5745 0 0 0
556 4 30.5745 30.5745 28.776 0 0 0
1100 4 23.3805 8.9925 14.388 0 0 0
2165 4 17.985 32.373 3.597 0 0 0
3165 4 7.194 14.388 3.597 0 0 0
3286 4 7.194 26.9775 5.3955 0 0 0
3049 4 7.194 3.597 7.194 0 0 0
3477 4 3.597 3.597 32.373 0 0 0
451 4 30.5745 21.582 8.9925 0 0 0
1591 4 19.7835 14.388 26.9775 0 0 0
3187 4 5.3955 14.388 23.3805 0 0 0
506 4 32.373 26.9775 23.3805 0 0 0
41 4 34.1715 7.194 1.7985 0 0 0
1712 4 19.7835 26.9775 25.179 0 0 0
833 4 28.776 17.985 28.776 0 0 0
1472 4 19.7835 5.3955 25.179 0 0 0
2836 4 8.9925 19.7835 28.776 0 0 0
2460 4 12.5895 23.3805 14.388 0 0 0
1486 4 21.582 8.9925 5.3955 0 0 0
625 4 28.776 0.0 21.582 0 0 0
177 4 34.1715 28.776 30.5745 0 0 0
323 4 30.5745 10.791 1.7985 0 0 0
1142 4 25.179 12.5895 19.7835 0 0 0
1334 4 25.179 30.5745 12.5895 0 0 0
585 4 32.373 32.373 21.582 0 0 0
163 4 34.1715 28.776 5.3955 0 0 0
2930 4 10.791 30.5745 8.9925 0 0 0
399 4 30.5745 14.388 34.1715 0 0 0
2478 4 14.388 23.3805 34.1715 0 0 0
2253 4 14.388 3.597 10.791 0 0 0
2403 4 12.5895 17.985 1.7985 0 0 0
744 4 26.9775 12.5895 17.985 0 0 0
1099 4 23.3805 7.194 16.1865 0 0 0
2447 4 12.5895 21.582 5.3955 0 0 0
2332 4 12.5895 12.5895 7.194 0 0 0
2617 4 10.791 0.0 14.388 0 0 0
1901 4 17.985 7.194 17.985 0 0 0
635 4 26.9775 0.0 30.5745 0 0 0
495 4 30.5745 25.179 12.5895 0 0 0
1363 4 23.3805 32.373 1.7985 0 0 0
357 4 32.373 10.791 32.373 0 0 0
1011 4 23.3805 0.0 8.9925 0 0 0
219 4 30.5745 0.0 16.1865 0 0 0
1129 4 25.179 10.791 7.194 0 0 0
3399 4 5.3955 32.373 34.1715 0 0 0
1669 4 21.582 21.582 25.179 0 0 0
1645 4 21.582 21.582 3.597 0 0 0
3663 4 1.7985 21.582 19.7835 0 0 0
2433 4 14.388 17.985 28.776 0 0 0
1732 4 19.7835 30.5745 7.194 0 0 0
375 4 30.5745 14.388 12.5895 0 0 0
2484 4 12.5895 26.9775 0.0 0 0 0
1992 4 16.1865 16.1865 25.179 0 0 0
3121 4 7.194 10.791 0.0 0 0 0
2629 4 10.791 0.0 25.179 0 0 0
3014 4 7.194 1.7985 12.5895 0 0 0
474 4 32.373 23.3805 30.5745 0 0 0
3077 4 7.194 3.597 32.373 0 0 0
2726 4 10.791 12.5895 5.3955 0 0 0
948 4 26.9775 30.5745 21.582 0 0 0
2030 4 17.985 19.7835 26.9775 0 0 0
2843 4 8.9925 21.582 1.7985 0 0 0
347 4 30.5745 10.791 23.3805 0 0 0
1908 4 16.1865 8.9925 21.582 0 0 0
3783 4 1.7985 32.373 19.7835 0 0 0
2291 4 12.5895 7.194 8.9925 0 0 0
3158 4 7.194 12.5895 34.1715 0 0 0
2041 4 17.985 21.582 0.0 0 0 0
379 4 30.5745 14.388 16.1865 0 0 0
270 4 32.373 5.3955 26.9775 0 0 0
3311 4 5.3955 25.179 26.9775 0 0 0
3072 4 5.3955 5.3955 25.179 0 0 0
3876 4 0.0 12.5895 26.9775 0 0 0
3231 4 5.3955 17.985 26.9775 0 0 0
1061 4 25.179 3.597 17.985 0 0 0
2734 4 10.791 12.5895 12.5895 0 0 0
2878 4 10.791 23.3805 34.1715 0 0 0
3628 4 1.7985 19.7835 21.582 0 0 0
2418 4 14.388 19.7835 16.1865 0 0 0
3281 4 7.194 25.179 0.0 0 0 0
788 4 26.9775 16.1865 21.582 0 0 0
2093 4 17.985 25.179 10.791 0 0 0
932 4 26.9775 30.5745 7.194 0 0 0
892 4 26.9775 26.9775 7.194 0 0 0
174 4 34.1715 30.5745 21.582 0 0 0
939 4 26.9775 28.776 16.1865 0 0 0
416 4 30.5745 19.7835 10.791 0 0 0
935 4 26.9775 28.776 12.5895 0 0 0
336 4 30.5745 12.5895 10.791 0 0 0
2638 4 10.791 1.7985 34.1715 0 0 0
2018 4 17.985 19.7835 16.1865 0 0 0
1087 4 23.3805 7.194 5.3955 0 0 0
715 4 26.9775 7.194 30.5745 0 0 0
2467 4 12.5895 21.582 23.3805 0 0 0
2576 4 12.5895 34.1715 10.791 0 0 0
1470 4 21.582 5.3955 26.9775 0 0 0
3853 4 0.0 7.194 21.582 0 0 0
592 4 30.5745 34.1715 25.179 0 0 0
1518 4 21.582 8.9925 34.1715 0 0 0
3847 4 0.0 7.194 10.791 0 0 0
170 4 34.1715 30.5745 14.388 0 0 0
1755 4 19.7835 28.776 30.5745 0 0 0
2828 4 8.9925 19.7835 21.582 0 0 0
1793 4 21.582 32.373 28.776 0 0 0
1063 4 23.3805 3.597 19.7835 0 0 0
1435 4 19.7835 0.0 30.5745 0 0 0
2307 4 12.5895 7.194 23.3805 0 0 0
3629 4 3.597 17.985 25.179 0 0 0
1903 4 16.1865 7.194 19.7835 0 0 0
1107 4 23.3805 7.194 23.3805 0 0 0
2003 4 16.1865 17.985 1.7985 0 0 0
3276 4 5.3955 23.3805 28.776 0 0 0
1767 4 19.7835 32.373 5.3955 0 0 0
2389 4 14.388 14.388 25.179 0 0 0
1209 4 25.179 17.985 7.194 0 0 0
442 4 32.373 23.3805 1.7985 0 0 0
1896 4 16.1865 8.9925 10.791 0 0 0
3673 4 3.597 21.582 28.776 0 0 0
3200 4 5.3955 16.1865 32.373 0 0 0
2 4 34.1715 1.7985 0.0 0 0 0
2495 4 12.5895 25.179 12.5895 0 0 0
1180 4 23.3805 16.1865 14.388 0 0 0
1885 4 17.985 7.194 3.597 0 0 0
683 4 26.9775 7.194 1.7985 0 0 0
2412 4 12.5895 19.7835 7.194 0 0 0
1340 4 23.3805 30.5745 14.388 0 0 0
2595 4 12.5895 32.373 30.5745 0 0 0
365 4 32.373 14.388 3.597 0 0 0
3381 4 7.194 32.373 17.985 0 0 0
2319 4 12.5895 7.194 34.1715 0 0 0
947 4 26.9775 28.776 23.3805 0 0 0
2363 4 12.5895 14.388 1.7985 0 0 0
1897 4 17.985 7.194 14.388 0 0 0
2842 4 10.791 23.3805 1.7985 0 0 0
1102 4 25.179 8.9925 19.7835 0 0 0
183 4 34.1715 32.373 5.3955 0 0 0
2012 4 16.1865 19.7835 7.194 0 0 0
2688 4 8.9925 8.9925 3.597 0 0 0
1332 4 23.3805 30.5745 7.194 0 0 0
3579 4 1.7985 14.388 16.1865 0 0 0
1427 4 19.7835 0.0 23.3805 0 0 0
3755 4 1.7985 28.776 30.5745 0 0 0
1285 4 25.179 25.179 3.597 0 0 0
1619 4 19.7835 17.985 16.1865 0 0 0
2434 4 14.388 19.7835 30.5745 0 0 0
757 4 28.776 10.791 32.373 0 0 0
724 4 26.9775 12.5895 0.0 0 0 0
2099 4 16.1865 25.179 16.1865 0 0 0
142 4 34.1715 26.9775 0.0 0 0 0
2272 4 12.5895 5.3955 25.179 0 0 0
2141 4 17.985 28.776 17.985 0 0 0
3799 4 1.7985 32.373 34.1715 0 0 0
3985 4 0.0 32.373 7.194 0 0 0
1928 4 16.1865 12.5895 3.597 0 0 0
3863 4 0.0 10.791 3.597 0 0 0
1041 4 25.179 3.597 0.0 0 0 0
3406 4 3.597 1.7985 5.3955 0 0 0
627 4 26.9775 0.0 23.3805 0 0 0
3047 4 5.3955 3.597 5.3955 0 0 0
1457 4 21.582 3.597 14.388 0 0 0
96 4 34.1715 16.1865 25.179 0 0 0
3979 4 0.0 28.776 32.373 0 0 0
1790 4 21.582 34.1715 26.9775 0 0 0
106 4 34.1715 19.7835 7.194 0 0 0
2715 4 8.9925 7.194 30.5745 0 0 0
1473 4 21.582 3.597 28.776 0 0 0
921 4 28.776 28.776 0.0 0 0 0
1880 4 16.1865 5.3955 32.373 0 0 0
2611 4 8.9925 0.0 8.9925 0 0 0
3061 4 7.194 3.597 17.985 0 0 0
3937 4 0.0 21.582 28.776 0 0 0
200 4 34.1715 34.1715 32.373 0 0 0
2607 4 8.9925 0.0 5.3955 0 0 0
801 4 28.776 17.985 0.0 0 0 0
3745 4 3.597 28.776 21.582 0 0 0
2694 4 10.791 8.9925 12.5895 0 0 0
1936 4 16.1865 12.5895 10.791 0 0 0
844 4 26.9775 23.3805 0.0 0 0 0
3331 4 5.3955 28.776 8.9925 0 0 0
3222 4 7.194 19.7835 19.7835 0 0 0
3578 4 3.597 16.1865 16.1865 0 0 0
233 4 32.373 0.0 28.776 0 0 0
1693 4 21.582 25.179 10.791 0 0 0
441 4 32.373 21.582 0.0 0 0 0
1139 4 23.3805 10.791 16.1865 0 0 0
2553 4 14.388 28.776 28.776 0 0 0
2960 4 8.9925 30.5745 32.373 0 0 0
1362 4 25.179 34.1715 1.7985 0 0 0
3904 4 0.0 19.7835 5.3955 0 0 0
3439 4 1.7985 0.0 34.1715 0 0 0
3470 4 3.597 5.3955 26.9775 0 0 0
3938 4 0.0 23.3805 30.5745 0 0 0
3325 4 7.194 28.776 3.597 0 0 0
188 4 34.1715 34.1715 10.791 0 0 0
694 4 28.776 8.9925 12.5895 0 0 0
522 4 32.373 30.5745 1.7985 0 0 0
2140 4 16.1865 30.5745 14.388 0 0 0
2420 4 12.5895 19.7835 14.388 0 0 0
2657 4 10.791 3.597 14.388 0 0 0
2810 4 10.791 19.7835 8.9925 0 0 0
3069 4 7.194 3.597 25.179 0 0 0
2548 4 12.5895 30.5745 21.582 0 0 0
2368 4 12.5895 16.1865 3.597 0 0 0
2286 4 14.388 8.9925 5.3955 0 0 0
3271 4 5.3955 21.582 26.9775 0 0 0
79 4 34.1715 10.791 34.1715 0 0 0
3152 4 5.3955 12.5895 25.179 0 0 0
3474 4 3.597 5.3955 30.5745 0 0 0
1823 4 16.1865 0.0 19.7835 0 0 0
1392 4 23.3805 34.1715 25.179 0 0 0
2396 4 12.5895 16.1865 28.776 0 0 0
2609 4 10.791 0.0 7.194 0 0 0
2566 4 14.388 34.1715 5.3955 0 0 0
3761 4 3.597 32.373 0.0 0 0 0
636 4 26.9775 1.7985 28.776 0 0 0
1663 4 19.7835 21.582 19.7835 0 0 0
1395 4 23.3805 32.373 30.5745 0 0 0
776 4 26.9775 16.1865 10.791 0 0 0
2052 4 16.1865 23.3805 7.194 0 0 0
2432 4 12.5895 19.7835 25.179 0 0 0
1132 4 23.3805 12.5895 7.194 0 0 0
1447 4 19.7835 3.597 5.3955 0 0 0
1557 4 21.582 10.791 32.373 0 0 0
845 4 28.776 21.582 3.597 0 0 0
3425 4 3.597 0.0 21.582 0 0 0
1529 4 21.582 10.791 7.194 0 0 0
1039 4 23.3805 0.0 34.1715 0 0 0
2095 4 16.1865 25.179 12.5895 0 0 0
2771 4 8.9925 14.388 8.9925 0 0 0
3524 4 1.7985 12.5895 0.0 0 0 0
2704 4 8.9925 8.9925 17.985 0 0 0
1385 4 25.179 32.373 21.582 0 0 0
325 4 32.373 10.791 3.597 0 0 0
1010 4 25.179 1.7985 8.9925 0 0 0
957 4 28.776 28.776 32.373 0 0 0
512 4 30.5745 26.9775 25.179 0 0 0
469 4 32.373 21.582 25.179 0 0 0
3928 4 0.0 23.3805 12.5895 0 0 0
3398 4 7.194 34.1715 34.1715 0 0 0
646 4 28.776 5.3955 5.3955 0 0 0
944 4 26.9775 30.5745 17.985 0 0 0
3762 4 3.597 34.1715 1.7985 0 0 0
3104 4 5.3955 8.9925 17.985 0 0 0
2193 4 17.985 32.373 28.776 0 0 0
3316 4 5.3955 26.9775 28.776 0 0 0
2218 4 14.388 1.7985 16.1865 0 0 0
2411 4 12.5895 17.985 8.9925 0 0 0
739 4 26.9775 10.791 16.1865 0 0 0
3424 4 1.7985 1.7985 17.985 0 0 0
2145 4 17.985 28.776 21.582 0 0 0
2262 4 14.388 5.3955 19.7835 0 0 0
2481 4 14.388 25.179 0.0 0 0 0
2118 4 17.985 26.9775 34.1715 0 0 0
2354 4 14.388 12.5895 30.5745 0 0 0
108 4 34.1715 19.7835 10.791 0 0 0
3554 4 3.597 12.5895 30.5745 0 0 0
3132 4 5.3955 12.5895 7.194 0 0 0
3090 4 7.194 8.9925 8.9925 0 0 0
3774 4 3.597 34.1715 12.5895 0 0 0
3225 4 7.194 17.985 21.582 0 0 0
2700 4 8.9925 8.9925 14.388 0 0 0
435 4 30.5745 17.985 30.5745 0 0 0
1949 4 17.985 10.791 25.179 0 0 0
1653 4 21.582 21.582 10.791 0 0 0
3414 4 3.597 1.7985 12.5895 0 0 0
2989 4 10.791 32.373 25.179 0 0 0
816 4 26.9775 19.7835 10.791 0 0 0
3995 4 0.0 32.373 25.179 0 0 0
1360 4 23.3805 30.5745 32.373 0 0 0
1605 4 21.582 17.985 3.597 0 0 0
1206 4 25.179 19.7835 5.3955 0 0 0
80 4 34.1715 12.5895 32.373 0 0 0
3327 4 5.3955 28.776 5.3955 0 0 0
984 4 26.9775 34.1715 17.985 0 0 0
400 4 30.5745 16.1865 32.373 0 0 0
3160 4 5.3955 12.5895 32.373 0 0 0
1007 4 23.3805 0.0 5.3955 0 0 0
1379 4 23.3805 32.373 16.1865 0 0 0
2004 4 16.1865 19.7835 0.0 0 0 0
3250 4 7.194 23.3805 8.9925 0 0 0
246 4 32.373 5.3955 5.3955 0 0 0
2240 4 12.5895 1.7985 32.373 0 0 0
800 4 26.9775 16.1865 32.373 0 0 0
3410 4 3.597 1.7985 8.9925 0 0 0
1522 4 21.582 12.5895 1.7985 0 0 0
1073 4 25.179 3.597 28.776 0 0 0
3012 4 5.3955 1.7985 7.194 0 0 0
2744 4 8.9925 12.5895 17.985 0 0 0
3343 4 5.3955 28.776 19.7835 0 0 0
712 4 26.9775 8.9925 25.179 0 0 0
2741 4 10.791 10.791 17.985 0 0 0
1454 4 21.582 5.3955 12.5895 0 0 0
92 4 34.1715 16.1865 17.985 0 0 0
1014 4 25.179 1.7985 12.5895 0 0 0
1372 4 23.3805 34.1715 7.194 0 0 0
315 4 30.5745 7.194 30.5745 0 0 0
2652 4 8.9925 5.3955 7.194 0 0 0
2969 4 10.791 32.373 7.194 0 0 0
2425 4 14.388 17.985 21.582 0 0 0
3565 4 3.597 14.388 3.597 0 0 0
203 4 30.5745 0.0 1.7985 0 0 0
1797 4 21.582 32.373 32.373 0 0 0
1453 4 21.582 3.597 10.791 0 0 0
3591 4 1.7985 14.388 26.9775 0 0 0
1647 4 19.7835 21.582 5.3955 0 0 0
2446 4 14.388 23.3805 5.3955 0 0 0
3364 4 5.3955 34.1715 0.0 0 0 0
2651 4 8.9925 3.597 8.9925 0 0 0
670 4 28.776 5.3955 26.9775 0 0 0
2015 4 16.1865 17.985 12.5895 0 0 0
876 4 26.9775 23.3805 28.776 0 0 0
1803 4 16.1865 0.0 1.7985 0 0 0
1704 4 19.7835 26.9775 17.985 0 0 0
3978 4 0.0 30.5745 30.5745 0 0 0
2204 4 12.5895 1.7985 0.0 0 0 0
3546 4 3.597 12.5895 23.3805 0 0 0
109 4 34.1715 17.985 16.1865 0 0 0
3073 4 7.194 3.597 28.776 0 0 0
2492 4 12.5895 26.9775 7.194 0 0 0
2475 4 12.5895 21.582 30.5745 0 0 0
974 4 28.776 34.1715 12.5895 0 0 0
3441 4 3.597 3.597 0.0 0 0 0
1056 4 23.3805 5.3955 10.791 0 0 0
1932 4 16.1865 12.5895 7.194 0 0 0
444 4 30.5745 23.3805 0.0 0 0 0
1766 4 21.582 34.1715 5.3955 0 0 0
1599 4 19.7835 14.388 34.1715 0 0 0
1598 4 21.582 16.1865 34.1715 0 0 0
1753 4 21.582 28.776 28.776 0 0 0
3302 4 7.194 26.9775 19.7835 0 0 0
464 4 30.5745 23.3805 17.985 0 0 0
2838 4 10.791 19.7835 34.1715 0 0 0
2449 4 14.388 21.582 7.194 0 0 0
3070 4 7.194 5.3955 26.9775 0 0 0
2761 4 10.791 14.388 0.0 0 0 0
241 4 32.373 3.597 0.0 0 0 0
3246 4 7.194 23.3805 5.3955 0 0 0
979 4 26.9775 32.373 16.1865 0 0 0
2252 4 12.5895 5.3955 7.194 0 0 0
1330 4 25.179 30.5745 8.9925 0 0 0
2010 4 17.985 19.7835 8.9925 0 0 0
378 4 32.373 16.1865 16.1865 0 0 0
866 4 28.776 23.3805 23.3805 0 0 0
3679 4 1.7985 21.582 34.1715 0 0 0
767 4 26.9775 14.388 5.3955 0 0 0
3011 4 5.3955 0.0 8.9925 0 0 0
176 4 34.1715 30.5745 25.179 0 0 0
2372 4 12.5895 16.1865 7.194 0 0 0
1338 4 25.179 30.5745 16.1865 0 0 0
2932 4 8.9925 30.5745 7.194 0 0 0
111 4 34.1715 17.985 19.7835 0 0 0
1203 4 23.3805 17.985 1.7985 0 0 0
173 4 34.1715 28.776 23.3805 0 0 0
2980 4 8.9925 34.1715 14.388 0 0 0
2867 4 8.9925 21.582 23.3805 0 0 0
3984 4 0.0 34.1715 5.3955 0 0 0
552 4 30.5745 30.5745 25.179 0 0 0
2358 4 14.388 12.5895 34.1715 0 0 0
394 4 32.373 16.1865 30.5745 0 0 0
1293 4 25.179 25.179 10.791 0 0 0
2451 4 12.5895 21.582 8.9925 0 0 0
1802 4 17.985 1.7985 1.7985 0 0 0
3583 4 1.7985 14.388 19.7835 0 0 0
2167 4 16.1865 32.373 5.3955 0 0 0
3209 4 7.194 17.985 7.194 0 0 0
1049 4 25.179 3.597 7.194 0 0 0
3179 4 5.3955 14.388 16.1865 0 0 0
616 4 26.9775 1.7985 10.791 0 0 0
1604 4 19.7835 19.7835 0.0 0 0 0
1436 4 19.7835 1.7985 28.776 0 0 0
257 4 32.373 3.597 14.388 0 0 0
2994 4 10.791 34.1715 30.5745 0 0 0
3384 4 5.3955 34.1715 17.985 0 0 0
2785 4 10.791 14.388 21.582 0 0 0
3426 4 3.597 1.7985 23.3805 0 0 0
2390 4 14.388 16.1865 26.9775 0 0 0
1771 4 19.7835 32.373 8.9925 0 0 0
3146 4 7.194 12.5895 23.3805 0 0 0
1608 4 19.7835 19.7835 3.597 0 0 0
15 4 34.1715 0.0 26.9775 0 0 0
3511 4 1.7985 7.194 26.9775 0 0 0
3915 4 0.0 17.985 25.179 0 0 0
411 4 30.5745 17.985 8.9925 0 0 0
680 4 26.9775 5.3955 32.373 0 0 0
2126 4 17.985 30.5745 5.3955 0 0 0
961 4 28.776 32.373 0.0 0 0 0
3469 4 3.597 3.597 25.179 0 0 0
2343 4 12.5895 10.791 19.7835 0 0 0
3161 4 7.194 14.388 0.0 0 0 0
3562 4 3.597 16.1865 1.7985 0 0 0
1432 4 19.7835 1.7985 25.179 0 0 0
1089 4 25.179 7.194 7.194 0 0 0
1460 4 19.7835 5.3955 14.388 0 0 0
1833 4 17.985 0.0 28.776 0 0 0
1223 4 23.3805 17.985 19.7835 0 0 0
3539 4 1.7985 10.791 16.1865 0 0 0
1613 4 21.582 17.985 10.791 0 0 0
3096 4 5.3955 8.9925 10.791 0 0 0
1237 4 25.179 17.985 32.373 0 0 0
2337 4 14.388 10.791 14.388 0 0 0
1097 4 25.179 7.194 14.388 0 0 0
1205 4 25.179 17.985 3.597 0 0 0
3496 4 1.7985 8.9925 10.791 0 0 0
1582 4 21.582 16.1865 19.7835 0 0 0
3801 4 0.0 0.0 0.0 0 0 0
1805 4 17.985 0.0 3.597 0 0 0
536 4 30.5745 30.5745 10.791 0 0 0
3412 4 1.7985 1.7985 7.194 0 0 0
1216 4 23.3805 19.7835 10.791 0 0 0
2708 4 8.9925 8.9925 21.582 0 0 0
3832 4 0.0 5.3955 19.7835 0 0 0
3328 4 5.3955 30.5745 3.597 0 0 0
2632 4 8.9925 1.7985 25.179 0 0 0
1349 4 25.179 28.776 25.179 0 0 0
68 4 34.1715 12.5895 10.791 0 0 0
3705 4 3.597 25.179 21.582 0 0 0
1019 4 23.3805 0.0 16.1865 0 0 0
32 4 34.1715 5.3955 17.985 0 0 0
3882 4 0.0 16.1865 1.7985 0 0 0
3273 4 7.194 21.582 28.776 0 0 0
3287 4 5.3955 25.179 5.3955 0 0 0
3634 4 3.597 19.7835 30.5745 0 0 0
1586 4 21.582 16.1865 23.3805 0 0 0
3461 4 3.597 3.597 17.985 0 0 0
2913 4 10.791 25.179 28.776 0 0 0
3605 4 3.597 17.985 3.597 0 0 0
1826 4 17.985 1.7985 23.3805 0 0 0
3509 4 3.597 7.194 25.179 0 0 0
1615 4 19.7835 17.985 12.5895 0 0 0
2217 4 14.388 0.0 14.388 0 0 0
3793 4 3.597 32.373 28.776 0 0 0
1218 4 25.179 19.7835 16.1865 0 0 0
3377 4 7.194 32.373 14.388 0 0 0
745 4 28.776 10.791 21.582 0 0 0
3656 4 1.7985 23.3805 10.791 0 0 0
2040 4 16.1865 19.7835 32.373 0 0 0
982 4 28.776 34.1715 19.7835 0 0 0
1312 4 23.3805 26.9775 25.179 0 0 0
3434 4 3.597 1.7985 30.5745 0 0 0
3373 4 7.194 32.373 10.791 0 0 0
1745 4 21.582 28.776 21.582 0 0 0
1816 4 16.1865 1.7985 10.791 0 0 0
3043 4 5.3955 3.597 1.7985 0 0 0
2349 4 14.388 10.791 25.179 0 0 0
3569 4 3.597 14.388 7.194 0 0 0
1359 4 23.3805 28.776 34.1715 0 0 0
2917 4 10.791 25.179 32.373 0 0 0
3955 4 0.0 25.179 25.179 0 0 0
3623 4 1.7985 17.985 19.7835 0 0 0
3028 4 5.3955 1.7985 21.582 0 0 0
711 4 26.9775 7.194 26.9775 0 0 0
1231 4 23.3805 17.985 26.9775 0 0 0
2925 4 10.791 28.776 3.597 0 0 0
3753 4 3.597 28.776 28.776 0 0 0
24 4 34.1715 5.3955 3.597 0 0 0
372 4 30.5745 16.1865 7.194 0 0 0
2868 4 8.9925 23.3805 21.582 0 0 0
1514 4 21.582 8.9925 30.5745 0 0 0
889 4 28.776 25.179 7.194 0 0 0
3765 4 3.597 32.373 3.597 0 0 0
1794 4 21.582 34.1715 30.5745 0 0 0
1763 4 19.7835 32.373 1.7985 0 0 0
1416 4 19.7835 1.7985 10.791 0 0 0
1369 4 25.179 32.373 7.194 0 0 0
1561 4 21.582 14.388 0.0 0 0 0
3735 4 1.7985 28.776 12.5895 0 0 0
3538 4 3.597 12.5895 16.1865 0 0 0
3338 4 7.194 30.5745 16.1865 0 0 0
498 4 32.373 26.9775 16.1865 0 0 0
3840 4 0.0 5.3955 34.1715 0 0 0
2219 4 12.5895 0.0 16.1865 0 0 0
2955 4 8.9925 28.776 30.5745 0 0 0
777 4 28.776 14.388 14.388 0 0 0
551 4 30.5745 28.776 26.9775 0 0 0
3830 4 0.0 5.3955 16.1865 0 0 0
3001 4 7.194 0.0 0.0 0 0 0
3751 4 1.7985 28.776 26.9775 0 0 0
1406 4 21.582 1.7985 5.3955 0 0 0
3815 4 0.0 0.0 25.179 0 0 0
2695 4 8.9925 7.194 12.5895 0 0 0
136 4 34.1715 23.3805 25.179 0 0 0
2229 4 14.388 0.0 25.179 0 0 0
3803 4 0.0 0.0 3.597 0 0 0
3637 4 3.597 17.985 32.373 0 0 0
3075 4 5.3955 3.597 30.5745 0 0 0
2543 4 12.5895 28.776 19.7835 0 0 0
656 4 26.9775 5.3955 10.791 0 0 0
3324 4 5.3955 30.5745 0.0 0 0 0
3164 4 5.3955 16.1865 0.0 0 0 0
965 4 28.776 32.373 3.597 0 0 0
3596 4 1.7985 16.1865 28.776 0 0 0
2327 4 12.5895 10.791 5.3955 0 0 0
2134 4 17.985 30.5745 12.5895 0 0 0
533 4 32.373 28.776 10.791 0 0 0
1643 4 19.7835 21.582 1.7985 0 0 0
3137 4 7.194 10.791 14.388 0 0 0
3912 4 0.0 19.7835 19.7835 0 0 0
3308 4 5.3955 26.9775 21.582 0 0 0
515 4 30.5745 25.179 30.5745 0 0 0
2359 4 12.5895 10.791 34.1715 0 0 0
1535 4 19.7835 10.791 12.5895 0 0 0
613 4 28.776 0.0 10.791 0 0 0
858 4 28.776 23.3805 16.1865 0 0 0
1506 4 21.582 8.9925 23.3805 0 0 0
2881 4 10.791 25.179 0.0 0 0 0
238 4 32.373 1.7985 34.1715 0 0 0
860 4 26.9775 23.3805 14.388 0 0 0
3598 4 3.597 16.1865 34.1715 0 0 0
287 4 30.5745 7.194 5.3955 0 0 0
418 4 32.373 19.7835 16.1865 0 0 0
1355 4 23.3805 28.776 30.5745 0 0 0
3846 4 0.0 8.9925 8.9925 0 0 0
1074 4 25.179 5.3955 30.5745 0 0 0
129 4 34.1715 21.582 16.1865 0 0 0
20 4 34.1715 1.7985 32.373 0 0 0
230 4 32.373 1.7985 26.9775 0 0 0
2135 4 16.1865 28.776 12.5895 0 0 0
1274 4 25.179 23.3805 30.5745 0 0 0
3108 4 5.3955 8.9925 21.582 0 0 0
1545 4 21.582 10.791 21.582 0 0 0
764 4 26.9775 16.1865 0.0 0 0 0
832 4 26.9775 19.7835 25.179 0 0 0
1519 4 19.7835 7.194 34.1715 0 0 0
1563 4 19.7835 14.388 1.7985 0 0 0
1258 4 25.179 23.3805 16.1865 0 0 0
872 4 26.9775 23.3805 25.179 0 0 0
3390 4 7.194 34.1715 26.9775 0 0 0
1979 4 16.1865 14.388 16.1865 0 0 0
3169 4 7.194 14.388 7.194 0 0 0
1136 4 23.3805 12.5895 10.791 0 0 0
1494 4 21.582 8.9925 12.5895 0 0 0
2696 4 8.9925 8.9925 10.791 0 0 0
3190 4 7.194 16.1865 26.9775 0 0 0
3633 4 3.597 17.985 28.776 0 0 0
3269 4 7.194 21.582 25.179 0 0 0
1679 4 19.7835 21.582 34.1715 0 0 0
1184 4 23.3805 16.1865 17.985 0 0 0
490 4 32.373 26.9775 8.9925 0 0 0
3929 4 0.0 21.582 14.388 0 0 0
3968 4 0.0 30.5745 12.5895 0 0 0
1342 4 25.179 30.5745 19.7835 0 0 0
54 4 34.1715 8.9925 21.582 0 0 0
397 4 32.373 14.388 32.373 0 0 0
362 4 32.373 16.1865 1.7985 0 0 0
1015 4 23.3805 0.0 12.5895 0 0 0
3097 4 7.194 7.194 14.388 0 0 0
688 4 26.9775 8.9925 3.597 0 0 0
3597 4 3.597 14.388 32.373 0 0 0
3182 4 7.194 16.1865 19.7835 0 0 0
1947 4 16.1865 10.791 23.3805 0 0 0
3842 4 0.0 8.9925 1.7985 0 0 0
47 4 34.1715 7.194 12.5895 0 0 0
650 4 28.776 5.3955 8.9925 0 0 0
2811 4 8.9925 17.985 8.9925 0 0 0
2966 4 10.791 34.1715 5.3955 0 0 0
3956 4 0.0 26.9775 26.9775 0 0 0
3480 4 1.7985 5.3955 32.373 0 0 0
95 4 34.1715 14.388 26.9775 0 0 0
929 4 28.776 28.776 7.194 0 0 0
3694 4 3.597 26.9775 12.5895 0 0 0
3914 4 0.0 19.7835 23.3805 0 0 0
3870 4 0.0 12.5895 16.1865 0 0 0
3682 4 3.597 26.9775 1.7985 0 0 0
3615 4 1.7985 17.985 12.5895 0 0 0
1461 4 21.582 3.597 17.985 0 0 0
3737 4 3.597 28.776 14.388 0 0 0
1986 4 17.985 16.1865 23.3805 0 0 0
122 4 34.1715 23.3805 0.0 0 0 0
691 4 26.9775 7.194 8.9925 0 0 0
2021 4 17.985 17.985 17.985 0 0 0
2005 4 17.985 17.985 3.597 0 0 0
1951 4 16.1865 10.791 26.9775 0 0 0
549 4 32.373 28.776 25.179 0 0 0
2895 4 8.9925 25.179 12.5895 0 0 0
1841 4 17.985 3.597 0.0 0 0 0
1515 4 19.7835 7.194 30.5745 0 0 0
3282 4 7.194 26.9775 1.7985 0 0 0
1319 4 23.3805 25.179 34.1715 0 0 0
1703 4 19.7835 25.179 19.7835 0 0 0
3918 4 0.0 19.7835 30.5745 0 0 0
288 4 30.5745 8.9925 3.597 0 0 0
382 4 32.373 16.1865 19.7835 0 0 0
1729 4 21.582 28.776 7.194 0 0 0
3142 4 7.194 12.5895 19.7835 0 0 0
2375 4 12.5895 14.388 12.5895 0 0 0
3850 4 0.0 8.9925 16.1865 0 0 0
452 4 30.5745 23.3805 7.194 0 0 0
2188 4 16.1865 34.1715 21.582 0 0 0
1697 4 21.582 25.179 14.388 0 0 0
3951 4 0.0 25.179 17.985 0 0 0
838 4 28.776 19.7835 34.1715 0 0 0
2429 4 14.388 17.985 25.179 0 0 0
1931 4 16.1865 10.791 8.9925 0 0 0
994 4 28.776 34.1715 30.5745 0 0 0
2499 4 12.5895 25.179 16.1865 0 0 0
2062 4 17.985 23.3805 19.7835 0 0 0
1640 4 19.7835 19.7835 32.373 0 0 0
2524 4 12.5895 30.5745 0.0 0 0 0
120 4 34.1715 19.7835 32.373 0 0 0
417 4 32.373 17.985 14.388 0 0 0
2674 4 10.791 5.3955 30.5745 0 0 0
333 4 32.373 10.791 10.791 0 0 0
3595 4 1.7985 14.388 30.5745 0 0 0
920 4 26.9775 26.9775 32.373 0 0 0
2206 4 14.388 1.7985 5.3955 0 0 0
2259 4 12.5895 3.597 16.1865 0 0 0
65 4 34.1715 10.791 8.9925 0 0 0
2808 4 8.9925 19.7835 3.597 0 0 0
1030 4 25.179 1.7985 26.9775 0 0 0
303 4 30.5745 7.194 19.7835 0 0 0
3017 4 7.194 0.0 14.388 0 0 0
518 4 32.373 26.9775 34.1715 0 0 0
964 4 26.9775 34.1715 0.0 0 0 0
3208 4 5.3955 19.7835 3.597 0 0 0
1134 4 25.179 12.5895 12.5895 0 0 0
6 4 34.1715 1.7985 7.194 0 0 0
2251 4 12.5895 3.597 8.9925 0 0 0
2407 4 12.5895 17.985 5.3955 0 0 0
717 4 28.776 7.194 32.373 0 0 0
3106 4 7.194 8.9925 23.3805 0 0 0
1964 4 16.1865 16.1865 0.0 0 0 0
684 4 26.9775 8.9925 0.0 0 0 0
3140 4 5.3955 12.5895 14.388 0 0 0
3178 4 7.194 16.1865 16.1865 0 0 0
2839 4 8.9925 17.985 34.1715 0 0 0
990 4 28.776 34.1715 26.9775 0 0 0
1551 4 19.7835 10.791 26.9775 0 0 0
883 4 26.9775 25.179 1.7985 0 0 0
640 4 26.9775 1.7985 32.373 0 0 0
807 4 26.9775 17.985 5.3955 0 0 0
2445 4 14.388 21.582 3.597 0 0 0
1517 4 21.582 7.194 32.373 0 0 0
2846 4 10.791 23.3805 5.3955 0 0 0
3065 4 7.194 3.597 21.582 0 0 0
1807 4 16.1865 0.0 5.3955 0 0 0
3507 4 1.7985 7.194 23.3805 0 0 0
1508 4 19.7835 8.9925 21.582 0 0 0
58 4 34.1715 8.9925 28.776 0 0 0
242 4 32.373 5.3955 1.7985 0 0 0
3527 4 1.7985 10.791 5.3955 0 0 0
3360 4 5.3955 30.5745 32.373 0 0 0
1857 4 17.985 3.597 14.388 0 0 0
102 4 34.1715 19.7835 0.0 0 0 0
1607 4 19.7835 17.985 5.3955 0 0 0
1568 4 19.7835 16.1865 3.597 0 0 0
476 4 30.5745 23.3805 28.776 0 0 0
1387 4 23.3805 32.373 23.3805 0 0 0
1862 4 17.985 5.3955 19.7835 0 0 0
2880 4 8.9925 23.3805 32.373 0 0 0
808 4 26.9775 19.7835 3.597 0 0 0
1713 4 21.582 25.179 28.776 0 0 0
2560 4 12.5895 30.5745 32.373 0 0 0
983 4 26.9775 32.373 19.7835 0 0 0
438 4 32.373 19.7835 34.1715 0 0 0
3825 4 0.0 3.597 7.194 0 0 0
3240 4 5.3955 19.7835 32.373 0 0 0
3215 4 5.3955 17.985 12.5895 0 0 0
3321 4 7.194 28.776 0.0 0 0 0
3738 4 3.597 30.5745 16.1865 0 0 0
2912 4 8.9925 26.9775 25.179 0 0 0
3005 4 7.194 0.0 3.597 0 0 0
2400 4 12.5895 16.1865 32.373 0 0 0
121 4 34.1715 21.582 1.7985 0 0 0
1752 4 19.7835 30.5745 25.179 0 0 0
2615 4 8.9925 0.0 12.5895 0 0 0
797 4 28.776 14.388 32.373 0 0 0
2727 4 8.9925 10.791 5.3955 0 0 0
1650 4 21.582 23.3805 8.9925 0 0 0
2762 4 10.791 16.1865 1.7985 0 0 0
3435 4 1.7985 0.0 30.5745 0 0 0
2944 4 8.9925 30.5745 17.985 0 0 0
1253 4 25.179 21.582 10.791 0 0 0
960 4 26.9775 30.5745 32.373 0 0 0
346 4 32.373 12.5895 23.3805 0 0 0
731 4 26.9775 10.791 8.9925 0 0 0
3139 4 5.3955 10.791 16.1865 0 0 0
2820 4 8.9925 19.7835 14.388 0 0 0
2646 4 10.791 5.3955 5.3955 0 0 0
2476 4 12.5895 23.3805 28.776 0 0 0
993 4 28.776 32.373 28.776 0 0 0
199 4 34.1715 32.373 34.1715 0 0 0
1018 4 25.179 1.7985 16.1865 0 0 0
755 4 26.9775 10.791 30.5745 0 0 0
3732 4 1.7985 30.5745 7.194 0 0 0
2426 4 14.388 19.7835 23.3805 0 0 0
2428 4 12.5895 19.7835 21.582 0 0 0
2439 4 12.5895 17.985 34.1715 0 0 0
2869 4 10.791 21.582 25.179 0 0 0
1788 4 19.7835 34.1715 21.582 0 0 0
1917 4 17.985 7.194 32.373 0 0 0
356 4 30.5745 12.5895 28.776 0 0 0
234 4 32.373 1.7985 30.5745 0 0 0
3672 4 1.7985 23.3805 25.179 0 0 0
721 4 28.776 10.791 0.0 0 0 0
97 4 34.1715 14.388 30.5745 0 0 0
3194 4 7.194 16.1865 30.5745 0 0 0
2709 4 10.791 7.194 25.179 0 0 0
3195 4 5.3955 14.388 30.5745 0 0 0
3512 4 1.7985 8.9925 25.179 0 0 0
1322 4 25.179 30.5745 1.7985 0 0 0
3740 4 1.7985 30.5745 14.388 0 0 0
823 4 26.9775 17.985 19.7835 0 0 0
1078 4 25.179 5.3955 34.1715 0 0 0
2342 4 14.388 12.5895 19.7835 0 0 0
3356 4 5.3955 30.5745 28.776 0 0 0
1104 4 23.3805 8.9925 17.985 0 0 0
3917 4 0.0 17.985 28.776 0 0 0
430 4 32.373 19.7835 26.9775 0 0 0
157 4 34.1715 25.179 30.5745 0 0 0
352 4 30.5745 12.5895 25.179 0 0 0
278 4 32.373 5.3955 34.1715 0 0 0
1866 4 17.985 5.3955 23.3805 0 0 0
494 4 32.373 26.9775 12.5895 0 0 0
956 4 26.9775 30.5745 28.776 0 0 0
71 4 34.1715 10.791 19.7835 0 0 0
1110 4 25.179 8.9925 26.9775 0 0 0
2273 4 14.388 3.597 28.776 0 0 0
3490 4 3.597 8.9925 8.9925 0 0 0
835 4 26.9775 17.985 30.5745 0 0 0
2992 4 8.9925 34.1715 25.179 0 0 0
99 4 34.1715 14.388 34.1715 0 0 0
455 4 30.5745 21.582 12.5895 0 0 0
3857 4 0.0 7.194 28.776 0 0 0
3777 4 3.597 32.373 14.388 0 0 0
305 4 32.373 7.194 21.582 0 0 0
995 4 26.9775 32.373 30.5745 0 0 0
1357 4 25.179 28.776 32.373 0 0 0
1119 4 23.3805 7.194 34.1715 0 0 0
3835 4 0.0 3.597 25.179 0 0 0
2020 4 16.1865 19.7835 14.388 0 0 0
2038 4 17.985 19.7835 34.1715 0 0 0
3188 4 5.3955 16.1865 21.582 0 0 0
3463 4 1.7985 3.597 19.7835 0 0 0
2731 4 8.9925 10.791 8.9925 0 0 0
3143 4 5.3955 10.791 19.7835 0 0 0
3961 4 0.0 28.776 0.0 0 0 0
3472 4 1.7985 5.3955 25.179 0 0 0
672 4 26.9775 5.3955 25.179 0 0 0
3949 4 0.0 25.179 14.388 0 0 0
1157 4 25.179 10.791 32.373 0 0 0
3544 4 1.7985 12.5895 17.985 0 0 0
3154 4 7.194 12.5895 30.5745 0 0 0
1596 4 19.7835 16.1865 28.776 0 0 0
2147 4 16.1865 28.776 23.3805 0 0 0
3720 4 1.7985 26.9775 32.373 0 0 0
326 4 32.373 12.5895 5.3955 0 0 0
2288 4 12.5895 8.9925 3.597 0 0 0
3086 4 7.194 8.9925 5.3955 0 0 0
349 4 32.373 10.791 25.179 0 0 0
1548 4 19.7835 12.5895 21.582 0 0 0
2321 4 14.388 10.791 0.0 0 0 0
2083 4 16.1865 25.179 1.7985 0 0 0
3471 4 1.7985 3.597 26.9775 0 0 0
927 4 26.9775 28.776 5.3955 0 0 0
1426 4 21.582 1.7985 23.3805 0 0 0
3819 4 0.0 0.0 32.373 0 0 0
3326 4 7.194 30.5745 5.3955 0 0 0
1828 4 16.1865 1.7985 21.582 0 0 0
445 4 32.373 21.582 3.597 0 0 0
3719 4 1.7985 25.179 34.1715 0 0 0
1364 4 23.3805 34.1715 0.0 0 0 0
3932 4 0.0 23.3805 19.7835 0 0 0
308 4 30.5745 8.9925 21.582 0 0 0
1609 4 21.582 17.985 7.194 0 0 0
45 4 34.1715 7.194 8.9925 0 0 0
3771 4 1.7985 32.373 8.9925 0 0 0
3135 4 5.3955 10.791 12.5895 0 0 0
1352 4 23.3805 30.5745 25.179 0 0 0
128 4 34.1715 23.3805 10.791 0 0 0
2149 4 17.985 28.776 25.179 0 0 0
2156 4 16.1865 30.5745 28.776 0 0 0
232 4 30.5745 1.7985 25.179 0 0 0
221 4 32.373 0.0 17.985 0 0 0
212 4 30.5745 1.7985 7.194 0 0 0
2986 4 10.791 34.1715 23.3805 0 0 0
500 4 30.5745 26.9775 14.388 0 0 0
2421 4 14.388 17.985 17.985 0 0 0
1991 4 16.1865 14.388 26.9775 0 0 0
2472 4 12.5895 23.3805 25.179 0 0 0
2733 4 10.791 10.791 10.791 0 0 0
3170 4 7.194 16.1865 8.9925 0 0 0
2580 4 12.5895 34.1715 14.388 0 0 0
2519 4 12.5895 25.179 34.1715 0 0 0
802 4 28.776 19.7835 1.7985 0 0 0
962 4 28.776 34.1715 1.7985 0 0 0
491 4 30.5745 25.179 8.9925 0 0 0
3050 4 7.194 5.3955 8.9925 0 0 0
482 4 32.373 26.9775 1.7985 0 0 0
3297 4 7.194 25.179 14.388 0 0 0
29 4 34.1715 3.597 16.1865 0 0 0
873 4 28.776 21.582 28.776 0 0 0
11 5 34.1715 0.0 19.7835 0 0 0
12 5 34.1715 1.7985 17.985 0 0 0
25 5 34.1715 3.597 8.9925 0 0 0
27 5 34.1715 3.597 12.5895 0 0 0
35 5 34.1715 3.597 26.9775 0 0 0
37 5 34.1715 3.597 30.5745 0 0 0
42 5 34.1715 8.9925 0.0 0 0 0
43 5 34.1715 7.194 5.3955 0 0 0
48 5 34.1715 8.9925 10.791 0 0 0
52 5 34.1715 8.9925 17.985 0 0 0
59 5 34.1715 7.194 34.1715 0 0 0
63 5 34.1715 10.791 5.3955 0 0 0
64 5 34.1715 12.5895 3.597 0 0 0
70 5 34.1715 12.5895 14.388 0 0 0
72 5 34.1715 12.5895 17.985 0 0 0
81 5 34.1715 14.388 1.7985 0 0 0
93 5 34.1715 14.388 23.3805 0 0 0
94 5 34.1715 16.1865 21.582 0 0 0
103 5 34.1715 17.985 5.3955 0 0 0
124 5 34.1715 23.3805 3.597 0 0 0
125 5 34.1715 21.582 8.9925 0 0 0
127 5 34.1715 21.582 12.5895 0 0 0
134 5 34.1715 23.3805 21.582 0 0 0
145 5 34.1715 25.179 8.9925 0 0 0
148 5 34.1715 26.9775 10.791 0 0 0
153 5 34.1715 25.179 23.3805 0 0 0
156 5 34.1715 26.9775 25.179 0 0 0
160 5 34.1715 26.9775 32.373 0 0 0
172 5 34.1715 30.5745 17.985 0 0 0
175 5 34.1715 28.776 26.9775 0 0 0
197 5 34.1715 32.373 30.5745 0 0 0
198 5 34.1715 34.1715 28.776 0 0 0
207 5 30.5745 0.0 5.3955 0 0 0
209 5 32.373 0.0 7.194 0 0 0
224 5 30.5745 1.7985 17.985 0 0 0
225 5 32.373 0.0 21.582 0 0 0
229 5 32.373 0.0 25.179 0 0 0
235 5 30.5745 0.0 30.5745 0 0 0
237 5 32.373 0.0 32.373 0 0 0
240 5 30.5745 1.7985 32.373 0 0 0
247 5 30.5745 3.597 5.3955 0 0 0
251 5 30.5745 3.597 8.9925 0 0 0
252 5 30.5745 5.3955 7.194 0 0 0
254 5 32.373 5.3955 12.5895 0 0 0
255 5 30.5745 3.597 12.5895 0 0 0
274 5 32.373 5.3955 30.5745 0 0 0
294 5 32.373 8.9925 12.5895 0 0 0
297 5 32.373 7.194 14.388 0 0 0
316 5 30.5745 8.9925 28.776 0 0 0
319 5 30.5745 7.194 34.1715 0 0 0
324 5 30.5745 12.5895 0.0 0 0 0
328 5 30.5745 12.5895 3.597 0 0 0
329 5 32.373 10.791 7.194 0 0 0
331 5 30.5745 10.791 8.9925 0 0 0
361 5 32.373 14.388 0.0 0 0 0
370 5 32.373 16.1865 8.9925 0 0 0
371 5 30.5745 14.388 8.9925 0 0 0
377 5 32.373 14.388 14.388 0 0 0
380 5 30.5745 16.1865 14.388 0 0 0
381 5 32.373 14.388 17.985 0 0 0
383 5 30.5745 14.388 19.7835 0 0 0
387 5 30.5745 14.388 23.3805 0 0 0
388 5 30.5745 16.1865 21.582 0 0 0
391 5 30.5745 14.388 26.9775 0 0 0
403 5 30.5745 17.985 1.7985 0 0 0
404 5 30.5745 19.7835 0.0 0 0 0
405 5 32.373 17.985 3.597 0 0 0
406 5 32.373 19.7835 5.3955 0 0 0
415 5 30.5745 17.985 12.5895 0 0 0
421 5 32.373 17.985 17.985 0 0 0
426 5 32.373 19.7835 23.3805 0 0 0
429 5 32.373 17.985 25.179 0 0 0
434 5 32.373 19.7835 30.5745 0 0 0
439 5 30.5745 17.985 34.1715 0 0 0
463 5 30.5745 21.582 19.7835 0 0 0
470 5 32.373 23.3805 26.9775 0 0 0
472 5 30.5745 23.3805 25.179 0 0 0
473 5 32.373 21.582 28.776 0 0 0
479 5 30.5745 21.582 34.1715 0 0 0
480 5 30.5745 23.3805 32.373 0 0 0
483 5 30.5745 25.179 1.7985 0 0 0
503 5 30.5745 25.179 19.7835 0 0 0
505 5 32.373 25.179 21.582 0 0 0
509 5 32.373 25.179 25.179 0 0 0
516 5 30.5745 26.9775 28.776 0 0 0
520 5 30.5745 26.9775 32.373 0 0 0
526 5 32.373 30.5745 5.3955 0 0 0
538 5 32.373 30.5745 16.1865 0 0 0
539 5 30.5745 28.776 16.1865 0 0 0
544 5 30.5745 30.5745 17.985 0 0 0
547 5 30.5745 28.776 23.3805 0 0 0
548 5 30.5745 30.5745 21.582 0 0 0
553 5 32.373 28.776 28.776 0 0 0
560 5 30.5745 30.5745 32.373 0 0 0
566 5 32.373 34.1715 5.3955 0 0 0
575 5 30.5745 32.373 12.5895 0 0 0
594 5 32.373 34.1715 30.5745 0 0 0
596 5 30.5745 34.1715 28.776 0 0 0
597 5 32.373 32.373 32.373 0 0 0
601 5 28.776 0.0 0.0 0 0 0
605 5 28.776 0.0 3.597 0 0 0
608 5 26.9775 1.7985 3.597 0 0 0
610 5 28.776 1.7985 8.9925 0 0 0
631 5 26.9775 0.0 26.9775 0 0 0
642 5 28.776 5.3955 1.7985 0 0 0
643 5 26.9775 3.597 1.7985 0 0 0
645 5 28.776 3.597 3.597 0 0 0
648 5 26.9775 5.3955 3.597 0 0 0
649 5 28.776 3.597 7.194 0 0 0
661 5 28.776 3.597 17.985 0 0 0
671 5 26.9775 3.597 26.9775 0 0 0
682 5 28.776 8.9925 1.7985 0 0 0
687 5 26.9775 7.194 5.3955 0 0 0
690 5 28.776 8.9925 8.9925 0 0 0
693 5 28.776 7.194 10.791 0 0 0
696 5 26.9775 8.9925 10.791 0 0 0
697 5 28.776 7.194 14.388 0 0 0
698 5 28.776 8.9925 16.1865 0 0 0
699 5 26.9775 7.194 16.1865 0 0 0
701 5 28.776 7.194 17.985 0 0 0
710 5 28.776 8.9925 26.9775 0 0 0
728 5 26.9775 12.5895 3.597 0 0 0
729 5 28.776 10.791 7.194 0 0 0
730 5 28.776 12.5895 8.9925 0 0 0
733 5 28.776 10.791 10.791 0 0 0
737 5 28.776 10.791 14.388 0 0 0
752 5 26.9775 12.5895 25.179 0 0 0
753 5 28.776 10.791 28.776 0 0 0
758 5 28.776 12.5895 34.1715 0 0 0
759 5 26.9775 10.791 34.1715 0 0 0
763 5 26.9775 14.388 1.7985 0 0 0
765 5 28.776 14.388 3.597 0 0 0
766 5 28.776 16.1865 5.3955 0 0 0
782 5 28.776 16.1865 19.7835 0 0 0
790 5 28.776 16.1865 26.9775 0 0 0
791 5 26.9775 14.388 26.9775 0 0 0
795 5 26.9775 14.388 30.5745 0 0 0
818 5 28.776 19.7835 16.1865 0 0 0
829 5 28.776 17.985 25.179 0 0 0
830 5 28.776 19.7835 26.9775 0 0 0
831 5 26.9775 17.985 26.9775 0 0 0
836 5 26.9775 19.7835 28.776 0 0 0
839 5 26.9775 17.985 34.1715 0 0 0
850 5 28.776 23.3805 8.9925 0 0 0
862 5 28.776 23.3805 19.7835 0 0 0
863 5 26.9775 21.582 19.7835 0 0 0
864 5 26.9775 23.3805 17.985 0 0 0
874 5 28.776 23.3805 30.5745 0 0 0
878 5 28.776 23.3805 34.1715 0 0 0
880 5 26.9775 23.3805 32.373 0 0 0
884 5 26.9775 26.9775 0.0 0 0 0
925 5 28.776 28.776 3.597 0 0 0
937 5 28.776 28.776 14.388 0 0 0
945 5 28.776 28.776 21.582 0 0 0
946 5 28.776 30.5745 23.3805 0 0 0
950 5 28.776 30.5745 26.9775 0 0 0
958 5 28.776 30.5745 34.1715 0 0 0
1031 5 23.3805 0.0 26.9775 0 0 0
1035 5 23.3805 0.0 30.5745 0 0 0
1037 5 25.179 0.0 32.373 0 0 0
1040 5 23.3805 1.7985 32.373 0 0 0
1048 5 23.3805 5.3955 3.597 0 0 0
1062 5 25.179 5.3955 19.7835 0 0 0
1066 5 25.179 5.3955 23.3805 0 0 0
1070 5 25.179 5.3955 26.9775 0 0 0
1080 5 23.3805 5.3955 32.373 0 0 0
1082 5 25.179 8.9925 1.7985 0 0 0
1084 5 23.3805 8.9925 0.0 0 0 0
1088 5 23.3805 8.9925 3.597 0 0 0
1090 5 25.179 8.9925 8.9925 0 0 0
1108 5 23.3805 8.9925 21.582 0 0 0
1109 5 25.179 7.194 25.179 0 0 0
1113 5 25.179 7.194 28.776 0 0 0
1137 5 25.179 10.791 14.388 0 0 0
1159 5 23.3805 10.791 34.1715 0 0 0
1165 5 25.179 14.388 3.597 0 0 0
1169 5 25.179 14.388 7.194 0 0 0
1171 5 23.3805 14.388 8.9925 0 0 0
1175 5 23.3805 14.388 12.5895 0 0 0
1179 5 23.3805 14.388 16.1865 0 0 0
1191 5 23.3805 14.388 26.9775 0 0 0
1195 5 23.3805 14.388 30.5745 0 0 0
1210 5 25.179 19.7835 8.9925 0 0 0
1213 5 25.179 17.985 10.791 0 0 0
1230 5 25.179 19.7835 26.9775 0 0 0
1239 5 23.3805 17.985 34.1715 0 0 0
1240 5 23.3805 19.7835 32.373 0 0 0
1242 5 25.179 23.3805 1.7985 0 0 0
1243 5 23.3805 21.582 1.7985 0 0 0
1249 5 25.179 21.582 7.194 0 0 0
1251 5 23.3805 21.582 8.9925 0 0 0
1255 5 23.3805 21.582 12.5895 0 0 0
1261 5 25.179 21.582 17.985 0 0 0
1267 5 23.3805 21.582 23.3805 0 0 0
1270 5 25.179 23.3805 26.9775 0 0 0
1278 5 25.179 23.3805 34.1715 0 0 0
1279 5 23.3805 21.582 34.1715 0 0 0
1282 5 25.179 26.9775 1.7985 0 0 0
1290 5 25.179 26.9775 8.9925 0 0 0
1296 5 23.3805 26.9775 10.791 0 0 0
1313 5 25.179 25.179 28.776 0 0 0
1316 5 23.3805 26.9775 28.776 0 0 0
1327 5 23.3805 28.776 5.3955 0 0 0
1328 5 23.3805 30.5745 3.597 0 0 0
1329 5 25.179 28.776 7.194 0 0 0
1331 5 23.3805 28.776 8.9925 0 0 0
1333 5 25.179 28.776 10.791 0 0 0
1339 5 23.3805 28.776 16.1865 0 0 0
1341 5 25.179 28.776 17.985 0 0 0
1348 5 23.3805 30.5745 21.582 0 0 0
1350 5 25.179 30.5745 26.9775 0 0 0
1356 5 23.3805 30.5745 28.776 0 0 0
1361 5 25.179 32.373 0.0 0 0 0
1368 5 23.3805 34.1715 3.597 0 0 0
1375 5 23.3805 32.373 12.5895 0 0 0
1382 5 25.179 34.1715 19.7835 0 0 0
1383 5 23.3805 32.373 19.7835 0 0 0
1394 5 25.179 34.1715 30.5745 0 0 0
1405 5 21.582 0.0 3.597 0 0 0
1415 5 19.7835 0.0 12.5895 0 0 0
1419 5 19.7835 0.0 16.1865 0 0 0
1433 5 21.582 0.0 28.776 0 0 0
1441 5 21.582 3.597 0.0 0 0 0
1443 5 19.7835 3.597 1.7985 0 0 0
1446 5 21.582 5.3955 5.3955 0 0 0
1464 5 19.7835 5.3955 17.985 0 0 0
1465 5 21.582 3.597 21.582 0 0 0
1491 5 19.7835 7.194 8.9925 0 0 0
1495 5 19.7835 7.194 12.5895 0 0 0
1502 5 21.582 8.9925 19.7835 0 0 0
1509 5 21.582 7.194 25.179 0 0 0
1511 5 19.7835 7.194 26.9775 0 0 0
1524 5 19.7835 12.5895 0.0 0 0 0
1526 5 21.582 12.5895 5.3955 0 0 0
1533 5 21.582 10.791 10.791 0 0 0
1538 5 21.582 12.5895 16.1865 0 0 0
1539 5 19.7835 10.791 16.1865 0 0 0
1540 5 19.7835 12.5895 14.388 0 0 0
1552 5 19.7835 12.5895 25.179 0 0 0
1556 5 19.7835 12.5895 28.776 0 0 0
1558 5 21.582 12.5895 34.1715 0 0 0
1570 5 21.582 16.1865 8.9925 0 0 0
1574 5 21.582 16.1865 12.5895 0 0 0
1579 5 19.7835 14.388 16.1865 0 0 0
1594 5 21.582 16.1865 30.5745 0 0 0
1603 5 19.7835 17.985 1.7985 0 0 0
1606 5 21.582 19.7835 5.3955 0 0 0
1611 5 19.7835 17.985 8.9925 0 0 0
1618 5 21.582 19.7835 16.1865 0 0 0
1623 5 19.7835 17.985 19.7835 0 0 0
1627 5 19.7835 17.985 23.3805 0 0 0
1629 5 21.582 17.985 25.179 0 0 0
1630 5 21.582 19.7835 26.9775 0 0 0
1635 5 19.7835 17.985 30.5745 0 0 0
1641 5 21.582 21.582 0.0 0 0 0
1655 5 19.7835 21.582 12.5895 0 0 0
1656 5 19.7835 23.3805 10.791 0 0 0
1662 5 21.582 23.3805 19.7835 0 0 0
1664 5 19.7835 23.3805 17.985 0 0 0
1667 5 19.7835 21.582 23.3805 0 0 0
1671 5 19.7835 21.582 26.9775 0 0 0
1678 5 21.582 23.3805 34.1715 0 0 0
1680 5 19.7835 23.3805 32.373 0 0 0
1690 5 21.582 26.9775 8.9925 0 0 0
1691 5 19.7835 25.179 8.9925 0 0 0
1699 5 19.7835 25.179 16.1865 0 0 0
1702 5 21.582 26.9775 19.7835 0 0 0
1706 5 21.582 26.9775 23.3805 0 0 0
1720 5 19.7835 26.9775 32.373 0 0 0
1722 5 21.582 30.5745 1.7985 0 0 0
1747 5 19.7835 28.776 23.3805 0 0 0
1749 5 21.582 28.776 25.179 0 0 0
1756 5 19.7835 30.5745 28.776 0 0 0
1759 5 19.7835 28.776 34.1715 0 0 0
1760 5 19.7835 30.5745 32.373 0 0 0
1765 5 21.582 32.373 3.597 0 0 0
1768 5 19.7835 34.1715 3.597 0 0 0
1770 5 21.582 34.1715 8.9925 0 0 0
1778 5 21.582 34.1715 16.1865 0 0 0
1782 5 21.582 34.1715 19.7835 0 0 0
1785 5 21.582 32.373 21.582 0 0 0
1787 5 19.7835 32.373 23.3805 0 0 0
1801 5 17.985 0.0 0.0 0 0 0
1809 5 17.985 0.0 7.194 0 0 0
1835 5 16.1865 0.0 30.5745 0 0 0
1840 5 16.1865 1.7985 32.373 0 0 0
1843 5 16.1865 3.597 1.7985 0 0 0
1845 5 17.985 3.597 3.597 0 0 0
1849 5 17.985 3.597 7.194 0 0 0
1850 5 17.985 5.3955 8.9925 0 0 0
1851 5 16.1865 3.597 8.9925 0 0 0
1852 5 16.1865 5.3955 7.194 0 0 0
1869 5 17.985 3.597 25.179 0 0 0
1870 5 17.985 5.3955 26.9775 0 0 0
1873 5 17.985 3.597 28.776 0 0 0
1874 5 17.985 5.3955 30.5745 0 0 0
1888 5 16.1865 8.9925 3.597 0 0 0
1894 5 17.985 8.9925 12.5895 0 0 0
1906 5 17.985 8.9925 23.3805 0 0 0
1909 5 17.985 7.194 25.179 0 0 0
1923 5 16.1865 10.791 1.7985 0 0 0
1935 5 16.1865 10.791 12.5895 0 0 0
1938 5 17.985 12.5895 16.1865 0 0 0
1950 5 17.985 12.5895 26.9775 0 0 0
1958 5 17.985 12.5895 34.1715 0 0 0
1962 5 17.985 16.1865 1.7985 0 0 0
1965 5 17.985 14.388 3.597 0 0 0
1968 5 16.1865 16.1865 3.597 0 0 0
1971 5 16.1865 14.388 8.9925 0 0 0
1973 5 17.985 14.388 10.791 0 0 0
1975 5 16.1865 14.388 12.5895 0 0 0
1981 5 17.985 14.388 17.985 0 0 0
1994 5 17.985 16.1865 30.5745 0 0 0
1999 5 16.1865 14.388 34.1715 0 0 0
2001 5 17.985 17.985 0.0 0 0 0
2009 5 17.985 17.985 7.194 0 0 0
2014 5 17.985 19.7835 12.5895 0 0 0
2016 5 16.1865 19.7835 10.791 0 0 0
2029 5 17.985 17.985 25.179 0 0 0
2032 5 16.1865 19.7835 25.179 0 0 0
2045 5 17.985 21.582 3.597 0 0 0
2046 5 17.985 23.3805 5.3955 0 0 0
2048 5 16.1865 23.3805 3.597 0 0 0
2049 5 17.985 21.582 7.194 0 0 0
2055 5 16.1865 21.582 12.5895 0 0 0
2060 5 16.1865 23.3805 14.388 0 0 0
2061 5 17.985 21.582 17.985 0 0 0
2067 5 16.1865 21.582 23.3805 0 0 0
2071 5 16.1865 21.582 26.9775 0 0 0
2073 5 17.985 21.582 28.776 0 0 0
2074 5 17.985 23.3805 30.5745 0 0 0
2079 5 16.1865 21.582 34.1715 0 0 0
2080 5 16.1865 23.3805 32.373 0 0 0
2085 5 17.985 25.179 3.597 0 0 0
2086 5 17.985 26.9775 5.3955 0 0 0
2105 5 17.985 25.179 21.582 0 0 0
2106 5 17.985 26.9775 23.3805 0 0 0
2110 5 17.985 26.9775 26.9775 0 0 0
2111 5 16.1865 25.179 26.9775 0 0 0
2112 5 16.1865 26.9775 25.179 0 0 0
2113 5 17.985 25.179 28.776 0 0 0
2116 5 16.1865 26.9775 28.776 0 0 0
2124 5 16.1865 30.5745 0.0 0 0 0
2127 5 16.1865 28.776 5.3955 0 0 0
2128 5 16.1865 30.5745 3.597 0 0 0
2133 5 17.985 28.776 10.791 0 0 0
2143 5 16.1865 28.776 19.7835 0 0 0
2146 5 17.985 30.5745 23.3805 0 0 0
2148 5 16.1865 30.5745 21.582 0 0 0
2152 5 16.1865 30.5745 25.179 0 0 0
2160 5 16.1865 30.5745 32.373 0 0 0
2166 5 17.985 34.1715 5.3955 0 0 0
2170 5 17.985 34.1715 8.9925 0 0 0
2172 5 16.1865 34.1715 7.194 0 0 0
2175 5 16.1865 32.373 12.5895 0 0 0
2181 5 17.985 32.373 17.985 0 0 0
2183 5 16.1865 32.373 19.7835 0 0 0
2192 5 16.1865 34.1715 25.179 0 0 0
2197 5 17.985 32.373 32.373 0 0 0
2211 5 12.5895 0.0 8.9925 0 0 0
2215 5 12.5895 0.0 12.5895 0 0 0
2216 5 12.5895 1.7985 10.791 0 0 0
2222 5 14.388 1.7985 19.7835 0 0 0
2225 5 14.388 0.0 21.582 0 0 0
2230 5 14.388 1.7985 26.9775 0 0 0
2231 5 12.5895 0.0 26.9775 0 0 0
2233 5 14.388 0.0 28.776 0 0 0
2239 5 12.5895 0.0 34.1715 0 0 0
2241 5 14.388 3.597 0.0 0 0 0
2269 5 14.388 3.597 25.179 0 0 0
2275 5 12.5895 3.597 30.5745 0 0 0
2279 5 12.5895 3.597 34.1715 0 0 0
2282 5 14.388 8.9925 1.7985 0 0 0
2287 5 12.5895 7.194 5.3955 0 0 0
2295 5 12.5895 7.194 12.5895 0 0 0
2296 5 12.5895 8.9925 10.791 0 0 0
2302 5 14.388 8.9925 19.7835 0 0 0
2305 5 14.388 7.194 21.582 0 0 0
2308 5 12.5895 8.9925 21.582 0 0 0
2312 5 12.5895 8.9925 25.179 0 0 0
2317 5 14.388 7.194 32.373 0 0 0
2320 5 12.5895 8.9925 32.373 0 0 0
2324 5 12.5895 12.5895 0.0 0 0 0
2325 5 14.388 10.791 3.597 0 0 0
2329 5 14.388 10.791 7.194 0 0 0
2333 5 14.388 10.791 10.791 0 0 0
2339 5 12.5895 10.791 16.1865 0 0 0
2350 5 14.388 12.5895 26.9775 0 0 0
2352 5 12.5895 12.5895 25.179 0 0 0
2355 5 12.5895 10.791 30.5745 0 0 0
2356 5 12.5895 12.5895 28.776 0 0 0
2366 5 14.388 16.1865 5.3955 0 0 0
2371 5 12.5895 14.388 8.9925 0 0 0
2373 5 14.388 14.388 10.791 0 0 0
2378 5 14.388 16.1865 16.1865 0 0 0
2379 5 12.5895 14.388 16.1865 0 0 0
2388 5 12.5895 16.1865 21.582 0 0 0
2395 5 12.5895 14.388 30.5745 0 0 0
2417 5 14.388 17.985 14.388 0 0 0
2427 5 12.5895 17.985 23.3805 0 0 0
2435 5 12.5895 17.985 30.5745 0 0 0
2450 5 14.388 23.3805 8.9925 0 0 0
2454 5 14.388 23.3805 12.5895 0 0 0
2457 5 14.388 21.582 14.388 0 0 0
2458 5 14.388 23.3805 16.1865 0 0 0
2464 5 12.5895 23.3805 17.985 0 0 0
2487 5 12.5895 25.179 5.3955 0 0 0
2490 5 14.388 26.9775 8.9925 0 0 0
2493 5 14.388 25.179 10.791 0 0 0
2494 5 14.388 26.9775 12.5895 0 0 0
2496 5 12.5895 26.9775 10.791 0 0 0
2503 5 12.5895 25.179 19.7835 0 0 0
2506 5 14.388 26.9775 23.3805 0 0 0
2511 5 12.5895 25.179 26.9775 0 0 0
2518 5 14.388 26.9775 34.1715 0 0 0
2527 5 12.5895 28.776 5.3955 0 0 0
2531 5 12.5895 28.776 8.9925 0 0 0
2534 5 14.388 30.5745 12.5895 0 0 0
2545 5 14.388 28.776 21.582 0 0 0
2546 5 14.388 30.5745 23.3805 0 0 0
2547 5 12.5895 28.776 23.3805 0 0 0
2549 5 14.388 28.776 25.179 0 0 0
2552 5 12.5895 30.5745 25.179 0 0 0
2555 5 12.5895 28.776 30.5745 0 0 0
2567 5 12.5895 32.373 5.3955 0 0 0
2568 5 12.5895 34.1715 3.597 0 0 0
2570 5 14.388 34.1715 8.9925 0 0 0
2572 5 12.5895 34.1715 7.194 0 0 0
2575 5 12.5895 32.373 12.5895 0 0 0
2577 5 14.388 32.373 14.388 0 0 0
2581 5 14.388 32.373 17.985 0 0 0
2582 5 14.388 34.1715 19.7835 0 0 0
2585 5 14.388 32.373 21.582 0 0 0
2586 5 14.388 34.1715 23.3805 0 0 0
2591 5 12.5895 32.373 26.9775 0 0 0
2600 5 12.5895 34.1715 32.373 0 0 0
2610 5 10.791 1.7985 8.9925 0 0 0
2618 5 10.791 1.7985 16.1865 0 0 0
2622 5 10.791 1.7985 19.7835 0 0 0
2623 5 8.9925 0.0 19.7835 0 0 0
2624 5 8.9925 1.7985 17.985 0 0 0
2636 5 8.9925 1.7985 28.776 0 0 0
2640 5 8.9925 1.7985 32.373 0 0 0
2644 5 8.9925 5.3955 0.0 0 0 0
2663 5 8.9925 3.597 19.7835 0 0 0
2671 5 8.9925 3.597 26.9775 0 0 0
2678 5 10.791 5.3955 34.1715 0 0 0
2690 5 10.791 8.9925 8.9925 0 0 0
2702 5 10.791 8.9925 19.7835 0 0 0
2705 5 10.791 7.194 21.582 0 0 0
2707 5 8.9925 7.194 23.3805 0 0 0
2710 5 10.791 8.9925 26.9775 0 0 0
2723 5 8.9925 10.791 1.7985 0 0 0
2724 5 8.9925 12.5895 0.0 0 0 0
2753 5 10.791 10.791 28.776 0 0 0
2760 5 8.9925 12.5895 32.373 0 0 0
2781 5 10.791 14.388 17.985 0 0 0
2787 5 8.9925 14.388 23.3805 0 0 0
2790 5 10.791 16.1865 26.9775 0 0 0
2793 5 10.791 14.388 28.776 0 0 0
2805 5 10.791 17.985 3.597 0 0 0
2814 5 10.791 19.7835 12.5895 0 0 0
2826 5 10.791 19.7835 23.3805 0 0 0
2834 5 10.791 19.7835 30.5745 0 0 0
2837 5 10.791 17.985 32.373 0 0 0
2850 5 10.791 23.3805 8.9925 0 0 0
2852 5 8.9925 23.3805 7.194 0 0 0
2853 5 10.791 21.582 10.791 0 0 0
2855 5 8.9925 21.582 12.5895 0 0 0
2856 5 8.9925 23.3805 10.791 0 0 0
2858 5 10.791 23.3805 16.1865 0 0 0
2863 5 8.9925 21.582 19.7835 0 0 0
2866 5 10.791 23.3805 23.3805 0 0 0
2870 5 10.791 23.3805 26.9775 0 0 0
2876 5 8.9925 23.3805 28.776 0 0 0
2883 5 8.9925 25.179 1.7985 0 0 0
2887 5 8.9925 25.179 5.3955 0 0 0
2903 5 8.9925 25.179 19.7835 0 0 0
2904 5 8.9925 26.9775 17.985 0 0 0
2908 5 8.9925 26.9775 21.582 0 0 0
2909 5 10.791 25.179 25.179 0 0 0
2914 5 10.791 26.9775 30.5745 0 0 0
2920 5 8.9925 26.9775 32.373 0 0 0
2926 5 10.791 30.5745 5.3955 0 0 0
2929 5 10.791 28.776 7.194 0 0 0
2936 5 8.9925 30.5745 10.791 0 0 0
2939 5 8.9925 28.776 16.1865 0 0 0
2948 5 8.9925 30.5745 21.582 0 0 0
2963 5 8.9925 32.373 1.7985 0 0 0
2967 5 8.9925 32.373 5.3955 0 0 0
2968 5 8.9925 34.1715 3.597 0 0 0
2975 5 8.9925 32.373 12.5895 0 0 0
2976 5 8.9925 34.1715 10.791 0 0 0
2983 5 8.9925 32.373 19.7835 0 0 0
2993 5 10.791 32.373 28.776 0 0 0
2996 5 8.9925 34.1715 28.776 0 0 0
3002 5 7.194 1.7985 1.7985 0 0 0
3015 5 5.3955 0.0 12.5895 0 0 0
3025 5 7.194 0.0 21.582 0 0 0
3026 5 7.194 1.7985 23.3805 0 0 0
3029 5 7.194 0.0 25.179 0 0 0
3032 5 5.3955 1.7985 25.179 0 0 0
3035 5 5.3955 0.0 30.5745 0 0 0
3042 5 7.194 5.3955 1.7985 0 0 0
3044 5 5.3955 5.3955 0.0 0 0 0
3046 5 7.194 5.3955 5.3955 0 0 0
3055 5 5.3955 3.597 12.5895 0 0 0
3056 5 5.3955 5.3955 10.791 0 0 0
3063 5 5.3955 3.597 19.7835 0 0 0
3064 5 5.3955 5.3955 17.985 0 0 0
3071 5 5.3955 3.597 26.9775 0 0 0
3076 5 5.3955 5.3955 28.776 0 0 0
3087 5 5.3955 7.194 5.3955 0 0 0
3094 5 7.194 8.9925 12.5895 0 0 0
3102 5 7.194 8.9925 19.7835 0 0 0
3110 5 7.194 8.9925 26.9775 0 0 0
3127 5 5.3955 10.791 5.3955 0 0 0
3131 5 5.3955 10.791 8.9925 0 0 0
3141 5 7.194 10.791 17.985 0 0 0
3150 5 7.194 12.5895 26.9775 0 0 0
3155 5 5.3955 10.791 30.5745 0 0 0
3159 5 5.3955 10.791 34.1715 0 0 0
3167 5 5.3955 14.388 5.3955 0 0 0
3185 5 7.194 14.388 21.582 0 0 0
3189 5 7.194 14.388 25.179 0 0 0
3192 5 5.3955 16.1865 25.179 0 0 0
3206 5 7.194 19.7835 5.3955 0 0 0
3207 5 5.3955 17.985 5.3955 0 0 0
3232 5 5.3955 19.7835 25.179 0 0 0
3242 5 7.194 23.3805 1.7985 0 0 0
3243 5 5.3955 21.582 1.7985 0 0 0
3252 5 5.3955 23.3805 7.194 0 0 0
3254 5 7.194 23.3805 12.5895 0 0 0
3257 5 7.194 21.582 14.388 0 0 0
3258 5 7.194 23.3805 16.1865 0 0 0
3280 5 5.3955 23.3805 32.373 0 0 0
3284 5 5.3955 26.9775 0.0 0 0 0
3289 5 7.194 25.179 7.194 0 0 0
3290 5 7.194 26.9775 8.9925 0 0 0
3292 5 5.3955 26.9775 7.194 0 0 0
3295 5 5.3955 25.179 12.5895 0 0 0
3304 5 5.3955 26.9775 17.985 0 0 0
3305 5 7.194 25.179 21.582 0 0 0
3306 5 7.194 26.9775 23.3805 0 0 0
3309 5 7.194 25.179 25.179 0 0 0
3313 5 7.194 25.179 28.776 0 0 0
3320 5 5.3955 26.9775 32.373 0 0 0
3322 5 7.194 30.5745 1.7985 0 0 0
3339 5 5.3955 28.776 16.1865 0 0 0
3342 5 7.194 30.5745 19.7835 0 0 0
3353 5 7.194 28.776 28.776 0 0 0
3363 5 5.3955 32.373 1.7985 0 0 0
3365 5 7.194 32.373 3.597 0 0 0
3369 5 7.194 32.373 7.194 0 0 0
3375 5 5.3955 32.373 12.5895 0 0 0
3382 5 7.194 34.1715 19.7835 0 0 0
3389 5 7.194 32.373 25.179 0 0 0
3397 5 7.194 32.373 32.373 0 0 0
3401 5 3.597 0.0 0.0 0 0 0
3415 5 1.7985 0.0 12.5895 0 0 0
3428 5 1.7985 1.7985 21.582 0 0 0
3431 5 1.7985 0.0 26.9775 0 0 0
3432 5 1.7985 1.7985 25.179 0 0 0
3438 5 3.597 1.7985 34.1715 0 0 0
3440 5 1.7985 1.7985 32.373 0 0 0
3442 5 3.597 5.3955 1.7985 0 0 0
3444 5 1.7985 5.3955 0.0 0 0 0
3455 5 1.7985 3.597 12.5895 0 0 0
3465 5 3.597 3.597 21.582 0 0 0
3473 5 3.597 3.597 28.776 0 0 0
3482 5 3.597 8.9925 1.7985 0 0 0
3483 5 1.7985 7.194 1.7985 0 0 0
3488 5 1.7985 8.9925 3.597 0 0 0
3503 5 1.7985 7.194 19.7835 0 0 0
3513 5 3.597 7.194 28.776 0 0 0
3518 5 3.597 8.9925 34.1715 0 0 0
3519 5 1.7985 7.194 34.1715 0 0 0
3526 5 3.597 12.5895 5.3955 0 0 0
3536 5 1.7985 12.5895 10.791 0 0 0
3558 5 3.597 12.5895 34.1715 0 0 0
3559 5 1.7985 10.791 34.1715 0 0 0
3563 5 1.7985 14.388 1.7985 0 0 0
3566 5 3.597 16.1865 5.3955 0 0 0
3568 5 1.7985 16.1865 3.597 0 0 0
3577 5 3.597 14.388 14.388 0 0 0
3580 5 1.7985 16.1865 14.388 0 0 0
3582 5 3.597 16.1865 19.7835 0 0 0
3584 5 1.7985 16.1865 17.985 0 0 0
3585 5 3.597 14.388 21.582 0 0 0
3610 5 3.597 19.7835 8.9925 0 0 0
3625 5 3.597 17.985 21.582 0 0 0
3632 5 1.7985 19.7835 25.179 0 0 0
3640 5 1.7985 19.7835 32.373 0 0 0
3644 5 1.7985 23.3805 0.0 0 0 0
3665 5 3.597 21.582 21.582 0 0 0
3677 5 3.597 21.582 32.373 0 0 0
3680 5 1.7985 23.3805 32.373 0 0 0
3697 5 3.597 25.179 14.388 0 0 0
3714 5 3.597 26.9775 30.5745 0 0 0
3717 5 3.597 25.179 32.373 0 0 0
3718 5 3.597 26.9775 34.1715 0 0 0
3722 5 3.597 30.5745 1.7985 0 0 0
3726 5 3.597 30.5745 5.3955 0 0 0
3734 5 3.597 30.5745 12.5895 0 0 0
3736 5 1.7985 30.5745 10.791 0 0 0
3757 5 3.597 28.776 32.373 0 0 0
3758 5 3.597 30.5745 34.1715 0 0 0
3766 5 3.597 34.1715 5.3955 0 0 0
3775 5 1.7985 32.373 12.5895 0 0 0
3779 5 1.7985 32.373 16.1865 0 0 0
3784 5 1.7985 34.1715 17.985 0 0 0
3787 5 1.7985 32.373 23.3805 0 0 0
3798 5 3.597 34.1715 34.1715 0 0 0
3804 5 0.0 1.7985 5.3955 0 0 0
3811 5 0.0 0.0 17.985 0 0 0
3816 5 0.0 1.7985 26.9775 0 0 0
3817 5 0.0 0.0 28.776 0 0 0
3820 5 0.0 1.7985 34.1715 0 0 0
3823 5 0.0 3.597 3.597 0 0 0
3824 5 0.0 5.3955 5.3955 0 0 0
3827 5 0.0 3.597 10.791 0 0 0
3858 5 0.0 8.9925 30.5745 0 0 0
3861 5 0.0 10.791 0.0 0 0 0
3871 5 0.0 10.791 17.985 0 0 0
3874 5 0.0 12.5895 23.3805 0 0 0
3875 5 0.0 10.791 25.179 0 0 0
3889 5 0.0 14.388 14.388 0 0 0
3894 5 0.0 16.1865 23.3805 0 0 0
3896 5 0.0 16.1865 26.9775 0 0 0
3906 5 0.0 19.7835 8.9925 0 0 0
3908 5 0.0 19.7835 12.5895 0 0 0
3925 5 0.0 21.582 7.194 0 0 0
3926 5 0.0 23.3805 8.9925 0 0 0
3946 5 0.0 26.9775 8.9925 0 0 0
3953 5 0.0 25.179 21.582 0 0 0
3957 5 0.0 25.179 28.776 0 0 0
3964 5 0.0 30.5745 5.3955 0 0 0
3965 5 0.0 28.776 7.194 0 0 0
3972 5 0.0 30.5745 19.7835 0 0 0
3973 5 0.0 28.776 21.582 0 0 0
3982 5 0.0 34.1715 1.7985 0 0 0
3996 5 0.0 34.1715 26.9775 0 0 0
