LAMMPS data file via write_data version 30 Jul 2021 timestep = 0
4000 atoms
5 atom types
0 35.97 xlo xhi
0 35.97 ylo yhi
0 35.97 zlo zhi
0.0 0.0 0.0 xy xz yz
 
Masses
 
1 1.0
2 2.0
3 3.0
4 4.0
5 5.0
 
Atoms  # atomic
 
3952 1 0.0 26.9775 19.7835 0 0 0
2358 1 14.388 12.5895 34.1715 0 0 0
798 1 28.776 16.1865 34.1715 0 0 0
2082 1 17.985 26.9775 1.7985 0 0 0
148 1 34.1715 26.9775 10.791 0 0 0
2106 1 17.985 26.9775 23.3805 0 0 0
3035 1 5.3955 0.0 30.5745 0 0 0
1337 1 25.179 28.776 14.388 0 0 0
938 1 28.776 30.5745 16.1865 0 0 0
198 1 34.1715 34.1715 28.776 0 0 0
1807 1 16.1865 0.0 5.3955 0 0 0
57 1 34.1715 7.194 30.5745 0 0 0
543 1 30.5745 28.776 19.7835 0 0 0
2355 1 12.5895 10.791 30.5745 0 0 0
2867 1 8.9925 21.582 23.3805 0 0 0
1951 1 16.1865 10.791 26.9775 0 0 0
2922 1 10.791 30.5745 1.7985 0 0 0
2270 1 14.388 5.3955 26.9775 0 0 0
3750 1 3.597 30.5745 26.9775 0 0 0
1685 1 21.582 25.179 3.597 0 0 0
3573 1 3.597 14.388 10.791 0 0 0
1959 1 16.1865 10.791 34.1715 0 0 0
452 1 30.5745 23.3805 7.194 0 0 0
2448 1 12.5895 23.3805 3.597 0 0 0
42 1 34.1715 8.9925 0.0 0 0 0
2228 1 12.5895 1.7985 21.582 0 0 0
2568 1 12.5895 34.1715 3.597 0 0 0
3442 1 3.597 5.3955 1.7985 0 0 0
3359 1 5.3955 28.776 34.1715 0 0 0
3497 1 3.597 7.194 14.388 0 0 0
1277 1 25.179 21.582 32.373 0 0 0
719 1 26.9775 7.194 34.1715 0 0 0
640 1 26.9775 1.7985 32.373 0 0 0
2421 1 14.388 17.985 17.985 0 0 0
1005 1 25.179 0.0 3.597 0 0 0
3069 1 7.194 3.597 25.179 0 0 0
1710 1 21.582 26.9775 26.9775 0 0 0
3622 1 3.597 19.7835 19.7835 0 0 0
3835 1 0.0 3.597 25.179 0 0 0
991 1 26.9775 32.373 26.9775 0 0 0
3745 1 3.597 28.776 21.582 0 0 0
3078 1 7.194 5.3955 34.1715 0 0 0
526 1 32.373 30.5745 5.3955 0 0 0
3020 1 5.3955 1.7985 14.388 0 0 0
877 1 28.776 21.582 32.373 0 0 0
1882 1 17.985 8.9925 1.7985 0 0 0
3795 1 1.7985 32.373 30.5745 0 0 0
2498 1 14.388 26.9775 16.1865 0 0 0
1233 1 25.179 17.985 28.776 0 0 0
2163 1 16.1865 32.373 1.7985 0 0 0
2728 1 8.9925 12.5895 3.597 0 0 0
3989 1 0.0 32.373 14.388 0 0 0
1572 1 19.7835 16.1865 7.194 0 0 0
898 1 28.776 26.9775 16.1865 0 0 0
3709 1 3.597 25.179 25.179 0 0 0
3238 1 7.194 19.7835 34.1715 0 0 0
802 1 28.776 19.7835 1.7985 0 0 0
3150 1 7.194 12.5895 26.9775 0 0 0
728 1 26.9775 12.5895 3.597 0 0 0
560 1 30.5745 30.5745 32.373 0 0 0
1555 1 19.7835 10.791 30.5745 0 0 0
1654 1 21.582 23.3805 12.5895 0 0 0
3025 1 7.194 0.0 21.582 0 0 0
899 1 26.9775 25.179 16.1865 0 0 0
3120 1 5.3955 8.9925 32.373 0 0 0
2828 1 8.9925 19.7835 21.582 0 0 0
2706 1 10.791 8.9925 23.3805 0 0 0
1505 1 21.582 7.194 21.582 0 0 0
3804 1 0.0 1.7985 5.3955 0 0 0
2103 1 16.1865 25.179 19.7835 0 0 0
2771 1 8.9925 14.388 8.9925 0 0 0
1474 1 21.582 5.3955 30.5745 0 0 0
236 1 30.5745 1.7985 28.776 0 0 0
855 1 26.9775 21.582 12.5895 0 0 0
1279 1 23.3805 21.582 34.1715 0 0 0
2935 1 8.9925 28.776 12.5895 0 0 0
864 1 26.9775 23.3805 17.985 0 0 0
2641 1 10.791 3.597 0.0 0 0 0
1119 1 23.3805 7.194 34.1715 0 0 0
1763 1 19.7835 32.373 1.7985 0 0 0
733 1 28.776 10.791 10.791 0 0 0
847 1 26.9775 21.582 5.3955 0 0 0
566 1 32.373 34.1715 5.3955 0 0 0
153 1 34.1715 25.179 23.3805 0 0 0
3193 1 7.194 14.388 28.776 0 0 0
2013 1 17.985 17.985 10.791 0 0 0
1447 1 19.7835 3.597 5.3955 0 0 0
2715 1 8.9925 7.194 30.5745 0 0 0
2913 1 10.791 25.179 28.776 0 0 0
243 1 30.5745 3.597 1.7985 0 0 0
2705 1 10.791 7.194 21.582 0 0 0
1203 1 23.3805 17.985 1.7985 0 0 0
2546 1 14.388 30.5745 23.3805 0 0 0
2518 1 14.388 26.9775 34.1715 0 0 0
2366 1 14.388 16.1865 5.3955 0 0 0
250 1 32.373 5.3955 8.9925 0 0 0
735 1 26.9775 10.791 12.5895 0 0 0
1389 1 25.179 32.373 25.179 0 0 0
586 1 32.373 34.1715 23.3805 0 0 0
1315 1 23.3805 25.179 30.5745 0 0 0
3405 1 3.597 0.0 3.597 0 0 0
2276 1 12.5895 5.3955 28.776 0 0 0
1750 1 21.582 30.5745 26.9775 0 0 0
836 1 26.9775 19.7835 28.776 0 0 0
3346 1 7.194 30.5745 23.3805 0 0 0
1098 1 25.179 8.9925 16.1865 0 0 0
3886 1 0.0 16.1865 8.9925 0 0 0
2037 1 17.985 17.985 32.373 0 0 0
1365 1 25.179 32.373 3.597 0 0 0
976 1 26.9775 34.1715 10.791 0 0 0
2479 1 12.5895 21.582 34.1715 0 0 0
3695 1 1.7985 25.179 12.5895 0 0 0
520 1 30.5745 26.9775 32.373 0 0 0
1359 1 23.3805 28.776 34.1715 0 0 0
644 1 26.9775 5.3955 0.0 0 0 0
215 1 30.5745 0.0 12.5895 0 0 0
1827 1 16.1865 0.0 23.3805 0 0 0
3420 1 1.7985 1.7985 14.388 0 0 0
1349 1 25.179 28.776 25.179 0 0 0
550 1 32.373 30.5745 26.9775 0 0 0
3771 1 1.7985 32.373 8.9925 0 0 0
948 1 26.9775 30.5745 21.582 0 0 0
3648 1 1.7985 23.3805 3.597 0 0 0
3663 1 1.7985 21.582 19.7835 0 0 0
1639 1 19.7835 17.985 34.1715 0 0 0
2613 1 10.791 0.0 10.791 0 0 0
1546 1 21.582 12.5895 23.3805 0 0 0
1862 1 17.985 5.3955 19.7835 0 0 0
1055 1 23.3805 3.597 12.5895 0 0 0
3856 1 0.0 8.9925 26.9775 0 0 0
2708 1 8.9925 8.9925 21.582 0 0 0
353 1 32.373 10.791 28.776 0 0 0
3607 1 1.7985 17.985 5.3955 0 0 0
1254 1 25.179 23.3805 12.5895 0 0 0
2264 1 12.5895 5.3955 17.985 0 0 0
3314 1 7.194 26.9775 30.5745 0 0 0
3639 1 1.7985 17.985 34.1715 0 0 0
2092 1 16.1865 26.9775 7.194 0 0 0
1281 1 25.179 25.179 0.0 0 0 0
3492 1 1.7985 8.9925 7.194 0 0 0
1838 1 17.985 1.7985 34.1715 0 0 0
446 1 32.373 23.3805 5.3955 0 0 0
251 1 30.5745 3.597 8.9925 0 0 0
2177 1 17.985 32.373 14.388 0 0 0
1562 1 21.582 16.1865 1.7985 0 0 0
2173 1 17.985 32.373 10.791 0 0 0
22 1 34.1715 5.3955 0.0 0 0 0
2391 1 12.5895 14.388 26.9775 0 0 0
3325 1 7.194 28.776 3.597 0 0 0
2331 1 12.5895 10.791 8.9925 0 0 0
2565 1 14.388 32.373 3.597 0 0 0
2815 1 8.9925 17.985 12.5895 0 0 0
3994 1 0.0 34.1715 23.3805 0 0 0
3978 1 0.0 30.5745 30.5745 0 0 0
3764 1 1.7985 34.1715 0.0 0 0 0
1893 1 17.985 7.194 10.791 0 0 0
3699 1 1.7985 25.179 16.1865 0 0 0
1512 1 19.7835 8.9925 25.179 0 0 0
787 1 26.9775 14.388 23.3805 0 0 0
1110 1 25.179 8.9925 26.9775 0 0 0
2360 1 12.5895 12.5895 32.373 0 0 0
3841 1 0.0 7.194 0.0 0 0 0
109 1 34.1715 17.985 16.1865 0 0 0
3051 1 5.3955 3.597 8.9925 0 0 0
834 1 28.776 19.7835 30.5745 0 0 0
830 1 28.776 19.7835 26.9775 0 0 0
3564 1 1.7985 16.1865 0.0 0 0 0
2626 1 10.791 1.7985 23.3805 0 0 0
2322 1 14.388 12.5895 1.7985 0 0 0
196 1 34.1715 34.1715 25.179 0 0 0
2631 1 8.9925 0.0 26.9775 0 0 0
613 1 28.776 0.0 10.791 0 0 0
1371 1 23.3805 32.373 8.9925 0 0 0
870 1 28.776 23.3805 26.9775 0 0 0
3328 1 5.3955 30.5745 3.597 0 0 0
457 1 32.373 21.582 14.388 0 0 0
2579 1 12.5895 32.373 16.1865 0 0 0
528 1 30.5745 30.5745 3.597 0 0 0
3262 1 7.194 23.3805 19.7835 0 0 0
3016 1 5.3955 1.7985 10.791 0 0 0
124 1 34.1715 23.3805 3.597 0 0 0
3819 1 0.0 0.0 32.373 0 0 0
294 1 32.373 8.9925 12.5895 0 0 0
1966 1 17.985 16.1865 5.3955 0 0 0
178 1 34.1715 30.5745 28.776 0 0 0
2026 1 17.985 19.7835 23.3805 0 0 0
3551 1 1.7985 10.791 26.9775 0 0 0
3084 1 5.3955 8.9925 0.0 0 0 0
2332 1 12.5895 12.5895 7.194 0 0 0
767 1 26.9775 14.388 5.3955 0 0 0
3610 1 3.597 19.7835 8.9925 0 0 0
3933 1 0.0 21.582 21.582 0 0 0
1493 1 21.582 7.194 10.791 0 0 0
3006 1 7.194 1.7985 5.3955 0 0 0
829 1 28.776 17.985 25.179 0 0 0
1540 1 19.7835 12.5895 14.388 0 0 0
3727 1 1.7985 28.776 5.3955 0 0 0
140 1 34.1715 23.3805 32.373 0 0 0
1097 1 25.179 7.194 14.388 0 0 0
2802 1 10.791 19.7835 1.7985 0 0 0
1732 1 19.7835 30.5745 7.194 0 0 0
1866 1 17.985 5.3955 23.3805 0 0 0
2878 1 10.791 23.3805 34.1715 0 0 0
691 1 26.9775 7.194 8.9925 0 0 0
1433 1 21.582 0.0 28.776 0 0 0
3927 1 0.0 21.582 10.791 0 0 0
211 1 30.5745 0.0 8.9925 0 0 0
2441 1 14.388 21.582 0.0 0 0 0
31 1 34.1715 3.597 19.7835 0 0 0
1707 1 19.7835 25.179 23.3805 0 0 0
2892 1 8.9925 26.9775 7.194 0 0 0
3430 1 3.597 1.7985 26.9775 0 0 0
2080 1 16.1865 23.3805 32.373 0 0 0
3310 1 7.194 26.9775 26.9775 0 0 0
2918 1 10.791 26.9775 34.1715 0 0 0
931 1 26.9775 28.776 8.9925 0 0 0
2915 1 8.9925 25.179 30.5745 0 0 0
2854 1 10.791 23.3805 12.5895 0 0 0
1973 1 17.985 14.388 10.791 0 0 0
2917 1 10.791 25.179 32.373 0 0 0
521 1 32.373 28.776 0.0 0 0 0
267 1 30.5745 3.597 23.3805 0 0 0
2238 1 14.388 1.7985 34.1715 0 0 0
3450 1 3.597 5.3955 8.9925 0 0 0
2224 1 12.5895 1.7985 17.985 0 0 0
2438 1 14.388 19.7835 34.1715 0 0 0
12 1 34.1715 1.7985 17.985 0 0 0
757 1 28.776 10.791 32.373 0 0 0
45 1 34.1715 7.194 8.9925 0 0 0
3916 1 0.0 19.7835 26.9775 0 0 0
1423 1 19.7835 0.0 19.7835 0 0 0
2210 1 14.388 1.7985 8.9925 0 0 0
3810 1 0.0 1.7985 16.1865 0 0 0
1989 1 17.985 14.388 25.179 0 0 0
3588 1 1.7985 16.1865 21.582 0 0 0
3626 1 3.597 19.7835 23.3805 0 0 0
1343 1 23.3805 28.776 19.7835 0 0 0
908 1 26.9775 26.9775 21.582 0 0 0
3962 1 0.0 30.5745 1.7985 0 0 0
2538 1 14.388 30.5745 16.1865 0 0 0
375 1 30.5745 14.388 12.5895 0 0 0
888 1 26.9775 26.9775 3.597 0 0 0
1553 1 21.582 10.791 28.776 0 0 0
3844 1 0.0 8.9925 5.3955 0 0 0
1219 1 23.3805 17.985 16.1865 0 0 0
3111 1 5.3955 7.194 26.9775 0 0 0
3643 1 1.7985 21.582 1.7985 0 0 0
2753 1 10.791 10.791 28.776 0 0 0
3554 1 3.597 12.5895 30.5745 0 0 0
455 1 30.5745 21.582 12.5895 0 0 0
3615 1 1.7985 17.985 12.5895 0 0 0
3631 1 1.7985 17.985 26.9775 0 0 0
2042 1 17.985 23.3805 1.7985 0 0 0
134 1 34.1715 23.3805 21.582 0 0 0
1262 1 25.179 23.3805 19.7835 0 0 0
2305 1 14.388 7.194 21.582 0 0 0
3463 1 1.7985 3.597 19.7835 0 0 0
1735 1 19.7835 28.776 12.5895 0 0 0
67 1 34.1715 10.791 12.5895 0 0 0
1267 1 23.3805 21.582 23.3805 0 0 0
3034 1 7.194 1.7985 30.5745 0 0 0
3633 1 3.597 17.985 28.776 0 0 0
2492 1 12.5895 26.9775 7.194 0 0 0
615 1 26.9775 0.0 12.5895 0 0 0
2934 1 10.791 30.5745 12.5895 0 0 0
1743 1 19.7835 28.776 19.7835 0 0 0
1346 1 25.179 30.5745 23.3805 0 0 0
1616 1 19.7835 19.7835 10.791 0 0 0
2830 1 10.791 19.7835 26.9775 0 0 0
502 1 32.373 26.9775 19.7835 0 0 0
2910 1 10.791 26.9775 26.9775 0 0 0
3789 1 3.597 32.373 25.179 0 0 0
160 1 34.1715 26.9775 32.373 0 0 0
2254 1 14.388 5.3955 12.5895 0 0 0
422 1 32.373 19.7835 19.7835 0 0 0
1111 1 23.3805 7.194 26.9775 0 0 0
2329 1 14.388 10.791 7.194 0 0 0
1354 1 25.179 30.5745 30.5745 0 0 0
1648 1 19.7835 23.3805 3.597 0 0 0
2488 1 12.5895 26.9775 3.597 0 0 0
120 1 34.1715 19.7835 32.373 0 0 0
2245 1 14.388 3.597 3.597 0 0 0
536 1 30.5745 30.5745 10.791 0 0 0
273 1 32.373 3.597 28.776 0 0 0
145 1 34.1715 25.179 8.9925 0 0 0
9 1 34.1715 0.0 16.1865 0 0 0
1842 1 17.985 5.3955 1.7985 0 0 0
3200 1 5.3955 16.1865 32.373 0 0 0
2131 1 16.1865 28.776 8.9925 0 0 0
3539 1 1.7985 10.791 16.1865 0 0 0
1040 1 23.3805 1.7985 32.373 0 0 0
2319 1 12.5895 7.194 34.1715 0 0 0
2757 1 10.791 10.791 32.373 0 0 0
3288 1 5.3955 26.9775 3.597 0 0 0
258 1 32.373 5.3955 16.1865 0 0 0
2271 1 12.5895 3.597 26.9775 0 0 0
818 1 28.776 19.7835 16.1865 0 0 0
2170 1 17.985 34.1715 8.9925 0 0 0
1986 1 17.985 16.1865 23.3805 0 0 0
761 1 28.776 14.388 0.0 0 0 0
442 1 32.373 23.3805 1.7985 0 0 0
224 1 30.5745 1.7985 17.985 0 0 0
1593 1 21.582 14.388 28.776 0 0 0
441 1 32.373 21.582 0.0 0 0 0
332 1 30.5745 12.5895 7.194 0 0 0
1157 1 25.179 10.791 32.373 0 0 0
1706 1 21.582 26.9775 23.3805 0 0 0
3008 1 5.3955 1.7985 3.597 0 0 0
2176 1 16.1865 34.1715 10.791 0 0 0
1268 1 23.3805 23.3805 21.582 0 0 0
3716 1 1.7985 26.9775 28.776 0 0 0
72 1 34.1715 12.5895 17.985 0 0 0
2325 1 14.388 10.791 3.597 0 0 0
3557 1 3.597 10.791 32.373 0 0 0
2991 1 8.9925 32.373 26.9775 0 0 0
3503 1 1.7985 7.194 19.7835 0 0 0
2076 1 16.1865 23.3805 28.776 0 0 0
3521 1 3.597 10.791 0.0 0 0 0
3836 1 0.0 5.3955 26.9775 0 0 0
341 1 32.373 10.791 17.985 0 0 0
3754 1 3.597 30.5745 30.5745 0 0 0
400 1 30.5745 16.1865 32.373 0 0 0
3820 1 0.0 1.7985 34.1715 0 0 0
3072 1 5.3955 5.3955 25.179 0 0 0
2150 1 17.985 30.5745 26.9775 0 0 0
2743 1 8.9925 10.791 19.7835 0 0 0
3028 1 5.3955 1.7985 21.582 0 0 0
3620 1 1.7985 19.7835 14.388 0 0 0
444 1 30.5745 23.3805 0.0 0 0 0
2545 1 14.388 28.776 21.582 0 0 0
1682 1 21.582 26.9775 1.7985 0 0 0
1467 1 19.7835 3.597 23.3805 0 0 0
3275 1 5.3955 21.582 30.5745 0 0 0
1793 1 21.582 32.373 28.776 0 0 0
3653 1 3.597 21.582 10.791 0 0 0
1716 1 19.7835 26.9775 28.776 0 0 0
2985 1 10.791 32.373 21.582 0 0 0
321 1 32.373 10.791 0.0 0 0 0
2107 1 16.1865 25.179 23.3805 0 0 0
1195 1 23.3805 14.388 30.5745 0 0 0
3637 1 3.597 17.985 32.373 0 0 0
261 1 32.373 3.597 17.985 0 0 0
364 1 30.5745 16.1865 0.0 0 0 0
3926 1 0.0 23.3805 8.9925 0 0 0
1316 1 23.3805 26.9775 28.776 0 0 0
548 1 30.5745 30.5745 21.582 0 0 0
3801 1 0.0 0.0 0.0 0 0 0
3486 1 3.597 8.9925 5.3955 0 0 0
3940 1 0.0 23.3805 34.1715 0 0 0
3888 1 0.0 16.1865 12.5895 0 0 0
742 1 28.776 12.5895 19.7835 0 0 0
3386 1 7.194 34.1715 23.3805 0 0 0
1239 1 23.3805 17.985 34.1715 0 0 0
653 1 28.776 3.597 10.791 0 0 0
1275 1 23.3805 21.582 30.5745 0 0 0
1620 1 19.7835 19.7835 14.388 0 0 0
1491 1 19.7835 7.194 8.9925 0 0 0
556 1 30.5745 30.5745 28.776 0 0 0
811 1 26.9775 17.985 8.9925 0 0 0
158 1 34.1715 26.9775 28.776 0 0 0
2835 1 8.9925 17.985 30.5745 0 0 0
2183 1 16.1865 32.373 19.7835 0 0 0
3032 1 5.3955 1.7985 25.179 0 0 0
287 1 30.5745 7.194 5.3955 0 0 0
282 1 32.373 8.9925 1.7985 0 0 0
1664 1 19.7835 23.3805 17.985 0 0 0
2383 1 12.5895 14.388 19.7835 0 0 0
1678 1 21.582 23.3805 34.1715 0 0 0
3457 1 3.597 3.597 14.388 0 0 0
3242 1 7.194 23.3805 1.7985 0 0 0
1530 1 21.582 12.5895 8.9925 0 0 0
542 1 32.373 30.5745 19.7835 0 0 0
2286 1 14.388 8.9925 5.3955 0 0 0
2028 1 16.1865 19.7835 21.582 0 0 0
3151 1 5.3955 10.791 26.9775 0 0 0
328 1 30.5745 12.5895 3.597 0 0 0
1538 1 21.582 12.5895 16.1865 0 0 0
32 1 34.1715 5.3955 17.985 0 0 0
2307 1 12.5895 7.194 23.3805 0 0 0
2340 1 12.5895 12.5895 14.388 0 0 0
3694 1 3.597 26.9775 12.5895 0 0 0
3187 1 5.3955 14.388 23.3805 0 0 0
2746 1 10.791 12.5895 23.3805 0 0 0
1288 1 23.3805 26.9775 3.597 0 0 0
1252 1 23.3805 23.3805 7.194 0 0 0
3500 1 1.7985 8.9925 14.388 0 0 0
637 1 28.776 0.0 32.373 0 0 0
3647 1 1.7985 21.582 5.3955 0 0 0
84 1 34.1715 16.1865 3.597 0 0 0
854 1 28.776 23.3805 12.5895 0 0 0
1814 1 17.985 1.7985 12.5895 0 0 0
3629 1 3.597 17.985 25.179 0 0 0
763 1 26.9775 14.388 1.7985 0 0 0
993 1 28.776 32.373 28.776 0 0 0
1052 1 23.3805 5.3955 7.194 0 0 0
3911 1 0.0 17.985 17.985 0 0 0
2435 1 12.5895 17.985 30.5745 0 0 0
3540 1 1.7985 12.5895 14.388 0 0 0
2308 1 12.5895 8.9925 21.582 0 0 0
2752 1 8.9925 12.5895 25.179 0 0 0
355 1 30.5745 10.791 30.5745 0 0 0
2027 1 16.1865 17.985 23.3805 0 0 0
2109 1 17.985 25.179 25.179 0 0 0
3192 1 5.3955 16.1865 25.179 0 0 0
2567 1 12.5895 32.373 5.3955 0 0 0
1069 1 25.179 3.597 25.179 0 0 0
1851 1 16.1865 3.597 8.9925 0 0 0
2716 1 8.9925 8.9925 28.776 0 0 0
3050 1 7.194 5.3955 8.9925 0 0 0
3689 1 3.597 25.179 7.194 0 0 0
3366 1 7.194 34.1715 5.3955 0 0 0
1114 1 25.179 8.9925 30.5745 0 0 0
3122 1 7.194 12.5895 1.7985 0 0 0
648 1 26.9775 5.3955 3.597 0 0 0
2741 1 10.791 10.791 17.985 0 0 0
1674 1 21.582 23.3805 30.5745 0 0 0
3088 1 5.3955 8.9925 3.597 0 0 0
3660 1 1.7985 23.3805 14.388 0 0 0
1167 1 23.3805 14.388 5.3955 0 0 0
186 1 34.1715 34.1715 7.194 0 0 0
191 1 34.1715 32.373 19.7835 0 0 0
3765 1 3.597 32.373 3.597 0 0 0
1013 1 25.179 0.0 10.791 0 0 0
917 1 28.776 25.179 32.373 0 0 0
3604 1 1.7985 19.7835 0.0 0 0 0
669 1 28.776 3.597 25.179 0 0 0
3797 1 3.597 32.373 32.373 0 0 0
941 1 28.776 28.776 17.985 0 0 0
551 1 30.5745 28.776 26.9775 0 0 0
997 1 28.776 32.373 32.373 0 0 0
2055 1 16.1865 21.582 12.5895 0 0 0
3399 1 5.3955 32.373 34.1715 0 0 0
1418 1 21.582 1.7985 16.1865 0 0 0
3535 1 1.7985 10.791 12.5895 0 0 0
1636 1 19.7835 19.7835 28.776 0 0 0
1017 1 25.179 0.0 14.388 0 0 0
2651 1 8.9925 3.597 8.9925 0 0 0
184 1 34.1715 34.1715 3.597 0 0 0
3541 1 3.597 10.791 17.985 0 0 0
1332 1 23.3805 30.5745 7.194 0 0 0
3975 1 0.0 28.776 25.179 0 0 0
2858 1 10.791 23.3805 16.1865 0 0 0
1785 1 21.582 32.373 21.582 0 0 0
3015 1 5.3955 0.0 12.5895 0 0 0
950 1 28.776 30.5745 26.9775 0 0 0
915 1 26.9775 25.179 30.5745 0 0 0
209 1 32.373 0.0 7.194 0 0 0
1651 1 19.7835 21.582 8.9925 0 0 0
838 1 28.776 19.7835 34.1715 0 0 0
3574 1 3.597 16.1865 12.5895 0 0 0
2046 1 17.985 23.3805 5.3955 0 0 0
558 1 32.373 30.5745 34.1715 0 0 0
3316 1 5.3955 26.9775 28.776 0 0 0
1647 1 19.7835 21.582 5.3955 0 0 0
3091 1 5.3955 7.194 8.9925 0 0 0
3776 1 1.7985 34.1715 10.791 0 0 0
2942 1 10.791 30.5745 19.7835 0 0 0
1772 1 19.7835 34.1715 7.194 0 0 0
3394 1 7.194 34.1715 30.5745 0 0 0
874 1 28.776 23.3805 30.5745 0 0 0
879 1 26.9775 21.582 34.1715 0 0 0
852 1 26.9775 23.3805 7.194 0 0 0
909 1 28.776 25.179 25.179 0 0 0
914 1 28.776 26.9775 30.5745 0 0 0
3874 1 0.0 12.5895 23.3805 0 0 0
598 1 32.373 34.1715 34.1715 0 0 0
4000 1 0.0 34.1715 34.1715 0 0 0
2021 1 17.985 17.985 17.985 0 0 0
100 1 34.1715 16.1865 32.373 0 0 0
2350 1 14.388 12.5895 26.9775 0 0 0
426 1 32.373 19.7835 23.3805 0 0 0
1185 1 25.179 14.388 21.582 0 0 0
759 1 26.9775 10.791 34.1715 0 0 0
2726 1 10.791 12.5895 5.3955 0 0 0
1563 1 19.7835 14.388 1.7985 0 0 0
1637 1 21.582 17.985 32.373 0 0 0
488 1 30.5745 26.9775 3.597 0 0 0
2557 1 14.388 28.776 32.373 0 0 0
3915 1 0.0 17.985 25.179 0 0 0
3768 1 1.7985 34.1715 3.597 0 0 0
2675 1 8.9925 3.597 30.5745 0 0 0
2941 1 10.791 28.776 17.985 0 0 0
2785 1 10.791 14.388 21.582 0 0 0
3527 1 1.7985 10.791 5.3955 0 0 0
1698 1 21.582 26.9775 16.1865 0 0 0
2231 1 12.5895 0.0 26.9775 0 0 0
3880 1 0.0 12.5895 34.1715 0 0 0
2912 1 8.9925 26.9775 25.179 0 0 0
1186 1 25.179 16.1865 23.3805 0 0 0
254 1 32.373 5.3955 12.5895 0 0 0
986 1 28.776 34.1715 23.3805 0 0 0
3083 1 5.3955 7.194 1.7985 0 0 0
115 1 34.1715 17.985 26.9775 0 0 0
797 1 28.776 14.388 32.373 0 0 0
1328 1 23.3805 30.5745 3.597 0 0 0
1776 1 19.7835 34.1715 10.791 0 0 0
859 1 26.9775 21.582 16.1865 0 0 0
2923 1 8.9925 28.776 1.7985 0 0 0
1206 1 25.179 19.7835 5.3955 0 0 0
2432 1 12.5895 19.7835 25.179 0 0 0
2300 1 12.5895 8.9925 14.388 0 0 0
618 1 28.776 1.7985 16.1865 0 0 0
3470 1 3.597 5.3955 26.9775 0 0 0
1672 1 19.7835 23.3805 25.179 0 0 0
10 1 34.1715 1.7985 14.388 0 0 0
491 1 30.5745 25.179 8.9925 0 0 0
3683 1 1.7985 25.179 1.7985 0 0 0
1266 1 25.179 23.3805 23.3805 0 0 0
1202 1 25.179 19.7835 1.7985 0 0 0
2630 1 10.791 1.7985 26.9775 0 0 0
1940 1 16.1865 12.5895 14.388 0 0 0
1817 1 17.985 0.0 14.388 0 0 0
1313 1 25.179 25.179 28.776 0 0 0
3352 1 5.3955 30.5745 25.179 0 0 0
3038 1 7.194 1.7985 34.1715 0 0 0
1424 1 19.7835 1.7985 17.985 0 0 0
130 1 34.1715 23.3805 14.388 0 0 0
967 1 26.9775 32.373 5.3955 0 0 0
751 1 26.9775 10.791 26.9775 0 0 0
94 1 34.1715 16.1865 21.582 0 0 0
229 1 32.373 0.0 25.179 0 0 0
731 1 26.9775 10.791 8.9925 0 0 0
3033 1 7.194 0.0 28.776 0 0 0
440 1 30.5745 19.7835 32.373 0 0 0
975 1 26.9775 32.373 12.5895 0 0 0
3403 1 1.7985 0.0 1.7985 0 0 0
1826 1 17.985 1.7985 23.3805 0 0 0
1402 1 21.582 1.7985 1.7985 0 0 0
3225 1 7.194 17.985 21.582 0 0 0
3608 1 1.7985 19.7835 3.597 0 0 0
421 1 32.373 17.985 17.985 0 0 0
745 1 28.776 10.791 21.582 0 0 0
607 1 26.9775 0.0 5.3955 0 0 0
1704 1 19.7835 26.9775 17.985 0 0 0
1043 1 23.3805 3.597 1.7985 0 0 0
3286 1 7.194 26.9775 5.3955 0 0 0
430 1 32.373 19.7835 26.9775 0 0 0
3489 1 3.597 7.194 7.194 0 0 0
1189 1 25.179 14.388 25.179 0 0 0
664 1 26.9775 5.3955 17.985 0 0 0
2599 1 12.5895 32.373 34.1715 0 0 0
2965 1 10.791 32.373 3.597 0 0 0
1843 1 16.1865 3.597 1.7985 0 0 0
108 1 34.1715 19.7835 10.791 0 0 0
953 1 28.776 28.776 28.776 0 0 0
505 1 32.373 25.179 21.582 0 0 0
3667 1 1.7985 21.582 23.3805 0 0 0
2975 1 8.9925 32.373 12.5895 0 0 0
3479 1 1.7985 3.597 34.1715 0 0 0
3361 1 7.194 32.373 0.0 0 0 0
2763 1 8.9925 14.388 1.7985 0 0 0
627 1 26.9775 0.0 23.3805 0 0 0
60 1 34.1715 8.9925 32.373 0 0 0
3711 1 1.7985 25.179 26.9775 0 0 0
2554 1 14.388 30.5745 30.5745 0 0 0
1166 1 25.179 16.1865 5.3955 0 0 0
1872 1 16.1865 5.3955 25.179 0 0 0
816 1 26.9775 19.7835 10.791 0 0 0
1573 1 21.582 14.388 10.791 0 0 0
935 1 26.9775 28.776 12.5895 0 0 0
1779 1 19.7835 32.373 16.1865 0 0 0
2523 1 12.5895 28.776 1.7985 0 0 0
1927 1 16.1865 10.791 5.3955 0 0 0
499 1 30.5745 25.179 16.1865 0 0 0
695 1 26.9775 7.194 12.5895 0 0 0
2770 1 10.791 16.1865 8.9925 0 0 0
1419 1 19.7835 0.0 16.1865 0 0 0
3259 1 5.3955 21.582 16.1865 0 0 0
783 1 26.9775 14.388 19.7835 0 0 0
106 1 34.1715 19.7835 7.194 0 0 0
2800 1 8.9925 16.1865 32.373 0 0 0
1095 1 23.3805 7.194 12.5895 0 0 0
2283 1 12.5895 7.194 1.7985 0 0 0
1635 1 19.7835 17.985 30.5745 0 0 0
1721 1 21.582 28.776 0.0 0 0 0
1810 1 17.985 1.7985 8.9925 0 0 0
272 1 30.5745 5.3955 25.179 0 0 0
1821 1 17.985 0.0 17.985 0 0 0
642 1 28.776 5.3955 1.7985 0 0 0
474 1 32.373 23.3805 30.5745 0 0 0
2719 1 8.9925 7.194 34.1715 0 0 0
3538 1 3.597 12.5895 16.1865 0 0 0
2437 1 14.388 17.985 32.373 0 0 0
1642 1 21.582 23.3805 1.7985 0 0 0
1531 1 19.7835 10.791 8.9925 0 0 0
3892 1 0.0 16.1865 19.7835 0 0 0
3704 1 1.7985 26.9775 17.985 0 0 0
1714 1 21.582 26.9775 30.5745 0 0 0
2658 1 10.791 5.3955 16.1865 0 0 0
2410 1 14.388 19.7835 8.9925 0 0 0
1499 1 19.7835 7.194 16.1865 0 0 0
1054 1 25.179 5.3955 12.5895 0 0 0
680 1 26.9775 5.3955 32.373 0 0 0
1180 1 23.3805 16.1865 14.388 0 0 0
2306 1 14.388 8.9925 23.3805 0 0 0
2520 1 12.5895 26.9775 32.373 0 0 0
483 1 30.5745 25.179 1.7985 0 0 0
2217 1 14.388 0.0 14.388 0 0 0
1225 1 25.179 17.985 21.582 0 0 0
2720 1 8.9925 8.9925 32.373 0 0 0
1432 1 19.7835 1.7985 25.179 0 0 0
3929 1 0.0 21.582 14.388 0 0 0
354 1 32.373 12.5895 30.5745 0 0 0
2216 1 12.5895 1.7985 10.791 0 0 0
2318 1 14.388 8.9925 34.1715 0 0 0
2576 1 12.5895 34.1715 10.791 0 0 0
1264 1 23.3805 23.3805 17.985 0 0 0
696 1 26.9775 8.9925 10.791 0 0 0
381 1 32.373 14.388 17.985 0 0 0
2889 1 10.791 25.179 7.194 0 0 0
3935 1 0.0 21.582 25.179 0 0 0
3919 1 0.0 17.985 32.373 0 0 0
2414 1 14.388 19.7835 12.5895 0 0 0
3378 1 7.194 34.1715 16.1865 0 0 0
2685 1 10.791 7.194 3.597 0 0 0
2085 1 17.985 25.179 3.597 0 0 0
46 1 34.1715 8.9925 7.194 0 0 0
1220 1 23.3805 19.7835 14.388 0 0 0
1079 1 23.3805 3.597 34.1715 0 0 0
66 1 34.1715 12.5895 7.194 0 0 0
2263 1 12.5895 3.597 19.7835 0 0 0
3725 1 3.597 28.776 3.597 0 0 0
386 1 32.373 16.1865 23.3805 0 0 0
3509 1 3.597 7.194 25.179 0 0 0
1156 1 23.3805 12.5895 28.776 0 0 0
1595 1 19.7835 14.388 30.5745 0 0 0
3349 1 7.194 28.776 25.179 0 0 0
3723 1 1.7985 28.776 1.7985 0 0 0
537 1 32.373 28.776 14.388 0 0 0
2197 1 17.985 32.373 32.373 0 0 0
2493 1 14.388 25.179 10.791 0 0 0
371 1 30.5745 14.388 8.9925 0 0 0
928 1 26.9775 30.5745 3.597 0 0 0
82 1 34.1715 16.1865 0.0 0 0 0
402 1 32.373 19.7835 1.7985 0 0 0
239 1 30.5745 0.0 34.1715 0 0 0
1568 1 19.7835 16.1865 3.597 0 0 0
2464 1 12.5895 23.3805 17.985 0 0 0
37 1 34.1715 3.597 30.5745 0 0 0
2938 1 10.791 30.5745 16.1865 0 0 0
3438 1 3.597 1.7985 34.1715 0 0 0
3882 1 0.0 16.1865 1.7985 0 0 0
2019 1 16.1865 17.985 16.1865 0 0 0
2481 1 14.388 25.179 0.0 0 0 0
434 1 32.373 19.7835 30.5745 0 0 0
2123 1 16.1865 28.776 1.7985 0 0 0
3761 1 3.597 32.373 0.0 0 0 0
2079 1 16.1865 21.582 34.1715 0 0 0
2831 1 8.9925 17.985 26.9775 0 0 0
3471 1 1.7985 3.597 26.9775 0 0 0
3466 1 3.597 5.3955 23.3805 0 0 0
1934 1 17.985 12.5895 12.5895 0 0 0
3339 1 5.3955 28.776 16.1865 0 0 0
3454 1 3.597 5.3955 12.5895 0 0 0
1211 1 23.3805 17.985 8.9925 0 0 0
1229 1 25.179 17.985 25.179 0 0 0
2364 1 12.5895 16.1865 0.0 0 0 0
3445 1 3.597 3.597 3.597 0 0 0
3041 1 7.194 3.597 0.0 0 0 0
3895 1 0.0 14.388 25.179 0 0 0
486 1 32.373 26.9775 5.3955 0 0 0
994 1 28.776 34.1715 30.5745 0 0 0
3170 1 7.194 16.1865 8.9925 0 0 0
1497 1 21.582 7.194 14.388 0 0 0
2564 1 12.5895 34.1715 0.0 0 0 0
3240 1 5.3955 19.7835 32.373 0 0 0
3049 1 7.194 3.597 7.194 0 0 0
2049 1 17.985 21.582 7.194 0 0 0
3112 1 5.3955 8.9925 25.179 0 0 0
3735 1 1.7985 28.776 12.5895 0 0 0
2849 1 10.791 21.582 7.194 0 0 0
2773 1 10.791 14.388 10.791 0 0 0
1120 1 23.3805 8.9925 32.373 0 0 0
799 1 26.9775 14.388 34.1715 0 0 0
1923 1 16.1865 10.791 1.7985 0 0 0
469 1 32.373 21.582 25.179 0 0 0
111 1 34.1715 17.985 19.7835 0 0 0
1908 1 16.1865 8.9925 21.582 0 0 0
1624 1 19.7835 19.7835 17.985 0 0 0
3364 1 5.3955 34.1715 0.0 0 0 0
1653 1 21.582 21.582 10.791 0 0 0
3582 1 3.597 16.1865 19.7835 0 0 0
443 1 30.5745 21.582 1.7985 0 0 0
3722 1 3.597 30.5745 1.7985 0 0 0
3042 1 7.194 5.3955 1.7985 0 0 0
454 1 32.373 23.3805 12.5895 0 0 0
1515 1 19.7835 7.194 30.5745 0 0 0
1142 1 25.179 12.5895 19.7835 0 0 0
3550 1 3.597 12.5895 26.9775 0 0 0
50 1 34.1715 8.9925 14.388 0 0 0
3606 1 3.597 19.7835 5.3955 0 0 0
2846 1 10.791 23.3805 5.3955 0 0 0
1409 1 21.582 0.0 7.194 0 0 0
2926 1 10.791 30.5745 5.3955 0 0 0
643 1 26.9775 3.597 1.7985 0 0 0
3195 1 5.3955 14.388 30.5745 0 0 0
20 1 34.1715 1.7985 32.373 0 0 0
844 1 26.9775 23.3805 0.0 0 0 0
2536 1 12.5895 30.5745 10.791 0 0 0
1329 1 25.179 28.776 7.194 0 0 0
790 1 28.776 16.1865 26.9775 0 0 0
3271 1 5.3955 21.582 26.9775 0 0 0
1607 1 19.7835 17.985 5.3955 0 0 0
1394 1 25.179 34.1715 30.5745 0 0 0
3129 1 7.194 10.791 7.194 0 0 0
2822 1 10.791 19.7835 19.7835 0 0 0
3302 1 7.194 26.9775 19.7835 0 0 0
1123 1 23.3805 10.791 1.7985 0 0 0
2841 1 10.791 21.582 0.0 0 0 0
2065 1 17.985 21.582 21.582 0 0 0
2202 1 14.388 1.7985 1.7985 0 0 0
2986 1 10.791 34.1715 23.3805 0 0 0
2221 1 14.388 0.0 17.985 0 0 0
2241 1 14.388 3.597 0.0 0 0 0
1781 1 21.582 32.373 17.985 0 0 0
484 1 30.5745 26.9775 0.0 0 0 0
1967 1 16.1865 14.388 5.3955 0 0 0
1415 1 19.7835 0.0 12.5895 0 0 0
2988 1 8.9925 34.1715 21.582 0 0 0
1420 1 19.7835 1.7985 14.388 0 0 0
1836 1 16.1865 1.7985 28.776 0 0 0
3507 1 1.7985 7.194 23.3805 0 0 0
2660 1 8.9925 5.3955 14.388 0 0 0
3827 1 0.0 3.597 10.791 0 0 0
1864 1 16.1865 5.3955 17.985 0 0 0
3697 1 3.597 25.179 14.388 0 0 0
595 1 30.5745 32.373 30.5745 0 0 0
3898 1 0.0 16.1865 30.5745 0 0 0
2776 1 8.9925 16.1865 10.791 0 0 0
3342 1 7.194 30.5745 19.7835 0 0 0
419 1 30.5745 17.985 16.1865 0 0 0
232 2 30.5745 1.7985 25.179 0 0 0
1697 2 21.582 25.179 14.388 0 0 0
2408 2 12.5895 19.7835 3.597 0 0 0
1247 2 23.3805 21.582 5.3955 0 0 0
218 2 32.373 1.7985 16.1865 0 0 0
2664 2 8.9925 5.3955 17.985 0 0 0
3938 2 0.0 23.3805 30.5745 0 0 0
3786 2 3.597 34.1715 23.3805 0 0 0
1408 2 19.7835 1.7985 3.597 0 0 0
3544 2 1.7985 12.5895 17.985 0 0 0
3287 2 5.3955 25.179 5.3955 0 0 0
1385 2 25.179 32.373 21.582 0 0 0
3446 2 3.597 5.3955 5.3955 0 0 0
1045 2 25.179 3.597 3.597 0 0 0
3853 2 0.0 7.194 21.582 0 0 0
2412 2 12.5895 19.7835 7.194 0 0 0
2553 2 14.388 28.776 28.776 0 0 0
1438 2 21.582 1.7985 34.1715 0 0 0
1844 2 16.1865 5.3955 0.0 0 0 0
2756 2 8.9925 12.5895 28.776 0 0 0
2735 2 8.9925 10.791 12.5895 0 0 0
1734 2 21.582 30.5745 12.5895 0 0 0
3678 2 3.597 23.3805 34.1715 0 0 0
395 2 30.5745 14.388 30.5745 0 0 0
578 2 32.373 34.1715 16.1865 0 0 0
3903 2 0.0 17.985 3.597 0 0 0
1789 2 21.582 32.373 25.179 0 0 0
3893 2 0.0 14.388 21.582 0 0 0
1165 2 25.179 14.388 3.597 0 0 0
3036 2 5.3955 1.7985 28.776 0 0 0
1597 2 21.582 14.388 32.373 0 0 0
2601 2 10.791 0.0 0.0 0 0 0
2258 2 14.388 5.3955 16.1865 0 0 0
1094 2 25.179 8.9925 12.5895 0 0 0
384 2 30.5745 16.1865 17.985 0 0 0
2809 2 10.791 17.985 7.194 0 0 0
3737 2 3.597 28.776 14.388 0 0 0
2463 2 12.5895 21.582 19.7835 0 0 0
3707 2 1.7985 25.179 23.3805 0 0 0
2084 2 16.1865 26.9775 0.0 0 0 0
3026 2 7.194 1.7985 23.3805 0 0 0
2615 2 8.9925 0.0 12.5895 0 0 0
3453 2 3.597 3.597 10.791 0 0 0
2603 2 8.9925 0.0 1.7985 0 0 0
881 2 28.776 25.179 0.0 0 0 0
3910 2 0.0 19.7835 16.1865 0 0 0
3884 2 0.0 16.1865 5.3955 0 0 0
3611 2 1.7985 17.985 8.9925 0 0 0
3400 2 5.3955 34.1715 32.373 0 0 0
2206 2 14.388 1.7985 5.3955 0 0 0
2598 2 14.388 34.1715 34.1715 0 0 0
68 2 34.1715 12.5895 10.791 0 0 0
2610 2 10.791 1.7985 8.9925 0 0 0
1712 2 19.7835 26.9775 25.179 0 0 0
2556 2 12.5895 30.5745 28.776 0 0 0
2146 2 17.985 30.5745 23.3805 0 0 0
3205 2 7.194 17.985 3.597 0 0 0
3348 2 5.3955 30.5745 21.582 0 0 0
923 2 26.9775 28.776 1.7985 0 0 0
998 2 28.776 34.1715 34.1715 0 0 0
3696 2 1.7985 26.9775 10.791 0 0 0
3565 2 3.597 14.388 3.597 0 0 0
2407 2 12.5895 17.985 5.3955 0 0 0
3031 2 5.3955 0.0 26.9775 0 0 0
1523 2 19.7835 10.791 1.7985 0 0 0
1270 2 25.179 23.3805 26.9775 0 0 0
2500 2 12.5895 26.9775 14.388 0 0 0
3965 2 0.0 28.776 7.194 0 0 0
3720 2 1.7985 26.9775 32.373 0 0 0
2543 2 12.5895 28.776 19.7835 0 0 0
497 2 32.373 25.179 14.388 0 0 0
1912 2 16.1865 8.9925 25.179 0 0 0
3419 2 1.7985 0.0 16.1865 0 0 0
3821 2 0.0 3.597 0.0 0 0 0
1723 2 19.7835 28.776 1.7985 0 0 0
1319 2 23.3805 25.179 34.1715 0 0 0
3462 2 3.597 5.3955 19.7835 0 0 0
2812 2 8.9925 19.7835 7.194 0 0 0
1406 2 21.582 1.7985 5.3955 0 0 0
3808 2 0.0 1.7985 12.5895 0 0 0
1228 2 23.3805 19.7835 21.582 0 0 0
1749 2 21.582 28.776 25.179 0 0 0
2790 2 10.791 16.1865 26.9775 0 0 0
2696 2 8.9925 8.9925 10.791 0 0 0
2571 2 12.5895 32.373 8.9925 0 0 0
161 2 34.1715 28.776 1.7985 0 0 0
1136 2 23.3805 12.5895 10.791 0 0 0
842 2 28.776 23.3805 1.7985 0 0 0
3650 2 3.597 23.3805 8.9925 0 0 0
3652 2 1.7985 23.3805 7.194 0 0 0
1787 2 19.7835 32.373 23.3805 0 0 0
893 2 28.776 25.179 10.791 0 0 0
3184 2 5.3955 16.1865 17.985 0 0 0
3869 2 0.0 10.791 14.388 0 0 0
1056 2 23.3805 5.3955 10.791 0 0 0
1190 2 25.179 16.1865 26.9775 0 0 0
3766 2 3.597 34.1715 5.3955 0 0 0
3158 2 7.194 12.5895 34.1715 0 0 0
1184 2 23.3805 16.1865 17.985 0 0 0
2780 2 8.9925 16.1865 14.388 0 0 0
1425 2 21.582 0.0 21.582 0 0 0
1652 2 19.7835 23.3805 7.194 0 0 0
815 2 26.9775 17.985 12.5895 0 0 0
2516 2 12.5895 26.9775 28.776 0 0 0
1082 2 25.179 8.9925 1.7985 0 0 0
2900 2 8.9925 26.9775 14.388 0 0 0
3805 2 0.0 0.0 7.194 0 0 0
2494 2 14.388 26.9775 12.5895 0 0 0
1300 2 23.3805 26.9775 14.388 0 0 0
175 2 34.1715 28.776 26.9775 0 0 0
2897 2 10.791 25.179 14.388 0 0 0
3675 2 1.7985 21.582 30.5745 0 0 0
2951 2 8.9925 28.776 26.9775 0 0 0
2180 2 16.1865 34.1715 14.388 0 0 0
496 2 30.5745 26.9775 10.791 0 0 0
2212 2 12.5895 1.7985 7.194 0 0 0
2526 2 14.388 30.5745 5.3955 0 0 0
2273 2 14.388 3.597 28.776 0 0 0
2524 2 12.5895 30.5745 0.0 0 0 0
1455 2 19.7835 3.597 12.5895 0 0 0
2944 2 8.9925 30.5745 17.985 0 0 0
1775 2 19.7835 32.373 12.5895 0 0 0
1486 2 21.582 8.9925 5.3955 0 0 0
2327 2 12.5895 10.791 5.3955 0 0 0
3105 2 7.194 7.194 21.582 0 0 0
3102 2 7.194 8.9925 19.7835 0 0 0
1583 2 19.7835 14.388 19.7835 0 0 0
2768 2 8.9925 16.1865 3.597 0 0 0
1759 2 19.7835 28.776 34.1715 0 0 0
467 2 30.5745 21.582 23.3805 0 0 0
3054 2 7.194 5.3955 12.5895 0 0 0
1623 2 19.7835 17.985 19.7835 0 0 0
949 2 28.776 28.776 25.179 0 0 0
592 2 30.5745 34.1715 25.179 0 0 0
1248 2 23.3805 23.3805 3.597 0 0 0
3508 2 1.7985 8.9925 21.582 0 0 0
3964 2 0.0 30.5745 5.3955 0 0 0
2677 2 10.791 3.597 32.373 0 0 0
755 2 26.9775 10.791 30.5745 0 0 0
1413 2 21.582 0.0 10.791 0 0 0
2946 2 10.791 30.5745 23.3805 0 0 0
3949 2 0.0 25.179 14.388 0 0 0
2184 2 16.1865 34.1715 17.985 0 0 0
1029 2 25.179 0.0 25.179 0 0 0
2700 2 8.9925 8.9925 14.388 0 0 0
2341 2 14.388 10.791 17.985 0 0 0
306 2 32.373 8.9925 23.3805 0 0 0
1197 2 25.179 14.388 32.373 0 0 0
1183 2 23.3805 14.388 19.7835 0 0 0
506 2 32.373 26.9775 23.3805 0 0 0
1948 2 16.1865 12.5895 21.582 0 0 0
3870 2 0.0 12.5895 16.1865 0 0 0
3115 2 5.3955 7.194 30.5745 0 0 0
2234 2 14.388 1.7985 30.5745 0 0 0
568 2 30.5745 34.1715 3.597 0 0 0
3531 2 1.7985 10.791 8.9925 0 0 0
1894 2 17.985 8.9925 12.5895 0 0 0
1574 2 21.582 16.1865 12.5895 0 0 0
2692 2 8.9925 8.9925 7.194 0 0 0
359 2 30.5745 10.791 34.1715 0 0 0
2374 2 14.388 16.1865 12.5895 0 0 0
625 2 28.776 0.0 21.582 0 0 0
3066 2 7.194 5.3955 23.3805 0 0 0
1857 2 17.985 3.597 14.388 0 0 0
660 2 26.9775 5.3955 14.388 0 0 0
722 2 28.776 12.5895 1.7985 0 0 0
1542 2 21.582 12.5895 19.7835 0 0 0
2303 2 12.5895 7.194 19.7835 0 0 0
3579 2 1.7985 14.388 16.1865 0 0 0
192 2 34.1715 34.1715 17.985 0 0 0
2667 2 8.9925 3.597 23.3805 0 0 0
221 2 32.373 0.0 17.985 0 0 0
1021 2 25.179 0.0 17.985 0 0 0
345 2 32.373 10.791 21.582 0 0 0
1250 2 25.179 23.3805 8.9925 0 0 0
53 2 34.1715 7.194 23.3805 0 0 0
610 2 28.776 1.7985 8.9925 0 0 0
2870 2 10.791 23.3805 26.9775 0 0 0
1629 2 21.582 17.985 25.179 0 0 0
1105 2 25.179 7.194 21.582 0 0 0
2014 2 17.985 19.7835 12.5895 0 0 0
3666 2 3.597 23.3805 23.3805 0 0 0
1448 2 19.7835 5.3955 3.597 0 0 0
1489 2 21.582 7.194 7.194 0 0 0
600 2 30.5745 34.1715 32.373 0 0 0
3224 2 5.3955 19.7835 17.985 0 0 0
1528 2 19.7835 12.5895 3.597 0 0 0
3788 2 1.7985 34.1715 21.582 0 0 0
765 2 28.776 14.388 3.597 0 0 0
823 2 26.9775 17.985 19.7835 0 0 0
1612 2 19.7835 19.7835 7.194 0 0 0
3997 2 0.0 32.373 28.776 0 0 0
3306 2 7.194 26.9775 23.3805 0 0 0
90 2 34.1715 16.1865 14.388 0 0 0
3670 2 3.597 23.3805 26.9775 0 0 0
3658 2 3.597 23.3805 16.1865 0 0 0
1741 2 21.582 28.776 17.985 0 0 0
3376 2 5.3955 34.1715 10.791 0 0 0
2929 2 10.791 28.776 7.194 0 0 0
3845 2 0.0 7.194 7.194 0 0 0
1374 2 25.179 34.1715 12.5895 0 0 0
3173 2 7.194 14.388 10.791 0 0 0
629 2 28.776 0.0 25.179 0 0 0
13 2 34.1715 0.0 23.3805 0 0 0
3674 2 3.597 23.3805 30.5745 0 0 0
2769 2 10.791 14.388 7.194 0 0 0
131 2 34.1715 21.582 19.7835 0 0 0
2614 2 10.791 1.7985 12.5895 0 0 0
3495 2 1.7985 7.194 12.5895 0 0 0
2778 2 10.791 16.1865 16.1865 0 0 0
2522 2 14.388 30.5745 1.7985 0 0 0
1161 2 25.179 14.388 0.0 0 0 0
65 2 34.1715 10.791 8.9925 0 0 0
1131 2 23.3805 10.791 8.9925 0 0 0
646 2 28.776 5.3955 5.3955 0 0 0
3424 2 1.7985 1.7985 17.985 0 0 0
3656 2 1.7985 23.3805 10.791 0 0 0
3719 2 1.7985 25.179 34.1715 0 0 0
1582 2 21.582 16.1865 19.7835 0 0 0
1848 2 16.1865 5.3955 3.597 0 0 0
1168 2 23.3805 16.1865 3.597 0 0 0
2808 2 8.9925 19.7835 3.597 0 0 0
166 2 34.1715 30.5745 7.194 0 0 0
700 2 26.9775 8.9925 14.388 0 0 0
3914 2 0.0 19.7835 23.3805 0 0 0
2861 2 10.791 21.582 17.985 0 0 0
3045 2 7.194 3.597 3.597 0 0 0
1539 2 19.7835 10.791 16.1865 0 0 0
2423 2 12.5895 17.985 19.7835 0 0 0
694 2 28.776 8.9925 12.5895 0 0 0
3498 2 3.597 8.9925 16.1865 0 0 0
894 2 28.776 26.9775 12.5895 0 0 0
1063 2 23.3805 3.597 19.7835 0 0 0
1679 2 19.7835 21.582 34.1715 0 0 0
813 2 28.776 17.985 10.791 0 0 0
1705 2 21.582 25.179 21.582 0 0 0
2167 2 16.1865 32.373 5.3955 0 0 0
2406 2 14.388 19.7835 5.3955 0 0 0
1830 2 17.985 1.7985 26.9775 0 0 0
58 2 34.1715 8.9925 28.776 0 0 0
3100 2 5.3955 8.9925 14.388 0 0 0
3951 2 0.0 25.179 17.985 0 0 0
137 2 34.1715 21.582 30.5745 0 0 0
2940 2 8.9925 30.5745 14.388 0 0 0
2544 2 12.5895 30.5745 17.985 0 0 0
846 2 28.776 23.3805 5.3955 0 0 0
1037 2 25.179 0.0 32.373 0 0 0
3070 2 7.194 5.3955 26.9775 0 0 0
1445 2 21.582 3.597 3.597 0 0 0
926 2 28.776 30.5745 5.3955 0 0 0
2684 2 8.9925 8.9925 0.0 0 0 0
2185 2 17.985 32.373 21.582 0 0 0
2352 2 12.5895 12.5895 25.179 0 0 0
2964 2 8.9925 34.1715 0.0 0 0 0
3085 2 7.194 7.194 3.597 0 0 0
1859 2 16.1865 3.597 16.1865 0 0 0
1304 2 23.3805 26.9775 17.985 0 0 0
1673 2 21.582 21.582 28.776 0 0 0
2558 2 14.388 30.5745 34.1715 0 0 0
1340 2 23.3805 30.5745 14.388 0 0 0
3131 2 5.3955 10.791 8.9925 0 0 0
2905 2 10.791 25.179 21.582 0 0 0
3169 2 7.194 14.388 7.194 0 0 0
2949 2 10.791 28.776 25.179 0 0 0
3146 2 7.194 12.5895 23.3805 0 0 0
3779 2 1.7985 32.373 16.1865 0 0 0
253 2 32.373 3.597 10.791 0 0 0
1430 2 21.582 1.7985 26.9775 0 0 0
3702 2 3.597 26.9775 19.7835 0 0 0
2575 2 12.5895 32.373 12.5895 0 0 0
2984 2 8.9925 34.1715 17.985 0 0 0
1115 2 23.3805 7.194 30.5745 0 0 0
1736 2 19.7835 30.5745 10.791 0 0 0
801 2 28.776 17.985 0.0 0 0 0
1901 2 17.985 7.194 17.985 0 0 0
3976 2 0.0 30.5745 26.9775 0 0 0
1909 2 17.985 7.194 25.179 0 0 0
2465 2 14.388 21.582 21.582 0 0 0
2495 2 12.5895 25.179 12.5895 0 0 0
2035 2 16.1865 17.985 30.5745 0 0 0
347 2 30.5745 10.791 23.3805 0 0 0
3646 2 3.597 23.3805 5.3955 0 0 0
77 2 34.1715 10.791 30.5745 0 0 0
1650 2 21.582 23.3805 8.9925 0 0 0
2288 2 12.5895 8.9925 3.597 0 0 0
189 2 34.1715 32.373 16.1865 0 0 0
732 2 26.9775 12.5895 7.194 0 0 0
1748 2 19.7835 30.5745 21.582 0 0 0
843 2 26.9775 21.582 1.7985 0 0 0
1993 2 17.985 14.388 28.776 0 0 0
1617 2 21.582 17.985 14.388 0 0 0
2114 2 17.985 26.9775 30.5745 0 0 0
2280 2 12.5895 5.3955 32.373 0 0 0
1976 2 16.1865 16.1865 10.791 0 0 0
1278 2 25.179 23.3805 34.1715 0 0 0
1596 2 19.7835 16.1865 28.776 0 0 0
266 2 32.373 5.3955 23.3805 0 0 0
3157 2 7.194 10.791 32.373 0 0 0
3458 2 3.597 5.3955 16.1865 0 0 0
738 2 28.776 12.5895 16.1865 0 0 0
895 2 26.9775 25.179 12.5895 0 0 0
3313 2 7.194 25.179 28.776 0 0 0
3206 2 7.194 19.7835 5.3955 0 0 0
3517 2 3.597 7.194 32.373 0 0 0
1107 2 23.3805 7.194 23.3805 0 0 0
2968 2 8.9925 34.1715 3.597 0 0 0
2580 2 12.5895 34.1715 14.388 0 0 0
906 2 28.776 26.9775 23.3805 0 0 0
2078 2 17.985 23.3805 34.1715 0 0 0
3335 2 5.3955 28.776 12.5895 0 0 0
2519 2 12.5895 25.179 34.1715 0 0 0
762 2 28.776 16.1865 1.7985 0 0 0
1273 2 25.179 21.582 28.776 0 0 0
3713 2 3.597 25.179 28.776 0 0 0
3868 2 0.0 12.5895 12.5895 0 0 0
2000 2 16.1865 16.1865 32.373 0 0 0
730 2 28.776 12.5895 8.9925 0 0 0
718 2 28.776 8.9925 34.1715 0 0 0
2261 2 14.388 3.597 17.985 0 0 0
3023 2 5.3955 0.0 19.7835 0 0 0
3634 2 3.597 19.7835 30.5745 0 0 0
466 2 32.373 23.3805 23.3805 0 0 0
2376 2 12.5895 16.1865 10.791 0 0 0
768 2 26.9775 16.1865 3.597 0 0 0
3753 2 3.597 28.776 28.776 0 0 0
1169 2 25.179 14.388 7.194 0 0 0
51 2 34.1715 7.194 19.7835 0 0 0
176 2 34.1715 30.5745 25.179 0 0 0
3983 2 0.0 32.373 3.597 0 0 0
3074 2 7.194 5.3955 30.5745 0 0 0
2371 2 12.5895 14.388 8.9925 0 0 0
837 2 28.776 17.985 32.373 0 0 0
473 2 32.373 21.582 28.776 0 0 0
2282 2 14.388 8.9925 1.7985 0 0 0
2801 2 10.791 17.985 0.0 0 0 0
545 2 32.373 28.776 21.582 0 0 0
2120 2 16.1865 26.9775 32.373 0 0 0
3469 2 3.597 3.597 25.179 0 0 0
1253 2 25.179 21.582 10.791 0 0 0
1656 2 19.7835 23.3805 10.791 0 0 0
872 2 26.9775 23.3805 25.179 0 0 0
1426 2 21.582 1.7985 23.3805 0 0 0
3515 2 1.7985 7.194 30.5745 0 0 0
1526 2 21.582 12.5895 5.3955 0 0 0
3741 2 3.597 28.776 17.985 0 0 0
2369 2 14.388 14.388 7.194 0 0 0
3848 2 0.0 8.9925 12.5895 0 0 0
336 2 30.5745 12.5895 10.791 0 0 0
3784 2 1.7985 34.1715 17.985 0 0 0
3280 2 5.3955 23.3805 32.373 0 0 0
2379 2 12.5895 14.388 16.1865 0 0 0
2823 2 8.9925 17.985 19.7835 0 0 0
2953 2 10.791 28.776 28.776 0 0 0
179 2 34.1715 28.776 34.1715 0 0 0
1514 2 21.582 8.9925 30.5745 0 0 0
584 2 30.5745 34.1715 17.985 0 0 0
2147 2 16.1865 28.776 23.3805 0 0 0
2066 2 17.985 23.3805 23.3805 0 0 0
2902 2 10.791 26.9775 19.7835 0 0 0
335 2 30.5745 10.791 12.5895 0 0 0
1256 2 23.3805 23.3805 10.791 0 0 0
3758 2 3.597 30.5745 34.1715 0 0 0
203 2 30.5745 0.0 1.7985 0 0 0
3297 2 7.194 25.179 14.388 0 0 0
1590 2 21.582 16.1865 26.9775 0 0 0
2104 2 16.1865 26.9775 17.985 0 0 0
563 2 30.5745 32.373 1.7985 0 0 0
3485 2 3.597 7.194 3.597 0 0 0
2829 2 10.791 17.985 25.179 0 0 0
2588 2 12.5895 34.1715 21.582 0 0 0
263 2 30.5745 3.597 19.7835 0 0 0
1762 2 21.582 34.1715 1.7985 0 0 0
989 2 28.776 32.373 25.179 0 0 0
3572 2 1.7985 16.1865 7.194 0 0 0
2995 2 8.9925 32.373 30.5745 0 0 0
2652 2 8.9925 5.3955 7.194 0 0 0
2681 2 10.791 7.194 0.0 0 0 0
1036 2 23.3805 1.7985 28.776 0 0 0
313 2 32.373 7.194 28.776 0 0 0
2193 2 17.985 32.373 28.776 0 0 0
791 2 26.9775 14.388 26.9775 0 0 0
2530 2 14.388 30.5745 8.9925 0 0 0
3907 2 0.0 17.985 10.791 0 0 0
1522 2 21.582 12.5895 1.7985 0 0 0
1932 2 16.1865 12.5895 7.194 0 0 0
2589 2 14.388 32.373 25.179 0 0 0
2439 2 12.5895 17.985 34.1715 0 0 0
3075 2 5.3955 3.597 30.5745 0 0 0
3176 2 5.3955 16.1865 10.791 0 0 0
683 2 26.9775 7.194 1.7985 0 0 0
1331 2 23.3805 28.776 8.9925 0 0 0
3067 2 5.3955 3.597 23.3805 0 0 0
1299 2 23.3805 25.179 16.1865 0 0 0
773 2 28.776 14.388 10.791 0 0 0
1274 2 25.179 23.3805 30.5745 0 0 0
3598 2 3.597 16.1865 34.1715 0 0 0
1463 2 19.7835 3.597 19.7835 0 0 0
1571 2 19.7835 14.388 8.9925 0 0 0
2419 2 12.5895 17.985 16.1865 0 0 0
508 2 30.5745 26.9775 21.582 0 0 0
630 2 28.776 1.7985 26.9775 0 0 0
588 2 30.5745 34.1715 21.582 0 0 0
3440 2 1.7985 1.7985 32.373 0 0 0
62 2 34.1715 12.5895 0.0 0 0 0
649 2 28.776 3.597 7.194 0 0 0
564 2 30.5745 34.1715 0.0 0 0 0
2440 2 12.5895 19.7835 32.373 0 0 0
326 2 32.373 12.5895 5.3955 0 0 0
501 2 32.373 25.179 17.985 0 0 0
1429 2 21.582 0.0 25.179 0 0 0
2006 2 17.985 19.7835 5.3955 0 0 0
3484 2 1.7985 8.9925 0.0 0 0 0
3488 2 1.7985 8.9925 3.597 0 0 0
968 2 26.9775 34.1715 3.597 0 0 0
3077 2 7.194 3.597 32.373 0 0 0
2496 2 12.5895 26.9775 10.791 0 0 0
1608 2 19.7835 19.7835 3.597 0 0 0
2323 2 12.5895 10.791 1.7985 0 0 0
3685 2 3.597 25.179 3.597 0 0 0
3002 2 7.194 1.7985 1.7985 0 0 0
2445 2 14.388 21.582 3.597 0 0 0
1980 2 16.1865 16.1865 14.388 0 0 0
3414 2 3.597 1.7985 12.5895 0 0 0
1375 2 23.3805 32.373 12.5895 0 0 0
3592 2 1.7985 16.1865 25.179 0 0 0
472 2 30.5745 23.3805 25.179 0 0 0
2236 2 12.5895 1.7985 28.776 0 0 0
3179 2 5.3955 14.388 16.1865 0 0 0
3312 2 5.3955 26.9775 25.179 0 0 0
1929 3 17.985 10.791 7.194 0 0 0
2061 3 17.985 21.582 17.985 0 0 0
3401 3 3.597 0.0 0.0 0 0 0
812 3 26.9775 19.7835 7.194 0 0 0
1585 3 21.582 14.388 21.582 0 0 0
1897 3 17.985 7.194 14.388 0 0 0
1182 3 25.179 16.1865 19.7835 0 0 0
143 3 34.1715 25.179 5.3955 0 0 0
1155 3 23.3805 10.791 30.5745 0 0 0
1658 3 21.582 23.3805 16.1865 0 0 0
1062 3 25.179 5.3955 19.7835 0 0 0
3232 3 5.3955 19.7835 25.179 0 0 0
3338 3 7.194 30.5745 16.1865 0 0 0
2671 3 8.9925 3.597 26.9775 0 0 0
1918 3 17.985 8.9925 34.1715 0 0 0
2130 3 17.985 30.5745 8.9925 0 0 0
99 3 34.1715 14.388 34.1715 0 0 0
3980 3 0.0 30.5745 34.1715 0 0 0
2148 3 16.1865 30.5745 21.582 0 0 0
2758 3 10.791 12.5895 34.1715 0 0 0
363 3 30.5745 14.388 1.7985 0 0 0
2434 3 14.388 19.7835 30.5745 0 0 0
25 3 34.1715 3.597 8.9925 0 0 0
208 3 30.5745 1.7985 3.597 0 0 0
2416 3 12.5895 19.7835 10.791 0 0 0
690 3 28.776 8.9925 8.9925 0 0 0
1914 3 17.985 8.9925 30.5745 0 0 0
571 3 30.5745 32.373 8.9925 0 0 0
274 3 32.373 5.3955 30.5745 0 0 0
1671 3 19.7835 21.582 26.9775 0 0 0
3222 3 7.194 19.7835 19.7835 0 0 0
3267 3 5.3955 21.582 23.3805 0 0 0
81 3 34.1715 14.388 1.7985 0 0 0
1411 3 19.7835 0.0 8.9925 0 0 0
531 3 30.5745 28.776 8.9925 0 0 0
3490 3 3.597 8.9925 8.9925 0 0 0
1786 3 21.582 34.1715 23.3805 0 0 0
2859 3 8.9925 21.582 16.1865 0 0 0
3065 3 7.194 3.597 21.582 0 0 0
3370 3 7.194 34.1715 8.9925 0 0 0
56 3 34.1715 8.9925 25.179 0 0 0
271 3 30.5745 3.597 26.9775 0 0 0
2686 3 10.791 8.9925 5.3955 0 0 0
916 3 26.9775 26.9775 28.776 0 0 0
2903 3 8.9925 25.179 19.7835 0 0 0
925 3 28.776 28.776 3.597 0 0 0
1904 3 16.1865 8.9925 17.985 0 0 0
880 3 26.9775 23.3805 32.373 0 0 0
1715 3 19.7835 25.179 30.5745 0 0 0
3353 3 7.194 28.776 28.776 0 0 0
2617 3 10.791 0.0 14.388 0 0 0
2532 3 12.5895 30.5745 7.194 0 0 0
752 3 26.9775 12.5895 25.179 0 0 0
513 3 32.373 25.179 28.776 0 0 0
3011 3 5.3955 0.0 8.9925 0 0 0
3524 3 1.7985 12.5895 0.0 0 0 0
3451 3 1.7985 3.597 8.9925 0 0 0
1824 3 16.1865 1.7985 17.985 0 0 0
1456 3 19.7835 5.3955 10.791 0 0 0
357 3 32.373 10.791 32.373 0 0 0
1527 3 19.7835 10.791 5.3955 0 0 0
2096 3 16.1865 26.9775 10.791 0 0 0
3296 3 5.3955 26.9775 10.791 0 0 0
3143 3 5.3955 10.791 19.7835 0 0 0
3561 3 3.597 14.388 0.0 0 0 0
2548 3 12.5895 30.5745 21.582 0 0 0
1439 3 19.7835 0.0 34.1715 0 0 0
1009 3 25.179 0.0 7.194 0 0 0
509 3 32.373 25.179 25.179 0 0 0
1366 3 25.179 34.1715 5.3955 0 0 0
1547 3 19.7835 10.791 23.3805 0 0 0
3593 3 3.597 14.388 28.776 0 0 0
1373 3 25.179 32.373 10.791 0 0 0
3618 3 3.597 19.7835 16.1865 0 0 0
2211 3 12.5895 0.0 8.9925 0 0 0
2020 3 16.1865 19.7835 14.388 0 0 0
3201 3 7.194 17.985 0.0 0 0 0
716 3 26.9775 8.9925 28.776 0 0 0
403 3 30.5745 17.985 1.7985 0 0 0
1246 3 25.179 23.3805 5.3955 0 0 0
269 3 32.373 3.597 25.179 0 0 0
1049 3 25.179 3.597 7.194 0 0 0
2233 3 14.388 0.0 28.776 0 0 0
3688 3 1.7985 26.9775 3.597 0 0 0
2473 3 14.388 21.582 28.776 0 0 0
3830 3 0.0 5.3955 16.1865 0 0 0
2894 3 10.791 26.9775 12.5895 0 0 0
3380 3 5.3955 34.1715 14.388 0 0 0
310 3 32.373 8.9925 26.9775 0 0 0
1632 3 19.7835 19.7835 25.179 0 0 0
2824 3 8.9925 19.7835 17.985 0 0 0
1501 3 21.582 7.194 17.985 0 0 0
392 3 30.5745 16.1865 25.179 0 0 0
920 3 26.9775 26.9775 32.373 0 0 0
471 3 30.5745 21.582 26.9775 0 0 0
944 3 26.9775 30.5745 17.985 0 0 0
461 3 32.373 21.582 17.985 0 0 0
2091 3 16.1865 25.179 8.9925 0 0 0
2539 3 12.5895 28.776 16.1865 0 0 0
92 3 34.1715 16.1865 17.985 0 0 0
91 3 34.1715 14.388 19.7835 0 0 0
2181 3 17.985 32.373 17.985 0 0 0
2510 3 14.388 26.9775 26.9775 0 0 0
3053 3 7.194 3.597 10.791 0 0 0
418 3 32.373 19.7835 16.1865 0 0 0
3148 3 5.3955 12.5895 21.582 0 0 0
2204 3 12.5895 1.7985 0.0 0 0 0
2483 3 12.5895 25.179 1.7985 0 0 0
3202 3 7.194 19.7835 1.7985 0 0 0
2581 3 14.388 32.373 17.985 0 0 0
1846 3 17.985 5.3955 5.3955 0 0 0
3166 3 7.194 16.1865 5.3955 0 0 0
2030 3 17.985 19.7835 26.9775 0 0 0
3248 3 5.3955 23.3805 3.597 0 0 0
2260 3 12.5895 5.3955 14.388 0 0 0
1407 3 19.7835 0.0 5.3955 0 0 0
2073 3 17.985 21.582 28.776 0 0 0
2219 3 12.5895 0.0 16.1865 0 0 0
3849 3 0.0 7.194 14.388 0 0 0
2069 3 17.985 21.582 25.179 0 0 0
2472 3 12.5895 23.3805 25.179 0 0 0
1172 3 23.3805 16.1865 7.194 0 0 0
904 3 26.9775 26.9775 17.985 0 0 0
2100 3 16.1865 26.9775 14.388 0 0 0
2993 3 10.791 32.373 28.776 0 0 0
1926 3 17.985 12.5895 5.3955 0 0 0
3984 3 0.0 34.1715 5.3955 0 0 0
2836 3 8.9925 19.7835 28.776 0 0 0
3426 3 3.597 1.7985 23.3805 0 0 0
3062 3 7.194 5.3955 19.7835 0 0 0
3279 3 5.3955 21.582 34.1715 0 0 0
2485 3 14.388 25.179 3.597 0 0 0
2390 3 14.388 16.1865 26.9775 0 0 0
1754 3 21.582 30.5745 30.5745 0 0 0
3384 3 5.3955 34.1715 17.985 0 0 0
2257 3 14.388 3.597 14.388 0 0 0
3436 3 1.7985 1.7985 28.776 0 0 0
1018 3 25.179 1.7985 16.1865 0 0 0
2452 3 12.5895 23.3805 7.194 0 0 0
3555 3 1.7985 10.791 30.5745 0 0 0
1483 3 19.7835 7.194 1.7985 0 0 0
530 3 32.373 30.5745 8.9925 0 0 0
1533 3 21.582 10.791 10.791 0 0 0
1173 3 25.179 14.388 10.791 0 0 0
128 3 34.1715 23.3805 10.791 0 0 0
1150 3 25.179 12.5895 26.9775 0 0 0
740 3 26.9775 12.5895 14.388 0 0 0
3113 3 7.194 7.194 28.776 0 0 0
725 3 28.776 10.791 3.597 0 0 0
1850 3 17.985 5.3955 8.9925 0 0 0
1330 3 25.179 30.5745 8.9925 0 0 0
59 3 34.1715 7.194 34.1715 0 0 0
370 3 32.373 16.1865 8.9925 0 0 0
503 3 30.5745 25.179 19.7835 0 0 0
382 3 32.373 16.1865 19.7835 0 0 0
1108 3 23.3805 8.9925 21.582 0 0 0
2572 3 12.5895 34.1715 7.194 0 0 0
2833 3 10.791 17.985 28.776 0 0 0
788 3 26.9775 16.1865 21.582 0 0 0
1064 3 23.3805 5.3955 17.985 0 0 0
3999 3 0.0 32.373 32.373 0 0 0
2050 3 17.985 23.3805 8.9925 0 0 0
3760 3 1.7985 30.5745 32.373 0 0 0
1175 3 23.3805 14.388 12.5895 0 0 0
2542 3 14.388 30.5745 19.7835 0 0 0
3250 3 7.194 23.3805 8.9925 0 0 0
775 3 26.9775 14.388 12.5895 0 0 0
2313 3 14.388 7.194 28.776 0 0 0
1745 3 21.582 28.776 21.582 0 0 0
3464 3 1.7985 5.3955 17.985 0 0 0
1687 3 19.7835 25.179 5.3955 0 0 0
2201 3 14.388 0.0 0.0 0 0 0
1753 3 21.582 28.776 28.776 0 0 0
2840 3 8.9925 19.7835 32.373 0 0 0
2624 3 8.9925 1.7985 17.985 0 0 0
2187 3 16.1865 32.373 23.3805 0 0 0
3642 3 3.597 23.3805 1.7985 0 0 0
1132 3 23.3805 12.5895 7.194 0 0 0
3736 3 1.7985 30.5745 10.791 0 0 0
2820 3 8.9925 19.7835 14.388 0 0 0
1933 3 17.985 10.791 10.791 0 0 0
620 3 26.9775 1.7985 14.388 0 0 0
2093 3 17.985 25.179 10.791 0 0 0
2680 3 8.9925 5.3955 32.373 0 0 0
771 3 26.9775 14.388 8.9925 0 0 0
3368 3 5.3955 34.1715 3.597 0 0 0
1645 3 21.582 21.582 3.597 0 0 0
977 3 28.776 32.373 14.388 0 0 0
3001 3 7.194 0.0 0.0 0 0 0
947 3 26.9775 28.776 23.3805 0 0 0
3950 3 0.0 26.9775 16.1865 0 0 0
715 3 26.9775 7.194 30.5745 0 0 0
3576 3 1.7985 16.1865 10.791 0 0 0
3901 3 0.0 17.985 0.0 0 0 0
3930 3 0.0 23.3805 16.1865 0 0 0
3609 3 3.597 17.985 7.194 0 0 0
2594 3 14.388 34.1715 30.5745 0 0 0
2067 3 16.1865 21.582 23.3805 0 0 0
3223 3 5.3955 17.985 19.7835 0 0 0
1860 3 16.1865 5.3955 14.388 0 0 0
3160 3 5.3955 12.5895 32.373 0 0 0
626 3 28.776 1.7985 23.3805 0 0 0
569 3 32.373 32.373 7.194 0 0 0
3429 3 3.597 0.0 25.179 0 0 0
2461 3 14.388 21.582 17.985 0 0 0
712 3 26.9775 8.9925 25.179 0 0 0
3043 3 5.3955 3.597 1.7985 0 0 0
2012 3 16.1865 19.7835 7.194 0 0 0
2643 3 8.9925 3.597 1.7985 0 0 0
1080 3 23.3805 5.3955 32.373 0 0 0
2649 3 10.791 3.597 7.194 0 0 0
3774 3 3.597 34.1715 12.5895 0 0 0
3863 3 0.0 10.791 3.597 0 0 0
3783 3 1.7985 32.373 19.7835 0 0 0
839 3 26.9775 17.985 34.1715 0 0 0
1440 3 19.7835 1.7985 32.373 0 0 0
3132 3 5.3955 12.5895 7.194 0 0 0
3231 3 5.3955 17.985 26.9775 0 0 0
1768 3 19.7835 34.1715 3.597 0 0 0
2287 3 12.5895 7.194 5.3955 0 0 0
2117 3 17.985 25.179 32.373 0 0 0
408 3 30.5745 19.7835 3.597 0 0 0
119 3 34.1715 17.985 34.1715 0 0 0
1726 3 21.582 30.5745 5.3955 0 0 0
154 3 34.1715 26.9775 21.582 0 0 0
93 3 34.1715 14.388 23.3805 0 0 0
3559 3 1.7985 10.791 34.1715 0 0 0
3247 3 5.3955 21.582 5.3955 0 0 0
1046 3 25.179 5.3955 5.3955 0 0 0
766 3 28.776 16.1865 5.3955 0 0 0
1646 3 21.582 23.3805 5.3955 0 0 0
265 3 32.373 3.597 21.582 0 0 0
2883 3 8.9925 25.179 1.7985 0 0 0
2683 3 8.9925 7.194 1.7985 0 0 0
1955 3 16.1865 10.791 30.5745 0 0 0
1460 3 19.7835 5.3955 14.388 0 0 0
1730 3 21.582 30.5745 8.9925 0 0 0
291 3 30.5745 7.194 8.9925 0 0 0
1187 3 23.3805 14.388 23.3805 0 0 0
1325 3 25.179 28.776 3.597 0 0 0
971 3 26.9775 32.373 8.9925 0 0 0
3295 3 5.3955 25.179 12.5895 0 0 0
1610 3 21.582 19.7835 8.9925 0 0 0
334 3 32.373 12.5895 12.5895 0 0 0
1825 3 17.985 0.0 21.582 0 0 0
86 3 34.1715 16.1865 7.194 0 0 0
3881 3 0.0 14.388 0.0 0 0 0
1660 3 19.7835 23.3805 14.388 0 0 0
151 3 34.1715 25.179 19.7835 0 0 0
562 3 32.373 34.1715 1.7985 0 0 0
828 3 26.9775 19.7835 21.582 0 0 0
292 3 30.5745 8.9925 7.194 0 0 0
1305 3 25.179 25.179 21.582 0 0 0
3866 3 0.0 12.5895 8.9925 0 0 0
2101 3 17.985 25.179 17.985 0 0 0
2738 3 10.791 12.5895 16.1865 0 0 0
2004 3 16.1865 19.7835 0.0 0 0 0
316 3 30.5745 8.9925 28.776 0 0 0
2502 3 14.388 26.9775 19.7835 0 0 0
1042 3 25.179 5.3955 1.7985 0 0 0
638 3 28.776 1.7985 34.1715 0 0 0
135 3 34.1715 21.582 26.9775 0 0 0
3693 3 3.597 25.179 10.791 0 0 0
3873 3 0.0 10.791 21.582 0 0 0
492 3 30.5745 26.9775 7.194 0 0 0
581 3 32.373 32.373 17.985 0 0 0
2592 3 12.5895 34.1715 25.179 0 0 0
3645 3 3.597 21.582 3.597 0 0 0
932 3 26.9775 30.5745 7.194 0 0 0
318 3 32.373 8.9925 34.1715 0 0 0
3374 3 7.194 34.1715 12.5895 0 0 0
3107 3 5.3955 7.194 23.3805 0 0 0
368 3 30.5745 16.1865 3.597 0 0 0
3505 3 3.597 7.194 21.582 0 0 0
2062 3 17.985 23.3805 19.7835 0 0 0
2597 3 14.388 32.373 32.373 0 0 0
2670 3 10.791 5.3955 26.9775 0 0 0
2864 3 8.9925 23.3805 17.985 0 0 0
2192 3 16.1865 34.1715 25.179 0 0 0
793 3 28.776 14.388 28.776 0 0 0
2449 3 14.388 21.582 7.194 0 0 0
2533 3 14.388 28.776 10.791 0 0 0
1828 3 16.1865 1.7985 21.582 0 0 0
252 3 30.5745 5.3955 7.194 0 0 0
819 3 26.9775 17.985 16.1865 0 0 0
87 3 34.1715 14.388 12.5895 0 0 0
152 3 34.1715 26.9775 17.985 0 0 0
2745 3 10.791 10.791 21.582 0 0 0
2168 3 16.1865 34.1715 3.597 0 0 0
1376 3 23.3805 34.1715 10.791 0 0 0
1670 3 21.582 23.3805 26.9775 0 0 0
2436 3 12.5895 19.7835 28.776 0 0 0
3520 3 1.7985 8.9925 32.373 0 0 0
2712 3 8.9925 8.9925 25.179 0 0 0
162 3 34.1715 30.5745 0.0 0 0 0
3566 3 3.597 16.1865 5.3955 0 0 0
2600 3 12.5895 34.1715 32.373 0 0 0
3971 3 0.0 28.776 17.985 0 0 0
3226 3 7.194 19.7835 23.3805 0 0 0
1502 3 21.582 8.9925 19.7835 0 0 0
1255 3 23.3805 21.582 12.5895 0 0 0
2515 3 12.5895 25.179 30.5745 0 0 0
2451 3 12.5895 21.582 8.9925 0 0 0
206 3 32.373 1.7985 5.3955 0 0 0
1630 3 21.582 19.7835 26.9775 0 0 0
3698 3 3.597 26.9775 16.1865 0 0 0
3700 3 1.7985 26.9775 14.388 0 0 0
2362 3 14.388 16.1865 1.7985 0 0 0
1012 3 23.3805 1.7985 7.194 0 0 0
3093 3 7.194 7.194 10.791 0 0 0
3101 3 7.194 7.194 17.985 0 0 0
2927 3 8.9925 28.776 5.3955 0 0 0
3281 3 7.194 25.179 0.0 0 0 0
1321 3 25.179 28.776 0.0 0 0 0
2330 3 14.388 12.5895 8.9925 0 0 0
1158 3 25.179 12.5895 34.1715 0 0 0
333 3 32.373 10.791 10.791 0 0 0
300 3 30.5745 8.9925 14.388 0 0 0
3635 3 1.7985 17.985 30.5745 0 0 0
1731 3 19.7835 28.776 8.9925 0 0 0
1991 3 16.1865 14.388 26.9775 0 0 0
1224 3 23.3805 19.7835 17.985 0 0 0
3594 3 3.597 16.1865 30.5745 0 0 0
228 3 30.5745 1.7985 21.582 0 0 0
639 3 26.9775 0.0 34.1715 0 0 0
1588 3 19.7835 16.1865 21.582 0 0 0
2606 3 10.791 1.7985 5.3955 0 0 0
2111 3 16.1865 25.179 26.9775 0 0 0
78 3 34.1715 12.5895 28.776 0 0 0
1504 3 19.7835 8.9925 17.985 0 0 0
3343 3 5.3955 28.776 19.7835 0 0 0
2928 3 8.9925 30.5745 3.597 0 0 0
33 3 34.1715 3.597 23.3805 0 0 0
2209 3 14.388 0.0 7.194 0 0 0
217 3 32.373 0.0 14.388 0 0 0
1640 3 19.7835 19.7835 32.373 0 0 0
2156 3 16.1865 30.5745 28.776 0 0 0
1809 3 17.985 0.0 7.194 0 0 0
1565 3 21.582 14.388 3.597 0 0 0
1028 3 23.3805 1.7985 21.582 0 0 0
2916 3 8.9925 26.9775 28.776 0 0 0
1718 3 21.582 26.9775 34.1715 0 0 0
2990 3 10.791 34.1715 26.9775 0 0 0
939 3 26.9775 28.776 16.1865 0 0 0
744 3 26.9775 12.5895 17.985 0 0 0
3423 3 1.7985 0.0 19.7835 0 0 0
1154 3 25.179 12.5895 30.5745 0 0 0
3126 3 7.194 12.5895 5.3955 0 0 0
1849 3 17.985 3.597 7.194 0 0 0
1949 3 17.985 10.791 25.179 0 0 0
1145 3 25.179 10.791 21.582 0 0 0
1892 3 16.1865 8.9925 7.194 0 0 0
739 3 26.9775 10.791 16.1865 0 0 0
1271 3 23.3805 21.582 26.9775 0 0 0
1199 3 23.3805 14.388 34.1715 0 0 0
2887 3 8.9925 25.179 5.3955 0 0 0
698 3 28.776 8.9925 16.1865 0 0 0
3739 3 1.7985 28.776 16.1865 0 0 0
3885 3 0.0 14.388 7.194 0 0 0
2382 3 14.388 16.1865 19.7835 0 0 0
3553 3 3.597 10.791 28.776 0 0 0
1566 3 21.582 16.1865 5.3955 0 0 0
807 3 26.9775 17.985 5.3955 0 0 0
1231 3 23.3805 17.985 26.9775 0 0 0
2002 3 17.985 19.7835 1.7985 0 0 0
1928 3 16.1865 12.5895 3.597 0 0 0
3780 3 1.7985 34.1715 14.388 0 0 0
2573 3 14.388 32.373 10.791 0 0 0
2298 3 14.388 8.9925 16.1865 0 0 0
2911 3 8.9925 25.179 26.9775 0 0 0
990 3 28.776 34.1715 26.9775 0 0 0
955 3 26.9775 28.776 30.5745 0 0 0
3255 3 5.3955 21.582 12.5895 0 0 0
435 3 30.5745 17.985 30.5745 0 0 0
2474 3 14.388 23.3805 30.5745 0 0 0
1011 3 23.3805 0.0 8.9925 0 0 0
684 3 26.9775 8.9925 0.0 0 0 0
1981 3 17.985 14.388 17.985 0 0 0
3644 3 1.7985 23.3805 0.0 0 0 0
424 3 30.5745 19.7835 17.985 0 0 0
1113 3 25.179 7.194 28.776 0 0 0
1363 3 23.3805 32.373 1.7985 0 0 0
2956 3 8.9925 30.5745 28.776 0 0 0
1982 3 17.985 16.1865 19.7835 0 0 0
398 3 32.373 16.1865 34.1715 0 0 0
2194 3 17.985 34.1715 30.5745 0 0 0
3487 3 1.7985 7.194 5.3955 0 0 0
3537 3 3.597 10.791 14.388 0 0 0
399 3 30.5745 14.388 34.1715 0 0 0
3928 3 0.0 23.3805 12.5895 0 0 0
295 3 30.5745 7.194 12.5895 0 0 0
544 3 30.5745 30.5745 17.985 0 0 0
3518 3 3.597 8.9925 34.1715 0 0 0
1985 3 17.985 14.388 21.582 0 0 0
2817 3 10.791 17.985 14.388 0 0 0
3742 3 3.597 30.5745 19.7835 0 0 0
17 3 34.1715 0.0 30.5745 0 0 0
3155 3 5.3955 10.791 30.5745 0 0 0
1298 3 25.179 26.9775 16.1865 0 0 0
1475 3 19.7835 3.597 30.5745 0 0 0
605 3 28.776 0.0 3.597 0 0 0
2694 3 10.791 8.9925 12.5895 0 0 0
1048 3 23.3805 5.3955 3.597 0 0 0
2064 3 16.1865 23.3805 17.985 0 0 0
2143 3 16.1865 28.776 19.7835 0 0 0
3726 3 3.597 30.5745 5.3955 0 0 0
117 3 34.1715 17.985 30.5745 0 0 0
3583 3 1.7985 14.388 19.7835 0 0 0
431 3 30.5745 17.985 26.9775 0 0 0
871 3 26.9775 21.582 26.9775 0 0 0
373 3 32.373 14.388 10.791 0 0 0
2334 3 14.388 12.5895 12.5895 0 0 0
1196 3 23.3805 16.1865 28.776 0 0 0
2188 3 16.1865 34.1715 21.582 0 0 0
659 3 26.9775 3.597 16.1865 0 0 0
670 3 28.776 5.3955 26.9775 0 0 0
737 3 28.776 10.791 14.388 0 0 0
3437 3 3.597 0.0 32.373 0 0 0
2936 3 8.9925 30.5745 10.791 0 0 0
3733 3 3.597 28.776 10.791 0 0 0
1236 3 23.3805 19.7835 28.776 0 0 0
2400 3 12.5895 16.1865 32.373 0 0 0
234 3 32.373 1.7985 30.5745 0 0 0
74 3 34.1715 12.5895 21.582 0 0 0
1355 3 23.3805 28.776 30.5745 0 0 0
2973 3 10.791 32.373 10.791 0 0 0
2333 3 14.388 10.791 10.791 0 0 0
159 3 34.1715 25.179 34.1715 0 0 0
758 3 28.776 12.5895 34.1715 0 0 0
1871 3 16.1865 3.597 26.9775 0 0 0
2138 3 17.985 30.5745 16.1865 0 0 0
809 3 28.776 17.985 7.194 0 0 0
2981 3 10.791 32.373 17.985 0 0 0
3480 3 1.7985 5.3955 32.373 0 0 0
3501 3 3.597 7.194 17.985 0 0 0
2203 3 12.5895 0.0 1.7985 0 0 0
2292 3 12.5895 8.9925 7.194 0 0 0
3991 3 0.0 32.373 17.985 0 0 0
2513 3 14.388 25.179 28.776 0 0 0
3182 3 7.194 16.1865 19.7835 0 0 0
2393 3 14.388 14.388 28.776 0 0 0
3246 3 7.194 23.3805 5.3955 0 0 0
2886 3 10.791 26.9775 5.3955 0 0 0
1038 3 25.179 1.7985 34.1715 0 0 0
1016 3 23.3805 1.7985 10.791 0 0 0
3087 3 5.3955 7.194 5.3955 0 0 0
1880 3 16.1865 5.3955 32.373 0 0 0
1771 3 19.7835 32.373 8.9925 0 0 0
3128 3 5.3955 12.5895 3.597 0 0 0
1100 3 23.3805 8.9925 14.388 0 0 0
1995 3 16.1865 14.388 30.5745 0 0 0
692 3 26.9775 8.9925 7.194 0 0 0
3294 3 7.194 26.9775 12.5895 0 0 0
256 3 30.5745 5.3955 10.791 0 0 0
702 3 28.776 8.9925 19.7835 0 0 0
2277 3 14.388 3.597 32.373 0 0 0
1258 3 25.179 23.3805 16.1865 0 0 0
1764 3 19.7835 34.1715 0.0 0 0 0
3921 3 0.0 21.582 0.0 0 0 0
1877 3 17.985 3.597 32.373 0 0 0
3714 3 3.597 26.9775 30.5745 0 0 0
2566 3 14.388 34.1715 5.3955 0 0 0
575 3 30.5745 32.373 12.5895 0 0 0
2392 3 12.5895 16.1865 25.179 0 0 0
1683 3 19.7835 25.179 1.7985 0 0 0
3161 3 7.194 14.388 0.0 0 0 0
3149 3 7.194 10.791 25.179 0 0 0
3039 3 5.3955 0.0 34.1715 0 0 0
3397 3 7.194 32.373 32.373 0 0 0
1137 3 25.179 10.791 14.388 0 0 0
2501 3 14.388 25.179 17.985 0 0 0
1728 3 19.7835 30.5745 3.597 0 0 0
2460 3 12.5895 23.3805 14.388 0 0 0
1668 3 19.7835 23.3805 21.582 0 0 0
1865 3 17.985 3.597 21.582 0 0 0
101 3 34.1715 17.985 1.7985 0 0 0
1347 3 23.3805 28.776 23.3805 0 0 0
396 3 30.5745 16.1865 28.776 0 0 0
1576 3 19.7835 16.1865 10.791 0 0 0
3308 3 5.3955 26.9775 21.582 0 0 0
3865 3 0.0 10.791 7.194 0 0 0
1525 3 21.582 10.791 3.597 0 0 0
1050 3 25.179 5.3955 8.9925 0 0 0
8 3 34.1715 1.7985 10.791 0 0 0
3415 3 1.7985 0.0 12.5895 0 0 0
1782 3 21.582 34.1715 19.7835 0 0 0
3145 3 7.194 10.791 21.582 0 0 0
1428 3 19.7835 1.7985 21.582 0 0 0
1942 3 17.985 12.5895 19.7835 0 0 0
3912 3 0.0 19.7835 19.7835 0 0 0
2880 3 8.9925 23.3805 32.373 0 0 0
3905 3 0.0 17.985 7.194 0 0 0
2932 3 8.9925 30.5745 7.194 0 0 0
1944 3 16.1865 12.5895 17.985 0 0 0
3887 3 0.0 14.388 10.791 0 0 0
1084 3 23.3805 8.9925 0.0 0 0 0
2959 3 8.9925 28.776 34.1715 0 0 0
1353 3 25.179 28.776 28.776 0 0 0
2560 3 12.5895 30.5745 32.373 0 0 0
1129 3 25.179 10.791 7.194 0 0 0
122 3 34.1715 23.3805 0.0 0 0 0
2417 3 14.388 17.985 14.388 0 0 0
3536 3 1.7985 12.5895 10.791 0 0 0
2299 3 12.5895 7.194 16.1865 0 0 0
2491 3 12.5895 25.179 8.9925 0 0 0
3985 3 0.0 32.373 7.194 0 0 0
1367 3 23.3805 32.373 5.3955 0 0 0
1739 3 19.7835 28.776 16.1865 0 0 0
2774 3 10.791 16.1865 12.5895 0 0 0
3178 3 7.194 16.1865 16.1865 0 0 0
1071 3 23.3805 3.597 26.9775 0 0 0
2314 3 14.388 8.9925 30.5745 0 0 0
204 3 30.5745 1.7985 0.0 0 0 0
2721 3 10.791 10.791 0.0 0 0 0
1059 3 23.3805 3.597 16.1865 0 0 0
2324 3 12.5895 12.5895 0.0 0 0 0
205 3 32.373 0.0 3.597 0 0 0
1552 3 19.7835 12.5895 25.179 0 0 0
876 3 26.9775 23.3805 28.776 0 0 0
2045 3 17.985 21.582 3.597 0 0 0
1500 3 19.7835 8.9925 14.388 0 0 0
641 3 28.776 3.597 0.0 0 0 0
884 3 26.9775 26.9775 0.0 0 0 0
3982 3 0.0 34.1715 1.7985 0 0 0
3526 3 3.597 12.5895 5.3955 0 0 0
1276 3 23.3805 23.3805 28.776 0 0 0
3543 3 1.7985 10.791 19.7835 0 0 0
3336 3 5.3955 30.5745 10.791 0 0 0
3239 3 5.3955 17.985 34.1715 0 0 0
3410 3 3.597 1.7985 8.9925 0 0 0
1417 3 21.582 0.0 14.388 0 0 0
2370 3 14.388 16.1865 8.9925 0 0 0
3811 3 0.0 0.0 17.985 0 0 0
339 3 30.5745 10.791 16.1865 0 0 0
987 3 26.9775 32.373 23.3805 0 0 0
3953 3 0.0 25.179 21.582 0 0 0
981 3 28.776 32.373 17.985 0 0 0
1492 3 19.7835 8.9925 7.194 0 0 0
3162 3 7.194 16.1865 1.7985 0 0 0
1301 3 25.179 25.179 17.985 0 0 0
248 3 30.5745 5.3955 3.597 0 0 0
806 3 28.776 19.7835 5.3955 0 0 0
2214 3 14.388 1.7985 12.5895 0 0 0
2036 3 16.1865 19.7835 28.776 0 0 0
1127 3 23.3805 10.791 5.3955 0 0 0
3142 3 7.194 12.5895 19.7835 0 0 0
668 3 26.9775 5.3955 21.582 0 0 0
2255 3 12.5895 3.597 12.5895 0 0 0
657 3 28.776 3.597 14.388 0 0 0
2577 3 14.388 32.373 14.388 0 0 0
445 3 32.373 21.582 3.597 0 0 0
195 3 34.1715 32.373 26.9775 0 0 0
1237 3 25.179 17.985 32.373 0 0 0
3578 3 3.597 16.1865 16.1865 0 0 0
2690 3 10.791 8.9925 8.9925 0 0 0
3012 3 5.3955 1.7985 7.194 0 0 0
2145 3 17.985 28.776 21.582 0 0 0
260 3 30.5745 5.3955 14.388 0 0 0
44 3 34.1715 8.9925 3.597 0 0 0
2629 3 10.791 0.0 25.179 0 0 0
1855 3 16.1865 3.597 12.5895 0 0 0
2642 3 10.791 5.3955 1.7985 0 0 0
2896 3 8.9925 26.9775 10.791 0 0 0
1280 3 23.3805 23.3805 32.373 0 0 0
3641 3 3.597 21.582 0.0 0 0 0
3404 3 1.7985 1.7985 0.0 0 0 0
2338 3 14.388 12.5895 16.1865 0 0 0
1820 3 16.1865 1.7985 14.388 0 0 0
3476 3 1.7985 5.3955 28.776 0 0 0
3662 3 3.597 23.3805 19.7835 0 0 0
1282 3 25.179 26.9775 1.7985 0 0 0
168 3 34.1715 30.5745 10.791 0 0 0
805 3 28.776 17.985 3.597 0 0 0
1796 3 19.7835 34.1715 28.776 0 0 0
1873 3 17.985 3.597 28.776 0 0 0
238 3 32.373 1.7985 34.1715 0 0 0
1902 3 17.985 8.9925 19.7835 0 0 0
118 3 34.1715 19.7835 28.776 0 0 0
1002 3 25.179 1.7985 1.7985 0 0 0
2739 3 8.9925 10.791 16.1865 0 0 0
2426 3 14.388 19.7835 23.3805 0 0 0
3290 3 7.194 26.9775 8.9925 0 0 0
2747 3 8.9925 10.791 23.3805 0 0 0
3421 3 3.597 0.0 17.985 0 0 0
1414 3 21.582 1.7985 12.5895 0 0 0
1677 3 21.582 21.582 32.373 0 0 0
187 3 34.1715 32.373 12.5895 0 0 0
2469 3 14.388 21.582 25.179 0 0 0
3411 3 1.7985 0.0 8.9925 0 0 0
281 3 32.373 7.194 0.0 0 0 0
750 3 28.776 12.5895 26.9775 0 0 0
1783 3 19.7835 32.373 19.7835 0 0 0
448 3 30.5745 23.3805 3.597 0 0 0
3575 3 1.7985 14.388 12.5895 0 0 0
878 3 28.776 23.3805 34.1715 0 0 0
319 3 30.5745 7.194 34.1715 0 0 0
1833 3 17.985 0.0 28.776 0 0 0
213 3 32.373 0.0 10.791 0 0 0
3852 3 0.0 8.9925 19.7835 0 0 0
2783 3 8.9925 14.388 19.7835 0 0 0
2453 3 14.388 21.582 10.791 0 0 0
2754 3 10.791 12.5895 30.5745 0 0 0
308 3 30.5745 8.9925 21.582 0 0 0
80 3 34.1715 12.5895 32.373 0 0 0
2090 3 17.985 26.9775 8.9925 0 0 0
2857 3 10.791 21.582 14.388 0 0 0
1665 3 21.582 21.582 21.582 0 0 0
150 3 34.1715 26.9775 14.388 0 0 0
3807 3 0.0 0.0 10.791 0 0 0
1996 3 16.1865 16.1865 28.776 0 0 0
3619 3 1.7985 17.985 16.1865 0 0 0
3245 3 7.194 21.582 3.597 0 0 0
1896 3 16.1865 8.9925 10.791 0 0 0
555 3 30.5745 28.776 30.5745 0 0 0
774 3 28.776 16.1865 12.5895 0 0 0
3747 3 1.7985 28.776 23.3805 0 0 0
344 3 30.5745 12.5895 17.985 0 0 0
3897 3 0.0 14.388 28.776 0 0 0
194 3 34.1715 34.1715 21.582 0 0 0
1974 3 17.985 16.1865 12.5895 0 0 0
591 3 30.5745 32.373 26.9775 0 0 0
2999 3 8.9925 32.373 34.1715 0 0 0
2879 3 8.9925 21.582 34.1715 0 0 0
2844 3 8.9925 23.3805 0.0 0 0 0
485 3 32.373 25.179 3.597 0 0 0
1291 3 23.3805 25.179 8.9925 0 0 0
1659 3 19.7835 21.582 16.1865 0 0 0
2843 3 8.9925 21.582 1.7985 0 0 0
1390 3 25.179 34.1715 26.9775 0 0 0
1396 3 23.3805 34.1715 28.776 0 0 0
3755 3 1.7985 28.776 30.5745 0 0 0
921 3 28.776 28.776 0.0 0 0 0
298 3 32.373 8.9925 16.1865 0 0 0
886 3 28.776 26.9775 5.3955 0 0 0
2688 3 8.9925 8.9925 3.597 0 0 0
3372 3 5.3955 34.1715 7.194 0 0 0
2342 3 14.388 12.5895 19.7835 0 0 0
3743 3 1.7985 28.776 19.7835 0 0 0
3717 3 3.597 25.179 32.373 0 0 0
1858 3 17.985 5.3955 16.1865 0 0 0
933 3 28.776 28.776 10.791 0 0 0
1888 3 16.1865 8.9925 3.597 0 0 0
41 3 34.1715 7.194 1.7985 0 0 0
3664 3 1.7985 23.3805 17.985 0 0 0
3402 3 3.597 1.7985 1.7985 0 0 0
1876 3 16.1865 5.3955 28.776 0 0 0
1840 3 16.1865 1.7985 32.373 0 0 0
717 3 28.776 7.194 32.373 0 0 0
2310 3 14.388 8.9925 26.9775 0 0 0
257 3 32.373 3.597 14.388 0 0 0
2967 3 8.9925 32.373 5.3955 0 0 0
1947 3 16.1865 10.791 23.3805 0 0 0
3264 3 5.3955 23.3805 17.985 0 0 0
936 3 26.9775 30.5745 10.791 0 0 0
2226 3 14.388 1.7985 23.3805 0 0 0
289 3 32.373 7.194 7.194 0 0 0
779 3 26.9775 14.388 16.1865 0 0 0
3013 3 7.194 0.0 10.791 0 0 0
180 3 34.1715 30.5745 32.373 0 0 0
2821 3 10.791 17.985 17.985 0 0 0
1476 3 19.7835 5.3955 28.776 0 0 0
2772 3 8.9925 16.1865 7.194 0 0 0
3385 3 7.194 32.373 21.582 0 0 0
3213 3 7.194 17.985 10.791 0 0 0
3993 3 0.0 32.373 21.582 0 0 0
873 3 28.776 21.582 28.776 0 0 0
132 3 34.1715 23.3805 17.985 0 0 0
83 3 34.1715 14.388 5.3955 0 0 0
231 3 30.5745 0.0 26.9775 0 0 0
3257 3 7.194 21.582 14.388 0 0 0
515 3 30.5745 25.179 30.5745 0 0 0
3228 3 5.3955 19.7835 21.582 0 0 0
1884 3 16.1865 8.9925 0.0 0 0 0
518 3 32.373 26.9775 34.1715 0 0 0
3109 3 7.194 7.194 25.179 0 0 0
1261 3 25.179 21.582 17.985 0 0 0
366 3 32.373 16.1865 5.3955 0 0 0
230 3 32.373 1.7985 26.9775 0 0 0
3959 3 0.0 25.179 32.373 0 0 0
2252 3 12.5895 5.3955 7.194 0 0 0
286 3 32.373 8.9925 5.3955 0 0 0
327 3 30.5745 10.791 5.3955 0 0 0
2401 3 14.388 17.985 0.0 0 0 0
1391 3 23.3805 32.373 26.9775 0 0 0
2321 3 14.388 10.791 0.0 0 0 0
2691 3 8.9925 7.194 8.9925 0 0 0
3311 3 5.3955 25.179 26.9775 0 0 0
3627 3 1.7985 17.985 23.3805 0 0 0
284 3 30.5745 8.9925 0.0 0 0 0
2266 3 14.388 5.3955 23.3805 0 0 0
1684 3 19.7835 26.9775 0.0 0 0 0
3556 3 1.7985 12.5895 28.776 0 0 0
3315 3 5.3955 25.179 30.5745 0 0 0
1335 3 23.3805 28.776 12.5895 0 0 0
3417 3 3.597 0.0 14.388 0 0 0
1806 3 17.985 1.7985 5.3955 0 0 0
1803 3 16.1865 0.0 1.7985 0 0 0
1099 3 23.3805 7.194 16.1865 0 0 0
1174 3 25.179 16.1865 12.5895 0 0 0
1103 3 23.3805 7.194 19.7835 0 0 0
285 3 32.373 7.194 3.597 0 0 0
2339 3 12.5895 10.791 16.1865 0 0 0
777 3 28.776 14.388 14.388 0 0 0
2637 3 10.791 0.0 32.373 0 0 0
293 3 32.373 7.194 10.791 0 0 0
708 3 26.9775 8.9925 21.582 0 0 0
2850 3 10.791 23.3805 8.9925 0 0 0
141 3 34.1715 25.179 1.7985 0 0 0
55 3 34.1715 7.194 26.9775 0 0 0
307 3 30.5745 7.194 23.3805 0 0 0
743 3 26.9775 10.791 19.7835 0 0 0
1143 3 23.3805 10.791 19.7835 0 0 0
1770 3 21.582 34.1715 8.9925 0 0 0
1482 3 21.582 8.9925 1.7985 0 0 0
687 3 26.9775 7.194 5.3955 0 0 0
105 3 34.1715 17.985 8.9925 0 0 0
841 3 28.776 21.582 0.0 0 0 0
1886 3 17.985 8.9925 5.3955 0 0 0
1393 3 25.179 32.373 28.776 0 0 0
16 3 34.1715 1.7985 25.179 0 0 0
481 3 32.373 25.179 0.0 0 0 0
927 3 26.9775 28.776 5.3955 0 0 0
1761 3 21.582 32.373 0.0 0 0 0
1581 3 21.582 14.388 17.985 0 0 0
1598 3 21.582 16.1865 34.1715 0 0 0
748 3 26.9775 12.5895 21.582 0 0 0
2676 3 8.9925 5.3955 28.776 0 0 0
107 3 34.1715 17.985 12.5895 0 0 0
3003 3 5.3955 0.0 1.7985 0 0 0
3875 3 0.0 10.791 25.179 0 0 0
2585 3 14.388 32.373 21.582 0 0 0
2904 3 8.9925 26.9775 17.985 0 0 0
3744 3 1.7985 30.5745 17.985 0 0 0
3799 3 1.7985 32.373 34.1715 0 0 0
2730 3 10.791 12.5895 8.9925 0 0 0
2155 3 16.1865 28.776 30.5745 0 0 0
589 3 32.373 32.373 25.179 0 0 0
2749 3 10.791 10.791 25.179 0 0 0
2625 3 10.791 0.0 21.582 0 0 0
3082 3 7.194 8.9925 1.7985 0 0 0
1994 3 17.985 16.1865 30.5745 0 0 0
1133 3 25.179 10.791 10.791 0 0 0
1666 3 21.582 23.3805 23.3805 0 0 0
2068 3 16.1865 23.3805 21.582 0 0 0
1784 3 19.7835 34.1715 17.985 0 0 0
312 3 30.5745 8.9925 25.179 0 0 0
317 3 32.373 7.194 32.373 0 0 0
1443 3 19.7835 3.597 1.7985 0 0 0
1039 3 23.3805 0.0 34.1715 0 0 0
2604 3 8.9925 1.7985 0.0 0 0 0
63 3 34.1715 10.791 5.3955 0 0 0
2525 3 14.388 28.776 3.597 0 0 0
535 3 30.5745 28.776 12.5895 0 0 0
1692 3 19.7835 26.9775 7.194 0 0 0
2402 3 14.388 19.7835 1.7985 0 0 0
3995 3 0.0 32.373 25.179 0 0 0
1372 3 23.3805 34.1715 7.194 0 0 0
3293 3 7.194 25.179 10.791 0 0 0
3134 3 7.194 12.5895 12.5895 0 0 0
2110 3 17.985 26.9775 26.9775 0 0 0
672 3 26.9775 5.3955 25.179 0 0 0
3367 3 5.3955 32.373 5.3955 0 0 0
2834 3 10.791 19.7835 30.5745 0 0 0
3323 3 5.3955 28.776 1.7985 0 0 0
1230 3 25.179 19.7835 26.9775 0 0 0
1777 3 21.582 32.373 14.388 0 0 0
1400 3 23.3805 34.1715 32.373 0 0 0
541 3 32.373 28.776 17.985 0 0 0
1746 3 21.582 30.5745 23.3805 0 0 0
1053 3 25.179 3.597 10.791 0 0 0
2893 3 10.791 25.179 10.791 0 0 0
3263 3 5.3955 21.582 19.7835 0 0 0
3318 3 7.194 26.9775 34.1715 0 0 0
1004 3 23.3805 1.7985 0.0 0 0 0
1952 3 16.1865 12.5895 25.179 0 0 0
1209 3 25.179 17.985 7.194 0 0 0
2733 3 10.791 10.791 10.791 0 0 0
2367 3 12.5895 14.388 5.3955 0 0 0
349 3 32.373 10.791 25.179 0 0 0
2249 3 14.388 3.597 7.194 0 0 0
1558 3 21.582 12.5895 34.1715 0 0 0
2863 3 8.9925 21.582 19.7835 0 0 0
952 3 26.9775 30.5745 25.179 0 0 0
164 3 34.1715 30.5745 3.597 0 0 0
2178 3 17.985 34.1715 16.1865 0 0 0
1554 3 21.582 12.5895 30.5745 0 0 0
172 3 34.1715 30.5745 17.985 0 0 0
3447 3 1.7985 3.597 5.3955 0 0 0
3021 3 7.194 0.0 17.985 0 0 0
2874 3 10.791 23.3805 30.5745 0 0 0
3190 3 7.194 16.1865 26.9775 0 0 0
3859 3 0.0 7.194 32.373 0 0 0
1205 3 25.179 17.985 3.597 0 0 0
3586 3 3.597 16.1865 23.3805 0 0 0
529 3 32.373 28.776 7.194 0 0 0
3680 3 1.7985 23.3805 32.373 0 0 0
420 3 30.5745 19.7835 14.388 0 0 0
1987 3 16.1865 14.388 23.3805 0 0 0
964 3 26.9775 34.1715 0.0 0 0 0
3548 3 1.7985 12.5895 21.582 0 0 0
3268 3 5.3955 23.3805 21.582 0 0 0
2657 3 10.791 3.597 14.388 0 0 0
1506 3 21.582 8.9925 23.3805 0 0 0
2645 3 10.791 3.597 3.597 0 0 0
2124 3 16.1865 30.5745 0.0 0 0 0
2289 3 14.388 7.194 7.194 0 0 0
1988 3 16.1865 16.1865 21.582 0 0 0
2136 3 16.1865 30.5745 10.791 0 0 0
2133 3 17.985 28.776 10.791 0 0 0
1634 3 21.582 19.7835 30.5745 0 0 0
3967 3 0.0 28.776 10.791 0 0 0
1628 3 19.7835 19.7835 21.582 0 0 0
1627 3 19.7835 17.985 23.3805 0 0 0
2098 3 17.985 26.9775 16.1865 0 0 0
984 3 26.9775 34.1715 17.985 0 0 0
3235 3 5.3955 17.985 30.5745 0 0 0
429 3 32.373 17.985 25.179 0 0 0
1442 3 21.582 5.3955 1.7985 0 0 0
1551 3 19.7835 10.791 26.9775 0 0 0
2237 3 14.388 0.0 32.373 0 0 0
1868 3 16.1865 5.3955 21.582 0 0 0
1680 3 19.7835 23.3805 32.373 0 0 0
3358 3 7.194 30.5745 34.1715 0 0 0
1410 3 21.582 1.7985 8.9925 0 0 0
907 3 26.9775 25.179 23.3805 0 0 0
1891 3 16.1865 7.194 8.9925 0 0 0
2396 3 12.5895 16.1865 28.776 0 0 0
1320 3 23.3805 26.9775 32.373 0 0 0
3542 3 3.597 12.5895 19.7835 0 0 0
1611 3 19.7835 17.985 8.9925 0 0 0
1302 3 25.179 26.9775 19.7835 0 0 0
1625 3 21.582 17.985 21.582 0 0 0
896 3 26.9775 26.9775 10.791 0 0 0
1283 3 23.3805 25.179 1.7985 0 0 0
2587 3 12.5895 32.373 23.3805 0 0 0
3121 3 7.194 10.791 0.0 0 0 0
2707 3 8.9925 7.194 23.3805 0 0 0
3775 3 1.7985 32.373 12.5895 0 0 0
1508 3 19.7835 8.9925 21.582 0 0 0
2813 3 10.791 17.985 10.791 0 0 0
2029 3 17.985 17.985 25.179 0 0 0
3785 3 3.597 32.373 21.582 0 0 0
1348 3 23.3805 30.5745 21.582 0 0 0
3969 3 0.0 28.776 14.388 0 0 0
1074 3 25.179 5.3955 30.5745 0 0 0
2171 3 16.1865 32.373 8.9925 0 0 0
1747 3 19.7835 28.776 23.3805 0 0 0
1368 3 23.3805 34.1715 3.597 0 0 0
3947 3 0.0 25.179 10.791 0 0 0
449 3 32.373 21.582 7.194 0 0 0
1007 3 23.3805 0.0 5.3955 0 0 0
2982 3 10.791 34.1715 19.7835 0 0 0
3147 3 5.3955 10.791 23.3805 0 0 0
585 3 32.373 32.373 21.582 0 0 0
451 3 30.5745 21.582 8.9925 0 0 0
2779 3 8.9925 14.388 16.1865 0 0 0
2229 3 14.388 0.0 25.179 0 0 0
3317 3 7.194 25.179 32.373 0 0 0
1818 3 17.985 1.7985 16.1865 0 0 0
133 3 34.1715 21.582 23.3805 0 0 0
436 3 30.5745 19.7835 28.776 0 0 0
3022 3 7.194 1.7985 19.7835 0 0 0
3834 3 0.0 5.3955 23.3805 0 0 0
2250 3 14.388 5.3955 8.9925 0 0 0
3715 3 1.7985 25.179 30.5745 0 0 0
1513 3 21.582 7.194 28.776 0 0 0
663 3 26.9775 3.597 19.7835 0 0 0
2644 3 8.9925 5.3955 0.0 0 0 0
1061 3 25.179 3.597 17.985 0 0 0
2024 3 16.1865 19.7835 17.985 0 0 0
2766 3 10.791 16.1865 5.3955 0 0 0
1212 3 23.3805 19.7835 7.194 0 0 0
2869 3 10.791 21.582 25.179 0 0 0
1234 3 25.179 19.7835 30.5745 0 0 0
71 3 34.1715 10.791 19.7835 0 0 0
1503 3 19.7835 7.194 19.7835 0 0 0
3456 3 1.7985 5.3955 10.791 0 0 0
727 3 26.9775 10.791 5.3955 0 0 0
892 3 26.9775 26.9775 7.194 0 0 0
2232 3 12.5895 1.7985 25.179 0 0 0
3963 3 0.0 28.776 3.597 0 0 0
1549 3 21.582 10.791 25.179 0 0 0
453 3 32.373 21.582 10.791 0 0 0
3792 3 1.7985 34.1715 25.179 0 0 0
2175 3 16.1865 32.373 12.5895 0 0 0
3968 3 0.0 30.5745 12.5895 0 0 0
593 3 32.373 32.373 28.776 0 0 0
2425 3 14.388 17.985 21.582 0 0 0
2799 3 8.9925 14.388 34.1715 0 0 0
183 3 34.1715 32.373 5.3955 0 0 0
2963 3 8.9925 32.373 1.7985 0 0 0
407 3 30.5745 17.985 5.3955 0 0 0
2827 3 8.9925 17.985 23.3805 0 0 0
3992 3 0.0 34.1715 19.7835 0 0 0
3902 3 0.0 19.7835 1.7985 0 0 0
1350 3 25.179 30.5745 26.9775 0 0 0
534 3 32.373 30.5745 12.5895 0 0 0
169 3 34.1715 28.776 16.1865 0 0 0
324 3 30.5745 12.5895 0.0 0 0 0
1193 3 25.179 14.388 28.776 0 0 0
1694 3 21.582 26.9775 12.5895 0 0 0
1910 3 17.985 8.9925 26.9775 0 0 0
1462 3 21.582 5.3955 19.7835 0 0 0
1235 3 23.3805 17.985 30.5745 0 0 0
2806 3 10.791 19.7835 5.3955 0 0 0
3738 3 3.597 30.5745 16.1865 0 0 0
3422 3 3.597 1.7985 19.7835 0 0 0
378 3 32.373 16.1865 16.1865 0 0 0
1163 3 23.3805 14.388 1.7985 0 0 0
2484 3 12.5895 26.9775 0.0 0 0 0
969 3 28.776 32.373 7.194 0 0 0
463 3 30.5745 21.582 19.7835 0 0 0
2881 3 10.791 25.179 0.0 0 0 0
3828 3 0.0 5.3955 12.5895 0 0 0
39 3 34.1715 3.597 34.1715 0 0 0
2459 3 12.5895 21.582 16.1865 0 0 0
522 3 32.373 30.5745 1.7985 0 0 0
1454 3 21.582 5.3955 12.5895 0 0 0
1946 3 17.985 12.5895 23.3805 0 0 0
3770 3 3.597 34.1715 8.9925 0 0 0
785 3 28.776 14.388 21.582 0 0 0
2081 3 17.985 25.179 0.0 0 0 0
2218 3 14.388 1.7985 16.1865 0 0 0
3136 3 5.3955 12.5895 10.791 0 0 0
868 3 26.9775 23.3805 21.582 0 0 0
780 3 26.9775 16.1865 14.388 0 0 0
3793 3 3.597 32.373 28.776 0 0 0
3894 3 0.0 16.1865 23.3805 0 0 0
2978 3 10.791 34.1715 16.1865 0 0 0
3167 3 5.3955 14.388 5.3955 0 0 0
3369 3 7.194 32.373 7.194 0 0 0
3923 3 0.0 21.582 3.597 0 0 0
3602 3 3.597 19.7835 1.7985 0 0 0
3516 3 1.7985 8.9925 28.776 0 0 0
2154 3 17.985 30.5745 30.5745 0 0 0
902 3 28.776 26.9775 19.7835 0 0 0
1837 3 17.985 0.0 32.373 0 0 0
2351 3 12.5895 10.791 26.9775 0 0 0
3221 3 7.194 17.985 17.985 0 0 0
3851 3 0.0 7.194 17.985 0 0 0
3577 3 3.597 14.388 14.388 0 0 0
1289 3 25.179 25.179 7.194 0 0 0
658 3 28.776 5.3955 16.1865 0 0 0
912 3 26.9775 26.9775 25.179 0 0 0
1936 3 16.1865 12.5895 10.791 0 0 0
3809 3 0.0 0.0 14.388 0 0 0
1605 3 21.582 17.985 3.597 0 0 0
3322 3 7.194 30.5745 1.7985 0 0 0
552 3 30.5745 30.5745 25.179 0 0 0
3448 3 1.7985 5.3955 3.597 0 0 0
1920 3 16.1865 8.9925 32.373 0 0 0
437 3 32.373 17.985 32.373 0 0 0
2253 3 14.388 3.597 10.791 0 0 0
26 3 34.1715 5.3955 7.194 0 0 0
1813 3 17.985 0.0 10.791 0 0 0
982 3 28.776 34.1715 19.7835 0 0 0
350 3 32.373 12.5895 26.9775 0 0 0
1327 3 23.3805 28.776 5.3955 0 0 0
713 3 28.776 7.194 28.776 0 0 0
1128 3 23.3805 12.5895 3.597 0 0 0
1481 3 21.582 7.194 0.0 0 0 0
377 3 32.373 14.388 14.388 0 0 0
2724 3 8.9925 12.5895 0.0 0 0 0
2105 3 17.985 25.179 21.582 0 0 0
149 3 34.1715 25.179 16.1865 0 0 0
721 3 28.776 10.791 0.0 0 0 0
3108 3 5.3955 8.9925 21.582 0 0 0
656 3 26.9775 5.3955 10.791 0 0 0
2075 3 16.1865 21.582 30.5745 0 0 0
1370 3 25.179 34.1715 8.9925 0 0 0
468 3 30.5745 23.3805 21.582 0 0 0
942 3 28.776 30.5745 19.7835 0 0 0
2031 3 16.1865 17.985 26.9775 0 0 0
673 3 28.776 3.597 28.776 0 0 0
1797 3 21.582 32.373 32.373 0 0 0
2550 3 14.388 30.5745 26.9775 0 0 0
97 3 34.1715 14.388 30.5745 0 0 0
1875 3 16.1865 3.597 30.5745 0 0 0
1015 3 23.3805 0.0 12.5895 0 0 0
3867 3 0.0 10.791 10.791 0 0 0
212 3 30.5745 1.7985 7.194 0 0 0
3212 3 5.3955 19.7835 7.194 0 0 0
1208 3 23.3805 19.7835 3.597 0 0 0
2971 3 8.9925 32.373 8.9925 0 0 0
882 3 28.776 26.9775 1.7985 0 0 0
1024 3 23.3805 1.7985 17.985 0 0 0
3130 3 7.194 12.5895 8.9925 0 0 0
2661 3 10.791 3.597 17.985 0 0 0
910 3 28.776 26.9775 26.9775 0 0 0
1178 3 25.179 16.1865 16.1865 0 0 0
3337 3 7.194 28.776 14.388 0 0 0
1086 3 25.179 8.9925 5.3955 0 0 0
3356 3 5.3955 30.5745 28.776 0 0 0
1675 3 19.7835 21.582 30.5745 0 0 0
1701 3 21.582 25.179 17.985 0 0 0
1144 3 23.3805 12.5895 17.985 0 0 0
3244 3 5.3955 23.3805 0.0 0 0 0
458 3 32.373 23.3805 16.1865 0 0 0
2632 3 8.9925 1.7985 25.179 0 0 0
2290 3 14.388 8.9925 8.9925 0 0 0
3064 3 5.3955 5.3955 17.985 0 0 0
167 3 34.1715 28.776 12.5895 0 0 0
654 3 28.776 5.3955 12.5895 0 0 0
304 3 30.5745 8.9925 17.985 0 0 0
2281 3 14.388 7.194 0.0 0 0 0
1906 3 17.985 8.9925 23.3805 0 0 0
27 3 34.1715 3.597 12.5895 0 0 0
1077 3 25.179 3.597 32.373 0 0 0
2428 3 12.5895 19.7835 21.582 0 0 0
3528 3 1.7985 12.5895 3.597 0 0 0
2627 3 8.9925 0.0 23.3805 0 0 0
1457 4 21.582 3.597 14.388 0 0 0
2142 4 17.985 30.5745 19.7835 0 0 0
2957 4 10.791 28.776 32.373 0 0 0
597 4 32.373 32.373 32.373 0 0 0
1725 4 21.582 28.776 3.597 0 0 0
857 4 28.776 21.582 14.388 0 0 0
1950 4 17.985 12.5895 26.9775 0 0 0
3063 4 5.3955 3.597 19.7835 0 0 0
216 4 30.5745 1.7985 10.791 0 0 0
2666 4 10.791 5.3955 23.3805 0 0 0
3467 4 1.7985 3.597 23.3805 0 0 0
428 4 30.5745 19.7835 21.582 0 0 0
3673 4 3.597 21.582 28.776 0 0 0
3199 4 5.3955 14.388 34.1715 0 0 0
188 4 34.1715 34.1715 10.791 0 0 0
1529 4 21.582 10.791 7.194 0 0 0
2933 4 10.791 28.776 10.791 0 0 0
2710 4 10.791 8.9925 26.9775 0 0 0
3936 4 0.0 23.3805 26.9775 0 0 0
3029 4 7.194 0.0 25.179 0 0 0
3904 4 0.0 19.7835 5.3955 0 0 0
2008 4 16.1865 19.7835 3.597 0 0 0
3605 4 3.597 17.985 3.597 0 0 0
2455 4 12.5895 21.582 12.5895 0 0 0
3123 4 5.3955 10.791 1.7985 0 0 0
2198 4 17.985 34.1715 34.1715 0 0 0
1592 4 19.7835 16.1865 25.179 0 0 0
1699 4 19.7835 25.179 16.1865 0 0 0
3796 4 1.7985 34.1715 28.776 0 0 0
136 4 34.1715 23.3805 25.179 0 0 0
18 4 34.1715 1.7985 28.776 0 0 0
2385 4 14.388 14.388 21.582 0 0 0
342 4 32.373 12.5895 19.7835 0 0 0
3840 4 0.0 5.3955 34.1715 0 0 0
2736 4 8.9925 12.5895 10.791 0 0 0
3890 4 0.0 16.1865 16.1865 0 0 0
3692 4 1.7985 26.9775 7.194 0 0 0
3393 4 7.194 32.373 28.776 0 0 0
1575 4 19.7835 14.388 12.5895 0 0 0
2674 4 10.791 5.3955 30.5745 0 0 0
2041 4 17.985 21.582 0.0 0 0 0
3133 4 7.194 10.791 10.791 0 0 0
1921 4 17.985 10.791 0.0 0 0 0
3354 4 7.194 30.5745 30.5745 0 0 0
1089 4 25.179 7.194 7.194 0 0 0
2623 4 8.9925 0.0 19.7835 0 0 0
3877 4 0.0 10.791 28.776 0 0 0
609 4 28.776 0.0 7.194 0 0 0
142 4 34.1715 26.9775 0.0 0 0 0
796 4 26.9775 16.1865 28.776 0 0 0
2320 4 12.5895 8.9925 32.373 0 0 0
1831 4 16.1865 0.0 26.9775 0 0 0
3591 4 1.7985 14.388 26.9775 0 0 0
3344 4 5.3955 30.5745 17.985 0 0 0
704 4 26.9775 8.9925 17.985 0 0 0
3532 4 1.7985 12.5895 7.194 0 0 0
2954 4 10.791 30.5745 30.5745 0 0 0
3649 4 3.597 21.582 7.194 0 0 0
590 4 32.373 34.1715 26.9775 0 0 0
1431 4 19.7835 0.0 26.9775 0 0 0
1548 4 19.7835 12.5895 21.582 0 0 0
3483 4 1.7985 7.194 1.7985 0 0 0
3514 4 3.597 8.9925 30.5745 0 0 0
3970 4 0.0 30.5745 16.1865 0 0 0
391 4 30.5745 14.388 26.9775 0 0 0
498 4 32.373 26.9775 16.1865 0 0 0
3562 4 3.597 16.1865 1.7985 0 0 0
2312 4 12.5895 8.9925 25.179 0 0 0
1780 4 19.7835 34.1715 14.388 0 0 0
2162 4 17.985 34.1715 1.7985 0 0 0
983 4 26.9775 32.373 19.7835 0 0 0
1801 4 17.985 0.0 0.0 0 0 0
2398 4 14.388 16.1865 34.1715 0 0 0
358 4 32.373 12.5895 34.1715 0 0 0
2262 4 14.388 5.3955 19.7835 0 0 0
1681 4 21.582 25.179 0.0 0 0 0
96 4 34.1715 16.1865 25.179 0 0 0
3186 4 7.194 16.1865 23.3805 0 0 0
714 4 28.776 8.9925 30.5745 0 0 0
3879 4 0.0 10.791 32.373 0 0 0
3655 4 1.7985 21.582 12.5895 0 0 0
3872 4 0.0 12.5895 19.7835 0 0 0
1164 4 23.3805 16.1865 0.0 0 0 0
52 4 34.1715 8.9925 17.985 0 0 0
3044 4 5.3955 5.3955 0.0 0 0 0
2190 4 17.985 34.1715 26.9775 0 0 0
814 4 28.776 19.7835 12.5895 0 0 0
546 4 32.373 30.5745 23.3805 0 0 0
1971 4 16.1865 14.388 8.9925 0 0 0
2798 4 10.791 16.1865 34.1715 0 0 0
582 4 32.373 34.1715 19.7835 0 0 0
1364 4 23.3805 34.1715 0.0 0 0 0
1524 4 19.7835 12.5895 0.0 0 0 0
540 4 30.5745 30.5745 14.388 0 0 0
682 4 28.776 8.9925 1.7985 0 0 0
3534 4 3.597 12.5895 12.5895 0 0 0
3585 4 3.597 14.388 21.582 0 0 0
417 4 32.373 17.985 14.388 0 0 0
2296 4 12.5895 8.9925 10.791 0 0 0
1773 4 21.582 32.373 10.791 0 0 0
3095 4 5.3955 7.194 12.5895 0 0 0
3822 4 0.0 5.3955 1.7985 0 0 0
1358 4 25.179 30.5745 34.1715 0 0 0
2293 4 14.388 7.194 10.791 0 0 0
2038 4 17.985 19.7835 34.1715 0 0 0
3590 4 3.597 16.1865 26.9775 0 0 0
3300 4 5.3955 26.9775 14.388 0 0 0
1925 4 17.985 10.791 3.597 0 0 0
803 4 26.9775 17.985 1.7985 0 0 0
1978 4 17.985 16.1865 16.1865 0 0 0
2291 4 12.5895 7.194 8.9925 0 0 0
1586 4 21.582 16.1865 23.3805 0 0 0
1214 4 25.179 19.7835 12.5895 0 0 0
1922 4 17.985 12.5895 1.7985 0 0 0
1217 4 25.179 17.985 14.388 0 0 0
3284 4 5.3955 26.9775 0.0 0 0 0
320 4 30.5745 8.9925 32.373 0 0 0
2750 4 10.791 12.5895 26.9775 0 0 0
3908 4 0.0 19.7835 12.5895 0 0 0
2023 4 16.1865 17.985 19.7835 0 0 0
3899 4 0.0 14.388 32.373 0 0 0
2368 4 12.5895 16.1865 3.597 0 0 0
890 4 28.776 26.9775 8.9925 0 0 0
1601 4 21.582 17.985 0.0 0 0 0
2909 4 10.791 25.179 25.179 0 0 0
792 4 26.9775 16.1865 25.179 0 0 0
1766 4 21.582 34.1715 5.3955 0 0 0
2196 4 16.1865 34.1715 28.776 0 0 0
2112 4 16.1865 26.9775 25.179 0 0 0
337 4 32.373 10.791 14.388 0 0 0
3705 4 3.597 25.179 21.582 0 0 0
945 4 28.776 28.776 21.582 0 0 0
356 4 30.5745 12.5895 28.776 0 0 0
1223 4 23.3805 17.985 19.7835 0 0 0
1795 4 19.7835 32.373 30.5745 0 0 0
3362 4 7.194 34.1715 1.7985 0 0 0
3842 4 0.0 8.9925 1.7985 0 0 0
1847 4 16.1865 3.597 5.3955 0 0 0
1494 4 21.582 8.9925 12.5895 0 0 0
3571 4 1.7985 14.388 8.9925 0 0 0
2430 4 14.388 19.7835 26.9775 0 0 0
3052 4 5.3955 5.3955 7.194 0 0 0
2818 4 10.791 19.7835 16.1865 0 0 0
3460 4 1.7985 5.3955 14.388 0 0 0
922 4 28.776 30.5745 1.7985 0 0 0
1713 4 21.582 25.179 28.776 0 0 0
3846 4 0.0 8.9925 8.9925 0 0 0
1473 4 21.582 3.597 28.776 0 0 0
3452 4 1.7985 5.3955 7.194 0 0 0
323 4 30.5745 10.791 1.7985 0 0 0
2826 4 10.791 19.7835 23.3805 0 0 0
1416 4 19.7835 1.7985 10.791 0 0 0
2765 4 10.791 14.388 3.597 0 0 0
3185 4 7.194 14.388 21.582 0 0 0
2972 4 8.9925 34.1715 7.194 0 0 0
3858 4 0.0 8.9925 30.5745 0 0 0
616 4 26.9775 1.7985 10.791 0 0 0
1310 4 25.179 26.9775 26.9775 0 0 0
2285 4 14.388 7.194 3.597 0 0 0
2852 4 8.9925 23.3805 7.194 0 0 0
314 4 32.373 8.9925 30.5745 0 0 0
2969 4 10.791 32.373 7.194 0 0 0
1022 4 25.179 1.7985 19.7835 0 0 0
1085 4 25.179 7.194 3.597 0 0 0
2950 4 10.791 30.5745 26.9775 0 0 0
61 4 34.1715 10.791 1.7985 0 0 0
3972 4 0.0 30.5745 19.7835 0 0 0
1151 4 23.3805 10.791 26.9775 0 0 0
447 4 30.5745 21.582 5.3955 0 0 0
157 4 34.1715 25.179 30.5745 0 0 0
1147 4 23.3805 10.791 23.3805 0 0 0
2151 4 16.1865 28.776 26.9775 0 0 0
35 4 34.1715 3.597 26.9775 0 0 0
4 4 34.1715 1.7985 3.597 0 0 0
352 4 30.5745 12.5895 25.179 0 0 0
2727 4 8.9925 10.791 5.3955 0 0 0
2375 4 12.5895 14.388 12.5895 0 0 0
3060 4 5.3955 5.3955 14.388 0 0 0
804 4 26.9775 19.7835 0.0 0 0 0
2121 4 17.985 28.776 0.0 0 0 0
3014 4 7.194 1.7985 12.5895 0 0 0
1458 4 21.582 5.3955 16.1865 0 0 0
3371 4 5.3955 32.373 8.9925 0 0 0
789 4 28.776 14.388 25.179 0 0 0
822 4 28.776 19.7835 19.7835 0 0 0
1711 4 19.7835 25.179 26.9775 0 0 0
2682 4 10.791 8.9925 1.7985 0 0 0
2574 4 14.388 34.1715 12.5895 0 0 0
1179 4 23.3805 14.388 16.1865 0 0 0
2140 4 16.1865 30.5745 14.388 0 0 0
2034 4 17.985 19.7835 30.5745 0 0 0
1594 4 21.582 16.1865 30.5745 0 0 0
2814 4 10.791 19.7835 12.5895 0 0 0
2511 4 12.5895 25.179 26.9775 0 0 0
2095 4 16.1865 25.179 12.5895 0 0 0
2128 4 16.1865 30.5745 3.597 0 0 0
2876 4 8.9925 23.3805 28.776 0 0 0
3298 4 7.194 26.9775 16.1865 0 0 0
3237 4 7.194 17.985 32.373 0 0 0
2048 4 16.1865 23.3805 3.597 0 0 0
1377 4 25.179 32.373 14.388 0 0 0
2958 4 10.791 30.5745 34.1715 0 0 0
3864 4 0.0 12.5895 5.3955 0 0 0
2851 4 8.9925 21.582 8.9925 0 0 0
2695 4 8.9925 7.194 12.5895 0 0 0
244 4 30.5745 5.3955 0.0 0 0 0
1591 4 19.7835 14.388 26.9775 0 0 0
747 4 26.9775 10.791 23.3805 0 0 0
911 4 26.9775 25.179 26.9775 0 0 0
2722 4 10.791 12.5895 1.7985 0 0 0
3218 4 7.194 19.7835 16.1865 0 0 0
1720 4 19.7835 26.9775 32.373 0 0 0
1124 4 23.3805 12.5895 0.0 0 0 0
3197 4 7.194 14.388 32.373 0 0 0
393 4 32.373 14.388 28.776 0 0 0
3472 4 1.7985 5.3955 25.179 0 0 0
2269 4 14.388 3.597 25.179 0 0 0
360 4 30.5745 12.5895 32.373 0 0 0
2939 4 8.9925 28.776 16.1865 0 0 0
3945 4 0.0 25.179 7.194 0 0 0
1964 4 16.1865 16.1865 0.0 0 0 0
494 4 32.373 26.9775 12.5895 0 0 0
1861 4 17.985 3.597 17.985 0 0 0
283 4 30.5745 7.194 1.7985 0 0 0
1201 4 25.179 17.985 0.0 0 0 0
3522 4 3.597 12.5895 1.7985 0 0 0
1516 4 19.7835 8.9925 28.776 0 0 0
2860 4 8.9925 23.3805 14.388 0 0 0
1134 4 25.179 12.5895 12.5895 0 0 0
1686 4 21.582 26.9775 5.3955 0 0 0
411 4 30.5745 17.985 8.9925 0 0 0
567 4 30.5745 32.373 5.3955 0 0 0
2275 4 12.5895 3.597 30.5745 0 0 0
2301 4 14.388 7.194 17.985 0 0 0
1997 4 17.985 14.388 32.373 0 0 0
1564 4 19.7835 16.1865 0.0 0 0 0
1317 4 25.179 25.179 32.373 0 0 0
1584 4 19.7835 16.1865 17.985 0 0 0
845 4 28.776 21.582 3.597 0 0 0
3763 4 1.7985 32.373 1.7985 0 0 0
144 4 34.1715 26.9775 3.597 0 0 0
3996 4 0.0 34.1715 26.9775 0 0 0
3412 4 1.7985 1.7985 7.194 0 0 0
2782 4 10.791 16.1865 19.7835 0 0 0
3256 4 5.3955 23.3805 10.791 0 0 0
2462 4 14.388 23.3805 19.7835 0 0 0
2295 4 12.5895 7.194 12.5895 0 0 0
1804 4 16.1865 1.7985 0.0 0 0 0
674 4 28.776 5.3955 30.5745 0 0 0
3934 4 0.0 23.3805 23.3805 0 0 0
2032 4 16.1865 19.7835 25.179 0 0 0
3152 4 5.3955 12.5895 25.179 0 0 0
1152 4 23.3805 12.5895 25.179 0 0 0
628 4 26.9775 1.7985 21.582 0 0 0
2247 4 12.5895 3.597 5.3955 0 0 0
3601 4 3.597 17.985 0.0 0 0 0
3254 4 7.194 23.3805 12.5895 0 0 0
1345 4 25.179 28.776 21.582 0 0 0
1188 4 23.3805 16.1865 21.582 0 0 0
2189 4 17.985 32.373 25.179 0 0 0
1703 4 19.7835 25.179 19.7835 0 0 0
34 4 34.1715 5.3955 21.582 0 0 0
2476 4 12.5895 23.3805 28.776 0 0 0
2527 4 12.5895 28.776 5.3955 0 0 0
2070 4 17.985 23.3805 26.9775 0 0 0
2697 4 10.791 7.194 14.388 0 0 0
2528 4 12.5895 30.5745 3.597 0 0 0
2777 4 10.791 14.388 14.388 0 0 0
1297 4 25.179 25.179 14.388 0 0 0
2748 4 8.9925 12.5895 21.582 0 0 0
76 4 34.1715 12.5895 25.179 0 0 0
2943 4 8.9925 28.776 19.7835 0 0 0
2011 4 16.1865 17.985 8.9925 0 0 0
1550 4 21.582 12.5895 26.9775 0 0 0
835 4 26.9775 17.985 30.5745 0 0 0
2703 4 8.9925 7.194 19.7835 0 0 0
2872 4 8.9925 23.3805 25.179 0 0 0
2087 4 16.1865 25.179 5.3955 0 0 0
831 4 26.9775 17.985 26.9775 0 0 0
493 4 32.373 25.179 10.791 0 0 0
794 4 28.776 16.1865 30.5745 0 0 0
2569 4 14.388 32.373 7.194 0 0 0
1709 4 21.582 25.179 25.179 0 0 0
979 4 26.9775 32.373 16.1865 0 0 0
2673 4 10.791 3.597 28.776 0 0 0
3004 4 5.3955 1.7985 0.0 0 0 0
2480 4 12.5895 23.3805 32.373 0 0 0
220 4 30.5745 1.7985 14.388 0 0 0
2153 4 17.985 28.776 28.776 0 0 0
3628 4 1.7985 19.7835 21.582 0 0 0
3623 4 1.7985 17.985 19.7835 0 0 0
3961 4 0.0 28.776 0.0 0 0 0
1141 4 25.179 10.791 17.985 0 0 0
404 4 30.5745 19.7835 0.0 0 0 0
1520 4 19.7835 8.9925 32.373 0 0 0
2751 4 8.9925 10.791 26.9775 0 0 0
2656 4 8.9925 5.3955 10.791 0 0 0
3156 4 5.3955 12.5895 28.776 0 0 0
1879 4 16.1865 3.597 34.1715 0 0 0
3209 4 7.194 17.985 7.194 0 0 0
190 4 34.1715 34.1715 14.388 0 0 0
3943 4 0.0 25.179 3.597 0 0 0
547 4 30.5745 28.776 23.3805 0 0 0
2149 4 17.985 28.776 25.179 0 0 0
2977 4 10.791 32.373 14.388 0 0 0
3756 4 1.7985 30.5745 28.776 0 0 0
1509 4 21.582 7.194 25.179 0 0 0
110 4 34.1715 19.7835 14.388 0 0 0
1240 4 23.3805 19.7835 32.373 0 0 0
1356 4 23.3805 30.5745 28.776 0 0 0
2169 4 17.985 32.373 7.194 0 0 0
3227 4 5.3955 17.985 23.3805 0 0 0
1606 4 21.582 19.7835 5.3955 0 0 0
2793 4 10.791 14.388 28.776 0 0 0
2628 4 8.9925 1.7985 21.582 0 0 0
635 4 26.9775 0.0 30.5745 0 0 0
1160 4 23.3805 12.5895 32.373 0 0 0
3831 4 0.0 3.597 17.985 0 0 0
3772 4 1.7985 34.1715 7.194 0 0 0
2207 4 12.5895 0.0 5.3955 0 0 0
3017 4 7.194 0.0 14.388 0 0 0
1790 4 21.582 34.1715 26.9775 0 0 0
1242 4 25.179 23.3805 1.7985 0 0 0
3878 4 0.0 12.5895 30.5745 0 0 0
2115 4 16.1865 25.179 30.5745 0 0 0
309 4 32.373 7.194 25.179 0 0 0
24 4 34.1715 5.3955 3.597 0 0 0
1589 4 21.582 14.388 25.179 0 0 0
2372 4 12.5895 16.1865 7.194 0 0 0
611 4 26.9775 0.0 8.9925 0 0 0
2040 4 16.1865 19.7835 32.373 0 0 0
930 4 28.776 30.5745 8.9925 0 0 0
3956 4 0.0 26.9775 26.9775 0 0 0
3746 4 3.597 30.5745 23.3805 0 0 0
858 4 28.776 23.3805 16.1865 0 0 0
3276 4 5.3955 23.3805 28.776 0 0 0
2937 4 10.791 28.776 14.388 0 0 0
3861 4 0.0 10.791 0.0 0 0 0
348 4 30.5745 12.5895 21.582 0 0 0
2418 4 14.388 19.7835 16.1865 0 0 0
3506 4 3.597 8.9925 23.3805 0 0 0
1469 4 21.582 3.597 25.179 0 0 0
3545 4 3.597 10.791 21.582 0 0 0
1604 4 19.7835 19.7835 0.0 0 0 0
999 4 26.9775 32.373 34.1715 0 0 0
3777 4 3.597 32.373 14.388 0 0 0
832 4 26.9775 19.7835 25.179 0 0 0
2346 4 14.388 12.5895 23.3805 0 0 0
2010 4 17.985 19.7835 8.9925 0 0 0
3942 4 0.0 26.9775 1.7985 0 0 0
2009 4 17.985 17.985 7.194 0 0 0
688 4 26.9775 8.9925 3.597 0 0 0
2866 4 10.791 23.3805 23.3805 0 0 0
3955 4 0.0 25.179 25.179 0 0 0
1210 4 25.179 19.7835 8.9925 0 0 0
2885 4 10.791 25.179 3.597 0 0 0
1122 4 25.179 12.5895 1.7985 0 0 0
3691 4 1.7985 25.179 8.9925 0 0 0
1915 4 16.1865 7.194 30.5745 0 0 0
778 4 28.776 16.1865 16.1865 0 0 0
681 4 28.776 7.194 0.0 0 0 0
853 4 28.776 21.582 10.791 0 0 0
583 4 30.5745 32.373 19.7835 0 0 0
1265 4 25.179 21.582 21.582 0 0 0
2534 4 14.388 30.5745 12.5895 0 0 0
3355 4 5.3955 28.776 30.5745 0 0 0
3473 4 3.597 3.597 28.776 0 0 0
3137 4 7.194 10.791 14.388 0 0 0
527 4 30.5745 28.776 5.3955 0 0 0
1076 4 23.3805 5.3955 28.776 0 0 0
3274 4 7.194 23.3805 30.5745 0 0 0
3230 4 7.194 19.7835 26.9775 0 0 0
604 4 26.9775 1.7985 0.0 0 0 0
3781 4 3.597 32.373 17.985 0 0 0
3913 4 0.0 17.985 21.582 0 0 0
1384 4 23.3805 34.1715 17.985 0 0 0
833 4 28.776 17.985 28.776 0 0 0
185 4 34.1715 32.373 8.9925 0 0 0
30 4 34.1715 5.3955 14.388 0 0 0
1191 4 23.3805 14.388 26.9775 0 0 0
532 4 30.5745 30.5745 7.194 0 0 0
3833 4 0.0 3.597 21.582 0 0 0
1388 4 23.3805 34.1715 21.582 0 0 0
2997 4 10.791 32.373 32.373 0 0 0
3307 4 5.3955 25.179 23.3805 0 0 0
3569 4 3.597 14.388 7.194 0 0 0
2335 4 12.5895 10.791 12.5895 0 0 0
2612 4 8.9925 1.7985 7.194 0 0 0
1963 4 16.1865 14.388 1.7985 0 0 0
1311 4 23.3805 25.179 26.9775 0 0 0
3073 4 7.194 3.597 28.776 0 0 0
3341 4 7.194 28.776 17.985 0 0 0
1953 4 17.985 10.791 28.776 0 0 0
3957 4 0.0 25.179 28.776 0 0 0
2458 4 14.388 23.3805 16.1865 0 0 0
465 4 32.373 21.582 21.582 0 0 0
2152 4 16.1865 30.5745 25.179 0 0 0
1999 4 16.1865 14.388 34.1715 0 0 0
891 4 26.9775 25.179 8.9925 0 0 0
3174 4 7.194 16.1865 12.5895 0 0 0
1519 4 19.7835 7.194 34.1715 0 0 0
112 4 34.1715 19.7835 17.985 0 0 0
146 4 34.1715 26.9775 7.194 0 0 0
1869 4 17.985 3.597 25.179 0 0 0
596 4 30.5745 34.1715 28.776 0 0 0
127 4 34.1715 21.582 12.5895 0 0 0
410 4 32.373 19.7835 8.9925 0 0 0
621 4 28.776 0.0 17.985 0 0 0
1314 4 25.179 26.9775 30.5745 0 0 0
2717 4 10.791 7.194 32.373 0 0 0
2507 4 12.5895 25.179 23.3805 0 0 0
155 4 34.1715 25.179 26.9775 0 0 0
3058 4 7.194 5.3955 16.1865 0 0 0
3860 4 0.0 8.9925 34.1715 0 0 0
29 4 34.1715 3.597 16.1865 0 0 0
3350 4 7.194 30.5745 26.9775 0 0 0
423 4 30.5745 17.985 19.7835 0 0 0
1207 4 23.3805 17.985 5.3955 0 0 0
1441 4 21.582 3.597 0.0 0 0 0
676 4 26.9775 5.3955 28.776 0 0 0
2541 4 14.388 28.776 17.985 0 0 0
3265 4 7.194 21.582 21.582 0 0 0
1226 4 25.179 19.7835 23.3805 0 0 0
2420 4 12.5895 19.7835 14.388 0 0 0
2503 4 12.5895 25.179 19.7835 0 0 0
1626 4 21.582 19.7835 23.3805 0 0 0
3925 4 0.0 21.582 7.194 0 0 0
2638 4 10.791 1.7985 34.1715 0 0 0
2865 4 10.791 21.582 21.582 0 0 0
3301 4 7.194 25.179 17.985 0 0 0
197 4 34.1715 32.373 30.5745 0 0 0
2622 4 10.791 1.7985 19.7835 0 0 0
2552 4 12.5895 30.5745 25.179 0 0 0
3459 4 1.7985 3.597 16.1865 0 0 0
1378 4 25.179 34.1715 16.1865 0 0 0
1968 4 16.1865 16.1865 3.597 0 0 0
2389 4 14.388 14.388 25.179 0 0 0
710 4 28.776 8.9925 26.9775 0 0 0
1829 4 17.985 0.0 25.179 0 0 0
2646 4 10.791 5.3955 5.3955 0 0 0
2179 4 16.1865 32.373 16.1865 0 0 0
3491 4 1.7985 7.194 8.9925 0 0 0
539 4 30.5745 28.776 16.1865 0 0 0
3752 4 1.7985 30.5745 25.179 0 0 0
934 4 28.776 30.5745 12.5895 0 0 0
1979 4 16.1865 14.388 16.1865 0 0 0
848 4 26.9775 23.3805 3.597 0 0 0
1352 4 23.3805 30.5745 25.179 0 0 0
2784 4 8.9925 16.1865 17.985 0 0 0
3496 4 1.7985 8.9925 10.791 0 0 0
174 4 34.1715 30.5745 21.582 0 0 0
734 4 28.776 12.5895 12.5895 0 0 0
2141 4 17.985 28.776 17.985 0 0 0
3547 4 1.7985 10.791 23.3805 0 0 0
2621 4 10.791 0.0 17.985 0 0 0
3106 4 7.194 8.9925 23.3805 0 0 0
54 4 34.1715 8.9925 21.582 0 0 0
1412 4 19.7835 1.7985 7.194 0 0 0
2529 4 14.388 28.776 7.194 0 0 0
3007 4 5.3955 0.0 5.3955 0 0 0
1778 4 21.582 34.1715 16.1865 0 0 0
2718 4 10.791 8.9925 34.1715 0 0 0
1437 4 21.582 0.0 32.373 0 0 0
48 4 34.1715 8.9925 10.791 0 0 0
2208 4 12.5895 1.7985 3.597 0 0 0
1303 4 23.3805 25.179 19.7835 0 0 0
1470 4 21.582 5.3955 26.9775 0 0 0
3299 4 5.3955 25.179 16.1865 0 0 0
1019 4 23.3805 0.0 16.1865 0 0 0
2591 4 12.5895 32.373 26.9775 0 0 0
2962 4 10.791 34.1715 1.7985 0 0 0
1383 4 23.3805 32.373 19.7835 0 0 0
3924 4 0.0 23.3805 5.3955 0 0 0
2531 4 12.5895 28.776 8.9925 0 0 0
1708 4 19.7835 26.9775 21.582 0 0 0
3499 4 1.7985 7.194 16.1865 0 0 0
2272 4 12.5895 5.3955 25.179 0 0 0
361 4 32.373 14.388 0.0 0 0 0
226 4 32.373 1.7985 23.3805 0 0 0
919 4 26.9775 25.179 34.1715 0 0 0
2816 4 8.9925 19.7835 10.791 0 0 0
1579 4 19.7835 14.388 16.1865 0 0 0
918 4 28.776 26.9775 34.1715 0 0 0
2279 4 12.5895 3.597 34.1715 0 0 0
3687 4 1.7985 25.179 5.3955 0 0 0
3823 4 0.0 3.597 3.597 0 0 0
3018 4 7.194 1.7985 16.1865 0 0 0
1227 4 23.3805 17.985 23.3805 0 0 0
3676 4 1.7985 23.3805 28.776 0 0 0
3135 4 5.3955 10.791 12.5895 0 0 0
2072 4 16.1865 23.3805 25.179 0 0 0
3196 4 5.3955 16.1865 28.776 0 0 0
1093 4 25.179 7.194 10.791 0 0 0
462 4 32.373 23.3805 19.7835 0 0 0
1975 4 16.1865 14.388 12.5895 0 0 0
346 4 32.373 12.5895 23.3805 0 0 0
2987 4 8.9925 32.373 23.3805 0 0 0
3175 4 5.3955 14.388 12.5895 0 0 0
3365 4 7.194 32.373 3.597 0 0 0
2429 4 14.388 17.985 25.179 0 0 0
170 4 34.1715 30.5745 14.388 0 0 0
1118 4 25.179 8.9925 34.1715 0 0 0
3724 4 1.7985 30.5745 0.0 0 0 0
711 4 26.9775 7.194 26.9775 0 0 0
3099 4 5.3955 7.194 16.1865 0 0 0
1065 4 25.179 3.597 21.582 0 0 0
1954 4 17.985 12.5895 30.5745 0 0 0
3636 4 1.7985 19.7835 28.776 0 0 0
365 4 32.373 14.388 3.597 0 0 0
2960 4 8.9925 30.5745 32.373 0 0 0
693 4 28.776 7.194 10.791 0 0 0
1619 4 19.7835 17.985 16.1865 0 0 0
2033 4 17.985 17.985 28.776 0 0 0
2701 4 10.791 7.194 17.985 0 0 0
1010 4 25.179 1.7985 8.9925 0 0 0
559 4 30.5745 28.776 34.1715 0 0 0
3303 4 5.3955 25.179 19.7835 0 0 0
3375 4 5.3955 32.373 12.5895 0 0 0
1344 4 23.3805 30.5745 17.985 0 0 0
1737 4 21.582 28.776 14.388 0 0 0
390 4 32.373 16.1865 26.9775 0 0 0
1092 4 23.3805 8.9925 7.194 0 0 0
1631 4 19.7835 17.985 26.9775 0 0 0
2337 4 14.388 10.791 14.388 0 0 0
1057 4 25.179 3.597 14.388 0 0 0
3138 4 7.194 12.5895 16.1865 0 0 0
1556 4 19.7835 12.5895 28.776 0 0 0
1285 4 25.179 25.179 3.597 0 0 0
1066 4 25.179 5.3955 23.3805 0 0 0
2888 4 8.9925 26.9775 3.597 0 0 0
2714 4 10.791 8.9925 30.5745 0 0 0
1823 4 16.1865 0.0 19.7835 0 0 0
2097 4 17.985 25.179 14.388 0 0 0
3941 4 0.0 25.179 0.0 0 0 0
2792 4 8.9925 16.1865 25.179 0 0 0
3843 4 0.0 7.194 3.597 0 0 0
2966 4 10.791 34.1715 5.3955 0 0 0
102 4 34.1715 19.7835 0.0 0 0 0
995 4 26.9775 32.373 30.5745 0 0 0
3465 4 3.597 3.597 21.582 0 0 0
2384 4 12.5895 16.1865 17.985 0 0 0
79 4 34.1715 10.791 34.1715 0 0 0
1758 4 21.582 30.5745 34.1715 0 0 0
662 4 28.776 5.3955 19.7835 0 0 0
619 4 26.9775 0.0 16.1865 0 0 0
23 4 34.1715 3.597 5.3955 0 0 0
781 4 28.776 14.388 17.985 0 0 0
1177 4 25.179 14.388 14.388 0 0 0
651 4 26.9775 3.597 8.9925 0 0 0
482 4 32.373 26.9775 1.7985 0 0 0
1992 4 16.1865 16.1865 25.179 0 0 0
2650 4 10.791 5.3955 8.9925 0 0 0
394 4 32.373 16.1865 30.5745 0 0 0
3813 4 0.0 0.0 21.582 0 0 0
3057 4 7.194 3.597 14.388 0 0 0
970 4 28.776 34.1715 8.9925 0 0 0
2157 4 17.985 28.776 32.373 0 0 0
959 4 26.9775 28.776 34.1715 0 0 0
3616 4 1.7985 19.7835 10.791 0 0 0
988 4 26.9775 34.1715 21.582 0 0 0
1965 4 17.985 14.388 3.597 0 0 0
2246 4 14.388 5.3955 5.3955 0 0 0
1257 4 25.179 21.582 14.388 0 0 0
490 4 32.373 26.9775 8.9925 0 0 0
1008 4 23.3805 1.7985 3.597 0 0 0
2549 4 14.388 28.776 25.179 0 0 0
2970 4 10.791 34.1715 8.9925 0 0 0
3278 4 7.194 23.3805 34.1715 0 0 0
1487 4 19.7835 7.194 5.3955 0 0 0
3010 4 7.194 1.7985 8.9925 0 0 0
1578 4 21.582 16.1865 16.1865 0 0 0
2373 4 14.388 14.388 10.791 0 0 0
782 4 28.776 16.1865 19.7835 0 0 0
3734 4 3.597 30.5745 12.5895 0 0 0
2482 4 14.388 26.9775 1.7985 0 0 0
3194 4 7.194 16.1865 30.5745 0 0 0
369 4 32.373 14.388 7.194 0 0 0
867 4 26.9775 21.582 23.3805 0 0 0
1644 4 19.7835 23.3805 0.0 0 0 0
3896 4 0.0 16.1865 26.9775 0 0 0
962 4 28.776 34.1715 1.7985 0 0 0
2635 4 8.9925 0.0 30.5745 0 0 0
3030 4 7.194 1.7985 26.9775 0 0 0
956 4 26.9775 30.5745 28.776 0 0 0
3944 4 0.0 26.9775 5.3955 0 0 0
770 4 28.776 16.1865 8.9925 0 0 0
1033 4 25.179 0.0 28.776 0 0 0
2365 4 14.388 14.388 3.597 0 0 0
2636 4 8.9925 1.7985 28.776 0 0 0
2477 4 14.388 21.582 32.373 0 0 0
305 4 32.373 7.194 21.582 0 0 0
3330 4 7.194 30.5745 8.9925 0 0 0
2725 4 10.791 10.791 3.597 0 0 0
3076 4 5.3955 5.3955 28.776 0 0 0
1484 4 19.7835 8.9925 0.0 0 0 0
171 4 34.1715 28.776 19.7835 0 0 0
2797 4 10.791 14.388 32.373 0 0 0
297 4 32.373 7.194 14.388 0 0 0
800 4 26.9775 16.1865 32.373 0 0 0
2998 4 10.791 34.1715 34.1715 0 0 0
1622 4 21.582 19.7835 19.7835 0 0 0
1889 4 17.985 7.194 7.194 0 0 0
2267 4 12.5895 3.597 23.3805 0 0 0
2655 4 8.9925 3.597 12.5895 0 0 0
2047 4 16.1865 21.582 5.3955 0 0 0
1740 4 19.7835 30.5745 14.388 0 0 0
3159 4 5.3955 10.791 34.1715 0 0 0
2713 4 10.791 7.194 28.776 0 0 0
1541 4 21.582 10.791 17.985 0 0 0
1537 4 21.582 10.791 14.388 0 0 0
1937 4 17.985 10.791 14.388 0 0 0
1272 4 23.3805 23.3805 25.179 0 0 0
1027 4 23.3805 0.0 23.3805 0 0 0
3210 4 7.194 19.7835 8.9925 0 0 0
2213 4 14.388 0.0 10.791 0 0 0
3589 4 3.597 14.388 25.179 0 0 0
2230 4 14.388 1.7985 26.9775 0 0 0
1744 4 19.7835 30.5745 17.985 0 0 0
1171 4 23.3805 14.388 8.9925 0 0 0
2243 4 12.5895 3.597 1.7985 0 0 0
754 4 28.776 12.5895 30.5745 0 0 0
1867 4 16.1865 3.597 23.3805 0 0 0
2422 4 14.388 19.7835 19.7835 0 0 0
3814 4 0.0 1.7985 23.3805 0 0 0
1149 4 25.179 10.791 25.179 0 0 0
1306 4 25.179 26.9775 23.3805 0 0 0
1238 4 25.179 19.7835 34.1715 0 0 0
2457 4 14.388 21.582 14.388 0 0 0
2639 4 8.9925 0.0 34.1715 0 0 0
2856 4 8.9925 23.3805 10.791 0 0 0
489 4 32.373 25.179 7.194 0 0 0
3183 4 5.3955 14.388 19.7835 0 0 0
2159 4 16.1865 28.776 34.1715 0 0 0
1479 4 19.7835 3.597 34.1715 0 0 0
2386 4 14.388 16.1865 23.3805 0 0 0
1342 4 25.179 30.5745 19.7835 0 0 0
2842 4 10.791 23.3805 1.7985 0 0 0
2025 4 17.985 17.985 21.582 0 0 0
1170 4 25.179 16.1865 8.9925 0 0 0
2659 4 8.9925 3.597 16.1865 0 0 0
311 4 30.5745 7.194 26.9775 0 0 0
2125 4 17.985 28.776 3.597 0 0 0
2983 4 8.9925 32.373 19.7835 0 0 0
1422 4 21.582 1.7985 19.7835 0 0 0
1260 4 23.3805 23.3805 14.388 0 0 0
2605 4 10.791 0.0 3.597 0 0 0
223 4 30.5745 0.0 19.7835 0 0 0
2007 4 16.1865 17.985 5.3955 0 0 0
70 4 34.1715 12.5895 14.388 0 0 0
2381 4 14.388 14.388 17.985 0 0 0
2547 4 12.5895 28.776 23.3805 0 0 0
2058 4 17.985 23.3805 16.1865 0 0 0
3443 4 1.7985 3.597 1.7985 0 0 0
2165 4 17.985 32.373 3.597 0 0 0
1510 4 21.582 8.9925 26.9775 0 0 0
2811 4 8.9925 17.985 8.9925 0 0 0
2161 4 17.985 32.373 0.0 0 0 0
1511 4 19.7835 7.194 26.9775 0 0 0
1 4 34.1715 0.0 1.7985 0 0 0
951 4 26.9775 28.776 26.9775 0 0 0
1308 4 23.3805 26.9775 21.582 0 0 0
2129 4 17.985 28.776 7.194 0 0 0
875 4 26.9775 21.582 30.5745 0 0 0
1800 4 19.7835 34.1715 32.373 0 0 0
2853 4 10.791 21.582 10.791 0 0 0
776 4 26.9775 16.1865 10.791 0 0 0
2164 4 16.1865 34.1715 0.0 0 0 0
173 4 34.1715 28.776 23.3805 0 0 0
3614 4 3.597 19.7835 12.5895 0 0 0
1498 4 21.582 8.9925 16.1865 0 0 0
3906 4 0.0 19.7835 8.9925 0 0 0
3732 4 1.7985 30.5745 7.194 0 0 0
1662 4 21.582 23.3805 19.7835 0 0 0
1816 4 16.1865 1.7985 10.791 0 0 0
2443 4 12.5895 21.582 1.7985 0 0 0
3096 4 5.3955 8.9925 10.791 0 0 0
2555 4 12.5895 28.776 30.5745 0 0 0
3125 4 7.194 10.791 3.597 0 0 0
2018 4 17.985 19.7835 16.1865 0 0 0
2884 4 8.9925 26.9775 0.0 0 0 0
769 4 28.776 14.388 7.194 0 0 0
3787 4 1.7985 32.373 23.3805 0 0 0
883 4 26.9775 25.179 1.7985 0 0 0
3241 4 7.194 21.582 0.0 0 0 0
3217 4 7.194 17.985 14.388 0 0 0
2845 4 10.791 21.582 3.597 0 0 0
2108 4 16.1865 26.9775 21.582 0 0 0
2787 4 8.9925 14.388 23.3805 0 0 0
2347 4 12.5895 10.791 23.3805 0 0 0
3587 4 1.7985 14.388 23.3805 0 0 0
1471 4 19.7835 3.597 26.9775 0 0 0
1286 4 25.179 26.9775 5.3955 0 0 0
3291 4 5.3955 25.179 8.9925 0 0 0
3672 4 1.7985 23.3805 25.179 0 0 0
475 4 30.5745 21.582 30.5745 0 0 0
2672 4 8.9925 5.3955 25.179 0 0 0
862 4 28.776 23.3805 19.7835 0 0 0
3818 4 0.0 1.7985 30.5745 0 0 0
1035 4 23.3805 0.0 30.5745 0 0 0
705 4 28.776 7.194 21.582 0 0 0
1243 4 23.3805 21.582 1.7985 0 0 0
849 4 28.776 21.582 7.194 0 0 0
3320 4 5.3955 26.9775 32.373 0 0 0
259 4 30.5745 3.597 16.1865 0 0 0
2118 4 17.985 26.9775 34.1715 0 0 0
3546 4 3.597 12.5895 23.3805 0 0 0
2433 4 14.388 17.985 28.776 0 0 0
1690 4 21.582 26.9775 8.9925 0 0 0
655 4 26.9775 3.597 12.5895 0 0 0
2265 4 14.388 3.597 21.582 0 0 0
325 4 32.373 10.791 3.597 0 0 0
943 4 26.9775 28.776 19.7835 0 0 0
412 4 30.5745 19.7835 7.194 0 0 0
1351 4 23.3805 28.776 26.9775 0 0 0
2356 4 12.5895 12.5895 28.776 0 0 0
2003 4 16.1865 17.985 1.7985 0 0 0
3396 4 5.3955 34.1715 28.776 0 0 0
2450 4 14.388 23.3805 8.9925 0 0 0
1295 4 23.3805 25.179 12.5895 0 0 0
1116 4 23.3805 8.9925 28.776 0 0 0
1765 4 21.582 32.373 3.597 0 0 0
1241 4 25.179 21.582 0.0 0 0 0
2759 4 8.9925 10.791 34.1715 0 0 0
1802 4 17.985 1.7985 1.7985 0 0 0
2395 4 12.5895 14.388 30.5745 0 0 0
3116 4 5.3955 8.9925 28.776 0 0 0
3815 4 0.0 0.0 25.179 0 0 0
3632 4 1.7985 19.7835 25.179 0 0 0
1835 4 16.1865 0.0 30.5745 0 0 0
425 4 32.373 17.985 21.582 0 0 0
3816 4 0.0 1.7985 26.9775 0 0 0
2506 4 14.388 26.9775 23.3805 0 0 0
3321 4 7.194 28.776 0.0 0 0 0
1030 4 25.179 1.7985 26.9775 0 0 0
2044 4 16.1865 23.3805 0.0 0 0 0
2387 4 12.5895 14.388 23.3805 0 0 0
2551 4 12.5895 28.776 26.9775 0 0 0
3568 4 1.7985 16.1865 3.597 0 0 0
2582 4 14.388 34.1715 19.7835 0 0 0
1075 4 23.3805 3.597 30.5745 0 0 0
387 4 30.5745 14.388 23.3805 0 0 0
2239 4 12.5895 0.0 34.1715 0 0 0
1194 4 25.179 16.1865 30.5745 0 0 0
3024 4 5.3955 1.7985 17.985 0 0 0
3701 4 3.597 25.179 17.985 0 0 0
827 4 26.9775 17.985 23.3805 0 0 0
3519 4 1.7985 7.194 34.1715 0 0 0
2487 4 12.5895 25.179 5.3955 0 0 0
3617 4 3.597 17.985 14.388 0 0 0
741 4 28.776 10.791 17.985 0 0 0
3948 4 0.0 26.9775 12.5895 0 0 0
2979 4 8.9925 32.373 16.1865 0 0 0
2540 4 12.5895 30.5745 14.388 0 0 0
3679 4 1.7985 21.582 34.1715 0 0 0
940 4 26.9775 30.5745 14.388 0 0 0
3706 4 3.597 26.9775 23.3805 0 0 0
512 4 30.5745 26.9775 25.179 0 0 0
2317 4 14.388 7.194 32.373 0 0 0
255 4 30.5745 3.597 12.5895 0 0 0
1613 4 21.582 17.985 10.791 0 0 0
863 4 26.9775 21.582 19.7835 0 0 0
2158 4 17.985 30.5745 34.1715 0 0 0
2837 4 10.791 17.985 32.373 0 0 0
3040 4 5.3955 1.7985 32.373 0 0 0
2415 4 12.5895 17.985 12.5895 0 0 0
3390 4 7.194 34.1715 26.9775 0 0 0
3292 4 5.3955 26.9775 7.194 0 0 0
2609 4 10.791 0.0 7.194 0 0 0
2357 4 14.388 10.791 32.373 0 0 0
2499 4 12.5895 25.179 16.1865 0 0 0
1693 4 21.582 25.179 10.791 0 0 0
456 4 30.5745 23.3805 10.791 0 0 0
3258 4 7.194 23.3805 16.1865 0 0 0
3854 4 0.0 8.9925 23.3805 0 0 0
2535 4 12.5895 28.776 12.5895 0 0 0
1832 4 16.1865 1.7985 25.179 0 0 0
1198 4 25.179 16.1865 34.1715 0 0 0
3444 4 1.7985 5.3955 0.0 0 0 0
2602 4 10.791 1.7985 1.7985 0 0 0
3549 4 3.597 10.791 25.179 0 0 0
2537 4 14.388 28.776 14.388 0 0 0
199 4 34.1715 32.373 34.1715 0 0 0
3871 4 0.0 10.791 17.985 0 0 0
3285 4 7.194 25.179 3.597 0 0 0
2669 4 10.791 3.597 25.179 0 0 0
885 4 28.776 25.179 3.597 0 0 0
3373 4 7.194 32.373 10.791 0 0 0
2559 4 12.5895 28.776 34.1715 0 0 0
645 4 28.776 3.597 3.597 0 0 0
1870 4 17.985 5.3955 26.9775 0 0 0
2699 4 8.9925 7.194 16.1865 0 0 0
561 4 32.373 32.373 0.0 0 0 0
1176 4 23.3805 16.1865 10.791 0 0 0
3560 4 1.7985 12.5895 32.373 0 0 0
686 4 28.776 8.9925 5.3955 0 0 0
2512 4 12.5895 26.9775 25.179 0 0 0
2403 4 12.5895 17.985 1.7985 0 0 0
495 4 30.5745 25.179 12.5895 0 0 0
913 4 28.776 25.179 28.776 0 0 0
2225 4 14.388 0.0 21.582 0 0 0
3826 4 0.0 5.3955 8.9925 0 0 0
2409 4 14.388 17.985 7.194 0 0 0
3046 4 7.194 5.3955 5.3955 0 0 0
3055 4 5.3955 3.597 12.5895 0 0 0
1361 4 25.179 32.373 0.0 0 0 0
322 4 32.373 12.5895 1.7985 0 0 0
1805 4 17.985 0.0 3.597 0 0 0
1769 4 21.582 32.373 7.194 0 0 0
1945 4 17.985 10.791 21.582 0 0 0
2871 4 8.9925 21.582 26.9775 0 0 0
3163 4 5.3955 14.388 1.7985 0 0 0
235 4 30.5745 0.0 30.5745 0 0 0
397 4 32.373 14.388 32.373 0 0 0
2590 4 14.388 34.1715 26.9775 0 0 0
1222 4 25.179 19.7835 19.7835 0 0 0
1935 4 16.1865 10.791 12.5895 0 0 0
2446 4 14.388 23.3805 5.3955 0 0 0
3139 4 5.3955 10.791 16.1865 0 0 0
2015 4 16.1865 17.985 12.5895 0 0 0
1587 4 19.7835 14.388 23.3805 0 0 0
2521 4 14.388 28.776 0.0 0 0 0
3345 4 7.194 28.776 21.582 0 0 0
2505 4 14.388 25.179 21.582 0 0 0
3794 4 3.597 34.1715 30.5745 0 0 0
2222 4 14.388 1.7985 19.7835 0 0 0
965 4 28.776 32.373 3.597 0 0 0
1397 4 25.179 32.373 32.373 0 0 0
2618 4 10.791 1.7985 16.1865 0 0 0
3243 4 5.3955 21.582 1.7985 0 0 0
1096 4 23.3805 8.9925 10.791 0 0 0
753 4 28.776 10.791 28.776 0 0 0
202 4 32.373 1.7985 1.7985 0 0 0
2906 4 10.791 26.9775 23.3805 0 0 0
2704 4 8.9925 8.9925 17.985 0 0 0
2875 4 8.9925 21.582 30.5745 0 0 0
2788 4 8.9925 16.1865 21.582 0 0 0
2796 4 8.9925 16.1865 28.776 0 0 0
2311 4 12.5895 7.194 26.9775 0 0 0
1913 4 17.985 7.194 28.776 0 0 0
795 4 26.9775 14.388 30.5745 0 0 0
1322 4 25.179 30.5745 1.7985 0 0 0
3603 4 1.7985 17.985 1.7985 0 0 0
1535 4 19.7835 10.791 12.5895 0 0 0
1067 4 23.3805 3.597 23.3805 0 0 0
1738 4 21.582 30.5745 16.1865 0 0 0
1919 4 16.1865 7.194 34.1715 0 0 0
2363 4 12.5895 14.388 1.7985 0 0 0
2804 4 8.9925 19.7835 0.0 0 0 0
3597 4 3.597 14.388 32.373 0 0 0
1284 4 23.3805 26.9775 0.0 0 0 0
64 4 34.1715 12.5895 3.597 0 0 0
2663 4 8.9925 3.597 19.7835 0 0 0
1633 4 21.582 17.985 28.776 0 0 0
3677 4 3.597 21.582 32.373 0 0 0
500 4 30.5745 26.9775 14.388 0 0 0
245 4 32.373 3.597 3.597 0 0 0
2089 4 17.985 25.179 7.194 0 0 0
2057 4 17.985 21.582 14.388 0 0 0
1883 4 16.1865 7.194 1.7985 0 0 0
2 5 34.1715 1.7985 0.0 0 0 0
3 5 34.1715 0.0 5.3955 0 0 0
5 5 34.1715 0.0 8.9925 0 0 0
6 5 34.1715 1.7985 7.194 0 0 0
7 5 34.1715 0.0 12.5895 0 0 0
11 5 34.1715 0.0 19.7835 0 0 0
14 5 34.1715 1.7985 21.582 0 0 0
15 5 34.1715 0.0 26.9775 0 0 0
19 5 34.1715 0.0 34.1715 0 0 0
21 5 34.1715 3.597 1.7985 0 0 0
28 5 34.1715 5.3955 10.791 0 0 0
36 5 34.1715 5.3955 25.179 0 0 0
38 5 34.1715 5.3955 28.776 0 0 0
40 5 34.1715 5.3955 32.373 0 0 0
43 5 34.1715 7.194 5.3955 0 0 0
47 5 34.1715 7.194 12.5895 0 0 0
49 5 34.1715 7.194 16.1865 0 0 0
69 5 34.1715 10.791 16.1865 0 0 0
73 5 34.1715 10.791 23.3805 0 0 0
75 5 34.1715 10.791 26.9775 0 0 0
85 5 34.1715 14.388 8.9925 0 0 0
88 5 34.1715 16.1865 10.791 0 0 0
89 5 34.1715 14.388 16.1865 0 0 0
95 5 34.1715 14.388 26.9775 0 0 0
98 5 34.1715 16.1865 28.776 0 0 0
103 5 34.1715 17.985 5.3955 0 0 0
104 5 34.1715 19.7835 3.597 0 0 0
113 5 34.1715 17.985 23.3805 0 0 0
114 5 34.1715 19.7835 21.582 0 0 0
116 5 34.1715 19.7835 25.179 0 0 0
121 5 34.1715 21.582 1.7985 0 0 0
123 5 34.1715 21.582 5.3955 0 0 0
125 5 34.1715 21.582 8.9925 0 0 0
126 5 34.1715 23.3805 7.194 0 0 0
129 5 34.1715 21.582 16.1865 0 0 0
138 5 34.1715 23.3805 28.776 0 0 0
139 5 34.1715 21.582 34.1715 0 0 0
147 5 34.1715 25.179 12.5895 0 0 0
156 5 34.1715 26.9775 25.179 0 0 0
163 5 34.1715 28.776 5.3955 0 0 0
165 5 34.1715 28.776 8.9925 0 0 0
177 5 34.1715 28.776 30.5745 0 0 0
181 5 34.1715 32.373 1.7985 0 0 0
182 5 34.1715 34.1715 0.0 0 0 0
193 5 34.1715 32.373 23.3805 0 0 0
200 5 34.1715 34.1715 32.373 0 0 0
201 5 32.373 0.0 0.0 0 0 0
207 5 30.5745 0.0 5.3955 0 0 0
210 5 32.373 1.7985 8.9925 0 0 0
214 5 32.373 1.7985 12.5895 0 0 0
219 5 30.5745 0.0 16.1865 0 0 0
222 5 32.373 1.7985 19.7835 0 0 0
225 5 32.373 0.0 21.582 0 0 0
227 5 30.5745 0.0 23.3805 0 0 0
233 5 32.373 0.0 28.776 0 0 0
237 5 32.373 0.0 32.373 0 0 0
240 5 30.5745 1.7985 32.373 0 0 0
241 5 32.373 3.597 0.0 0 0 0
242 5 32.373 5.3955 1.7985 0 0 0
246 5 32.373 5.3955 5.3955 0 0 0
247 5 30.5745 3.597 5.3955 0 0 0
249 5 32.373 3.597 7.194 0 0 0
262 5 32.373 5.3955 19.7835 0 0 0
264 5 30.5745 5.3955 17.985 0 0 0
268 5 30.5745 5.3955 21.582 0 0 0
270 5 32.373 5.3955 26.9775 0 0 0
275 5 30.5745 3.597 30.5745 0 0 0
276 5 30.5745 5.3955 28.776 0 0 0
277 5 32.373 3.597 32.373 0 0 0
278 5 32.373 5.3955 34.1715 0 0 0
279 5 30.5745 3.597 34.1715 0 0 0
280 5 30.5745 5.3955 32.373 0 0 0
288 5 30.5745 8.9925 3.597 0 0 0
290 5 32.373 8.9925 8.9925 0 0 0
296 5 30.5745 8.9925 10.791 0 0 0
299 5 30.5745 7.194 16.1865 0 0 0
301 5 32.373 7.194 17.985 0 0 0
302 5 32.373 8.9925 19.7835 0 0 0
303 5 30.5745 7.194 19.7835 0 0 0
315 5 30.5745 7.194 30.5745 0 0 0
329 5 32.373 10.791 7.194 0 0 0
330 5 32.373 12.5895 8.9925 0 0 0
331 5 30.5745 10.791 8.9925 0 0 0
338 5 32.373 12.5895 16.1865 0 0 0
340 5 30.5745 12.5895 14.388 0 0 0
343 5 30.5745 10.791 19.7835 0 0 0
351 5 30.5745 10.791 26.9775 0 0 0
362 5 32.373 16.1865 1.7985 0 0 0
367 5 30.5745 14.388 5.3955 0 0 0
372 5 30.5745 16.1865 7.194 0 0 0
374 5 32.373 16.1865 12.5895 0 0 0
376 5 30.5745 16.1865 10.791 0 0 0
379 5 30.5745 14.388 16.1865 0 0 0
380 5 30.5745 16.1865 14.388 0 0 0
383 5 30.5745 14.388 19.7835 0 0 0
385 5 32.373 14.388 21.582 0 0 0
388 5 30.5745 16.1865 21.582 0 0 0
389 5 32.373 14.388 25.179 0 0 0
401 5 32.373 17.985 0.0 0 0 0
405 5 32.373 17.985 3.597 0 0 0
406 5 32.373 19.7835 5.3955 0 0 0
409 5 32.373 17.985 7.194 0 0 0
413 5 32.373 17.985 10.791 0 0 0
414 5 32.373 19.7835 12.5895 0 0 0
415 5 30.5745 17.985 12.5895 0 0 0
416 5 30.5745 19.7835 10.791 0 0 0
427 5 30.5745 17.985 23.3805 0 0 0
432 5 30.5745 19.7835 25.179 0 0 0
433 5 32.373 17.985 28.776 0 0 0
438 5 32.373 19.7835 34.1715 0 0 0
439 5 30.5745 17.985 34.1715 0 0 0
450 5 32.373 23.3805 8.9925 0 0 0
459 5 30.5745 21.582 16.1865 0 0 0
460 5 30.5745 23.3805 14.388 0 0 0
464 5 30.5745 23.3805 17.985 0 0 0
470 5 32.373 23.3805 26.9775 0 0 0
476 5 30.5745 23.3805 28.776 0 0 0
477 5 32.373 21.582 32.373 0 0 0
478 5 32.373 23.3805 34.1715 0 0 0
479 5 30.5745 21.582 34.1715 0 0 0
480 5 30.5745 23.3805 32.373 0 0 0
487 5 30.5745 25.179 5.3955 0 0 0
504 5 30.5745 26.9775 17.985 0 0 0
507 5 30.5745 25.179 23.3805 0 0 0
510 5 32.373 26.9775 26.9775 0 0 0
511 5 30.5745 25.179 26.9775 0 0 0
514 5 32.373 26.9775 30.5745 0 0 0
516 5 30.5745 26.9775 28.776 0 0 0
517 5 32.373 25.179 32.373 0 0 0
519 5 30.5745 25.179 34.1715 0 0 0
523 5 30.5745 28.776 1.7985 0 0 0
524 5 30.5745 30.5745 0.0 0 0 0
525 5 32.373 28.776 3.597 0 0 0
533 5 32.373 28.776 10.791 0 0 0
538 5 32.373 30.5745 16.1865 0 0 0
549 5 32.373 28.776 25.179 0 0 0
553 5 32.373 28.776 28.776 0 0 0
554 5 32.373 30.5745 30.5745 0 0 0
557 5 32.373 28.776 32.373 0 0 0
565 5 32.373 32.373 3.597 0 0 0
570 5 32.373 34.1715 8.9925 0 0 0
572 5 30.5745 34.1715 7.194 0 0 0
573 5 32.373 32.373 10.791 0 0 0
574 5 32.373 34.1715 12.5895 0 0 0
576 5 30.5745 34.1715 10.791 0 0 0
577 5 32.373 32.373 14.388 0 0 0
579 5 30.5745 32.373 16.1865 0 0 0
580 5 30.5745 34.1715 14.388 0 0 0
587 5 30.5745 32.373 23.3805 0 0 0
594 5 32.373 34.1715 30.5745 0 0 0
599 5 30.5745 32.373 34.1715 0 0 0
601 5 28.776 0.0 0.0 0 0 0
602 5 28.776 1.7985 1.7985 0 0 0
603 5 26.9775 0.0 1.7985 0 0 0
606 5 28.776 1.7985 5.3955 0 0 0
608 5 26.9775 1.7985 3.597 0 0 0
612 5 26.9775 1.7985 7.194 0 0 0
614 5 28.776 1.7985 12.5895 0 0 0
617 5 28.776 0.0 14.388 0 0 0
622 5 28.776 1.7985 19.7835 0 0 0
623 5 26.9775 0.0 19.7835 0 0 0
624 5 26.9775 1.7985 17.985 0 0 0
631 5 26.9775 0.0 26.9775 0 0 0
632 5 26.9775 1.7985 25.179 0 0 0
633 5 28.776 0.0 28.776 0 0 0
634 5 28.776 1.7985 30.5745 0 0 0
636 5 26.9775 1.7985 28.776 0 0 0
647 5 26.9775 3.597 5.3955 0 0 0
650 5 28.776 5.3955 8.9925 0 0 0
652 5 26.9775 5.3955 7.194 0 0 0
661 5 28.776 3.597 17.985 0 0 0
665 5 28.776 3.597 21.582 0 0 0
666 5 28.776 5.3955 23.3805 0 0 0
667 5 26.9775 3.597 23.3805 0 0 0
671 5 26.9775 3.597 26.9775 0 0 0
675 5 26.9775 3.597 30.5745 0 0 0
677 5 28.776 3.597 32.373 0 0 0
678 5 28.776 5.3955 34.1715 0 0 0
679 5 26.9775 3.597 34.1715 0 0 0
685 5 28.776 7.194 3.597 0 0 0
689 5 28.776 7.194 7.194 0 0 0
697 5 28.776 7.194 14.388 0 0 0
699 5 26.9775 7.194 16.1865 0 0 0
701 5 28.776 7.194 17.985 0 0 0
703 5 26.9775 7.194 19.7835 0 0 0
706 5 28.776 8.9925 23.3805 0 0 0
707 5 26.9775 7.194 23.3805 0 0 0
709 5 28.776 7.194 25.179 0 0 0
720 5 26.9775 8.9925 32.373 0 0 0
723 5 26.9775 10.791 1.7985 0 0 0
724 5 26.9775 12.5895 0.0 0 0 0
726 5 28.776 12.5895 5.3955 0 0 0
729 5 28.776 10.791 7.194 0 0 0
736 5 26.9775 12.5895 10.791 0 0 0
746 5 28.776 12.5895 23.3805 0 0 0
749 5 28.776 10.791 25.179 0 0 0
756 5 26.9775 12.5895 28.776 0 0 0
760 5 26.9775 12.5895 32.373 0 0 0
764 5 26.9775 16.1865 0.0 0 0 0
772 5 26.9775 16.1865 7.194 0 0 0
784 5 26.9775 16.1865 17.985 0 0 0
786 5 28.776 16.1865 23.3805 0 0 0
808 5 26.9775 19.7835 3.597 0 0 0
810 5 28.776 19.7835 8.9925 0 0 0
817 5 28.776 17.985 14.388 0 0 0
820 5 26.9775 19.7835 14.388 0 0 0
821 5 28.776 17.985 17.985 0 0 0
824 5 26.9775 19.7835 17.985 0 0 0
825 5 28.776 17.985 21.582 0 0 0
826 5 28.776 19.7835 23.3805 0 0 0
840 5 26.9775 19.7835 32.373 0 0 0
850 5 28.776 23.3805 8.9925 0 0 0
851 5 26.9775 21.582 8.9925 0 0 0
856 5 26.9775 23.3805 10.791 0 0 0
860 5 26.9775 23.3805 14.388 0 0 0
861 5 28.776 21.582 17.985 0 0 0
865 5 28.776 21.582 21.582 0 0 0
866 5 28.776 23.3805 23.3805 0 0 0
869 5 28.776 21.582 25.179 0 0 0
887 5 26.9775 25.179 5.3955 0 0 0
889 5 28.776 25.179 7.194 0 0 0
897 5 28.776 25.179 14.388 0 0 0
900 5 26.9775 26.9775 14.388 0 0 0
901 5 28.776 25.179 17.985 0 0 0
903 5 26.9775 25.179 19.7835 0 0 0
905 5 28.776 25.179 21.582 0 0 0
924 5 26.9775 30.5745 0.0 0 0 0
929 5 28.776 28.776 7.194 0 0 0
937 5 28.776 28.776 14.388 0 0 0
946 5 28.776 30.5745 23.3805 0 0 0
954 5 28.776 30.5745 30.5745 0 0 0
957 5 28.776 28.776 32.373 0 0 0
958 5 28.776 30.5745 34.1715 0 0 0
960 5 26.9775 30.5745 32.373 0 0 0
961 5 28.776 32.373 0.0 0 0 0
963 5 26.9775 32.373 1.7985 0 0 0
966 5 28.776 34.1715 5.3955 0 0 0
972 5 26.9775 34.1715 7.194 0 0 0
973 5 28.776 32.373 10.791 0 0 0
974 5 28.776 34.1715 12.5895 0 0 0
978 5 28.776 34.1715 16.1865 0 0 0
980 5 26.9775 34.1715 14.388 0 0 0
985 5 28.776 32.373 21.582 0 0 0
992 5 26.9775 34.1715 25.179 0 0 0
996 5 26.9775 34.1715 28.776 0 0 0
1000 5 26.9775 34.1715 32.373 0 0 0
1001 5 25.179 0.0 0.0 0 0 0
1003 5 23.3805 0.0 1.7985 0 0 0
1006 5 25.179 1.7985 5.3955 0 0 0
1014 5 25.179 1.7985 12.5895 0 0 0
1020 5 23.3805 1.7985 14.388 0 0 0
1023 5 23.3805 0.0 19.7835 0 0 0
1025 5 25.179 0.0 21.582 0 0 0
1026 5 25.179 1.7985 23.3805 0 0 0
1031 5 23.3805 0.0 26.9775 0 0 0
1032 5 23.3805 1.7985 25.179 0 0 0
1034 5 25.179 1.7985 30.5745 0 0 0
1041 5 25.179 3.597 0.0 0 0 0
1044 5 23.3805 5.3955 0.0 0 0 0
1047 5 23.3805 3.597 5.3955 0 0 0
1051 5 23.3805 3.597 8.9925 0 0 0
1058 5 25.179 5.3955 16.1865 0 0 0
1060 5 23.3805 5.3955 14.388 0 0 0
1068 5 23.3805 5.3955 21.582 0 0 0
1070 5 25.179 5.3955 26.9775 0 0 0
1072 5 23.3805 5.3955 25.179 0 0 0
1073 5 25.179 3.597 28.776 0 0 0
1078 5 25.179 5.3955 34.1715 0 0 0
1081 5 25.179 7.194 0.0 0 0 0
1083 5 23.3805 7.194 1.7985 0 0 0
1087 5 23.3805 7.194 5.3955 0 0 0
1088 5 23.3805 8.9925 3.597 0 0 0
1090 5 25.179 8.9925 8.9925 0 0 0
1091 5 23.3805 7.194 8.9925 0 0 0
1101 5 25.179 7.194 17.985 0 0 0
1102 5 25.179 8.9925 19.7835 0 0 0
1104 5 23.3805 8.9925 17.985 0 0 0
1106 5 25.179 8.9925 23.3805 0 0 0
1109 5 25.179 7.194 25.179 0 0 0
1112 5 23.3805 8.9925 25.179 0 0 0
1117 5 25.179 7.194 32.373 0 0 0
1121 5 25.179 10.791 0.0 0 0 0
1125 5 25.179 10.791 3.597 0 0 0
1126 5 25.179 12.5895 5.3955 0 0 0
1130 5 25.179 12.5895 8.9925 0 0 0
1135 5 23.3805 10.791 12.5895 0 0 0
1138 5 25.179 12.5895 16.1865 0 0 0
1139 5 23.3805 10.791 16.1865 0 0 0
1140 5 23.3805 12.5895 14.388 0 0 0
1146 5 25.179 12.5895 23.3805 0 0 0
1148 5 23.3805 12.5895 21.582 0 0 0
1153 5 25.179 10.791 28.776 0 0 0
1159 5 23.3805 10.791 34.1715 0 0 0
1162 5 25.179 16.1865 1.7985 0 0 0
1181 5 25.179 14.388 17.985 0 0 0
1192 5 23.3805 16.1865 25.179 0 0 0
1200 5 23.3805 16.1865 32.373 0 0 0
1204 5 23.3805 19.7835 0.0 0 0 0
1213 5 25.179 17.985 10.791 0 0 0
1215 5 23.3805 17.985 12.5895 0 0 0
1216 5 23.3805 19.7835 10.791 0 0 0
1218 5 25.179 19.7835 16.1865 0 0 0
1221 5 25.179 17.985 17.985 0 0 0
1232 5 23.3805 19.7835 25.179 0 0 0
1244 5 23.3805 23.3805 0.0 0 0 0
1245 5 25.179 21.582 3.597 0 0 0
1249 5 25.179 21.582 7.194 0 0 0
1251 5 23.3805 21.582 8.9925 0 0 0
1259 5 23.3805 21.582 16.1865 0 0 0
1263 5 23.3805 21.582 19.7835 0 0 0
1269 5 25.179 21.582 25.179 0 0 0
1287 5 23.3805 25.179 5.3955 0 0 0
1290 5 25.179 26.9775 8.9925 0 0 0
1292 5 23.3805 26.9775 7.194 0 0 0
1293 5 25.179 25.179 10.791 0 0 0
1294 5 25.179 26.9775 12.5895 0 0 0
1296 5 23.3805 26.9775 10.791 0 0 0
1307 5 23.3805 25.179 23.3805 0 0 0
1309 5 25.179 25.179 25.179 0 0 0
1312 5 23.3805 26.9775 25.179 0 0 0
1318 5 25.179 26.9775 34.1715 0 0 0
1323 5 23.3805 28.776 1.7985 0 0 0
1324 5 23.3805 30.5745 0.0 0 0 0
1326 5 25.179 30.5745 5.3955 0 0 0
1333 5 25.179 28.776 10.791 0 0 0
1334 5 25.179 30.5745 12.5895 0 0 0
1336 5 23.3805 30.5745 10.791 0 0 0
1338 5 25.179 30.5745 16.1865 0 0 0
1339 5 23.3805 28.776 16.1865 0 0 0
1341 5 25.179 28.776 17.985 0 0 0
1357 5 25.179 28.776 32.373 0 0 0
1360 5 23.3805 30.5745 32.373 0 0 0
1362 5 25.179 34.1715 1.7985 0 0 0
1369 5 25.179 32.373 7.194 0 0 0
1379 5 23.3805 32.373 16.1865 0 0 0
1380 5 23.3805 34.1715 14.388 0 0 0
1381 5 25.179 32.373 17.985 0 0 0
1382 5 25.179 34.1715 19.7835 0 0 0
1386 5 25.179 34.1715 23.3805 0 0 0
1387 5 23.3805 32.373 23.3805 0 0 0
1392 5 23.3805 34.1715 25.179 0 0 0
1395 5 23.3805 32.373 30.5745 0 0 0
1398 5 25.179 34.1715 34.1715 0 0 0
1399 5 23.3805 32.373 34.1715 0 0 0
1401 5 21.582 0.0 0.0 0 0 0
1403 5 19.7835 0.0 1.7985 0 0 0
1404 5 19.7835 1.7985 0.0 0 0 0
1405 5 21.582 0.0 3.597 0 0 0
1421 5 21.582 0.0 17.985 0 0 0
1427 5 19.7835 0.0 23.3805 0 0 0
1434 5 21.582 1.7985 30.5745 0 0 0
1435 5 19.7835 0.0 30.5745 0 0 0
1436 5 19.7835 1.7985 28.776 0 0 0
1444 5 19.7835 5.3955 0.0 0 0 0
1446 5 21.582 5.3955 5.3955 0 0 0
1449 5 21.582 3.597 7.194 0 0 0
1450 5 21.582 5.3955 8.9925 0 0 0
1451 5 19.7835 3.597 8.9925 0 0 0
1452 5 19.7835 5.3955 7.194 0 0 0
1453 5 21.582 3.597 10.791 0 0 0
1459 5 19.7835 3.597 16.1865 0 0 0
1461 5 21.582 3.597 17.985 0 0 0
1464 5 19.7835 5.3955 17.985 0 0 0
1465 5 21.582 3.597 21.582 0 0 0
1466 5 21.582 5.3955 23.3805 0 0 0
1468 5 19.7835 5.3955 21.582 0 0 0
1472 5 19.7835 5.3955 25.179 0 0 0
1477 5 21.582 3.597 32.373 0 0 0
1478 5 21.582 5.3955 34.1715 0 0 0
1480 5 19.7835 5.3955 32.373 0 0 0
1485 5 21.582 7.194 3.597 0 0 0
1488 5 19.7835 8.9925 3.597 0 0 0
1490 5 21.582 8.9925 8.9925 0 0 0
1495 5 19.7835 7.194 12.5895 0 0 0
1496 5 19.7835 8.9925 10.791 0 0 0
1507 5 19.7835 7.194 23.3805 0 0 0
1517 5 21.582 7.194 32.373 0 0 0
1518 5 21.582 8.9925 34.1715 0 0 0
1521 5 21.582 10.791 0.0 0 0 0
1532 5 19.7835 12.5895 7.194 0 0 0
1534 5 21.582 12.5895 12.5895 0 0 0
1536 5 19.7835 12.5895 10.791 0 0 0
1543 5 19.7835 10.791 19.7835 0 0 0
1544 5 19.7835 12.5895 17.985 0 0 0
1545 5 21.582 10.791 21.582 0 0 0
1557 5 21.582 10.791 32.373 0 0 0
1559 5 19.7835 10.791 34.1715 0 0 0
1560 5 19.7835 12.5895 32.373 0 0 0
1561 5 21.582 14.388 0.0 0 0 0
1567 5 19.7835 14.388 5.3955 0 0 0
1569 5 21.582 14.388 7.194 0 0 0
1570 5 21.582 16.1865 8.9925 0 0 0
1577 5 21.582 14.388 14.388 0 0 0
1580 5 19.7835 16.1865 14.388 0 0 0
1599 5 19.7835 14.388 34.1715 0 0 0
1600 5 19.7835 16.1865 32.373 0 0 0
1602 5 21.582 19.7835 1.7985 0 0 0
1603 5 19.7835 17.985 1.7985 0 0 0
1609 5 21.582 17.985 7.194 0 0 0
1614 5 21.582 19.7835 12.5895 0 0 0
1615 5 19.7835 17.985 12.5895 0 0 0
1618 5 21.582 19.7835 16.1865 0 0 0
1621 5 21.582 17.985 17.985 0 0 0
1638 5 21.582 19.7835 34.1715 0 0 0
1641 5 21.582 21.582 0.0 0 0 0
1643 5 19.7835 21.582 1.7985 0 0 0
1649 5 21.582 21.582 7.194 0 0 0
1655 5 19.7835 21.582 12.5895 0 0 0
1657 5 21.582 21.582 14.388 0 0 0
1661 5 21.582 21.582 17.985 0 0 0
1663 5 19.7835 21.582 19.7835 0 0 0
1667 5 19.7835 21.582 23.3805 0 0 0
1669 5 21.582 21.582 25.179 0 0 0
1676 5 19.7835 23.3805 28.776 0 0 0
1688 5 19.7835 26.9775 3.597 0 0 0
1689 5 21.582 25.179 7.194 0 0 0
1691 5 19.7835 25.179 8.9925 0 0 0
1695 5 19.7835 25.179 12.5895 0 0 0
1696 5 19.7835 26.9775 10.791 0 0 0
1700 5 19.7835 26.9775 14.388 0 0 0
1702 5 21.582 26.9775 19.7835 0 0 0
1717 5 21.582 25.179 32.373 0 0 0
1719 5 19.7835 25.179 34.1715 0 0 0
1722 5 21.582 30.5745 1.7985 0 0 0
1724 5 19.7835 30.5745 0.0 0 0 0
1727 5 19.7835 28.776 5.3955 0 0 0
1729 5 21.582 28.776 7.194 0 0 0
1733 5 21.582 28.776 10.791 0 0 0
1742 5 21.582 30.5745 19.7835 0 0 0
1751 5 19.7835 28.776 26.9775 0 0 0
1752 5 19.7835 30.5745 25.179 0 0 0
1755 5 19.7835 28.776 30.5745 0 0 0
1756 5 19.7835 30.5745 28.776 0 0 0
1757 5 21.582 28.776 32.373 0 0 0
1760 5 19.7835 30.5745 32.373 0 0 0
1767 5 19.7835 32.373 5.3955 0 0 0
1774 5 21.582 34.1715 12.5895 0 0 0
1788 5 19.7835 34.1715 21.582 0 0 0
1791 5 19.7835 32.373 26.9775 0 0 0
1792 5 19.7835 34.1715 25.179 0 0 0
1794 5 21.582 34.1715 30.5745 0 0 0
1798 5 21.582 34.1715 34.1715 0 0 0
1799 5 19.7835 32.373 34.1715 0 0 0
1808 5 16.1865 1.7985 3.597 0 0 0
1811 5 16.1865 0.0 8.9925 0 0 0
1812 5 16.1865 1.7985 7.194 0 0 0
1815 5 16.1865 0.0 12.5895 0 0 0
1819 5 16.1865 0.0 16.1865 0 0 0
1822 5 17.985 1.7985 19.7835 0 0 0
1834 5 17.985 1.7985 30.5745 0 0 0
1839 5 16.1865 0.0 34.1715 0 0 0
1841 5 17.985 3.597 0.0 0 0 0
1845 5 17.985 3.597 3.597 0 0 0
1852 5 16.1865 5.3955 7.194 0 0 0
1853 5 17.985 3.597 10.791 0 0 0
1854 5 17.985 5.3955 12.5895 0 0 0
1856 5 16.1865 5.3955 10.791 0 0 0
1863 5 16.1865 3.597 19.7835 0 0 0
1874 5 17.985 5.3955 30.5745 0 0 0
1878 5 17.985 5.3955 34.1715 0 0 0
1881 5 17.985 7.194 0.0 0 0 0
1885 5 17.985 7.194 3.597 0 0 0
1887 5 16.1865 7.194 5.3955 0 0 0
1890 5 17.985 8.9925 8.9925 0 0 0
1895 5 16.1865 7.194 12.5895 0 0 0
1898 5 17.985 8.9925 16.1865 0 0 0
1899 5 16.1865 7.194 16.1865 0 0 0
1900 5 16.1865 8.9925 14.388 0 0 0
1903 5 16.1865 7.194 19.7835 0 0 0
1905 5 17.985 7.194 21.582 0 0 0
1907 5 16.1865 7.194 23.3805 0 0 0
1911 5 16.1865 7.194 26.9775 0 0 0
1916 5 16.1865 8.9925 28.776 0 0 0
1917 5 17.985 7.194 32.373 0 0 0
1924 5 16.1865 12.5895 0.0 0 0 0
1930 5 17.985 12.5895 8.9925 0 0 0
1931 5 16.1865 10.791 8.9925 0 0 0
1938 5 17.985 12.5895 16.1865 0 0 0
1939 5 16.1865 10.791 16.1865 0 0 0
1941 5 17.985 10.791 17.985 0 0 0
1943 5 16.1865 10.791 19.7835 0 0 0
1956 5 16.1865 12.5895 28.776 0 0 0
1957 5 17.985 10.791 32.373 0 0 0
1958 5 17.985 12.5895 34.1715 0 0 0
1960 5 16.1865 12.5895 32.373 0 0 0
1961 5 17.985 14.388 0.0 0 0 0
1962 5 17.985 16.1865 1.7985 0 0 0
1969 5 17.985 14.388 7.194 0 0 0
1970 5 17.985 16.1865 8.9925 0 0 0
1972 5 16.1865 16.1865 7.194 0 0 0
1977 5 17.985 14.388 14.388 0 0 0
1983 5 16.1865 14.388 19.7835 0 0 0
1984 5 16.1865 16.1865 17.985 0 0 0
1990 5 17.985 16.1865 26.9775 0 0 0
1998 5 17.985 16.1865 34.1715 0 0 0
2001 5 17.985 17.985 0.0 0 0 0
2005 5 17.985 17.985 3.597 0 0 0
2016 5 16.1865 19.7835 10.791 0 0 0
2017 5 17.985 17.985 14.388 0 0 0
2022 5 17.985 19.7835 19.7835 0 0 0
2039 5 16.1865 17.985 34.1715 0 0 0
2043 5 16.1865 21.582 1.7985 0 0 0
2051 5 16.1865 21.582 8.9925 0 0 0
2052 5 16.1865 23.3805 7.194 0 0 0
2053 5 17.985 21.582 10.791 0 0 0
2054 5 17.985 23.3805 12.5895 0 0 0
2056 5 16.1865 23.3805 10.791 0 0 0
2059 5 16.1865 21.582 16.1865 0 0 0
2060 5 16.1865 23.3805 14.388 0 0 0
2063 5 16.1865 21.582 19.7835 0 0 0
2071 5 16.1865 21.582 26.9775 0 0 0
2074 5 17.985 23.3805 30.5745 0 0 0
2077 5 17.985 21.582 32.373 0 0 0
2083 5 16.1865 25.179 1.7985 0 0 0
2086 5 17.985 26.9775 5.3955 0 0 0
2088 5 16.1865 26.9775 3.597 0 0 0
2094 5 17.985 26.9775 12.5895 0 0 0
2099 5 16.1865 25.179 16.1865 0 0 0
2102 5 17.985 26.9775 19.7835 0 0 0
2113 5 17.985 25.179 28.776 0 0 0
2116 5 16.1865 26.9775 28.776 0 0 0
2119 5 16.1865 25.179 34.1715 0 0 0
2122 5 17.985 30.5745 1.7985 0 0 0
2126 5 17.985 30.5745 5.3955 0 0 0
2127 5 16.1865 28.776 5.3955 0 0 0
2132 5 16.1865 30.5745 7.194 0 0 0
2134 5 17.985 30.5745 12.5895 0 0 0
2135 5 16.1865 28.776 12.5895 0 0 0
2137 5 17.985 28.776 14.388 0 0 0
2139 5 16.1865 28.776 16.1865 0 0 0
2144 5 16.1865 30.5745 17.985 0 0 0
2160 5 16.1865 30.5745 32.373 0 0 0
2166 5 17.985 34.1715 5.3955 0 0 0
2172 5 16.1865 34.1715 7.194 0 0 0
2174 5 17.985 34.1715 12.5895 0 0 0
2182 5 17.985 34.1715 19.7835 0 0 0
2186 5 17.985 34.1715 23.3805 0 0 0
2191 5 16.1865 32.373 26.9775 0 0 0
2195 5 16.1865 32.373 30.5745 0 0 0
2199 5 16.1865 32.373 34.1715 0 0 0
2200 5 16.1865 34.1715 32.373 0 0 0
2205 5 14.388 0.0 3.597 0 0 0
2215 5 12.5895 0.0 12.5895 0 0 0
2220 5 12.5895 1.7985 14.388 0 0 0
2223 5 12.5895 0.0 19.7835 0 0 0
2227 5 12.5895 0.0 23.3805 0 0 0
2235 5 12.5895 0.0 30.5745 0 0 0
2240 5 12.5895 1.7985 32.373 0 0 0
2242 5 14.388 5.3955 1.7985 0 0 0
2244 5 12.5895 5.3955 0.0 0 0 0
2248 5 12.5895 5.3955 3.597 0 0 0
2251 5 12.5895 3.597 8.9925 0 0 0
2256 5 12.5895 5.3955 10.791 0 0 0
2259 5 12.5895 3.597 16.1865 0 0 0
2268 5 12.5895 5.3955 21.582 0 0 0
2274 5 14.388 5.3955 30.5745 0 0 0
2278 5 14.388 5.3955 34.1715 0 0 0
2284 5 12.5895 8.9925 0.0 0 0 0
2294 5 14.388 8.9925 12.5895 0 0 0
2297 5 14.388 7.194 14.388 0 0 0
2302 5 14.388 8.9925 19.7835 0 0 0
2304 5 12.5895 8.9925 17.985 0 0 0
2309 5 14.388 7.194 25.179 0 0 0
2315 5 12.5895 7.194 30.5745 0 0 0
2316 5 12.5895 8.9925 28.776 0 0 0
2326 5 14.388 12.5895 5.3955 0 0 0
2328 5 12.5895 12.5895 3.597 0 0 0
2336 5 12.5895 12.5895 10.791 0 0 0
2343 5 12.5895 10.791 19.7835 0 0 0
2344 5 12.5895 12.5895 17.985 0 0 0
2345 5 14.388 10.791 21.582 0 0 0
2348 5 12.5895 12.5895 21.582 0 0 0
2349 5 14.388 10.791 25.179 0 0 0
2353 5 14.388 10.791 28.776 0 0 0
2354 5 14.388 12.5895 30.5745 0 0 0
2359 5 12.5895 10.791 34.1715 0 0 0
2361 5 14.388 14.388 0.0 0 0 0
2377 5 14.388 14.388 14.388 0 0 0
2378 5 14.388 16.1865 16.1865 0 0 0
2380 5 12.5895 16.1865 14.388 0 0 0
2388 5 12.5895 16.1865 21.582 0 0 0
2394 5 14.388 16.1865 30.5745 0 0 0
2397 5 14.388 14.388 32.373 0 0 0
2399 5 12.5895 14.388 34.1715 0 0 0
2404 5 12.5895 19.7835 0.0 0 0 0
2405 5 14.388 17.985 3.597 0 0 0
2411 5 12.5895 17.985 8.9925 0 0 0
2413 5 14.388 17.985 10.791 0 0 0
2424 5 12.5895 19.7835 17.985 0 0 0
2427 5 12.5895 17.985 23.3805 0 0 0
2431 5 12.5895 17.985 26.9775 0 0 0
2442 5 14.388 23.3805 1.7985 0 0 0
2444 5 12.5895 23.3805 0.0 0 0 0
2447 5 12.5895 21.582 5.3955 0 0 0
2454 5 14.388 23.3805 12.5895 0 0 0
2456 5 12.5895 23.3805 10.791 0 0 0
2466 5 14.388 23.3805 23.3805 0 0 0
2467 5 12.5895 21.582 23.3805 0 0 0
2468 5 12.5895 23.3805 21.582 0 0 0
2470 5 14.388 23.3805 26.9775 0 0 0
2471 5 12.5895 21.582 26.9775 0 0 0
2475 5 12.5895 21.582 30.5745 0 0 0
2478 5 14.388 23.3805 34.1715 0 0 0
2486 5 14.388 26.9775 5.3955 0 0 0
2489 5 14.388 25.179 7.194 0 0 0
2490 5 14.388 26.9775 8.9925 0 0 0
2497 5 14.388 25.179 14.388 0 0 0
2504 5 12.5895 26.9775 17.985 0 0 0
2508 5 12.5895 26.9775 21.582 0 0 0
2509 5 14.388 25.179 25.179 0 0 0
2514 5 14.388 26.9775 30.5745 0 0 0
2517 5 14.388 25.179 32.373 0 0 0
2561 5 14.388 32.373 0.0 0 0 0
2562 5 14.388 34.1715 1.7985 0 0 0
2563 5 12.5895 32.373 1.7985 0 0 0
2570 5 14.388 34.1715 8.9925 0 0 0
2578 5 14.388 34.1715 16.1865 0 0 0
2583 5 12.5895 32.373 19.7835 0 0 0
2584 5 12.5895 34.1715 17.985 0 0 0
2586 5 14.388 34.1715 23.3805 0 0 0
2593 5 14.388 32.373 28.776 0 0 0
2595 5 12.5895 32.373 30.5745 0 0 0
2596 5 12.5895 34.1715 28.776 0 0 0
2607 5 8.9925 0.0 5.3955 0 0 0
2608 5 8.9925 1.7985 3.597 0 0 0
2611 5 8.9925 0.0 8.9925 0 0 0
2616 5 8.9925 1.7985 10.791 0 0 0
2619 5 8.9925 0.0 16.1865 0 0 0
2620 5 8.9925 1.7985 14.388 0 0 0
2633 5 10.791 0.0 28.776 0 0 0
2634 5 10.791 1.7985 30.5745 0 0 0
2640 5 8.9925 1.7985 32.373 0 0 0
2647 5 8.9925 3.597 5.3955 0 0 0
2648 5 8.9925 5.3955 3.597 0 0 0
2653 5 10.791 3.597 10.791 0 0 0
2654 5 10.791 5.3955 12.5895 0 0 0
2662 5 10.791 5.3955 19.7835 0 0 0
2665 5 10.791 3.597 21.582 0 0 0
2668 5 8.9925 5.3955 21.582 0 0 0
2678 5 10.791 5.3955 34.1715 0 0 0
2679 5 8.9925 3.597 34.1715 0 0 0
2687 5 8.9925 7.194 5.3955 0 0 0
2689 5 10.791 7.194 7.194 0 0 0
2693 5 10.791 7.194 10.791 0 0 0
2698 5 10.791 8.9925 16.1865 0 0 0
2702 5 10.791 8.9925 19.7835 0 0 0
2709 5 10.791 7.194 25.179 0 0 0
2711 5 8.9925 7.194 26.9775 0 0 0
2723 5 8.9925 10.791 1.7985 0 0 0
2729 5 10.791 10.791 7.194 0 0 0
2731 5 8.9925 10.791 8.9925 0 0 0
2732 5 8.9925 12.5895 7.194 0 0 0
2734 5 10.791 12.5895 12.5895 0 0 0
2737 5 10.791 10.791 14.388 0 0 0
2740 5 8.9925 12.5895 14.388 0 0 0
2742 5 10.791 12.5895 19.7835 0 0 0
2744 5 8.9925 12.5895 17.985 0 0 0
2755 5 8.9925 10.791 30.5745 0 0 0
2760 5 8.9925 12.5895 32.373 0 0 0
2761 5 10.791 14.388 0.0 0 0 0
2762 5 10.791 16.1865 1.7985 0 0 0
2764 5 8.9925 16.1865 0.0 0 0 0
2767 5 8.9925 14.388 5.3955 0 0 0
2775 5 8.9925 14.388 12.5895 0 0 0
2781 5 10.791 14.388 17.985 0 0 0
2786 5 10.791 16.1865 23.3805 0 0 0
2789 5 10.791 14.388 25.179 0 0 0
2791 5 8.9925 14.388 26.9775 0 0 0
2794 5 10.791 16.1865 30.5745 0 0 0
2795 5 8.9925 14.388 30.5745 0 0 0
2803 5 8.9925 17.985 1.7985 0 0 0
2805 5 10.791 17.985 3.597 0 0 0
2807 5 8.9925 17.985 5.3955 0 0 0
2810 5 10.791 19.7835 8.9925 0 0 0
2819 5 8.9925 17.985 16.1865 0 0 0
2825 5 10.791 17.985 21.582 0 0 0
2832 5 8.9925 19.7835 25.179 0 0 0
2838 5 10.791 19.7835 34.1715 0 0 0
2839 5 8.9925 17.985 34.1715 0 0 0
2847 5 8.9925 21.582 5.3955 0 0 0
2848 5 8.9925 23.3805 3.597 0 0 0
2855 5 8.9925 21.582 12.5895 0 0 0
2862 5 10.791 23.3805 19.7835 0 0 0
2868 5 8.9925 23.3805 21.582 0 0 0
2873 5 10.791 21.582 28.776 0 0 0
2877 5 10.791 21.582 32.373 0 0 0
2882 5 10.791 26.9775 1.7985 0 0 0
2890 5 10.791 26.9775 8.9925 0 0 0
2891 5 8.9925 25.179 8.9925 0 0 0
2895 5 8.9925 25.179 12.5895 0 0 0
2898 5 10.791 26.9775 16.1865 0 0 0
2899 5 8.9925 25.179 16.1865 0 0 0
2901 5 10.791 25.179 17.985 0 0 0
2907 5 8.9925 25.179 23.3805 0 0 0
2908 5 8.9925 26.9775 21.582 0 0 0
2914 5 10.791 26.9775 30.5745 0 0 0
2919 5 8.9925 25.179 34.1715 0 0 0
2920 5 8.9925 26.9775 32.373 0 0 0
2921 5 10.791 28.776 0.0 0 0 0
2924 5 8.9925 30.5745 0.0 0 0 0
2925 5 10.791 28.776 3.597 0 0 0
2930 5 10.791 30.5745 8.9925 0 0 0
2931 5 8.9925 28.776 8.9925 0 0 0
2945 5 10.791 28.776 21.582 0 0 0
2947 5 8.9925 28.776 23.3805 0 0 0
2948 5 8.9925 30.5745 21.582 0 0 0
2952 5 8.9925 30.5745 25.179 0 0 0
2955 5 8.9925 28.776 30.5745 0 0 0
2961 5 10.791 32.373 0.0 0 0 0
2974 5 10.791 34.1715 12.5895 0 0 0
2976 5 8.9925 34.1715 10.791 0 0 0
2980 5 8.9925 34.1715 14.388 0 0 0
2989 5 10.791 32.373 25.179 0 0 0
2992 5 8.9925 34.1715 25.179 0 0 0
2994 5 10.791 34.1715 30.5745 0 0 0
2996 5 8.9925 34.1715 28.776 0 0 0
3000 5 8.9925 34.1715 32.373 0 0 0
3005 5 7.194 0.0 3.597 0 0 0
3009 5 7.194 0.0 7.194 0 0 0
3019 5 5.3955 0.0 16.1865 0 0 0
3027 5 5.3955 0.0 23.3805 0 0 0
3037 5 7.194 0.0 32.373 0 0 0
3047 5 5.3955 3.597 5.3955 0 0 0
3048 5 5.3955 5.3955 3.597 0 0 0
3056 5 5.3955 5.3955 10.791 0 0 0
3059 5 5.3955 3.597 16.1865 0 0 0
3061 5 7.194 3.597 17.985 0 0 0
3068 5 5.3955 5.3955 21.582 0 0 0
3071 5 5.3955 3.597 26.9775 0 0 0
3079 5 5.3955 3.597 34.1715 0 0 0
3080 5 5.3955 5.3955 32.373 0 0 0
3081 5 7.194 7.194 0.0 0 0 0
3086 5 7.194 8.9925 5.3955 0 0 0
3089 5 7.194 7.194 7.194 0 0 0
3090 5 7.194 8.9925 8.9925 0 0 0
3092 5 5.3955 8.9925 7.194 0 0 0
3094 5 7.194 8.9925 12.5895 0 0 0
3097 5 7.194 7.194 14.388 0 0 0
3098 5 7.194 8.9925 16.1865 0 0 0
3103 5 5.3955 7.194 19.7835 0 0 0
3104 5 5.3955 8.9925 17.985 0 0 0
3110 5 7.194 8.9925 26.9775 0 0 0
3114 5 7.194 8.9925 30.5745 0 0 0
3117 5 7.194 7.194 32.373 0 0 0
3118 5 7.194 8.9925 34.1715 0 0 0
3119 5 5.3955 7.194 34.1715 0 0 0
3124 5 5.3955 12.5895 0.0 0 0 0
3127 5 5.3955 10.791 5.3955 0 0 0
3140 5 5.3955 12.5895 14.388 0 0 0
3141 5 7.194 10.791 17.985 0 0 0
3144 5 5.3955 12.5895 17.985 0 0 0
3153 5 7.194 10.791 28.776 0 0 0
3154 5 7.194 12.5895 30.5745 0 0 0
3164 5 5.3955 16.1865 0.0 0 0 0
3165 5 7.194 14.388 3.597 0 0 0
3168 5 5.3955 16.1865 3.597 0 0 0
3171 5 5.3955 14.388 8.9925 0 0 0
3172 5 5.3955 16.1865 7.194 0 0 0
3177 5 7.194 14.388 14.388 0 0 0
3180 5 5.3955 16.1865 14.388 0 0 0
3181 5 7.194 14.388 17.985 0 0 0
3188 5 5.3955 16.1865 21.582 0 0 0
3189 5 7.194 14.388 25.179 0 0 0
3191 5 5.3955 14.388 26.9775 0 0 0
3198 5 7.194 16.1865 34.1715 0 0 0
3203 5 5.3955 17.985 1.7985 0 0 0
3204 5 5.3955 19.7835 0.0 0 0 0
3207 5 5.3955 17.985 5.3955 0 0 0
3208 5 5.3955 19.7835 3.597 0 0 0
3211 5 5.3955 17.985 8.9925 0 0 0
3214 5 7.194 19.7835 12.5895 0 0 0
3215 5 5.3955 17.985 12.5895 0 0 0
3216 5 5.3955 19.7835 10.791 0 0 0
3219 5 5.3955 17.985 16.1865 0 0 0
3220 5 5.3955 19.7835 14.388 0 0 0
3229 5 7.194 17.985 25.179 0 0 0
3233 5 7.194 17.985 28.776 0 0 0
3234 5 7.194 19.7835 30.5745 0 0 0
3236 5 5.3955 19.7835 28.776 0 0 0
3249 5 7.194 21.582 7.194 0 0 0
3251 5 5.3955 21.582 8.9925 0 0 0
3252 5 5.3955 23.3805 7.194 0 0 0
3253 5 7.194 21.582 10.791 0 0 0
3260 5 5.3955 23.3805 14.388 0 0 0
3261 5 7.194 21.582 17.985 0 0 0
3266 5 7.194 23.3805 23.3805 0 0 0
3269 5 7.194 21.582 25.179 0 0 0
3270 5 7.194 23.3805 26.9775 0 0 0
3272 5 5.3955 23.3805 25.179 0 0 0
3273 5 7.194 21.582 28.776 0 0 0
3277 5 7.194 21.582 32.373 0 0 0
3282 5 7.194 26.9775 1.7985 0 0 0
3283 5 5.3955 25.179 1.7985 0 0 0
3289 5 7.194 25.179 7.194 0 0 0
3304 5 5.3955 26.9775 17.985 0 0 0
3305 5 7.194 25.179 21.582 0 0 0
3309 5 7.194 25.179 25.179 0 0 0
3319 5 5.3955 25.179 34.1715 0 0 0
3324 5 5.3955 30.5745 0.0 0 0 0
3326 5 7.194 30.5745 5.3955 0 0 0
3327 5 5.3955 28.776 5.3955 0 0 0
3329 5 7.194 28.776 7.194 0 0 0
3331 5 5.3955 28.776 8.9925 0 0 0
3332 5 5.3955 30.5745 7.194 0 0 0
3333 5 7.194 28.776 10.791 0 0 0
3334 5 7.194 30.5745 12.5895 0 0 0
3340 5 5.3955 30.5745 14.388 0 0 0
3347 5 5.3955 28.776 23.3805 0 0 0
3351 5 5.3955 28.776 26.9775 0 0 0
3357 5 7.194 28.776 32.373 0 0 0
3360 5 5.3955 30.5745 32.373 0 0 0
3363 5 5.3955 32.373 1.7985 0 0 0
3377 5 7.194 32.373 14.388 0 0 0
3379 5 5.3955 32.373 16.1865 0 0 0
3381 5 7.194 32.373 17.985 0 0 0
3382 5 7.194 34.1715 19.7835 0 0 0
3383 5 5.3955 32.373 19.7835 0 0 0
3387 5 5.3955 32.373 23.3805 0 0 0
3388 5 5.3955 34.1715 21.582 0 0 0
3389 5 7.194 32.373 25.179 0 0 0
3391 5 5.3955 32.373 26.9775 0 0 0
3392 5 5.3955 34.1715 25.179 0 0 0
3395 5 5.3955 32.373 30.5745 0 0 0
3398 5 7.194 34.1715 34.1715 0 0 0
3406 5 3.597 1.7985 5.3955 0 0 0
3407 5 1.7985 0.0 5.3955 0 0 0
3408 5 1.7985 1.7985 3.597 0 0 0
3409 5 3.597 0.0 7.194 0 0 0
3413 5 3.597 0.0 10.791 0 0 0
3416 5 1.7985 1.7985 10.791 0 0 0
3418 5 3.597 1.7985 16.1865 0 0 0
3425 5 3.597 0.0 21.582 0 0 0
3427 5 1.7985 0.0 23.3805 0 0 0
3428 5 1.7985 1.7985 21.582 0 0 0
3431 5 1.7985 0.0 26.9775 0 0 0
3432 5 1.7985 1.7985 25.179 0 0 0
3433 5 3.597 0.0 28.776 0 0 0
3434 5 3.597 1.7985 30.5745 0 0 0
3435 5 1.7985 0.0 30.5745 0 0 0
3439 5 1.7985 0.0 34.1715 0 0 0
3441 5 3.597 3.597 0.0 0 0 0
3449 5 3.597 3.597 7.194 0 0 0
3455 5 1.7985 3.597 12.5895 0 0 0
3461 5 3.597 3.597 17.985 0 0 0
3468 5 1.7985 5.3955 21.582 0 0 0
3474 5 3.597 5.3955 30.5745 0 0 0
3475 5 1.7985 3.597 30.5745 0 0 0
3477 5 3.597 3.597 32.373 0 0 0
3478 5 3.597 5.3955 34.1715 0 0 0
3481 5 3.597 7.194 0.0 0 0 0
3482 5 3.597 8.9925 1.7985 0 0 0
3493 5 3.597 7.194 10.791 0 0 0
3494 5 3.597 8.9925 12.5895 0 0 0
3502 5 3.597 8.9925 19.7835 0 0 0
3504 5 1.7985 8.9925 17.985 0 0 0
3510 5 3.597 8.9925 26.9775 0 0 0
3511 5 1.7985 7.194 26.9775 0 0 0
3512 5 1.7985 8.9925 25.179 0 0 0
3513 5 3.597 7.194 28.776 0 0 0
3523 5 1.7985 10.791 1.7985 0 0 0
3525 5 3.597 10.791 3.597 0 0 0
3529 5 3.597 10.791 7.194 0 0 0
3530 5 3.597 12.5895 8.9925 0 0 0
3533 5 3.597 10.791 10.791 0 0 0
3552 5 1.7985 12.5895 25.179 0 0 0
3558 5 3.597 12.5895 34.1715 0 0 0
3563 5 1.7985 14.388 1.7985 0 0 0
3567 5 1.7985 14.388 5.3955 0 0 0
3570 5 3.597 16.1865 8.9925 0 0 0
3580 5 1.7985 16.1865 14.388 0 0 0
3581 5 3.597 14.388 17.985 0 0 0
3584 5 1.7985 16.1865 17.985 0 0 0
3595 5 1.7985 14.388 30.5745 0 0 0
3596 5 1.7985 16.1865 28.776 0 0 0
3599 5 1.7985 14.388 34.1715 0 0 0
3600 5 1.7985 16.1865 32.373 0 0 0
3612 5 1.7985 19.7835 7.194 0 0 0
3613 5 3.597 17.985 10.791 0 0 0
3621 5 3.597 17.985 17.985 0 0 0
3624 5 1.7985 19.7835 17.985 0 0 0
3625 5 3.597 17.985 21.582 0 0 0
3630 5 3.597 19.7835 26.9775 0 0 0
3638 5 3.597 19.7835 34.1715 0 0 0
3640 5 1.7985 19.7835 32.373 0 0 0
3651 5 1.7985 21.582 8.9925 0 0 0
3654 5 3.597 23.3805 12.5895 0 0 0
3657 5 3.597 21.582 14.388 0 0 0
3659 5 1.7985 21.582 16.1865 0 0 0
3661 5 3.597 21.582 17.985 0 0 0
3665 5 3.597 21.582 21.582 0 0 0
3668 5 1.7985 23.3805 21.582 0 0 0
3669 5 3.597 21.582 25.179 0 0 0
3671 5 1.7985 21.582 26.9775 0 0 0
3681 5 3.597 25.179 0.0 0 0 0
3682 5 3.597 26.9775 1.7985 0 0 0
3684 5 1.7985 26.9775 0.0 0 0 0
3686 5 3.597 26.9775 5.3955 0 0 0
3690 5 3.597 26.9775 8.9925 0 0 0
3703 5 1.7985 25.179 19.7835 0 0 0
3708 5 1.7985 26.9775 21.582 0 0 0
3710 5 3.597 26.9775 26.9775 0 0 0
3712 5 1.7985 26.9775 25.179 0 0 0
3718 5 3.597 26.9775 34.1715 0 0 0
3721 5 3.597 28.776 0.0 0 0 0
3728 5 1.7985 30.5745 3.597 0 0 0
3729 5 3.597 28.776 7.194 0 0 0
3730 5 3.597 30.5745 8.9925 0 0 0
3731 5 1.7985 28.776 8.9925 0 0 0
3740 5 1.7985 30.5745 14.388 0 0 0
3748 5 1.7985 30.5745 21.582 0 0 0
3749 5 3.597 28.776 25.179 0 0 0
3751 5 1.7985 28.776 26.9775 0 0 0
3757 5 3.597 28.776 32.373 0 0 0
3759 5 1.7985 28.776 34.1715 0 0 0
3762 5 3.597 34.1715 1.7985 0 0 0
3767 5 1.7985 32.373 5.3955 0 0 0
3769 5 3.597 32.373 7.194 0 0 0
3773 5 3.597 32.373 10.791 0 0 0
3778 5 3.597 34.1715 16.1865 0 0 0
3782 5 3.597 34.1715 19.7835 0 0 0
3790 5 3.597 34.1715 26.9775 0 0 0
3791 5 1.7985 32.373 26.9775 0 0 0
3798 5 3.597 34.1715 34.1715 0 0 0
3800 5 1.7985 34.1715 32.373 0 0 0
3802 5 0.0 1.7985 1.7985 0 0 0
3803 5 0.0 0.0 3.597 0 0 0
3806 5 0.0 1.7985 8.9925 0 0 0
3812 5 0.0 1.7985 19.7835 0 0 0
3817 5 0.0 0.0 28.776 0 0 0
3824 5 0.0 5.3955 5.3955 0 0 0
3825 5 0.0 3.597 7.194 0 0 0
3829 5 0.0 3.597 14.388 0 0 0
3832 5 0.0 5.3955 19.7835 0 0 0
3837 5 0.0 3.597 28.776 0 0 0
3838 5 0.0 5.3955 30.5745 0 0 0
3839 5 0.0 3.597 32.373 0 0 0
3847 5 0.0 7.194 10.791 0 0 0
3850 5 0.0 8.9925 16.1865 0 0 0
3855 5 0.0 7.194 25.179 0 0 0
3857 5 0.0 7.194 28.776 0 0 0
3862 5 0.0 12.5895 1.7985 0 0 0
3876 5 0.0 12.5895 26.9775 0 0 0
3883 5 0.0 14.388 3.597 0 0 0
3889 5 0.0 14.388 14.388 0 0 0
3891 5 0.0 14.388 17.985 0 0 0
3900 5 0.0 16.1865 34.1715 0 0 0
3909 5 0.0 17.985 14.388 0 0 0
3917 5 0.0 17.985 28.776 0 0 0
3918 5 0.0 19.7835 30.5745 0 0 0
3920 5 0.0 19.7835 34.1715 0 0 0
3922 5 0.0 23.3805 1.7985 0 0 0
3931 5 0.0 21.582 17.985 0 0 0
3932 5 0.0 23.3805 19.7835 0 0 0
3937 5 0.0 21.582 28.776 0 0 0
3939 5 0.0 21.582 32.373 0 0 0
3946 5 0.0 26.9775 8.9925 0 0 0
3954 5 0.0 26.9775 23.3805 0 0 0
3958 5 0.0 26.9775 30.5745 0 0 0
3960 5 0.0 26.9775 34.1715 0 0 0
3966 5 0.0 30.5745 8.9925 0 0 0
3973 5 0.0 28.776 21.582 0 0 0
3974 5 0.0 30.5745 23.3805 0 0 0
3977 5 0.0 28.776 28.776 0 0 0
3979 5 0.0 28.776 32.373 0 0 0
3981 5 0.0 32.373 0.0 0 0 0
3986 5 0.0 34.1715 8.9925 0 0 0
3987 5 0.0 32.373 10.791 0 0 0
3988 5 0.0 34.1715 12.5895 0 0 0
3990 5 0.0 34.1715 16.1865 0 0 0
3998 5 0.0 34.1715 30.5745 0 0 0
