LAMMPS data file via write_data version 30 Jul 2021 timestep = 0
4000 atoms
5 atom types
0 35.97 xlo xhi
0 35.97 ylo yhi
0 35.97 zlo zhi
0.0 0.0 0.0 xy xz yz
 
Masses
 
1 1.0
2 2.0
3 3.0
4 4.0
5 5.0
 
Atoms  # atomic
 
86 1 34.1715 16.1865 7.194 0 0 0
417 1 32.373 17.985 14.388 0 0 0
88 1 34.1715 16.1865 10.791 0 0 0
1760 1 19.7835 30.5745 32.373 0 0 0
3037 1 7.194 0.0 32.373 0 0 0
199 1 34.1715 32.373 34.1715 0 0 0
1461 1 21.582 3.597 17.985 0 0 0
3712 1 1.7985 26.9775 25.179 0 0 0
3261 1 7.194 21.582 17.985 0 0 0
1549 1 21.582 10.791 25.179 0 0 0
942 1 28.776 30.5745 19.7835 0 0 0
2299 1 12.5895 7.194 16.1865 0 0 0
3614 1 3.597 19.7835 12.5895 0 0 0
1042 1 25.179 5.3955 1.7985 0 0 0
390 1 32.373 16.1865 26.9775 0 0 0
1068 1 23.3805 5.3955 21.582 0 0 0
1783 1 19.7835 32.373 19.7835 0 0 0
1089 1 25.179 7.194 7.194 0 0 0
1107 1 23.3805 7.194 23.3805 0 0 0
1646 1 21.582 23.3805 5.3955 0 0 0
335 1 30.5745 10.791 12.5895 0 0 0
700 1 26.9775 8.9925 14.388 0 0 0
1104 1 23.3805 8.9925 17.985 0 0 0
3872 1 0.0 12.5895 19.7835 0 0 0
920 1 26.9775 26.9775 32.373 0 0 0
2584 1 12.5895 34.1715 17.985 0 0 0
152 1 34.1715 26.9775 17.985 0 0 0
2699 1 8.9925 7.194 16.1865 0 0 0
3952 1 0.0 26.9775 19.7835 0 0 0
1325 1 25.179 28.776 3.597 0 0 0
332 1 30.5745 12.5895 7.194 0 0 0
3654 1 3.597 23.3805 12.5895 0 0 0
32 1 34.1715 5.3955 17.985 0 0 0
2986 1 10.791 34.1715 23.3805 0 0 0
2647 1 8.9925 3.597 5.3955 0 0 0
2652 1 8.9925 5.3955 7.194 0 0 0
2204 1 12.5895 1.7985 0.0 0 0 0
3509 1 3.597 7.194 25.179 0 0 0
1946 1 17.985 12.5895 23.3805 0 0 0
1767 1 19.7835 32.373 5.3955 0 0 0
358 1 32.373 12.5895 34.1715 0 0 0
1785 1 21.582 32.373 21.582 0 0 0
1860 1 16.1865 5.3955 14.388 0 0 0
3547 1 1.7985 10.791 23.3805 0 0 0
1114 1 25.179 8.9925 30.5745 0 0 0
2941 1 10.791 28.776 17.985 0 0 0
264 1 30.5745 5.3955 17.985 0 0 0
779 1 26.9775 14.388 16.1865 0 0 0
3121 1 7.194 10.791 0.0 0 0 0
2429 1 14.388 17.985 25.179 0 0 0
781 1 28.776 14.388 17.985 0 0 0
155 1 34.1715 25.179 26.9775 0 0 0
2618 1 10.791 1.7985 16.1865 0 0 0
3291 1 5.3955 25.179 8.9925 0 0 0
3600 1 1.7985 16.1865 32.373 0 0 0
3909 1 0.0 17.985 14.388 0 0 0
3698 1 3.597 26.9775 16.1865 0 0 0
2851 1 8.9925 21.582 8.9925 0 0 0
3926 1 0.0 23.3805 8.9925 0 0 0
1819 1 16.1865 0.0 16.1865 0 0 0
2812 1 8.9925 19.7835 7.194 0 0 0
3150 1 7.194 12.5895 26.9775 0 0 0
886 1 28.776 26.9775 5.3955 0 0 0
1094 1 25.179 8.9925 12.5895 0 0 0
680 1 26.9775 5.3955 32.373 0 0 0
2947 1 8.9925 28.776 23.3805 0 0 0
1654 1 21.582 23.3805 12.5895 0 0 0
2161 1 17.985 32.373 0.0 0 0 0
790 1 28.776 16.1865 26.9775 0 0 0
2341 1 14.388 10.791 17.985 0 0 0
3385 1 7.194 32.373 21.582 0 0 0
665 1 28.776 3.597 21.582 0 0 0
3217 1 7.194 17.985 14.388 0 0 0
748 1 26.9775 12.5895 21.582 0 0 0
2620 1 8.9925 1.7985 14.388 0 0 0
1662 1 21.582 23.3805 19.7835 0 0 0
629 1 28.776 0.0 25.179 0 0 0
99 1 34.1715 14.388 34.1715 0 0 0
635 1 26.9775 0.0 30.5745 0 0 0
2615 1 8.9925 0.0 12.5895 0 0 0
2922 1 10.791 30.5745 1.7985 0 0 0
1765 1 21.582 32.373 3.597 0 0 0
3304 1 5.3955 26.9775 17.985 0 0 0
3492 1 1.7985 8.9925 7.194 0 0 0
1406 1 21.582 1.7985 5.3955 0 0 0
820 1 26.9775 19.7835 14.388 0 0 0
2128 1 16.1865 30.5745 3.597 0 0 0
2550 1 14.388 30.5745 26.9775 0 0 0
1078 1 25.179 5.3955 34.1715 0 0 0
2804 1 8.9925 19.7835 0.0 0 0 0
701 1 28.776 7.194 17.985 0 0 0
373 1 32.373 14.388 10.791 0 0 0
1278 1 25.179 23.3805 34.1715 0 0 0
112 1 34.1715 19.7835 17.985 0 0 0
1322 1 25.179 30.5745 1.7985 0 0 0
1478 1 21.582 5.3955 34.1715 0 0 0
2717 1 10.791 7.194 32.373 0 0 0
3430 1 3.597 1.7985 26.9775 0 0 0
512 1 30.5745 26.9775 25.179 0 0 0
3841 1 0.0 7.194 0.0 0 0 0
2701 1 10.791 7.194 17.985 0 0 0
3228 1 5.3955 19.7835 21.582 0 0 0
3788 1 1.7985 34.1715 21.582 0 0 0
1762 1 21.582 34.1715 1.7985 0 0 0
2777 1 10.791 14.388 14.388 0 0 0
1708 1 19.7835 26.9775 21.582 0 0 0
306 1 32.373 8.9925 23.3805 0 0 0
3536 1 1.7985 12.5895 10.791 0 0 0
3117 1 7.194 7.194 32.373 0 0 0
1307 1 23.3805 25.179 23.3805 0 0 0
3292 1 5.3955 26.9775 7.194 0 0 0
6 1 34.1715 1.7985 7.194 0 0 0
1178 1 25.179 16.1865 16.1865 0 0 0
1120 1 23.3805 8.9925 32.373 0 0 0
3397 1 7.194 32.373 32.373 0 0 0
761 1 28.776 14.388 0.0 0 0 0
707 1 26.9775 7.194 23.3805 0 0 0
2719 1 8.9925 7.194 34.1715 0 0 0
2493 1 14.388 25.179 10.791 0 0 0
3763 1 1.7985 32.373 1.7985 0 0 0
3091 1 5.3955 7.194 8.9925 0 0 0
1913 1 17.985 7.194 28.776 0 0 0
655 1 26.9775 3.597 12.5895 0 0 0
1003 1 23.3805 0.0 1.7985 0 0 0
2015 1 16.1865 17.985 12.5895 0 0 0
3128 1 5.3955 12.5895 3.597 0 0 0
901 1 28.776 25.179 17.985 0 0 0
3014 1 7.194 1.7985 12.5895 0 0 0
3588 1 1.7985 16.1865 21.582 0 0 0
727 1 26.9775 10.791 5.3955 0 0 0
3837 1 0.0 3.597 28.776 0 0 0
3558 1 3.597 12.5895 34.1715 0 0 0
1855 1 16.1865 3.597 12.5895 0 0 0
249 1 32.373 3.597 7.194 0 0 0
1481 1 21.582 7.194 0.0 0 0 0
45 1 34.1715 7.194 8.9925 0 0 0
1729 1 21.582 28.776 7.194 0 0 0
897 1 28.776 25.179 14.388 0 0 0
2778 1 10.791 16.1865 16.1865 0 0 0
1554 1 21.582 12.5895 30.5745 0 0 0
469 1 32.373 21.582 25.179 0 0 0
2748 1 8.9925 12.5895 21.582 0 0 0
461 1 32.373 21.582 17.985 0 0 0
1681 1 21.582 25.179 0.0 0 0 0
3671 1 1.7985 21.582 26.9775 0 0 0
3752 1 1.7985 30.5745 25.179 0 0 0
3867 1 0.0 10.791 10.791 0 0 0
3429 1 3.597 0.0 25.179 0 0 0
1570 1 21.582 16.1865 8.9925 0 0 0
1118 1 25.179 8.9925 34.1715 0 0 0
728 1 26.9775 12.5895 3.597 0 0 0
1872 1 16.1865 5.3955 25.179 0 0 0
3576 1 1.7985 16.1865 10.791 0 0 0
3027 1 5.3955 0.0 23.3805 0 0 0
234 1 32.373 1.7985 30.5745 0 0 0
624 1 26.9775 1.7985 17.985 0 0 0
2314 1 14.388 8.9925 30.5745 0 0 0
3733 1 3.597 28.776 10.791 0 0 0
3945 1 0.0 25.179 7.194 0 0 0
280 1 30.5745 5.3955 32.373 0 0 0
2767 1 8.9925 14.388 5.3955 0 0 0
2049 1 17.985 21.582 7.194 0 0 0
3293 1 7.194 25.179 10.791 0 0 0
348 1 30.5745 12.5895 21.582 0 0 0
1108 1 23.3805 8.9925 21.582 0 0 0
144 1 34.1715 26.9775 3.597 0 0 0
1903 1 16.1865 7.194 19.7835 0 0 0
2743 1 8.9925 10.791 19.7835 0 0 0
2553 1 14.388 28.776 28.776 0 0 0
1893 1 17.985 7.194 10.791 0 0 0
2763 1 8.9925 14.388 1.7985 0 0 0
1815 1 16.1865 0.0 12.5895 0 0 0
2604 1 8.9925 1.7985 0.0 0 0 0
2747 1 8.9925 10.791 23.3805 0 0 0
2026 1 17.985 19.7835 23.3805 0 0 0
3818 1 0.0 1.7985 30.5745 0 0 0
127 1 34.1715 21.582 12.5895 0 0 0
3831 1 0.0 3.597 17.985 0 0 0
1277 1 25.179 21.582 32.373 0 0 0
1651 1 19.7835 21.582 8.9925 0 0 0
2967 1 8.9925 32.373 5.3955 0 0 0
840 1 26.9775 19.7835 32.373 0 0 0
2720 1 8.9925 8.9925 32.373 0 0 0
3507 1 1.7985 7.194 23.3805 0 0 0
1502 1 21.582 8.9925 19.7835 0 0 0
836 1 26.9775 19.7835 28.776 0 0 0
2145 1 17.985 28.776 21.582 0 0 0
824 1 26.9775 19.7835 17.985 0 0 0
82 1 34.1715 16.1865 0.0 0 0 0
3559 1 1.7985 10.791 34.1715 0 0 0
956 1 26.9775 30.5745 28.776 0 0 0
203 1 30.5745 0.0 1.7985 0 0 0
359 1 30.5745 10.791 34.1715 0 0 0
309 1 32.373 7.194 25.179 0 0 0
126 1 34.1715 23.3805 7.194 0 0 0
3142 1 7.194 12.5895 19.7835 0 0 0
3365 1 7.194 32.373 3.597 0 0 0
3900 1 0.0 16.1865 34.1715 0 0 0
3494 1 3.597 8.9925 12.5895 0 0 0
2552 1 12.5895 30.5745 25.179 0 0 0
772 2 26.9775 16.1865 7.194 0 0 0
391 2 30.5745 14.388 26.9775 0 0 0
893 2 28.776 25.179 10.791 0 0 0
3341 2 7.194 28.776 17.985 0 0 0
3262 2 7.194 23.3805 19.7835 0 0 0
2740 2 8.9925 12.5895 14.388 0 0 0
967 2 26.9775 32.373 5.3955 0 0 0
175 2 34.1715 28.776 26.9775 0 0 0
2773 2 10.791 14.388 10.791 0 0 0
1152 2 23.3805 12.5895 25.179 0 0 0
1134 2 25.179 12.5895 12.5895 0 0 0
1432 2 19.7835 1.7985 25.179 0 0 0
646 2 28.776 5.3955 5.3955 0 0 0
1671 2 19.7835 21.582 26.9775 0 0 0
756 2 26.9775 12.5895 28.776 0 0 0
2232 2 12.5895 1.7985 25.179 0 0 0
179 2 34.1715 28.776 34.1715 0 0 0
269 2 32.373 3.597 25.179 0 0 0
1805 2 17.985 0.0 3.597 0 0 0
2451 2 12.5895 21.582 8.9925 0 0 0
2702 2 10.791 8.9925 19.7835 0 0 0
2928 2 8.9925 30.5745 3.597 0 0 0
2637 2 10.791 0.0 32.373 0 0 0
1776 2 19.7835 34.1715 10.791 0 0 0
2527 2 12.5895 28.776 5.3955 0 0 0
2423 2 12.5895 17.985 19.7835 0 0 0
1852 2 16.1865 5.3955 7.194 0 0 0
746 2 28.776 12.5895 23.3805 0 0 0
1738 2 21.582 30.5745 16.1865 0 0 0
365 2 32.373 14.388 3.597 0 0 0
2140 2 16.1865 30.5745 14.388 0 0 0
2536 2 12.5895 30.5745 10.791 0 0 0
1083 2 23.3805 7.194 1.7985 0 0 0
2864 2 8.9925 23.3805 17.985 0 0 0
2994 2 10.791 34.1715 30.5745 0 0 0
2375 2 12.5895 14.388 12.5895 0 0 0
2201 2 14.388 0.0 0.0 0 0 0
2456 2 12.5895 23.3805 10.791 0 0 0
226 2 32.373 1.7985 23.3805 0 0 0
3066 2 7.194 5.3955 23.3805 0 0 0
411 2 30.5745 17.985 8.9925 0 0 0
3048 2 5.3955 5.3955 3.597 0 0 0
1952 2 16.1865 12.5895 25.179 0 0 0
2936 2 8.9925 30.5745 10.791 0 0 0
3200 2 5.3955 16.1865 32.373 0 0 0
1756 2 19.7835 30.5745 28.776 0 0 0
2136 2 16.1865 30.5745 10.791 0 0 0
1779 2 19.7835 32.373 16.1865 0 0 0
3436 2 1.7985 1.7985 28.776 0 0 0
1695 2 19.7835 25.179 12.5895 0 0 0
2917 2 10.791 25.179 32.373 0 0 0
1647 2 19.7835 21.582 5.3955 0 0 0
1933 2 17.985 10.791 10.791 0 0 0
1567 2 19.7835 14.388 5.3955 0 0 0
1128 2 23.3805 12.5895 3.597 0 0 0
3955 2 0.0 25.179 25.179 0 0 0
458 2 32.373 23.3805 16.1865 0 0 0
2617 2 10.791 0.0 14.388 0 0 0
3594 2 3.597 16.1865 30.5745 0 0 0
2190 2 17.985 34.1715 26.9775 0 0 0
385 2 32.373 14.388 21.582 0 0 0
3491 2 1.7985 7.194 8.9925 0 0 0
3642 2 3.597 23.3805 1.7985 0 0 0
302 2 32.373 8.9925 19.7835 0 0 0
3690 2 3.597 26.9775 8.9925 0 0 0
2914 2 10.791 26.9775 30.5745 0 0 0
571 2 30.5745 32.373 8.9925 0 0 0
1468 2 19.7835 5.3955 21.582 0 0 0
2486 2 14.388 26.9775 5.3955 0 0 0
2210 2 14.388 1.7985 8.9925 0 0 0
656 2 26.9775 5.3955 10.791 0 0 0
3647 2 1.7985 21.582 5.3955 0 0 0
1992 2 16.1865 16.1865 25.179 0 0 0
257 2 32.373 3.597 14.388 0 0 0
3373 2 7.194 32.373 10.791 0 0 0
2975 2 8.9925 32.373 12.5895 0 0 0
1463 2 19.7835 3.597 19.7835 0 0 0
3426 2 3.597 1.7985 23.3805 0 0 0
1826 2 17.985 1.7985 23.3805 0 0 0
2925 2 10.791 28.776 3.597 0 0 0
103 2 34.1715 17.985 5.3955 0 0 0
91 2 34.1715 14.388 19.7835 0 0 0
101 2 34.1715 17.985 1.7985 0 0 0
2802 2 10.791 19.7835 1.7985 0 0 0
575 2 30.5745 32.373 12.5895 0 0 0
60 2 34.1715 8.9925 32.373 0 0 0
1774 2 21.582 34.1715 12.5895 0 0 0
801 2 28.776 17.985 0.0 0 0 0
2846 2 10.791 23.3805 5.3955 0 0 0
1326 2 25.179 30.5745 5.3955 0 0 0
2402 2 14.388 19.7835 1.7985 0 0 0
601 2 28.776 0.0 0.0 0 0 0
1359 2 23.3805 28.776 34.1715 0 0 0
2894 2 10.791 26.9775 12.5895 0 0 0
2613 2 10.791 0.0 10.791 0 0 0
2174 2 17.985 34.1715 12.5895 0 0 0
1691 2 19.7835 25.179 8.9925 0 0 0
1492 2 19.7835 8.9925 7.194 0 0 0
2150 2 17.985 30.5745 26.9775 0 0 0
1599 2 19.7835 14.388 34.1715 0 0 0
2141 2 17.985 28.776 17.985 0 0 0
2130 2 17.985 30.5745 8.9925 0 0 0
506 2 32.373 26.9775 23.3805 0 0 0
3033 2 7.194 0.0 28.776 0 0 0
3748 2 1.7985 30.5745 21.582 0 0 0
1064 2 23.3805 5.3955 17.985 0 0 0
588 2 30.5745 34.1715 21.582 0 0 0
2034 2 17.985 19.7835 30.5745 0 0 0
1142 2 25.179 12.5895 19.7835 0 0 0
2463 2 12.5895 21.582 19.7835 0 0 0
2076 2 16.1865 23.3805 28.776 0 0 0
1983 2 16.1865 14.388 19.7835 0 0 0
3485 2 3.597 7.194 3.597 0 0 0
651 2 26.9775 3.597 8.9925 0 0 0
3913 2 0.0 17.985 21.582 0 0 0
3704 2 1.7985 26.9775 17.985 0 0 0
1939 2 16.1865 10.791 16.1865 0 0 0
350 2 32.373 12.5895 26.9775 0 0 0
1693 2 21.582 25.179 10.791 0 0 0
3801 2 0.0 0.0 0.0 0 0 0
2356 2 12.5895 12.5895 28.776 0 0 0
1742 2 21.582 30.5745 19.7835 0 0 0
2175 2 16.1865 32.373 12.5895 0 0 0
290 2 32.373 8.9925 8.9925 0 0 0
2526 2 14.388 30.5745 5.3955 0 0 0
149 2 34.1715 25.179 16.1865 0 0 0
1204 2 23.3805 19.7835 0.0 0 0 0
1177 2 25.179 14.388 14.388 0 0 0
3352 2 5.3955 30.5745 25.179 0 0 0
1918 2 17.985 8.9925 34.1715 0 0 0
566 2 32.373 34.1715 5.3955 0 0 0
3272 2 5.3955 23.3805 25.179 0 0 0
3888 2 0.0 16.1865 12.5895 0 0 0
2808 2 8.9925 19.7835 3.597 0 0 0
58 2 34.1715 8.9925 28.776 0 0 0
3462 2 3.597 5.3955 19.7835 0 0 0
46 2 34.1715 8.9925 7.194 0 0 0
940 2 26.9775 30.5745 14.388 0 0 0
1099 2 23.3805 7.194 16.1865 0 0 0
3260 2 5.3955 23.3805 14.388 0 0 0
930 2 28.776 30.5745 8.9925 0 0 0
3413 2 3.597 0.0 10.791 0 0 0
1532 2 19.7835 12.5895 7.194 0 0 0
426 2 32.373 19.7835 23.3805 0 0 0
2022 2 17.985 19.7835 19.7835 0 0 0
521 2 32.373 28.776 0.0 0 0 0
1402 2 21.582 1.7985 1.7985 0 0 0
3040 2 5.3955 1.7985 32.373 0 0 0
1866 2 17.985 5.3955 23.3805 0 0 0
2363 2 12.5895 14.388 1.7985 0 0 0
2409 2 14.388 17.985 7.194 0 0 0
1382 2 25.179 34.1715 19.7835 0 0 0
1901 2 17.985 7.194 17.985 0 0 0
1423 2 19.7835 0.0 19.7835 0 0 0
1179 2 23.3805 14.388 16.1865 0 0 0
1643 2 19.7835 21.582 1.7985 0 0 0
3661 2 3.597 21.582 17.985 0 0 0
2848 2 8.9925 23.3805 3.597 0 0 0
1257 2 25.179 21.582 14.388 0 0 0
130 2 34.1715 23.3805 14.388 0 0 0
1356 2 23.3805 30.5745 28.776 0 0 0
333 2 32.373 10.791 10.791 0 0 0
2090 2 17.985 26.9775 8.9925 0 0 0
1615 2 19.7835 17.985 12.5895 0 0 0
111 2 34.1715 17.985 19.7835 0 0 0
719 2 26.9775 7.194 34.1715 0 0 0
3259 2 5.3955 21.582 16.1865 0 0 0
2665 2 10.791 3.597 21.582 0 0 0
2073 2 17.985 21.582 28.776 0 0 0
3309 2 7.194 25.179 25.179 0 0 0
3964 2 0.0 30.5745 5.3955 0 0 0
1519 2 19.7835 7.194 34.1715 0 0 0
2985 2 10.791 32.373 21.582 0 0 0
2481 2 14.388 25.179 0.0 0 0 0
3452 2 1.7985 5.3955 7.194 0 0 0
823 2 26.9775 17.985 19.7835 0 0 0
1311 2 23.3805 25.179 26.9775 0 0 0
1013 2 25.179 0.0 10.791 0 0 0
3583 2 1.7985 14.388 19.7835 0 0 0
2500 2 12.5895 26.9775 14.388 0 0 0
3005 2 7.194 0.0 3.597 0 0 0
2371 2 12.5895 14.388 8.9925 0 0 0
3162 2 7.194 16.1865 1.7985 0 0 0
1746 2 21.582 30.5745 23.3805 0 0 0
891 2 26.9775 25.179 8.9925 0 0 0
1261 2 25.179 21.582 17.985 0 0 0
2700 2 8.9925 8.9925 14.388 0 0 0
1733 2 21.582 28.776 10.791 0 0 0
531 2 30.5745 28.776 8.9925 0 0 0
2832 2 8.9925 19.7835 25.179 0 0 0
395 2 30.5745 14.388 30.5745 0 0 0
1496 2 19.7835 8.9925 10.791 0 0 0
2596 2 12.5895 34.1715 28.776 0 0 0
3006 2 7.194 1.7985 5.3955 0 0 0
3591 2 1.7985 14.388 26.9775 0 0 0
1309 2 25.179 25.179 25.179 0 0 0
3207 2 5.3955 17.985 5.3955 0 0 0
1115 2 23.3805 7.194 30.5745 0 0 0
2255 2 12.5895 3.597 12.5895 0 0 0
1362 2 25.179 34.1715 1.7985 0 0 0
378 2 32.373 16.1865 16.1865 0 0 0
3820 2 0.0 1.7985 34.1715 0 0 0
817 2 28.776 17.985 14.388 0 0 0
3970 2 0.0 30.5745 16.1865 0 0 0
3517 2 3.597 7.194 32.373 0 0 0
2221 2 14.388 0.0 17.985 0 0 0
657 2 28.776 3.597 14.388 0 0 0
993 2 28.776 32.373 28.776 0 0 0
1985 2 17.985 14.388 21.582 0 0 0
1241 2 25.179 21.582 0.0 0 0 0
2663 2 8.9925 3.597 19.7835 0 0 0
2954 2 10.791 30.5745 30.5745 0 0 0
1626 2 21.582 19.7835 23.3805 0 0 0
394 2 32.373 16.1865 30.5745 0 0 0
1962 2 17.985 16.1865 1.7985 0 0 0
2835 2 8.9925 17.985 30.5745 0 0 0
3343 2 5.3955 28.776 19.7835 0 0 0
1715 2 19.7835 25.179 30.5745 0 0 0
240 2 30.5745 1.7985 32.373 0 0 0
3646 2 3.597 23.3805 5.3955 0 0 0
2284 2 12.5895 8.9925 0.0 0 0 0
3122 2 7.194 12.5895 1.7985 0 0 0
2114 2 17.985 26.9775 30.5745 0 0 0
2826 2 10.791 19.7835 23.3805 0 0 0
2485 2 14.388 25.179 3.597 0 0 0
2534 2 14.388 30.5745 12.5895 0 0 0
3334 2 7.194 30.5745 12.5895 0 0 0
2065 2 17.985 21.582 21.582 0 0 0
1885 2 17.985 7.194 3.597 0 0 0
1097 2 25.179 7.194 14.388 0 0 0
2514 2 14.388 26.9775 30.5745 0 0 0
3826 2 0.0 5.3955 8.9925 0 0 0
475 2 30.5745 21.582 30.5745 0 0 0
3330 2 7.194 30.5745 8.9925 0 0 0
3025 2 7.194 0.0 21.582 0 0 0
1079 2 23.3805 3.597 34.1715 0 0 0
2668 2 8.9925 5.3955 21.582 0 0 0
1396 2 23.3805 34.1715 28.776 0 0 0
1 2 34.1715 0.0 1.7985 0 0 0
3135 2 5.3955 10.791 12.5895 0 0 0
1879 2 16.1865 3.597 34.1715 0 0 0
3317 2 7.194 25.179 32.373 0 0 0
3332 2 5.3955 30.5745 7.194 0 0 0
1336 2 23.3805 30.5745 10.791 0 0 0
2950 2 10.791 30.5745 26.9775 0 0 0
607 2 26.9775 0.0 5.3955 0 0 0
1045 2 25.179 3.597 3.597 0 0 0
1908 2 16.1865 8.9925 21.582 0 0 0
1629 2 21.582 17.985 25.179 0 0 0
2373 2 14.388 14.388 10.791 0 0 0
3487 2 1.7985 7.194 5.3955 0 0 0
1397 2 25.179 32.373 32.373 0 0 0
1621 2 21.582 17.985 17.985 0 0 0
420 2 30.5745 19.7835 14.388 0 0 0
1968 2 16.1865 16.1865 3.597 0 0 0
1035 2 23.3805 0.0 30.5745 0 0 0
289 2 32.373 7.194 7.194 0 0 0
667 2 26.9775 3.597 23.3805 0 0 0
2379 2 12.5895 14.388 16.1865 0 0 0
2259 2 12.5895 3.597 16.1865 0 0 0
2343 2 12.5895 10.791 19.7835 0 0 0
570 2 32.373 34.1715 8.9925 0 0 0
3595 2 1.7985 14.388 30.5745 0 0 0
976 2 26.9775 34.1715 10.791 0 0 0
1797 2 21.582 32.373 32.373 0 0 0
1631 2 19.7835 17.985 26.9775 0 0 0
2345 2 14.388 10.791 21.582 0 0 0
1246 2 25.179 23.3805 5.3955 0 0 0
957 2 28.776 28.776 32.373 0 0 0
3986 2 0.0 34.1715 8.9925 0 0 0
816 2 26.9775 19.7835 10.791 0 0 0
1655 2 19.7835 21.582 12.5895 0 0 0
2523 2 12.5895 28.776 1.7985 0 0 0
2103 2 16.1865 25.179 19.7835 0 0 0
608 2 26.9775 1.7985 3.597 0 0 0
3764 2 1.7985 34.1715 0.0 0 0 0
2906 2 10.791 26.9775 23.3805 0 0 0
1690 2 21.582 26.9775 8.9925 0 0 0
34 2 34.1715 5.3955 21.582 0 0 0
2367 2 12.5895 14.388 5.3955 0 0 0
3461 2 3.597 3.597 17.985 0 0 0
341 2 32.373 10.791 17.985 0 0 0
932 2 26.9775 30.5745 7.194 0 0 0
2516 2 12.5895 26.9775 28.776 0 0 0
1638 2 21.582 19.7835 34.1715 0 0 0
1894 2 17.985 8.9925 12.5895 0 0 0
343 2 30.5745 10.791 19.7835 0 0 0
992 2 26.9775 34.1715 25.179 0 0 0
84 2 34.1715 16.1865 3.597 0 0 0
975 2 26.9775 32.373 12.5895 0 0 0
2261 2 14.388 3.597 17.985 0 0 0
2867 2 8.9925 21.582 23.3805 0 0 0
1147 2 23.3805 10.791 23.3805 0 0 0
3736 2 1.7985 30.5745 10.791 0 0 0
591 2 30.5745 32.373 26.9775 0 0 0
2788 2 8.9925 16.1865 21.582 0 0 0
3815 2 0.0 0.0 25.179 0 0 0
2213 2 14.388 0.0 10.791 0 0 0
1997 2 17.985 14.388 32.373 0 0 0
547 2 30.5745 28.776 23.3805 0 0 0
1527 2 19.7835 10.791 5.3955 0 0 0
1459 2 19.7835 3.597 16.1865 0 0 0
398 2 32.373 16.1865 34.1715 0 0 0
2400 2 12.5895 16.1865 32.373 0 0 0
507 2 30.5745 25.179 23.3805 0 0 0
3947 2 0.0 25.179 10.791 0 0 0
2102 2 17.985 26.9775 19.7835 0 0 0
3190 2 7.194 16.1865 26.9775 0 0 0
1963 2 16.1865 14.388 1.7985 0 0 0
1393 2 25.179 32.373 28.776 0 0 0
7 2 34.1715 0.0 12.5895 0 0 0
3412 2 1.7985 1.7985 7.194 0 0 0
1772 2 19.7835 34.1715 7.194 0 0 0
43 2 34.1715 7.194 5.3955 0 0 0
2858 2 10.791 23.3805 16.1865 0 0 0
3031 2 5.3955 0.0 26.9775 0 0 0
315 2 30.5745 7.194 30.5745 0 0 0
354 2 32.373 12.5895 30.5745 0 0 0
677 2 28.776 3.597 32.373 0 0 0
2509 2 14.388 25.179 25.179 0 0 0
2825 2 10.791 17.985 21.582 0 0 0
2602 2 10.791 1.7985 1.7985 0 0 0
3384 2 5.3955 34.1715 17.985 0 0 0
1660 2 19.7835 23.3805 14.388 0 0 0
1876 2 16.1865 5.3955 28.776 0 0 0
782 2 28.776 16.1865 19.7835 0 0 0
30 2 34.1715 5.3955 14.388 0 0 0
48 2 34.1715 8.9925 10.791 0 0 0
3542 2 3.597 12.5895 19.7835 0 0 0
1825 2 17.985 0.0 21.582 0 0 0
687 2 26.9775 7.194 5.3955 0 0 0
1051 2 23.3805 3.597 8.9925 0 0 0
1972 2 16.1865 16.1865 7.194 0 0 0
3020 2 5.3955 1.7985 14.388 0 0 0
997 2 28.776 32.373 32.373 0 0 0
838 2 28.776 19.7835 34.1715 0 0 0
3285 2 7.194 25.179 3.597 0 0 0
473 2 32.373 21.582 28.776 0 0 0
2529 2 14.388 28.776 7.194 0 0 0
3176 2 5.3955 16.1865 10.791 0 0 0
2374 2 14.388 16.1865 12.5895 0 0 0
2982 2 10.791 34.1715 19.7835 0 0 0
3849 2 0.0 7.194 14.388 0 0 0
2532 2 12.5895 30.5745 7.194 0 0 0
678 2 28.776 5.3955 34.1715 0 0 0
3050 2 7.194 5.3955 8.9925 0 0 0
1330 2 25.179 30.5745 8.9925 0 0 0
673 2 28.776 3.597 28.776 0 0 0
3271 2 5.3955 21.582 26.9775 0 0 0
2807 2 8.9925 17.985 5.3955 0 0 0
1740 2 19.7835 30.5745 14.388 0 0 0
3029 2 7.194 0.0 25.179 0 0 0
2932 2 8.9925 30.5745 7.194 0 0 0
3359 2 5.3955 28.776 34.1715 0 0 0
514 2 32.373 26.9775 30.5745 0 0 0
1616 2 19.7835 19.7835 10.791 0 0 0
1429 2 21.582 0.0 25.179 0 0 0
952 2 26.9775 30.5745 25.179 0 0 0
1372 2 23.3805 34.1715 7.194 0 0 0
2981 2 10.791 32.373 17.985 0 0 0
3136 2 5.3955 12.5895 10.791 0 0 0
2293 2 14.388 7.194 10.791 0 0 0
2037 2 17.985 17.985 32.373 0 0 0
1055 2 23.3805 3.597 12.5895 0 0 0
1143 2 23.3805 10.791 19.7835 0 0 0
978 2 28.776 34.1715 16.1865 0 0 0
2082 2 17.985 26.9775 1.7985 0 0 0
564 2 30.5745 34.1715 0.0 0 0 0
1938 2 17.985 12.5895 16.1865 0 0 0
2467 2 12.5895 21.582 23.3805 0 0 0
2019 2 16.1865 17.985 16.1865 0 0 0
1982 2 17.985 16.1865 19.7835 0 0 0
1719 2 19.7835 25.179 34.1715 0 0 0
1538 2 21.582 12.5895 16.1865 0 0 0
3129 2 7.194 10.791 7.194 0 0 0
851 2 26.9775 21.582 8.9925 0 0 0
2817 2 10.791 17.985 14.388 0 0 0
3710 2 3.597 26.9775 26.9775 0 0 0
3811 2 0.0 0.0 17.985 0 0 0
159 2 34.1715 25.179 34.1715 0 0 0
3578 2 3.597 16.1865 16.1865 0 0 0
3850 3 0.0 8.9925 16.1865 0 0 0
1352 3 23.3805 30.5745 25.179 0 0 0
3549 3 3.597 10.791 25.179 0 0 0
47 3 34.1715 7.194 12.5895 0 0 0
2309 3 14.388 7.194 25.179 0 0 0
502 3 32.373 26.9775 19.7835 0 0 0
694 3 28.776 8.9925 12.5895 0 0 0
684 3 26.9775 8.9925 0.0 0 0 0
2315 3 12.5895 7.194 30.5745 0 0 0
2762 3 10.791 16.1865 1.7985 0 0 0
3775 3 1.7985 32.373 12.5895 0 0 0
3290 3 7.194 26.9775 8.9925 0 0 0
1153 3 25.179 10.791 28.776 0 0 0
2432 3 12.5895 19.7835 25.179 0 0 0
1966 3 17.985 16.1865 5.3955 0 0 0
636 3 26.9775 1.7985 28.776 0 0 0
1781 3 21.582 32.373 17.985 0 0 0
3047 3 5.3955 3.597 5.3955 0 0 0
114 3 34.1715 19.7835 21.582 0 0 0
872 3 26.9775 23.3805 25.179 0 0 0
1661 3 21.582 21.582 17.985 0 0 0
2830 3 10.791 19.7835 26.9775 0 0 0
135 3 34.1715 21.582 26.9775 0 0 0
3532 3 1.7985 12.5895 7.194 0 0 0
3421 3 3.597 0.0 17.985 0 0 0
2705 3 10.791 7.194 21.582 0 0 0
1095 3 23.3805 7.194 12.5895 0 0 0
1200 3 23.3805 16.1865 32.373 0 0 0
1150 3 25.179 12.5895 26.9775 0 0 0
3989 3 0.0 32.373 14.388 0 0 0
3181 3 7.194 14.388 17.985 0 0 0
3981 3 0.0 32.373 0.0 0 0 0
2995 3 8.9925 32.373 30.5745 0 0 0
2537 3 14.388 28.776 14.388 0 0 0
184 3 34.1715 34.1715 3.597 0 0 0
1998 3 17.985 16.1865 34.1715 0 0 0
2416 3 12.5895 19.7835 10.791 0 0 0
3598 3 3.597 16.1865 34.1715 0 0 0
1829 3 17.985 0.0 25.179 0 0 0
2795 3 8.9925 14.388 30.5745 0 0 0
2067 3 16.1865 21.582 23.3805 0 0 0
3289 3 7.194 25.179 7.194 0 0 0
494 3 32.373 26.9775 12.5895 0 0 0
2475 3 12.5895 21.582 30.5745 0 0 0
2121 3 17.985 28.776 0.0 0 0 0
3565 3 3.597 14.388 3.597 0 0 0
723 3 26.9775 10.791 1.7985 0 0 0
960 3 26.9775 30.5745 32.373 0 0 0
783 3 26.9775 14.388 19.7835 0 0 0
2943 3 8.9925 28.776 19.7835 0 0 0
2595 3 12.5895 32.373 30.5745 0 0 0
753 3 28.776 10.791 28.776 0 0 0
2828 3 8.9925 19.7835 21.582 0 0 0
713 3 28.776 7.194 28.776 0 0 0
3680 3 1.7985 23.3805 32.373 0 0 0
2542 3 14.388 30.5745 19.7835 0 0 0
583 3 30.5745 32.373 19.7835 0 0 0
3425 3 3.597 0.0 21.582 0 0 0
1211 3 23.3805 17.985 8.9925 0 0 0
2865 3 10.791 21.582 21.582 0 0 0
2009 3 17.985 17.985 7.194 0 0 0
2632 3 8.9925 1.7985 25.179 0 0 0
3877 3 0.0 10.791 28.776 0 0 0
220 3 30.5745 1.7985 14.388 0 0 0
2710 3 10.791 8.9925 26.9775 0 0 0
244 3 30.5745 5.3955 0.0 0 0 0
688 3 26.9775 8.9925 3.597 0 0 0
3612 3 1.7985 19.7835 7.194 0 0 0
530 3 32.373 30.5745 8.9925 0 0 0
1255 3 23.3805 21.582 12.5895 0 0 0
3439 3 1.7985 0.0 34.1715 0 0 0
441 3 32.373 21.582 0.0 0 0 0
2911 3 8.9925 25.179 26.9775 0 0 0
3553 3 3.597 10.791 28.776 0 0 0
3180 3 5.3955 16.1865 14.388 0 0 0
739 3 26.9775 10.791 16.1865 0 0 0
2075 3 16.1865 21.582 30.5745 0 0 0
3152 3 5.3955 12.5895 25.179 0 0 0
3419 3 1.7985 0.0 16.1865 0 0 0
3185 3 7.194 14.388 21.582 0 0 0
791 3 26.9775 14.388 26.9775 0 0 0
55 3 34.1715 7.194 26.9775 0 0 0
1435 3 19.7835 0.0 30.5745 0 0 0
2593 3 14.388 32.373 28.776 0 0 0
832 3 26.9775 19.7835 25.179 0 0 0
2376 3 12.5895 16.1865 10.791 0 0 0
3599 3 1.7985 14.388 34.1715 0 0 0
1741 3 21.582 28.776 17.985 0 0 0
1800 3 19.7835 34.1715 32.373 0 0 0
2311 3 12.5895 7.194 26.9775 0 0 0
1320 3 23.3805 26.9775 32.373 0 0 0
1425 3 21.582 0.0 21.582 0 0 0
2538 3 14.388 30.5745 16.1865 0 0 0
2645 3 10.791 3.597 3.597 0 0 0
3620 3 1.7985 19.7835 14.388 0 0 0
870 3 28.776 23.3805 26.9775 0 0 0
340 3 30.5745 12.5895 14.388 0 0 0
3454 3 3.597 5.3955 12.5895 0 0 0
969 3 28.776 32.373 7.194 0 0 0
1391 3 23.3805 32.373 26.9775 0 0 0
3760 3 1.7985 30.5745 32.373 0 0 0
3353 3 7.194 28.776 28.776 0 0 0
3486 3 3.597 8.9925 5.3955 0 0 0
2905 3 10.791 25.179 21.582 0 0 0
1868 3 16.1865 5.3955 21.582 0 0 0
3042 3 7.194 5.3955 1.7985 0 0 0
1590 3 21.582 16.1865 26.9775 0 0 0
2048 3 16.1865 23.3805 3.597 0 0 0
1720 3 19.7835 26.9775 32.373 0 0 0
2198 3 17.985 34.1715 34.1715 0 0 0
1021 3 25.179 0.0 17.985 0 0 0
3892 3 0.0 16.1865 19.7835 0 0 0
1581 3 21.582 14.388 17.985 0 0 0
3499 3 1.7985 7.194 16.1865 0 0 0
3319 3 5.3955 25.179 34.1715 0 0 0
3551 3 1.7985 10.791 26.9775 0 0 0
2217 3 14.388 0.0 14.388 0 0 0
3212 3 5.3955 19.7835 7.194 0 0 0
2332 3 12.5895 12.5895 7.194 0 0 0
3106 3 7.194 8.9925 23.3805 0 0 0
990 3 28.776 34.1715 26.9775 0 0 0
3870 3 0.0 12.5895 16.1865 0 0 0
3348 3 5.3955 30.5745 21.582 0 0 0
119 3 34.1715 17.985 34.1715 0 0 0
2707 3 8.9925 7.194 23.3805 0 0 0
964 3 26.9775 34.1715 0.0 0 0 0
1168 3 23.3805 16.1865 3.597 0 0 0
3879 3 0.0 10.791 32.373 0 0 0
3339 3 5.3955 28.776 16.1865 0 0 0
3415 3 1.7985 0.0 12.5895 0 0 0
3682 3 3.597 26.9775 1.7985 0 0 0
2999 3 8.9925 32.373 34.1715 0 0 0
847 3 26.9775 21.582 5.3955 0 0 0
2528 3 12.5895 30.5745 3.597 0 0 0
3089 3 7.194 7.194 7.194 0 0 0
1413 3 21.582 0.0 10.791 0 0 0
2803 3 8.9925 17.985 1.7985 0 0 0
3683 3 1.7985 25.179 1.7985 0 0 0
2759 3 8.9925 10.791 34.1715 0 0 0
2585 3 14.388 32.373 21.582 0 0 0
1008 3 23.3805 1.7985 3.597 0 0 0
3969 3 0.0 28.776 14.388 0 0 0
2521 3 14.388 28.776 0.0 0 0 0
2648 3 8.9925 5.3955 3.597 0 0 0
2176 3 16.1865 34.1715 10.791 0 0 0
3628 3 1.7985 19.7835 21.582 0 0 0
207 3 30.5745 0.0 5.3955 0 0 0
3405 3 3.597 0.0 3.597 0 0 0
1801 3 17.985 0.0 0.0 0 0 0
2623 3 8.9925 0.0 19.7835 0 0 0
1410 3 21.582 1.7985 8.9925 0 0 0
2814 3 10.791 19.7835 12.5895 0 0 0
196 3 34.1715 34.1715 25.179 0 0 0
1580 3 19.7835 16.1865 14.388 0 0 0
430 3 32.373 19.7835 26.9775 0 0 0
1401 3 21.582 0.0 0.0 0 0 0
1508 3 19.7835 8.9925 21.582 0 0 0
2908 3 8.9925 26.9775 21.582 0 0 0
2159 3 16.1865 28.776 34.1715 0 0 0
1477 3 21.582 3.597 32.373 0 0 0
1975 3 16.1865 14.388 12.5895 0 0 0
3938 3 0.0 23.3805 30.5745 0 0 0
3566 3 3.597 16.1865 5.3955 0 0 0
1674 3 21.582 23.3805 30.5745 0 0 0
1978 3 17.985 16.1865 16.1865 0 0 0
1635 3 19.7835 17.985 30.5745 0 0 0
612 3 26.9775 1.7985 7.194 0 0 0
150 3 34.1715 26.9775 14.388 0 0 0
1321 3 25.179 28.776 0.0 0 0 0
1840 3 16.1865 1.7985 32.373 0 0 0
524 3 30.5745 30.5745 0.0 0 0 0
3602 3 3.597 19.7835 1.7985 0 0 0
3691 3 1.7985 25.179 8.9925 0 0 0
462 3 32.373 23.3805 19.7835 0 0 0
3484 3 1.7985 8.9925 0.0 0 0 0
1987 3 16.1865 14.388 23.3805 0 0 0
3082 3 7.194 8.9925 1.7985 0 0 0
2780 3 8.9925 16.1865 14.388 0 0 0
3460 3 1.7985 5.3955 14.388 0 0 0
238 3 32.373 1.7985 34.1715 0 0 0
1024 3 23.3805 1.7985 17.985 0 0 0
3871 3 0.0 10.791 17.985 0 0 0
3141 3 7.194 10.791 17.985 0 0 0
3079 3 5.3955 3.597 34.1715 0 0 0
2256 3 12.5895 5.3955 10.791 0 0 0
1365 3 25.179 32.373 3.597 0 0 0
375 3 30.5745 14.388 12.5895 0 0 0
1001 3 25.179 0.0 0.0 0 0 0
2785 3 10.791 14.388 21.582 0 0 0
98 3 34.1715 16.1865 28.776 0 0 0
1802 3 17.985 1.7985 1.7985 0 0 0
1833 3 17.985 0.0 28.776 0 0 0
227 3 30.5745 0.0 23.3805 0 0 0
815 3 26.9775 17.985 12.5895 0 0 0
1367 3 23.3805 32.373 5.3955 0 0 0
23 3 34.1715 3.597 5.3955 0 0 0
1582 3 21.582 16.1865 19.7835 0 0 0
3838 3 0.0 5.3955 30.5745 0 0 0
3781 3 3.597 32.373 17.985 0 0 0
1716 3 19.7835 26.9775 28.776 0 0 0
5 3 34.1715 0.0 8.9925 0 0 0
695 3 26.9775 7.194 12.5895 0 0 0
2078 3 17.985 23.3805 34.1715 0 0 0
106 3 34.1715 19.7835 7.194 0 0 0
827 3 26.9775 17.985 23.3805 0 0 0
1965 3 17.985 14.388 3.597 0 0 0
594 3 32.373 34.1715 30.5745 0 0 0
3469 3 3.597 3.597 25.179 0 0 0
463 3 30.5745 21.582 19.7835 0 0 0
3237 3 7.194 17.985 32.373 0 0 0
1124 3 23.3805 12.5895 0.0 0 0 0
2346 3 14.388 12.5895 23.3805 0 0 0
224 3 30.5745 1.7985 17.985 0 0 0
3338 3 7.194 30.5745 16.1865 0 0 0
774 3 28.776 16.1865 12.5895 0 0 0
3701 3 3.597 25.179 17.985 0 0 0
3215 3 5.3955 17.985 12.5895 0 0 0
2350 3 14.388 12.5895 26.9775 0 0 0
2101 3 17.985 25.179 17.985 0 0 0
2238 3 14.388 1.7985 34.1715 0 0 0
431 3 30.5745 17.985 26.9775 0 0 0
789 3 28.776 14.388 25.179 0 0 0
3846 3 0.0 8.9925 8.9925 0 0 0
759 3 26.9775 10.791 34.1715 0 0 0
1950 3 17.985 12.5895 26.9775 0 0 0
442 3 32.373 23.3805 1.7985 0 0 0
2436 3 12.5895 19.7835 28.776 0 0 0
2100 3 16.1865 26.9775 14.388 0 0 0
1331 3 23.3805 28.776 8.9925 0 0 0
2784 3 8.9925 16.1865 17.985 0 0 0
869 3 28.776 21.582 25.179 0 0 0
1279 3 23.3805 21.582 34.1715 0 0 0
3433 3 3.597 0.0 28.776 0 0 0
3650 3 3.597 23.3805 8.9925 0 0 0
765 3 28.776 14.388 3.597 0 0 0
2424 3 12.5895 19.7835 17.985 0 0 0
757 3 28.776 10.791 32.373 0 0 0
2655 3 8.9925 3.597 12.5895 0 0 0
3358 3 7.194 30.5745 34.1715 0 0 0
1474 3 21.582 5.3955 30.5745 0 0 0
3060 3 5.3955 5.3955 14.388 0 0 0
270 3 32.373 5.3955 26.9775 0 0 0
1173 3 25.179 14.388 10.791 0 0 0
2684 3 8.9925 8.9925 0.0 0 0 0
1216 3 23.3805 19.7835 10.791 0 0 0
1667 3 19.7835 21.582 23.3805 0 0 0
3534 3 3.597 12.5895 12.5895 0 0 0
3564 3 1.7985 16.1865 0.0 0 0 0
3658 3 3.597 23.3805 16.1865 0 0 0
3770 3 3.597 34.1715 8.9925 0 0 0
2288 3 12.5895 8.9925 3.597 0 0 0
2023 3 16.1865 17.985 19.7835 0 0 0
381 3 32.373 14.388 17.985 0 0 0
2327 3 12.5895 10.791 5.3955 0 0 0
784 3 26.9775 16.1865 17.985 0 0 0
1536 3 19.7835 12.5895 10.791 0 0 0
1486 3 21.582 8.9925 5.3955 0 0 0
453 3 32.373 21.582 10.791 0 0 0
3611 3 1.7985 17.985 8.9925 0 0 0
3923 3 0.0 21.582 3.597 0 0 0
3245 3 7.194 21.582 3.597 0 0 0
78 3 34.1715 12.5895 28.776 0 0 0
3603 3 1.7985 17.985 1.7985 0 0 0
3906 3 0.0 19.7835 8.9925 0 0 0
3825 3 0.0 3.597 7.194 0 0 0
3496 3 1.7985 8.9925 10.791 0 0 0
3512 3 1.7985 8.9925 25.179 0 0 0
2544 3 12.5895 30.5745 17.985 0 0 0
2029 3 17.985 17.985 25.179 0 0 0
1225 3 25.179 17.985 21.582 0 0 0
1929 3 17.985 10.791 7.194 0 0 0
2021 3 17.985 17.985 17.985 0 0 0
879 3 26.9775 21.582 34.1715 0 0 0
1259 3 23.3805 21.582 16.1865 0 0 0
3078 3 7.194 5.3955 34.1715 0 0 0
2600 3 12.5895 34.1715 32.373 0 0 0
807 3 26.9775 17.985 5.3955 0 0 0
2559 3 12.5895 28.776 34.1715 0 0 0
1412 3 19.7835 1.7985 7.194 0 0 0
2129 3 17.985 28.776 7.194 0 0 0
470 3 32.373 23.3805 26.9775 0 0 0
1684 3 19.7835 26.9775 0.0 0 0 0
3389 3 7.194 32.373 25.179 0 0 0
2223 3 12.5895 0.0 19.7835 0 0 0
201 3 32.373 0.0 0.0 0 0 0
492 3 30.5745 26.9775 7.194 0 0 0
3739 3 1.7985 28.776 16.1865 0 0 0
56 3 34.1715 8.9925 25.179 0 0 0
1789 3 21.582 32.373 25.179 0 0 0
1302 3 25.179 26.9775 19.7835 0 0 0
850 3 28.776 23.3805 8.9925 0 0 0
965 3 28.776 32.373 3.597 0 0 0
436 3 30.5745 19.7835 28.776 0 0 0
3505 3 3.597 7.194 21.582 0 0 0
1848 3 16.1865 5.3955 3.597 0 0 0
1967 3 16.1865 14.388 5.3955 0 0 0
3407 3 1.7985 0.0 5.3955 0 0 0
1910 3 17.985 8.9925 26.9775 0 0 0
3574 3 3.597 16.1865 12.5895 0 0 0
1452 3 19.7835 5.3955 7.194 0 0 0
1844 3 16.1865 5.3955 0.0 0 0 0
480 3 30.5745 23.3805 32.373 0 0 0
1940 3 16.1865 12.5895 14.388 0 0 0
2965 3 10.791 32.373 3.597 0 0 0
3934 3 0.0 23.3805 23.3805 0 0 0
2265 3 14.388 3.597 21.582 0 0 0
777 3 28.776 14.388 14.388 0 0 0
1955 3 16.1865 10.791 30.5745 0 0 0
3502 3 3.597 8.9925 19.7835 0 0 0
3773 3 3.597 32.373 10.791 0 0 0
1160 3 23.3805 12.5895 32.373 0 0 0
3689 3 3.597 25.179 7.194 0 0 0
619 3 26.9775 0.0 16.1865 0 0 0
2873 3 10.791 21.582 28.776 0 0 0
2469 3 14.388 21.582 25.179 0 0 0
1245 3 25.179 21.582 3.597 0 0 0
2628 3 8.9925 1.7985 21.582 0 0 0
3623 3 1.7985 17.985 19.7835 0 0 0
799 3 26.9775 14.388 34.1715 0 0 0
3535 3 1.7985 10.791 12.5895 0 0 0
2934 3 10.791 30.5745 12.5895 0 0 0
1162 3 25.179 16.1865 1.7985 0 0 0
1677 3 21.582 21.582 32.373 0 0 0
3702 3 3.597 26.9775 19.7835 0 0 0
265 3 32.373 3.597 21.582 0 0 0
51 3 34.1715 7.194 19.7835 0 0 0
401 3 32.373 17.985 0.0 0 0 0
1220 3 23.3805 19.7835 14.388 0 0 0
1550 3 21.582 12.5895 26.9775 0 0 0
2474 3 14.388 23.3805 30.5745 0 0 0
3016 3 5.3955 1.7985 10.791 0 0 0
185 3 34.1715 32.373 8.9925 0 0 0
3299 3 5.3955 25.179 16.1865 0 0 0
1230 3 25.179 19.7835 26.9775 0 0 0
970 3 28.776 34.1715 8.9925 0 0 0
1995 3 16.1865 14.388 30.5745 0 0 0
596 3 30.5745 34.1715 28.776 0 0 0
2086 3 17.985 26.9775 5.3955 0 0 0
2679 3 8.9925 3.597 34.1715 0 0 0
113 3 34.1715 17.985 23.3805 0 0 0
751 3 26.9775 10.791 26.9775 0 0 0
769 3 28.776 14.388 7.194 0 0 0
158 3 34.1715 26.9775 28.776 0 0 0
73 3 34.1715 10.791 23.3805 0 0 0
3232 3 5.3955 19.7835 25.179 0 0 0
1578 3 21.582 16.1865 16.1865 0 0 0
147 3 34.1715 25.179 12.5895 0 0 0
3138 3 7.194 12.5895 16.1865 0 0 0
1988 3 16.1865 16.1865 21.582 0 0 0
1363 3 23.3805 32.373 1.7985 0 0 0
2909 3 10.791 25.179 25.179 0 0 0
2095 3 16.1865 25.179 12.5895 0 0 0
2317 3 14.388 7.194 32.373 0 0 0
22 3 34.1715 5.3955 0.0 0 0 0
29 3 34.1715 3.597 16.1865 0 0 0
1717 3 21.582 25.179 32.373 0 0 0
1850 3 17.985 5.3955 8.9925 0 0 0
2408 3 12.5895 19.7835 3.597 0 0 0
3665 3 3.597 21.582 21.582 0 0 0
551 3 30.5745 28.776 26.9775 0 0 0
2681 3 10.791 7.194 0.0 0 0 0
261 3 32.373 3.597 17.985 0 0 0
466 3 32.373 23.3805 23.3805 0 0 0
362 3 32.373 16.1865 1.7985 0 0 0
2616 3 8.9925 1.7985 10.791 0 0 0
615 3 26.9775 0.0 12.5895 0 0 0
1847 3 16.1865 3.597 5.3955 0 0 0
482 3 32.373 26.9775 1.7985 0 0 0
1207 3 23.3805 17.985 5.3955 0 0 0
3968 3 0.0 30.5745 12.5895 0 0 0
2453 3 14.388 21.582 10.791 0 0 0
1842 3 17.985 5.3955 1.7985 0 0 0
1701 3 21.582 25.179 17.985 0 0 0
1044 3 23.3805 5.3955 0.0 0 0 0
166 3 34.1715 30.5745 7.194 0 0 0
313 3 32.373 7.194 28.776 0 0 0
1750 3 21.582 30.5745 26.9775 0 0 0
1379 3 23.3805 32.373 16.1865 0 0 0
2331 3 12.5895 10.791 8.9925 0 0 0
1865 3 17.985 3.597 21.582 0 0 0
3329 3 7.194 28.776 7.194 0 0 0
76 3 34.1715 12.5895 25.179 0 0 0
371 3 30.5745 14.388 8.9925 0 0 0
1394 3 25.179 34.1715 30.5745 0 0 0
544 3 30.5745 30.5745 17.985 0 0 0
3045 3 7.194 3.597 3.597 0 0 0
177 3 34.1715 28.776 30.5745 0 0 0
1317 3 25.179 25.179 32.373 0 0 0
1920 3 16.1865 8.9925 32.373 0 0 0
2387 3 12.5895 14.388 23.3805 0 0 0
2248 3 12.5895 5.3955 3.597 0 0 0
3902 3 0.0 19.7835 1.7985 0 0 0
3092 3 5.3955 8.9925 7.194 0 0 0
1026 3 25.179 1.7985 23.3805 0 0 0
300 3 30.5745 8.9925 14.388 0 0 0
2927 3 8.9925 28.776 5.3955 0 0 0
2554 3 14.388 30.5745 30.5745 0 0 0
1485 3 21.582 7.194 3.597 0 0 0
15 3 34.1715 0.0 26.9775 0 0 0
3318 3 7.194 26.9775 34.1715 0 0 0
3250 3 7.194 23.3805 8.9925 0 0 0
630 3 28.776 1.7985 26.9775 0 0 0
3873 3 0.0 10.791 21.582 0 0 0
1721 3 21.582 28.776 0.0 0 0 0
3862 3 0.0 12.5895 1.7985 0 0 0
137 3 34.1715 21.582 30.5745 0 0 0
2395 3 12.5895 14.388 30.5745 0 0 0
1289 3 25.179 25.179 7.194 0 0 0
3244 3 5.3955 23.3805 0.0 0 0 0
2044 3 16.1865 23.3805 0.0 0 0 0
142 3 34.1715 26.9775 0.0 0 0 0
1392 3 23.3805 34.1715 25.179 0 0 0
670 3 28.776 5.3955 26.9775 0 0 0
2824 3 8.9925 19.7835 17.985 0 0 0
1676 3 19.7835 23.3805 28.776 0 0 0
1194 3 25.179 16.1865 30.5745 0 0 0
3988 3 0.0 34.1715 12.5895 0 0 0
2833 3 10.791 17.985 28.776 0 0 0
3978 3 0.0 30.5745 30.5745 0 0 0
1984 3 16.1865 16.1865 17.985 0 0 0
2667 3 8.9925 3.597 23.3805 0 0 0
2907 3 8.9925 25.179 23.3805 0 0 0
1709 3 21.582 25.179 25.179 0 0 0
1223 3 23.3805 17.985 19.7835 0 0 0
3987 3 0.0 32.373 10.791 0 0 0
1398 3 25.179 34.1715 34.1715 0 0 0
2334 3 14.388 12.5895 12.5895 0 0 0
262 3 32.373 5.3955 19.7835 0 0 0
2895 3 8.9925 25.179 12.5895 0 0 0
2181 3 17.985 32.373 17.985 0 0 0
405 3 32.373 17.985 3.597 0 0 0
3163 3 5.3955 14.388 1.7985 0 0 0
659 3 26.9775 3.597 16.1865 0 0 0
2059 3 16.1865 21.582 16.1865 0 0 0
556 3 30.5745 30.5745 28.776 0 0 0
3474 3 3.597 5.3955 30.5745 0 0 0
454 3 32.373 23.3805 12.5895 0 0 0
1189 3 25.179 14.388 25.179 0 0 0
1234 3 25.179 19.7835 30.5745 0 0 0
572 3 30.5745 34.1715 7.194 0 0 0
3713 3 3.597 25.179 28.776 0 0 0
2168 3 16.1865 34.1715 3.597 0 0 0
64 3 34.1715 12.5895 3.597 0 0 0
1609 3 21.582 17.985 7.194 0 0 0
2325 3 14.388 10.791 3.597 0 0 0
1172 3 23.3805 16.1865 7.194 0 0 0
2050 3 17.985 23.3805 8.9925 0 0 0
738 3 28.776 12.5895 16.1865 0 0 0
2591 3 12.5895 32.373 26.9775 0 0 0
1593 3 21.582 14.388 28.776 0 0 0
3085 3 7.194 7.194 3.597 0 0 0
3597 3 3.597 14.388 32.373 0 0 0
3034 3 7.194 1.7985 30.5745 0 0 0
3607 3 1.7985 17.985 5.3955 0 0 0
186 3 34.1715 34.1715 7.194 0 0 0
2635 3 8.9925 0.0 30.5745 0 0 0
1886 3 17.985 8.9925 5.3955 0 0 0
1980 3 16.1865 16.1865 14.388 0 0 0
1973 3 17.985 14.388 10.791 0 0 0
1462 3 21.582 5.3955 19.7835 0 0 0
722 3 28.776 12.5895 1.7985 0 0 0
1187 3 23.3805 14.388 23.3805 0 0 0
3864 3 0.0 12.5895 5.3955 0 0 0
905 3 28.776 25.179 21.582 0 0 0
3390 3 7.194 34.1715 26.9775 0 0 0
643 3 26.9775 3.597 1.7985 0 0 0
1036 3 23.3805 1.7985 28.776 0 0 0
2496 3 12.5895 26.9775 10.791 0 0 0
2942 3 10.791 30.5745 19.7835 0 0 0
3596 3 1.7985 16.1865 28.776 0 0 0
3467 3 1.7985 3.597 23.3805 0 0 0
1795 3 19.7835 32.373 30.5745 0 0 0
618 3 28.776 1.7985 16.1865 0 0 0
3592 3 1.7985 16.1865 25.179 0 0 0
3302 3 7.194 26.9775 19.7835 0 0 0
1497 3 21.582 7.194 14.388 0 0 0
143 3 34.1715 25.179 5.3955 0 0 0
2321 3 14.388 10.791 0.0 0 0 0
611 3 26.9775 0.0 8.9925 0 0 0
1922 3 17.985 12.5895 1.7985 0 0 0
1355 3 23.3805 28.776 30.5745 0 0 0
1648 3 19.7835 23.3805 3.597 0 0 0
2184 3 16.1865 34.1715 17.985 0 0 0
3548 3 1.7985 12.5895 21.582 0 0 0
2262 3 14.388 5.3955 19.7835 0 0 0
3569 3 3.597 14.388 7.194 0 0 0
1495 3 19.7835 7.194 12.5895 0 0 0
2953 3 10.791 28.776 28.776 0 0 0
96 3 34.1715 16.1865 25.179 0 0 0
654 3 28.776 5.3955 12.5895 0 0 0
2915 3 8.9925 25.179 30.5745 0 0 0
2249 3 14.388 3.597 7.194 0 0 0
1475 3 19.7835 3.597 30.5745 0 0 0
1130 3 25.179 12.5895 8.9925 0 0 0
3556 3 1.7985 12.5895 28.776 0 0 0
637 3 28.776 0.0 32.373 0 0 0
1507 3 19.7835 7.194 23.3805 0 0 0
3500 3 1.7985 8.9925 14.388 0 0 0
1828 3 16.1865 1.7985 21.582 0 0 0
2031 3 16.1865 17.985 26.9775 0 0 0
1399 3 23.3805 32.373 34.1715 0 0 0
1543 3 19.7835 10.791 19.7835 0 0 0
321 3 32.373 10.791 0.0 0 0 0
1541 3 21.582 10.791 17.985 0 0 0
140 3 34.1715 23.3805 32.373 0 0 0
3445 3 3.597 3.597 3.597 0 0 0
2725 3 10.791 10.791 3.597 0 0 0
449 3 32.373 21.582 7.194 0 0 0
250 3 32.373 5.3955 8.9925 0 0 0
986 3 28.776 34.1715 23.3805 0 0 0
1228 3 23.3805 19.7835 21.582 0 0 0
1146 3 25.179 12.5895 23.3805 0 0 0
2979 3 8.9925 32.373 16.1865 0 0 0
664 3 26.9775 5.3955 17.985 0 0 0
3312 3 5.3955 26.9775 25.179 0 0 0
3920 3 0.0 19.7835 34.1715 0 0 0
2658 3 10.791 5.3955 16.1865 0 0 0
248 3 30.5745 5.3955 3.597 0 0 0
3286 3 7.194 26.9775 5.3955 0 0 0
1957 3 17.985 10.791 32.373 0 0 0
2012 3 16.1865 19.7835 7.194 0 0 0
3364 3 5.3955 34.1715 0.0 0 0 0
2924 3 8.9925 30.5745 0.0 0 0 0
1167 3 23.3805 14.388 5.3955 0 0 0
681 3 28.776 7.194 0.0 0 0 0
27 3 34.1715 3.597 12.5895 0 0 0
236 3 30.5745 1.7985 28.776 0 0 0
2955 3 8.9925 28.776 30.5745 0 0 0
2149 3 17.985 28.776 25.179 0 0 0
3685 3 3.597 25.179 3.597 0 0 0
1448 3 19.7835 5.3955 3.597 0 0 0
456 3 30.5745 23.3805 10.791 0 0 0
3392 3 5.3955 34.1715 25.179 0 0 0
2547 3 12.5895 28.776 23.3805 0 0 0
902 3 28.776 26.9775 19.7835 0 0 0
1025 3 25.179 0.0 21.582 0 0 0
2997 3 10.791 32.373 32.373 0 0 0
2646 3 10.791 5.3955 5.3955 0 0 0
2511 3 12.5895 25.179 26.9775 0 0 0
3362 3 7.194 34.1715 1.7985 0 0 0
3011 3 5.3955 0.0 8.9925 0 0 0
3677 3 3.597 21.582 32.373 0 0 0
1386 3 25.179 34.1715 23.3805 0 0 0
1794 3 21.582 34.1715 30.5745 0 0 0
2234 3 14.388 1.7985 30.5745 0 0 0
3983 3 0.0 32.373 3.597 0 0 0
3869 3 0.0 10.791 14.388 0 0 0
163 3 34.1715 28.776 5.3955 0 0 0
1381 3 25.179 32.373 17.985 0 0 0
3798 3 3.597 34.1715 34.1715 0 0 0
877 3 28.776 21.582 32.373 0 0 0
2692 3 8.9925 8.9925 7.194 0 0 0
3013 3 7.194 0.0 10.791 0 0 0
1077 3 25.179 3.597 32.373 0 0 0
3513 3 3.597 7.194 28.776 0 0 0
3839 3 0.0 3.597 32.373 0 0 0
193 3 34.1715 32.373 23.3805 0 0 0
3780 3 1.7985 34.1715 14.388 0 0 0
1054 3 25.179 5.3955 12.5895 0 0 0
1233 3 25.179 17.985 28.776 0 0 0
3917 3 0.0 17.985 28.776 0 0 0
2641 3 10.791 3.597 0.0 0 0 0
2891 3 8.9925 25.179 8.9925 0 0 0
3335 3 5.3955 28.776 12.5895 0 0 0
704 3 26.9775 8.9925 17.985 0 0 0
2876 3 8.9925 23.3805 28.776 0 0 0
3459 3 1.7985 3.597 16.1865 0 0 0
3229 3 7.194 17.985 25.179 0 0 0
2251 3 12.5895 3.597 8.9925 0 0 0
2392 3 12.5895 16.1865 25.179 0 0 0
1770 3 21.582 34.1715 8.9925 0 0 0
3663 3 1.7985 21.582 19.7835 0 0 0
3198 3 7.194 16.1865 34.1715 0 0 0
1596 3 19.7835 16.1865 28.776 0 0 0
221 3 32.373 0.0 17.985 0 0 0
2976 3 8.9925 34.1715 10.791 0 0 0
3236 3 5.3955 19.7835 28.776 0 0 0
2757 3 10.791 10.791 32.373 0 0 0
724 3 26.9775 12.5895 0.0 0 0 0
2491 3 12.5895 25.179 8.9925 0 0 0
1870 3 17.985 5.3955 26.9775 0 0 0
2383 3 12.5895 14.388 19.7835 0 0 0
3937 3 0.0 21.582 28.776 0 0 0
606 3 28.776 1.7985 5.3955 0 0 0
2761 3 10.791 14.388 0.0 0 0 0
3618 3 3.597 19.7835 16.1865 0 0 0
2303 3 12.5895 7.194 19.7835 0 0 0
743 3 26.9775 10.791 19.7835 0 0 0
3853 3 0.0 7.194 21.582 0 0 0
2709 3 10.791 7.194 25.179 0 0 0
1675 3 19.7835 21.582 30.5745 0 0 0
1346 3 25.179 30.5745 23.3805 0 0 0
776 3 26.9775 16.1865 10.791 0 0 0
3065 3 7.194 3.597 21.582 0 0 0
1373 3 25.179 32.373 10.791 0 0 0
3783 3 1.7985 32.373 19.7835 0 0 0
1032 3 23.3805 1.7985 25.179 0 0 0
422 3 32.373 19.7835 19.7835 0 0 0
706 3 28.776 8.9925 23.3805 0 0 0
3004 3 5.3955 1.7985 0.0 0 0 0
174 3 34.1715 30.5745 21.582 0 0 0
587 3 30.5745 32.373 23.3805 0 0 0
3758 3 3.597 30.5745 34.1715 0 0 0
3854 3 0.0 8.9925 23.3805 0 0 0
2519 3 12.5895 25.179 34.1715 0 0 0
3615 3 1.7985 17.985 12.5895 0 0 0
2058 3 17.985 23.3805 16.1865 0 0 0
1201 3 25.179 17.985 0.0 0 0 0
3954 3 0.0 26.9775 23.3805 0 0 0
1354 3 25.179 30.5745 30.5745 0 0 0
2421 3 14.388 17.985 17.985 0 0 0
3633 3 3.597 17.985 28.776 0 0 0
2603 3 8.9925 0.0 1.7985 0 0 0
1218 3 25.179 19.7835 16.1865 0 0 0
3990 3 0.0 34.1715 16.1865 0 0 0
3220 3 5.3955 19.7835 14.388 0 0 0
3905 3 0.0 17.985 7.194 0 0 0
1145 3 25.179 10.791 21.582 0 0 0
1428 3 19.7835 1.7985 21.582 0 0 0
3021 3 7.194 0.0 17.985 0 0 0
2724 3 8.9925 12.5895 0.0 0 0 0
2964 3 8.9925 34.1715 0.0 0 0 0
1566 3 21.582 16.1865 5.3955 0 0 0
1790 3 21.582 34.1715 26.9775 0 0 0
121 3 34.1715 21.582 1.7985 0 0 0
2396 3 12.5895 16.1865 28.776 0 0 0
3170 3 7.194 16.1865 8.9925 0 0 0
2610 3 10.791 1.7985 8.9925 0 0 0
1874 3 17.985 5.3955 30.5745 0 0 0
2318 3 14.388 8.9925 34.1715 0 0 0
858 3 28.776 23.3805 16.1865 0 0 0
880 3 26.9775 23.3805 32.373 0 0 0
1861 3 17.985 3.597 17.985 0 0 0
3119 3 5.3955 7.194 34.1715 0 0 0
913 3 28.776 25.179 28.776 0 0 0
3195 3 5.3955 14.388 30.5745 0 0 0
2572 3 12.5895 34.1715 7.194 0 0 0
775 3 26.9775 14.388 12.5895 0 0 0
1763 3 19.7835 32.373 1.7985 0 0 0
2498 3 14.388 26.9775 16.1865 0 0 0
1921 3 17.985 10.791 0.0 0 0 0
3501 3 3.597 7.194 17.985 0 0 0
2573 3 14.388 32.373 10.791 0 0 0
1821 3 17.985 0.0 17.985 0 0 0
3298 3 7.194 26.9775 16.1865 0 0 0
1272 3 23.3805 23.3805 25.179 0 0 0
620 3 26.9775 1.7985 14.388 0 0 0
3828 3 0.0 5.3955 12.5895 0 0 0
3974 3 0.0 30.5745 23.3805 0 0 0
686 3 28.776 8.9925 5.3955 0 0 0
1531 3 19.7835 10.791 8.9925 0 0 0
2571 3 12.5895 32.373 8.9925 0 0 0
3640 3 1.7985 19.7835 32.373 0 0 0
1292 3 23.3805 26.9775 7.194 0 0 0
3514 3 3.597 8.9925 30.5745 0 0 0
3656 3 1.7985 23.3805 10.791 0 0 0
1169 3 25.179 14.388 7.194 0 0 0
3638 3 3.597 19.7835 34.1715 0 0 0
689 3 28.776 7.194 7.194 0 0 0
3670 3 3.597 23.3805 26.9775 0 0 0
2320 3 12.5895 8.9925 32.373 0 0 0
3734 3 3.597 30.5745 12.5895 0 0 0
752 3 26.9775 12.5895 25.179 0 0 0
433 3 32.373 17.985 28.776 0 0 0
3107 3 5.3955 7.194 23.3805 0 0 0
3382 3 7.194 34.1715 19.7835 0 0 0
829 3 28.776 17.985 25.179 0 0 0
3414 3 3.597 1.7985 12.5895 0 0 0
1235 3 23.3805 17.985 30.5745 0 0 0
3699 3 1.7985 25.179 16.1865 0 0 0
2295 3 12.5895 7.194 12.5895 0 0 0
3631 3 1.7985 17.985 26.9775 0 0 0
3643 3 1.7985 21.582 1.7985 0 0 0
2039 3 16.1865 17.985 34.1715 0 0 0
1827 3 16.1865 0.0 23.3805 0 0 0
13 3 34.1715 0.0 23.3805 0 0 0
1784 3 19.7835 34.1715 17.985 0 0 0
3432 3 1.7985 1.7985 25.179 0 0 0
1012 3 23.3805 1.7985 7.194 0 0 0
1093 3 25.179 7.194 10.791 0 0 0
281 3 32.373 7.194 0.0 0 0 0
4 3 34.1715 1.7985 3.597 0 0 0
519 3 30.5745 25.179 34.1715 0 0 0
2764 3 8.9925 16.1865 0.0 0 0 0
977 3 28.776 32.373 14.388 0 0 0
2713 3 10.791 7.194 28.776 0 0 0
3411 3 1.7985 0.0 8.9925 0 0 0
2874 3 10.791 23.3805 30.5745 0 0 0
2052 3 16.1865 23.3805 7.194 0 0 0
2125 3 17.985 28.776 3.597 0 0 0
1579 3 19.7835 14.388 16.1865 0 0 0
3182 3 7.194 16.1865 19.7835 0 0 0
1542 3 21.582 12.5895 19.7835 0 0 0
1037 3 25.179 0.0 32.373 0 0 0
1597 3 21.582 14.388 32.373 0 0 0
864 3 26.9775 23.3805 17.985 0 0 0
2133 3 17.985 28.776 10.791 0 0 0
1290 3 25.179 26.9775 8.9925 0 0 0
476 3 30.5745 23.3805 28.776 0 0 0
2745 3 10.791 10.791 21.582 0 0 0
2714 3 10.791 8.9925 30.5745 0 0 0
2608 3 8.9925 1.7985 3.597 0 0 0
668 3 26.9775 5.3955 21.582 0 0 0
1526 3 21.582 12.5895 5.3955 0 0 0
780 3 26.9775 16.1865 14.388 0 0 0
1239 3 23.3805 17.985 34.1715 0 0 0
1269 3 25.179 21.582 25.179 0 0 0
3369 3 7.194 32.373 7.194 0 0 0
3929 3 0.0 21.582 14.388 0 0 0
2445 3 14.388 21.582 3.597 0 0 0
2362 3 14.388 16.1865 1.7985 0 0 0
49 3 34.1715 7.194 16.1865 0 0 0
3907 3 0.0 17.985 10.791 0 0 0
2014 3 17.985 19.7835 12.5895 0 0 0
1291 3 23.3805 25.179 8.9925 0 0 0
537 3 32.373 28.776 14.388 0 0 0
2564 3 12.5895 34.1715 0.0 0 0 0
198 3 34.1715 34.1715 28.776 0 0 0
206 3 32.373 1.7985 5.3955 0 0 0
3622 3 3.597 19.7835 19.7835 0 0 0
2949 3 10.791 28.776 25.179 0 0 0
3264 3 5.3955 23.3805 17.985 0 0 0
2963 3 8.9925 32.373 1.7985 0 0 0
2337 3 14.388 10.791 14.388 0 0 0
3883 3 0.0 14.388 3.597 0 0 0
363 3 30.5745 14.388 1.7985 0 0 0
3466 3 3.597 5.3955 23.3805 0 0 0
205 3 32.373 0.0 3.597 0 0 0
1196 3 23.3805 16.1865 28.776 0 0 0
2590 3 14.388 34.1715 26.9775 0 0 0
1030 3 25.179 1.7985 26.9775 0 0 0
1240 3 23.3805 19.7835 32.373 0 0 0
3155 3 5.3955 10.791 30.5745 0 0 0
1572 3 19.7835 16.1865 7.194 0 0 0
3904 3 0.0 19.7835 5.3955 0 0 0
1530 3 21.582 12.5895 8.9925 0 0 0
1915 3 16.1865 7.194 30.5745 0 0 0
1170 3 25.179 16.1865 8.9925 0 0 0
2193 3 17.985 32.373 28.776 0 0 0
1238 3 25.179 19.7835 34.1715 0 0 0
3098 3 7.194 8.9925 16.1865 0 0 0
2068 3 16.1865 23.3805 21.582 0 0 0
3860 3 0.0 8.9925 34.1715 0 0 0
1505 3 21.582 7.194 21.582 0 0 0
191 3 34.1715 32.373 19.7835 0 0 0
896 3 26.9775 26.9775 10.791 0 0 0
2243 3 12.5895 3.597 1.7985 0 0 0
1735 3 19.7835 28.776 12.5895 0 0 0
1931 3 16.1865 10.791 8.9925 0 0 0
1971 3 16.1865 14.388 8.9925 0 0 0
3418 3 3.597 1.7985 16.1865 0 0 0
2087 3 16.1865 25.179 5.3955 0 0 0
1540 3 19.7835 12.5895 14.388 0 0 0
543 3 30.5745 28.776 19.7835 0 0 0
3508 3 1.7985 8.9925 21.582 0 0 0
590 3 32.373 34.1715 26.9775 0 0 0
2263 3 12.5895 3.597 19.7835 0 0 0
3567 3 1.7985 14.388 5.3955 0 0 0
2836 3 8.9925 19.7835 28.776 0 0 0
770 3 28.776 16.1865 8.9925 0 0 0
2406 3 14.388 19.7835 5.3955 0 0 0
1127 3 23.3805 10.791 5.3955 0 0 0
3861 3 0.0 10.791 0.0 0 0 0
217 3 32.373 0.0 14.388 0 0 0
3504 3 1.7985 8.9925 17.985 0 0 0
331 3 30.5745 10.791 8.9925 0 0 0
3101 3 7.194 7.194 17.985 0 0 0
1341 3 25.179 28.776 17.985 0 0 0
1132 3 23.3805 12.5895 7.194 0 0 0
3956 3 0.0 26.9775 26.9775 0 0 0
3113 3 7.194 7.194 28.776 0 0 0
2266 3 14.388 5.3955 23.3805 0 0 0
1896 3 16.1865 8.9925 10.791 0 0 0
3147 3 5.3955 10.791 23.3805 0 0 0
3829 3 0.0 3.597 14.388 0 0 0
2045 3 17.985 21.582 3.597 0 0 0
200 3 34.1715 34.1715 32.373 0 0 0
3294 3 7.194 26.9775 12.5895 0 0 0
242 3 32.373 5.3955 1.7985 0 0 0
3703 3 1.7985 25.179 19.7835 0 0 0
2929 3 10.791 28.776 7.194 0 0 0
3179 3 5.3955 14.388 16.1865 0 0 0
2252 3 12.5895 5.3955 7.194 0 0 0
2577 3 14.388 32.373 14.388 0 0 0
3030 3 7.194 1.7985 26.9775 0 0 0
33 3 34.1715 3.597 23.3805 0 0 0
1304 3 23.3805 26.9775 17.985 0 0 0
2630 3 10.791 1.7985 26.9775 0 0 0
1640 3 19.7835 19.7835 32.373 0 0 0
3621 3 3.597 17.985 17.985 0 0 0
3386 3 7.194 34.1715 23.3805 0 0 0
1303 3 23.3805 25.179 19.7835 0 0 0
181 3 34.1715 32.373 1.7985 0 0 0
1692 3 19.7835 26.9775 7.194 0 0 0
3686 3 3.597 26.9775 5.3955 0 0 0
1881 3 17.985 7.194 0.0 0 0 0
2477 3 14.388 21.582 32.373 0 0 0
1664 3 19.7835 23.3805 17.985 0 0 0
3161 3 7.194 14.388 0.0 0 0 0
1976 3 16.1865 16.1865 10.791 0 0 0
1863 3 16.1865 3.597 19.7835 0 0 0
1144 3 23.3805 12.5895 17.985 0 0 0
467 3 30.5745 21.582 23.3805 0 0 0
421 3 32.373 17.985 17.985 0 0 0
3188 3 5.3955 16.1865 21.582 0 0 0
1812 3 16.1865 1.7985 7.194 0 0 0
3720 3 1.7985 26.9775 32.373 0 0 0
2638 3 10.791 1.7985 34.1715 0 0 0
2666 3 10.791 5.3955 23.3805 0 0 0
251 3 30.5745 3.597 8.9925 0 0 0
1657 3 21.582 21.582 14.388 0 0 0
2508 3 12.5895 26.9775 21.582 0 0 0
802 3 28.776 19.7835 1.7985 0 0 0
1694 3 21.582 26.9775 12.5895 0 0 0
2110 3 17.985 26.9775 26.9775 0 0 0
946 3 28.776 30.5745 23.3805 0 0 0
3422 3 3.597 1.7985 19.7835 0 0 0
2734 3 10.791 12.5895 12.5895 0 0 0
2281 3 14.388 7.194 0.0 0 0 0
1871 3 16.1865 3.597 26.9775 0 0 0
2674 3 10.791 5.3955 30.5745 0 0 0
295 3 30.5745 7.194 12.5895 0 0 0
2167 3 16.1865 32.373 5.3955 0 0 0
493 3 32.373 25.179 10.791 0 0 0
1221 3 25.179 17.985 17.985 0 0 0
1898 3 17.985 8.9925 16.1865 0 0 0
614 3 28.776 1.7985 12.5895 0 0 0
90 3 34.1715 16.1865 14.388 0 0 0
2242 3 14.388 5.3955 1.7985 0 0 0
1516 3 19.7835 8.9925 28.776 0 0 0
3737 3 3.597 28.776 14.388 0 0 0
108 3 34.1715 19.7835 10.791 0 0 0
3918 3 0.0 19.7835 30.5745 0 0 0
3097 3 7.194 7.194 14.388 0 0 0
1769 3 21.582 32.373 7.194 0 0 0
171 3 34.1715 28.776 19.7835 0 0 0
1258 3 25.179 23.3805 16.1865 0 0 0
2711 3 8.9925 7.194 26.9775 0 0 0
2280 3 12.5895 5.3955 32.373 0 0 0
425 3 32.373 17.985 21.582 0 0 0
408 3 30.5745 19.7835 3.597 0 0 0
2504 3 12.5895 26.9775 17.985 0 0 0
2569 3 14.388 32.373 7.194 0 0 0
3538 3 3.597 12.5895 16.1865 0 0 0
1159 3 23.3805 10.791 34.1715 0 0 0
1520 3 19.7835 8.9925 32.373 0 0 0
2025 3 17.985 17.985 21.582 0 0 0
1467 3 19.7835 3.597 23.3805 0 0 0
2732 3 8.9925 12.5895 7.194 0 0 0
2153 3 17.985 28.776 28.776 0 0 0
1945 3 17.985 10.791 21.582 0 0 0
709 3 28.776 7.194 25.179 0 0 0
1787 3 19.7835 32.373 23.3805 0 0 0
2612 3 8.9925 1.7985 7.194 0 0 0
211 3 30.5745 0.0 8.9925 0 0 0
584 3 30.5745 34.1715 17.985 0 0 0
3963 3 0.0 28.776 3.597 0 0 0
1048 3 23.3805 5.3955 3.597 0 0 0
1004 3 23.3805 1.7985 0.0 0 0 0
3351 3 5.3955 28.776 26.9775 0 0 0
1900 3 16.1865 8.9925 14.388 0 0 0
638 3 28.776 1.7985 34.1715 0 0 0
1380 3 23.3805 34.1715 14.388 0 0 0
85 3 34.1715 14.388 8.9925 0 0 0
1607 3 19.7835 17.985 5.3955 0 0 0
2515 3 12.5895 25.179 30.5745 0 0 0
20 3 34.1715 1.7985 32.373 0 0 0
3471 3 1.7985 3.597 26.9775 0 0 0
2849 3 10.791 21.582 7.194 0 0 0
2158 3 17.985 30.5745 34.1715 0 0 0
1288 3 23.3805 26.9775 3.597 0 0 0
3455 3 1.7985 3.597 12.5895 0 0 0
1555 3 19.7835 10.791 30.5745 0 0 0
2586 3 14.388 34.1715 23.3805 0 0 0
1948 3 16.1865 12.5895 21.582 0 0 0
1759 3 19.7835 28.776 34.1715 0 0 0
2871 3 8.9925 21.582 26.9775 0 0 0
1947 3 16.1865 10.791 23.3805 0 0 0
460 3 30.5745 23.3805 14.388 0 0 0
1583 3 19.7835 14.388 19.7835 0 0 0
1135 3 23.3805 10.791 12.5895 0 0 0
3342 3 7.194 30.5745 19.7835 0 0 0
1856 3 16.1865 5.3955 10.791 0 0 0
685 3 28.776 7.194 3.597 0 0 0
1156 3 23.3805 12.5895 28.776 0 0 0
1853 3 17.985 3.597 10.791 0 0 0
1598 3 21.582 16.1865 34.1715 0 0 0
1328 3 23.3805 30.5745 3.597 0 0 0
2412 3 12.5895 19.7835 7.194 0 0 0
3295 3 5.3955 25.179 12.5895 0 0 0
41 3 34.1715 7.194 1.7985 0 0 0
1366 3 25.179 34.1715 5.3955 0 0 0
3579 3 1.7985 14.388 16.1865 0 0 0
273 3 32.373 3.597 28.776 0 0 0
2323 3 12.5895 10.791 1.7985 0 0 0
683 3 26.9775 7.194 1.7985 0 0 0
1837 3 17.985 0.0 32.373 0 0 0
2189 3 17.985 32.373 25.179 0 0 0
1065 3 25.179 3.597 21.582 0 0 0
287 3 30.5745 7.194 5.3955 0 0 0
919 3 26.9775 25.179 34.1715 0 0 0
3114 3 7.194 8.9925 30.5745 0 0 0
809 3 28.776 17.985 7.194 0 0 0
3178 3 7.194 16.1865 16.1865 0 0 0
2155 3 16.1865 28.776 30.5745 0 0 0
1031 3 23.3805 0.0 26.9775 0 0 0
3143 3 5.3955 10.791 19.7835 0 0 0
1990 3 17.985 16.1865 26.9775 0 0 0
1778 3 21.582 34.1715 16.1865 0 0 0
2850 3 10.791 23.3805 8.9925 0 0 0
162 3 34.1715 30.5745 0.0 0 0 0
853 3 28.776 21.582 10.791 0 0 0
3086 3 7.194 8.9925 5.3955 0 0 0
2551 3 12.5895 28.776 26.9775 0 0 0
3242 3 7.194 23.3805 1.7985 0 0 0
2302 3 14.388 8.9925 19.7835 0 0 0
1086 3 25.179 8.9925 5.3955 0 0 0
1466 3 21.582 5.3955 23.3805 0 0 0
2359 3 12.5895 10.791 34.1715 0 0 0
945 3 28.776 28.776 21.582 0 0 0
3726 3 3.597 30.5745 5.3955 0 0 0
949 3 28.776 28.776 25.179 0 0 0
14 3 34.1715 1.7985 21.582 0 0 0
2113 3 17.985 25.179 28.776 0 0 0
219 3 30.5745 0.0 16.1865 0 0 0
3284 3 5.3955 26.9775 0.0 0 0 0
1222 3 25.179 19.7835 19.7835 0 0 0
346 3 32.373 12.5895 23.3805 0 0 0
1889 3 17.985 7.194 7.194 0 0 0
1754 3 21.582 30.5745 30.5745 0 0 0
2649 3 10.791 3.597 7.194 0 0 0
1628 3 19.7835 19.7835 21.582 0 0 0
3410 3 3.597 1.7985 8.9925 0 0 0
2207 3 12.5895 0.0 5.3955 0 0 0
2056 3 16.1865 23.3805 10.791 0 0 0
674 3 28.776 5.3955 30.5745 0 0 0
1217 3 25.179 17.985 14.388 0 0 0
353 3 32.373 10.791 28.776 0 0 0
3809 3 0.0 0.0 14.388 0 0 0
1523 3 19.7835 10.791 1.7985 0 0 0
2200 3 16.1865 34.1715 32.373 0 0 0
489 3 32.373 25.179 7.194 0 0 0
3697 3 3.597 25.179 14.388 0 0 0
3833 3 0.0 3.597 21.582 0 0 0
1112 3 23.3805 8.9925 25.179 0 0 0
3893 3 0.0 14.388 21.582 0 0 0
938 3 28.776 30.5745 16.1865 0 0 0
2877 3 10.791 21.582 32.373 0 0 0
2758 3 10.791 12.5895 34.1715 0 0 0
2580 3 12.5895 34.1715 14.388 0 0 0
2502 3 14.388 26.9775 19.7835 0 0 0
105 3 34.1715 17.985 8.9925 0 0 0
1345 3 25.179 28.776 21.582 0 0 0
1470 3 21.582 5.3955 26.9775 0 0 0
737 3 28.776 10.791 14.388 0 0 0
2139 3 16.1865 28.776 16.1865 0 0 0
183 3 34.1715 32.373 5.3955 0 0 0
3322 3 7.194 30.5745 1.7985 0 0 0
3810 3 0.0 1.7985 16.1865 0 0 0
3468 3 1.7985 5.3955 21.582 0 0 0
3868 3 0.0 12.5895 12.5895 0 0 0
3554 3 3.597 12.5895 30.5745 0 0 0
2680 3 8.9925 5.3955 32.373 0 0 0
1343 3 23.3805 28.776 19.7835 0 0 0
2094 3 17.985 26.9775 12.5895 0 0 0
2993 3 10.791 32.373 28.776 0 0 0
3684 3 1.7985 26.9775 0.0 0 0 0
260 3 30.5745 5.3955 14.388 0 0 0
600 3 30.5745 34.1715 32.373 0 0 0
3813 3 0.0 0.0 21.582 0 0 0
2966 3 10.791 34.1715 5.3955 0 0 0
585 3 32.373 32.373 21.582 0 0 0
2172 3 16.1865 34.1715 7.194 0 0 0
2531 3 12.5895 28.776 8.9925 0 0 0
286 3 32.373 8.9925 5.3955 0 0 0
3740 3 1.7985 30.5745 14.388 0 0 0
278 3 32.373 5.3955 34.1715 0 0 0
672 3 26.9775 5.3955 25.179 0 0 0
3977 3 0.0 28.776 28.776 0 0 0
1157 3 25.179 10.791 32.373 0 0 0
804 3 26.9775 19.7835 0.0 0 0 0
2921 3 10.791 28.776 0.0 0 0 0
3019 3 5.3955 0.0 16.1865 0 0 0
2625 3 10.791 0.0 21.582 0 0 0
3681 3 3.597 25.179 0.0 0 0 0
682 3 28.776 8.9925 1.7985 0 0 0
928 3 26.9775 30.5745 3.597 0 0 0
826 3 28.776 19.7835 23.3805 0 0 0
2842 3 10.791 23.3805 1.7985 0 0 0
2790 3 10.791 16.1865 26.9775 0 0 0
3123 3 5.3955 10.791 1.7985 0 0 0
730 3 28.776 12.5895 8.9925 0 0 0
669 3 28.776 3.597 25.179 0 0 0
2843 3 8.9925 21.582 1.7985 0 0 0
167 3 34.1715 28.776 12.5895 0 0 0
2902 3 10.791 26.9775 19.7835 0 0 0
77 3 34.1715 10.791 30.5745 0 0 0
926 3 28.776 30.5745 5.3955 0 0 0
3470 3 3.597 5.3955 26.9775 0 0 0
3912 3 0.0 19.7835 19.7835 0 0 0
3406 3 3.597 1.7985 5.3955 0 0 0
3936 3 0.0 23.3805 26.9775 0 0 0
2449 3 14.388 21.582 7.194 0 0 0
2348 3 12.5895 12.5895 21.582 0 0 0
2597 3 14.388 32.373 32.373 0 0 0
393 3 32.373 14.388 28.776 0 0 0
2083 3 16.1865 25.179 1.7985 0 0 0
1491 3 19.7835 7.194 8.9925 0 0 0
1935 3 16.1865 10.791 12.5895 0 0 0
515 3 30.5745 25.179 30.5745 0 0 0
2715 3 8.9925 7.194 30.5745 0 0 0
2428 3 12.5895 19.7835 21.582 0 0 0
729 3 28.776 10.791 7.194 0 0 0
3446 3 3.597 5.3955 5.3955 0 0 0
2123 3 16.1865 28.776 1.7985 0 0 0
3146 3 7.194 12.5895 23.3805 0 0 0
3235 3 5.3955 17.985 30.5745 0 0 0
146 3 34.1715 26.9775 7.194 0 0 0
3765 3 3.597 32.373 3.597 0 0 0
3560 3 1.7985 12.5895 32.373 0 0 0
602 3 28.776 1.7985 1.7985 0 0 0
2209 3 14.388 0.0 7.194 0 0 0
3115 3 5.3955 7.194 30.5745 0 0 0
2457 3 14.388 21.582 14.388 0 0 0
2823 3 8.9925 17.985 19.7835 0 0 0
559 3 30.5745 28.776 34.1715 0 0 0
3018 3 7.194 1.7985 16.1865 0 0 0
299 3 30.5745 7.194 16.1865 0 0 0
1656 3 19.7835 23.3805 10.791 0 0 0
1076 3 23.3805 5.3955 28.776 0 0 0
1780 3 19.7835 34.1715 14.388 0 0 0
202 3 32.373 1.7985 1.7985 0 0 0
2878 3 10.791 23.3805 34.1715 0 0 0
3137 3 7.194 10.791 14.388 0 0 0
1457 3 21.582 3.597 14.388 0 0 0
2131 3 16.1865 28.776 8.9925 0 0 0
247 3 30.5745 3.597 5.3955 0 0 0
632 3 26.9775 1.7985 25.179 0 0 0
3896 3 0.0 16.1865 26.9775 0 0 0
399 3 30.5745 14.388 34.1715 0 0 0
156 3 34.1715 26.9775 25.179 0 0 0
968 3 26.9775 34.1715 3.597 0 0 0
1936 3 16.1865 12.5895 10.791 0 0 0
3186 3 7.194 16.1865 23.3805 0 0 0
427 3 30.5745 17.985 23.3805 0 0 0
2414 3 14.388 19.7835 12.5895 0 0 0
1937 3 17.985 10.791 14.388 0 0 0
2789 3 10.791 14.388 25.179 0 0 0
3313 3 7.194 25.179 28.776 0 0 0
122 3 34.1715 23.3805 0.0 0 0 0
511 3 30.5745 25.179 26.9775 0 0 0
87 3 34.1715 14.388 12.5895 0 0 0
2458 3 14.388 23.3805 16.1865 0 0 0
1911 3 16.1865 7.194 26.9775 0 0 0
1545 3 21.582 10.791 21.582 0 0 0
2885 3 10.791 25.179 3.597 0 0 0
2397 3 14.388 14.388 32.373 0 0 0
2820 3 8.9925 19.7835 14.388 0 0 0
2004 3 16.1865 19.7835 0.0 0 0 0
1102 3 25.179 8.9925 19.7835 0 0 0
3068 3 5.3955 5.3955 21.582 0 0 0
3301 3 7.194 25.179 17.985 0 0 0
3555 3 1.7985 10.791 30.5745 0 0 0
3214 3 7.194 19.7835 12.5895 0 0 0
843 3 26.9775 21.582 1.7985 0 0 0
2372 3 12.5895 16.1865 7.194 0 0 0
3052 3 5.3955 5.3955 7.194 0 0 0
939 3 26.9775 28.776 16.1865 0 0 0
1682 3 21.582 26.9775 1.7985 0 0 0
2304 3 12.5895 8.9925 17.985 0 0 0
1061 3 25.179 3.597 17.985 0 0 0
529 3 32.373 28.776 7.194 0 0 0
404 3 30.5745 19.7835 0.0 0 0 0
1465 3 21.582 3.597 21.582 0 0 0
434 3 32.373 19.7835 30.5745 0 0 0
705 3 28.776 7.194 21.582 0 0 0
1047 3 23.3805 3.597 5.3955 0 0 0
1630 3 21.582 19.7835 26.9775 0 0 0
1511 3 19.7835 7.194 26.9775 0 0 0
2393 3 14.388 14.388 28.776 0 0 0
2417 3 14.388 17.985 14.388 0 0 0
1927 3 16.1865 10.791 5.3955 0 0 0
1749 3 21.582 28.776 25.179 0 0 0
3164 3 5.3955 16.1865 0.0 0 0 0
3266 3 7.194 23.3805 23.3805 0 0 0
628 3 26.9775 1.7985 21.582 0 0 0
2776 3 8.9925 16.1865 10.791 0 0 0
3273 3 7.194 21.582 28.776 0 0 0
3899 3 0.0 14.388 32.373 0 0 0
3428 3 1.7985 1.7985 21.582 0 0 0
1389 3 25.179 32.373 25.179 0 0 0
471 3 30.5745 21.582 26.9775 0 0 0
1418 3 21.582 1.7985 16.1865 0 0 0
2462 3 14.388 23.3805 19.7835 0 0 0
2033 3 17.985 17.985 28.776 0 0 0
1049 3 25.179 3.597 7.194 0 0 0
2636 3 8.9925 1.7985 28.776 0 0 0
3372 3 5.3955 34.1715 7.194 0 0 0
337 3 32.373 10.791 14.388 0 0 0
3790 3 3.597 34.1715 26.9775 0 0 0
1133 3 25.179 10.791 10.791 0 0 0
1930 3 17.985 12.5895 8.9925 0 0 0
1564 3 19.7835 16.1865 0.0 0 0 0
3489 3 3.597 7.194 7.194 0 0 0
1000 3 26.9775 34.1715 32.373 0 0 0
2796 3 8.9925 16.1865 28.776 0 0 0
294 3 32.373 8.9925 12.5895 0 0 0
3753 3 3.597 28.776 28.776 0 0 0
2673 3 10.791 3.597 28.776 0 0 0
3511 3 1.7985 7.194 26.9775 0 0 0
2769 3 10.791 14.388 7.194 0 0 0
2336 3 12.5895 12.5895 10.791 0 0 0
1408 3 19.7835 1.7985 3.597 0 0 0
2756 3 8.9925 12.5895 28.776 0 0 0
204 3 30.5745 1.7985 0.0 0 0 0
2793 3 10.791 14.388 28.776 0 0 0
3171 3 5.3955 14.388 8.9925 0 0 0
3998 3 0.0 34.1715 30.5745 0 0 0
2294 3 14.388 8.9925 12.5895 0 0 0
1266 3 25.179 23.3805 23.3805 0 0 0
3380 3 5.3955 34.1715 14.388 0 0 0
2483 3 12.5895 25.179 1.7985 0 0 0
1786 3 21.582 34.1715 23.3805 0 0 0
11 3 34.1715 0.0 19.7835 0 0 0
138 3 34.1715 23.3805 28.776 0 0 0
1349 3 25.179 28.776 25.179 0 0 0
3766 3 3.597 34.1715 5.3955 0 0 0
2669 3 10.791 3.597 25.179 0 0 0
3427 3 1.7985 0.0 23.3805 0 0 0
741 3 28.776 10.791 17.985 0 0 0
3572 3 1.7985 16.1865 7.194 0 0 0
2742 3 10.791 12.5895 19.7835 0 0 0
745 3 28.776 10.791 21.582 0 0 0
3767 3 1.7985 32.373 5.3955 0 0 0
3648 3 1.7985 23.3805 3.597 0 0 0
2520 3 12.5895 26.9775 32.373 0 0 0
2556 3 12.5895 30.5745 28.776 0 0 0
16 3 34.1715 1.7985 25.179 0 0 0
988 3 26.9775 34.1715 21.582 0 0 0
2185 3 17.985 32.373 21.582 0 0 0
1383 3 23.3805 32.373 19.7835 0 0 0
963 3 26.9775 32.373 1.7985 0 0 0
2622 3 10.791 1.7985 19.7835 0 0 0
2565 3 14.388 32.373 3.597 0 0 0
344 3 30.5745 12.5895 17.985 0 0 0
841 3 28.776 21.582 0.0 0 0 0
3950 3 0.0 26.9775 16.1865 0 0 0
888 3 26.9775 26.9775 3.597 0 0 0
452 3 30.5745 23.3805 7.194 0 0 0
1421 3 21.582 0.0 17.985 0 0 0
1888 3 16.1865 8.9925 3.597 0 0 0
1637 3 21.582 17.985 32.373 0 0 0
3674 3 3.597 23.3805 30.5745 0 0 0
2297 3 14.388 7.194 14.388 0 0 0
951 3 26.9775 28.776 26.9775 0 0 0
2224 3 12.5895 1.7985 17.985 0 0 0
2892 3 8.9925 26.9775 7.194 0 0 0
984 3 26.9775 34.1715 17.985 0 0 0
72 3 34.1715 12.5895 17.985 0 0 0
2394 3 14.388 16.1865 30.5745 0 0 0
277 3 32.373 3.597 32.373 0 0 0
3745 3 3.597 28.776 21.582 0 0 0
2135 3 16.1865 28.776 12.5895 0 0 0
604 3 26.9775 1.7985 0.0 0 0 0
1424 3 19.7835 1.7985 17.985 0 0 0
256 3 30.5745 5.3955 10.791 0 0 0
561 3 32.373 32.373 0.0 0 0 0
304 3 30.5745 8.9925 17.985 0 0 0
736 3 26.9775 12.5895 10.791 0 0 0
3676 3 1.7985 23.3805 28.776 0 0 0
1155 3 23.3805 10.791 30.5745 0 0 0
1247 3 23.3805 21.582 5.3955 0 0 0
866 3 28.776 23.3805 23.3805 0 0 0
3194 3 7.194 16.1865 30.5745 0 0 0
2749 3 10.791 10.791 25.179 0 0 0
2505 3 14.388 25.179 21.582 0 0 0
609 3 28.776 0.0 7.194 0 0 0
1649 3 21.582 21.582 7.194 0 0 0
1348 3 23.3805 30.5745 21.582 0 0 0
2246 3 14.388 5.3955 5.3955 0 0 0
2563 3 12.5895 32.373 1.7985 0 0 0
3073 3 7.194 3.597 28.776 0 0 0
831 3 26.9775 17.985 26.9775 0 0 0
2279 3 12.5895 3.597 34.1715 0 0 0
3832 3 0.0 5.3955 19.7835 0 0 0
107 3 34.1715 17.985 12.5895 0 0 0
2132 3 16.1865 30.5745 7.194 0 0 0
3300 3 5.3955 26.9775 14.388 0 0 0
2592 3 12.5895 34.1715 25.179 0 0 0
640 3 26.9775 1.7985 32.373 0 0 0
429 3 32.373 17.985 25.179 0 0 0
3959 3 0.0 25.179 32.373 0 0 0
671 3 26.9775 3.597 26.9775 0 0 0
2142 3 17.985 30.5745 19.7835 0 0 0
2360 3 12.5895 12.5895 32.373 0 0 0
1029 3 25.179 0.0 25.179 0 0 0
861 3 28.776 21.582 17.985 0 0 0
3026 3 7.194 1.7985 23.3805 0 0 0
245 3 32.373 3.597 3.597 0 0 0
2006 3 17.985 19.7835 5.3955 0 0 0
536 3 30.5745 30.5745 10.791 0 0 0
2910 3 10.791 26.9775 26.9775 0 0 0
578 3 32.373 34.1715 16.1865 0 0 0
1088 3 23.3805 8.9925 3.597 0 0 0
80 3 34.1715 12.5895 32.373 0 0 0
2419 3 12.5895 17.985 16.1865 0 0 0
40 3 34.1715 5.3955 32.373 0 0 0
2440 3 12.5895 19.7835 32.373 0 0 0
2799 3 8.9925 14.388 34.1715 0 0 0
3994 3 0.0 34.1715 23.3805 0 0 0
987 3 26.9775 32.373 23.3805 0 0 0
2206 3 14.388 1.7985 5.3955 0 0 0
3105 3 7.194 7.194 21.582 0 0 0
352 3 30.5745 12.5895 25.179 0 0 0
17 3 34.1715 0.0 30.5745 0 0 0
3202 3 7.194 19.7835 1.7985 0 0 0
1149 3 25.179 10.791 25.179 0 0 0
907 3 26.9775 25.179 23.3805 0 0 0
2305 3 14.388 7.194 21.582 0 0 0
3206 3 7.194 19.7835 5.3955 0 0 0
2459 3 12.5895 21.582 16.1865 0 0 0
1722 3 21.582 30.5745 1.7985 0 0 0
2117 3 17.985 25.179 32.373 0 0 0
3749 3 3.597 28.776 25.179 0 0 0
1442 3 21.582 5.3955 1.7985 0 0 0
1745 3 21.582 28.776 21.582 0 0 0
1262 3 25.179 23.3805 19.7835 0 0 0
762 3 28.776 16.1865 1.7985 0 0 0
927 3 26.9775 28.776 5.3955 0 0 0
3002 3 7.194 1.7985 1.7985 0 0 0
2411 3 12.5895 17.985 8.9925 0 0 0
3448 3 1.7985 5.3955 3.597 0 0 0
3795 3 1.7985 32.373 30.5745 0 0 0
1313 3 25.179 25.179 28.776 0 0 0
457 3 32.373 21.582 14.388 0 0 0
228 3 30.5745 1.7985 21.582 0 0 0
2173 3 17.985 32.373 10.791 0 0 0
2405 3 14.388 17.985 3.597 0 0 0
2522 3 14.388 30.5745 1.7985 0 0 0
3218 3 7.194 19.7835 16.1865 0 0 0
1864 3 16.1865 5.3955 17.985 0 0 0
2074 3 17.985 23.3805 30.5745 0 0 0
3814 3 0.0 1.7985 23.3805 0 0 0
884 3 26.9775 26.9775 0.0 0 0 0
2735 3 8.9925 10.791 12.5895 0 0 0
1161 3 25.179 14.388 0.0 0 0 0
2431 3 12.5895 17.985 26.9775 0 0 0
2525 3 14.388 28.776 3.597 0 0 0
360 3 30.5745 12.5895 32.373 0 0 0
3660 3 1.7985 23.3805 14.388 0 0 0
3022 3 7.194 1.7985 19.7835 0 0 0
1294 3 25.179 26.9775 12.5895 0 0 0
2470 3 14.388 23.3805 26.9775 0 0 0
3222 3 7.194 19.7835 19.7835 0 0 0
1587 3 19.7835 14.388 23.3805 0 0 0
2984 3 8.9925 34.1715 17.985 0 0 0
1961 3 17.985 14.388 0.0 0 0 0
1070 3 25.179 5.3955 26.9775 0 0 0
3688 3 1.7985 26.9775 3.597 0 0 0
2329 3 14.388 10.791 7.194 0 0 0
822 3 28.776 19.7835 19.7835 0 0 0
3924 3 0.0 23.3805 5.3955 0 0 0
3381 3 7.194 32.373 17.985 0 0 0
2598 3 14.388 34.1715 34.1715 0 0 0
3949 3 0.0 25.179 14.388 0 0 0
1534 3 21.582 12.5895 12.5895 0 0 0
3008 3 5.3955 1.7985 3.597 0 0 0
1964 3 16.1865 16.1865 0.0 0 0 0
3059 3 5.3955 3.597 16.1865 0 0 0
1210 3 25.179 19.7835 8.9925 0 0 0
3208 3 5.3955 19.7835 3.597 0 0 0
3197 3 7.194 14.388 32.373 0 0 0
2028 3 16.1865 19.7835 21.582 0 0 0
2819 3 8.9925 17.985 16.1865 0 0 0
911 3 26.9775 25.179 26.9775 0 0 0
1329 3 25.179 28.776 7.194 0 0 0
3367 3 5.3955 32.373 5.3955 0 0 0
1300 3 23.3805 26.9775 14.388 0 0 0
1358 3 25.179 30.5745 34.1715 0 0 0
351 3 30.5745 10.791 26.9775 0 0 0
2340 3 12.5895 12.5895 14.388 0 0 0
1437 3 21.582 0.0 32.373 0 0 0
2042 3 17.985 23.3805 1.7985 0 0 0
3480 3 1.7985 5.3955 32.373 0 0 0
734 3 28.776 12.5895 12.5895 0 0 0
497 3 32.373 25.179 14.388 0 0 0
3063 3 5.3955 3.597 19.7835 0 0 0
2407 3 12.5895 17.985 5.3955 0 0 0
3802 3 0.0 1.7985 1.7985 0 0 0
1625 3 21.582 17.985 21.582 0 0 0
230 3 32.373 1.7985 26.9775 0 0 0
2931 3 8.9925 28.776 8.9925 0 0 0
3817 3 0.0 0.0 28.776 0 0 0
1670 3 21.582 23.3805 26.9775 0 0 0
2047 3 16.1865 21.582 5.3955 0 0 0
2897 3 10.791 25.179 14.388 0 0 0
2166 3 17.985 34.1715 5.3955 0 0 0
2862 3 10.791 23.3805 19.7835 0 0 0
2215 3 12.5895 0.0 12.5895 0 0 0
803 3 26.9775 17.985 1.7985 0 0 0
3836 3 0.0 5.3955 26.9775 0 0 0
1602 3 21.582 19.7835 1.7985 0 0 0
2882 3 10.791 26.9775 1.7985 0 0 0
1810 3 17.985 1.7985 8.9925 0 0 0
2718 3 10.791 8.9925 34.1715 0 0 0
2560 3 12.5895 30.5745 32.373 0 0 0
1020 3 23.3805 1.7985 14.388 0 0 0
3043 3 5.3955 3.597 1.7985 0 0 0
1814 3 17.985 1.7985 12.5895 0 0 0
327 3 30.5745 10.791 5.3955 0 0 0
2775 3 8.9925 14.388 12.5895 0 0 0
2479 3 12.5895 21.582 34.1715 0 0 0
3750 3 3.597 30.5745 26.9775 0 0 0
1999 3 16.1865 14.388 34.1715 0 0 0
2361 3 14.388 14.388 0.0 0 0 0
197 3 34.1715 32.373 30.5745 0 0 0
959 3 26.9775 28.776 34.1715 0 0 0
625 3 28.776 0.0 21.582 0 0 0
1989 3 17.985 14.388 25.179 0 0 0
444 3 30.5745 23.3805 0.0 0 0 0
3821 3 0.0 3.597 0.0 0 0 0
2077 3 17.985 21.582 32.373 0 0 0
1191 3 23.3805 14.388 26.9775 0 0 0
3417 3 3.597 0.0 14.388 0 0 0
2282 3 14.388 8.9925 1.7985 0 0 0
2137 3 17.985 28.776 14.388 0 0 0
3552 3 1.7985 12.5895 25.179 0 0 0
1482 3 21.582 8.9925 1.7985 0 0 0
2011 3 16.1865 17.985 8.9925 0 0 0
3490 3 3.597 8.9925 8.9925 0 0 0
3424 3 1.7985 1.7985 17.985 0 0 0
2977 3 10.791 32.373 14.388 0 0 0
3982 3 0.0 34.1715 1.7985 0 0 0
2730 3 10.791 12.5895 8.9925 0 0 0
61 3 34.1715 10.791 1.7985 0 0 0
1941 3 17.985 10.791 17.985 0 0 0
1039 3 23.3805 0.0 34.1715 0 0 0
225 3 32.373 0.0 21.582 0 0 0
334 3 32.373 12.5895 12.5895 0 0 0
3080 3 5.3955 5.3955 32.373 0 0 0
2629 3 10.791 0.0 25.179 0 0 0
3687 3 1.7985 25.179 5.3955 0 0 0
867 3 26.9775 21.582 23.3805 0 0 0
2156 3 16.1865 30.5745 28.776 0 0 0
3270 3 7.194 23.3805 26.9775 0 0 0
328 3 30.5745 12.5895 3.597 0 0 0
2196 3 16.1865 34.1715 28.776 0 0 0
513 3 32.373 25.179 28.776 0 0 0
491 3 30.5745 25.179 8.9925 0 0 0
552 3 30.5745 30.5745 25.179 0 0 0
3524 3 1.7985 12.5895 0.0 0 0 0
568 3 30.5745 34.1715 3.597 0 0 0
2543 3 12.5895 28.776 19.7835 0 0 0
863 3 26.9775 21.582 19.7835 0 0 0
3778 3 3.597 34.1715 16.1865 0 0 0
3036 3 5.3955 1.7985 28.776 0 0 0
67 3 34.1715 10.791 12.5895 0 0 0
1942 3 17.985 12.5895 19.7835 0 0 0
1823 3 16.1865 0.0 19.7835 0 0 0
865 3 28.776 21.582 21.582 0 0 0
2755 3 8.9925 10.791 30.5745 0 0 0
954 3 28.776 30.5745 30.5745 0 0 0
941 3 28.776 28.776 17.985 0 0 0
2401 3 14.388 17.985 0.0 0 0 0
3771 3 1.7985 32.373 8.9925 0 0 0
1726 3 21.582 30.5745 5.3955 0 0 0
339 3 30.5745 10.791 16.1865 0 0 0
616 3 26.9775 1.7985 10.791 0 0 0
3148 3 5.3955 12.5895 21.582 0 0 0
1069 3 25.179 3.597 25.179 0 0 0
887 3 26.9775 25.179 5.3955 0 0 0
2728 3 8.9925 12.5895 3.597 0 0 0
3453 3 3.597 3.597 10.791 0 0 0
320 3 30.5745 8.9925 32.373 0 0 0
2461 3 14.388 21.582 17.985 0 0 0
733 3 28.776 10.791 10.791 0 0 0
2601 3 10.791 0.0 0.0 0 0 0
3221 3 7.194 17.985 17.985 0 0 0
2609 3 10.791 0.0 7.194 0 0 0
133 3 34.1715 21.582 23.3805 0 0 0
2187 3 16.1865 32.373 23.3805 0 0 0
3946 3 0.0 26.9775 8.9925 0 0 0
2956 3 8.9925 30.5745 28.776 0 0 0
2813 3 10.791 17.985 10.791 0 0 0
2211 3 12.5895 0.0 8.9925 0 0 0
1316 3 23.3805 26.9775 28.776 0 0 0
2007 3 16.1865 17.985 5.3955 0 0 0
2115 3 16.1865 25.179 30.5745 0 0 0
2228 3 12.5895 1.7985 21.582 0 0 0
3886 3 0.0 16.1865 8.9925 0 0 0
2751 3 8.9925 10.791 26.9775 0 0 0
2880 3 8.9925 23.3805 32.373 0 0 0
792 3 26.9775 16.1865 25.179 0 0 0
2036 3 16.1865 19.7835 28.776 0 0 0
317 3 32.373 7.194 32.373 0 0 0
3711 3 1.7985 25.179 26.9775 0 0 0
1718 3 21.582 26.9775 34.1715 0 0 0
3630 3 3.597 19.7835 26.9775 0 0 0
118 3 34.1715 19.7835 28.776 0 0 0
1521 4 21.582 10.791 0.0 0 0 0
2792 4 8.9925 16.1865 25.179 0 0 0
383 4 30.5745 14.388 19.7835 0 0 0
3539 4 1.7985 10.791 16.1865 0 0 0
2896 4 8.9925 26.9775 10.791 0 0 0
3653 4 3.597 21.582 10.791 0 0 0
3333 4 7.194 28.776 10.791 0 0 0
1620 4 19.7835 19.7835 14.388 0 0 0
785 4 28.776 14.388 21.582 0 0 0
1494 4 21.582 8.9925 12.5895 0 0 0
798 4 28.776 16.1865 34.1715 0 0 0
1926 4 17.985 12.5895 5.3955 0 0 0
2290 4 14.388 8.9925 8.9925 0 0 0
2944 4 8.9925 30.5745 17.985 0 0 0
3880 4 0.0 12.5895 34.1715 0 0 0
1431 4 19.7835 0.0 26.9775 0 0 0
2883 4 8.9925 25.179 1.7985 0 0 0
3257 4 7.194 21.582 14.388 0 0 0
1614 4 21.582 19.7835 12.5895 0 0 0
3975 4 0.0 28.776 25.179 0 0 0
1371 4 23.3805 32.373 8.9925 0 0 0
2326 4 14.388 12.5895 5.3955 0 0 0
2980 4 8.9925 34.1715 14.388 0 0 0
3175 4 5.3955 14.388 12.5895 0 0 0
38 4 34.1715 5.3955 28.776 0 0 0
509 4 32.373 25.179 25.179 0 0 0
1276 4 23.3805 23.3805 28.776 0 0 0
2822 4 10.791 19.7835 19.7835 0 0 0
3160 4 5.3955 12.5895 32.373 0 0 0
485 4 32.373 25.179 3.597 0 0 0
3308 4 5.3955 26.9775 21.582 0 0 0
3848 4 0.0 8.9925 12.5895 0 0 0
1673 4 21.582 21.582 28.776 0 0 0
2675 4 8.9925 3.597 30.5745 0 0 0
1943 4 16.1865 10.791 19.7835 0 0 0
1612 4 19.7835 19.7835 7.194 0 0 0
3772 4 1.7985 34.1715 7.194 0 0 0
876 4 26.9775 23.3805 28.776 0 0 0
3100 4 5.3955 8.9925 14.388 0 0 0
1858 4 17.985 5.3955 16.1865 0 0 0
1804 4 16.1865 1.7985 0.0 0 0 0
3354 4 7.194 30.5745 30.5745 0 0 0
384 4 30.5745 16.1865 17.985 0 0 0
2530 4 14.388 30.5745 8.9925 0 0 0
3743 4 1.7985 28.776 19.7835 0 0 0
377 4 32.373 14.388 14.388 0 0 0
3345 4 7.194 28.776 21.582 0 0 0
1793 4 21.582 32.373 28.776 0 0 0
2576 4 12.5895 34.1715 10.791 0 0 0
3479 4 1.7985 3.597 34.1715 0 0 0
3224 4 5.3955 19.7835 17.985 0 0 0
3370 4 7.194 34.1715 8.9925 0 0 0
639 4 26.9775 0.0 34.1715 0 0 0
885 4 28.776 25.179 3.597 0 0 0
797 4 28.776 14.388 32.373 0 0 0
1046 4 25.179 5.3955 5.3955 0 0 0
1176 4 23.3805 16.1865 10.791 0 0 0
3249 4 7.194 21.582 7.194 0 0 0
3130 4 7.194 12.5895 8.9925 0 0 0
1129 4 25.179 10.791 7.194 0 0 0
1364 4 23.3805 34.1715 0.0 0 0 0
432 4 30.5745 19.7835 25.179 0 0 0
714 4 28.776 8.9925 30.5745 0 0 0
1644 4 19.7835 23.3805 0.0 0 0 0
1725 4 21.582 28.776 3.597 0 0 0
542 4 32.373 30.5745 19.7835 0 0 0
1859 4 16.1865 3.597 16.1865 0 0 0
3616 4 1.7985 19.7835 10.791 0 0 0
148 4 34.1715 26.9775 10.791 0 0 0
500 4 30.5745 26.9775 14.388 0 0 0
558 4 32.373 30.5745 34.1715 0 0 0
731 4 26.9775 10.791 8.9925 0 0 0
1591 4 19.7835 14.388 26.9775 0 0 0
1369 4 25.179 32.373 7.194 0 0 0
1822 4 17.985 1.7985 19.7835 0 0 0
2147 4 16.1865 28.776 23.3805 0 0 0
2512 4 12.5895 26.9775 25.179 0 0 0
3062 4 7.194 5.3955 19.7835 0 0 0
364 4 30.5745 16.1865 0.0 0 0 0
2857 4 10.791 21.582 14.388 0 0 0
2092 4 16.1865 26.9775 7.194 0 0 0
658 4 28.776 5.3955 16.1865 0 0 0
2312 4 12.5895 8.9925 25.179 0 0 0
2146 4 17.985 30.5745 23.3805 0 0 0
1811 4 16.1865 0.0 8.9925 0 0 0
2868 4 8.9925 23.3805 21.582 0 0 0
151 4 34.1715 25.179 19.7835 0 0 0
693 4 28.776 7.194 10.791 0 0 0
1433 4 21.582 0.0 28.776 0 0 0
194 4 34.1715 34.1715 21.582 0 0 0
3678 4 3.597 23.3805 34.1715 0 0 0
3498 4 3.597 8.9925 16.1865 0 0 0
3792 4 1.7985 34.1715 25.179 0 0 0
487 4 30.5745 25.179 5.3955 0 0 0
3577 4 3.597 14.388 14.388 0 0 0
2093 4 17.985 25.179 10.791 0 0 0
3476 4 1.7985 5.3955 28.776 0 0 0
2661 4 10.791 3.597 17.985 0 0 0
3103 4 5.3955 7.194 19.7835 0 0 0
3493 4 3.597 7.194 10.791 0 0 0
899 4 26.9775 25.179 16.1865 0 0 0
3885 4 0.0 14.388 7.194 0 0 0
2750 4 10.791 12.5895 26.9775 0 0 0
2499 4 12.5895 25.179 16.1865 0 0 0
2879 4 8.9925 21.582 34.1715 0 0 0
1925 4 17.985 10.791 3.597 0 0 0
1592 4 19.7835 16.1865 25.179 0 0 0
2662 4 10.791 5.3955 19.7835 0 0 0
2016 4 16.1865 19.7835 10.791 0 0 0
546 4 32.373 30.5745 23.3805 0 0 0
2774 4 10.791 16.1865 12.5895 0 0 0
2480 4 12.5895 23.3805 32.373 0 0 0
499 4 30.5745 25.179 16.1865 0 0 0
516 4 30.5745 26.9775 28.776 0 0 0
3789 4 3.597 32.373 25.179 0 0 0
2203 4 12.5895 0.0 1.7985 0 0 0
318 4 32.373 8.9925 34.1715 0 0 0
1493 4 21.582 7.194 10.791 0 0 0
2806 4 10.791 19.7835 5.3955 0 0 0
3077 4 7.194 3.597 32.373 0 0 0
613 4 28.776 0.0 10.791 0 0 0
2038 4 17.985 19.7835 34.1715 0 0 0
3337 4 7.194 28.776 14.388 0 0 0
3799 4 1.7985 32.373 34.1715 0 0 0
1737 4 21.582 28.776 14.388 0 0 0
2654 4 10.791 5.3955 12.5895 0 0 0
844 4 26.9775 23.3805 0.0 0 0 0
2278 4 14.388 5.3955 34.1715 0 0 0
577 4 32.373 32.373 14.388 0 0 0
917 4 28.776 25.179 32.373 0 0 0
1390 4 25.179 34.1715 26.9775 0 0 0
3408 4 1.7985 1.7985 3.597 0 0 0
2054 4 17.985 23.3805 12.5895 0 0 0
3523 4 1.7985 10.791 1.7985 0 0 0
3225 4 7.194 17.985 21.582 0 0 0
1650 4 21.582 23.3805 8.9925 0 0 0
128 4 34.1715 23.3805 10.791 0 0 0
2919 4 8.9925 25.179 34.1715 0 0 0
2446 4 14.388 23.3805 5.3955 0 0 0
2433 4 14.388 17.985 28.776 0 0 0
3478 4 3.597 5.3955 34.1715 0 0 0
1768 4 19.7835 34.1715 3.597 0 0 0
793 4 28.776 14.388 28.776 0 0 0
2771 4 8.9925 14.388 8.9925 0 0 0
2186 4 17.985 34.1715 23.3805 0 0 0
3174 4 7.194 16.1865 12.5895 0 0 0
904 4 26.9775 26.9775 17.985 0 0 0
3768 4 1.7985 34.1715 3.597 0 0 0
2426 4 14.388 19.7835 23.3805 0 0 0
1388 4 23.3805 34.1715 21.582 0 0 0
2945 4 10.791 28.776 21.582 0 0 0
3366 4 7.194 34.1715 5.3955 0 0 0
3840 4 0.0 5.3955 34.1715 0 0 0
523 4 30.5745 28.776 1.7985 0 0 0
2567 4 12.5895 32.373 5.3955 0 0 0
3126 4 7.194 12.5895 5.3955 0 0 0
2962 4 10.791 34.1715 1.7985 0 0 0
3090 4 7.194 8.9925 8.9925 0 0 0
3463 4 1.7985 3.597 19.7835 0 0 0
3314 4 7.194 26.9775 30.5745 0 0 0
1873 4 17.985 3.597 28.776 0 0 0
505 4 32.373 25.179 21.582 0 0 0
985 4 28.776 32.373 21.582 0 0 0
1666 4 21.582 23.3805 23.3805 0 0 0
3625 4 3.597 17.985 21.582 0 0 0
3944 4 0.0 26.9775 5.3955 0 0 0
2930 4 10.791 30.5745 8.9925 0 0 0
2736 4 8.9925 12.5895 10.791 0 0 0
3327 4 5.3955 28.776 5.3955 0 0 0
28 4 34.1715 5.3955 10.791 0 0 0
2099 4 16.1865 25.179 16.1865 0 0 0
2111 4 16.1865 25.179 26.9775 0 0 0
2535 4 12.5895 28.776 12.5895 0 0 0
1782 4 21.582 34.1715 19.7835 0 0 0
3571 4 1.7985 14.388 8.9925 0 0 0
3003 4 5.3955 0.0 1.7985 0 0 0
1539 4 19.7835 10.791 16.1865 0 0 0
2476 4 12.5895 23.3805 28.776 0 0 0
2488 4 12.5895 26.9775 3.597 0 0 0
1237 4 25.179 17.985 32.373 0 0 0
2801 4 10.791 17.985 0.0 0 0 0
212 4 30.5745 1.7985 7.194 0 0 0
1010 4 25.179 1.7985 8.9925 0 0 0
3546 4 3.597 12.5895 23.3805 0 0 0
2656 4 8.9925 5.3955 10.791 0 0 0
3666 4 3.597 23.3805 23.3805 0 0 0
924 4 26.9775 30.5745 0.0 0 0 0
1151 4 23.3805 10.791 26.9775 0 0 0
2545 4 14.388 28.776 21.582 0 0 0
1011 4 23.3805 0.0 8.9925 0 0 0
3243 4 5.3955 21.582 1.7985 0 0 0
1944 4 16.1865 12.5895 17.985 0 0 0
1181 4 25.179 14.388 17.985 0 0 0
715 4 26.9775 7.194 30.5745 0 0 0
1970 4 17.985 16.1865 8.9925 0 0 0
1685 4 21.582 25.179 3.597 0 0 0
2903 4 8.9925 25.179 19.7835 0 0 0
846 4 28.776 23.3805 5.3955 0 0 0
3786 4 3.597 34.1715 23.3805 0 0 0
2688 4 8.9925 8.9925 3.597 0 0 0
2241 4 14.388 3.597 0.0 0 0 0
3544 4 1.7985 12.5895 17.985 0 0 0
2152 4 16.1865 30.5745 25.179 0 0 0
1831 4 16.1865 0.0 26.9775 0 0 0
787 4 26.9775 14.388 23.3805 0 0 0
2513 4 14.388 25.179 28.776 0 0 0
3985 4 0.0 32.373 7.194 0 0 0
3125 4 7.194 10.791 3.597 0 0 0
3323 4 5.3955 28.776 1.7985 0 0 0
386 4 32.373 16.1865 23.3805 0 0 0
288 4 30.5745 8.9925 3.597 0 0 0
3402 4 3.597 1.7985 1.7985 0 0 0
1243 4 23.3805 21.582 1.7985 0 0 0
1414 4 21.582 1.7985 12.5895 0 0 0
2555 4 12.5895 28.776 30.5745 0 0 0
3377 4 7.194 32.373 14.388 0 0 0
2978 4 10.791 34.1715 16.1865 0 0 0
1884 4 16.1865 8.9925 0.0 0 0 0
2869 4 10.791 21.582 25.179 0 0 0
2063 4 16.1865 21.582 19.7835 0 0 0
882 4 28.776 26.9775 1.7985 0 0 0
1066 4 25.179 5.3955 23.3805 0 0 0
3782 4 3.597 34.1715 19.7835 0 0 0
1560 4 19.7835 12.5895 32.373 0 0 0
3617 4 3.597 17.985 14.388 0 0 0
3154 4 7.194 12.5895 30.5745 0 0 0
2643 4 8.9925 3.597 1.7985 0 0 0
3528 4 1.7985 12.5895 3.597 0 0 0
2548 4 12.5895 30.5745 21.582 0 0 0
623 4 26.9775 0.0 19.7835 0 0 0
3751 4 1.7985 28.776 26.9775 0 0 0
157 4 34.1715 25.179 30.5745 0 0 0
3315 4 5.3955 25.179 30.5745 0 0 0
1561 4 21.582 14.388 0.0 0 0 0
1250 4 25.179 23.3805 8.9925 0 0 0
2704 4 8.9925 8.9925 17.985 0 0 0
2918 4 10.791 26.9775 34.1715 0 0 0
565 4 32.373 32.373 3.597 0 0 0
2342 4 14.388 12.5895 19.7835 0 0 0
525 4 32.373 28.776 3.597 0 0 0
3991 4 0.0 32.373 17.985 0 0 0
3931 4 0.0 21.582 17.985 0 0 0
557 4 32.373 28.776 32.373 0 0 0
345 4 32.373 10.791 21.582 0 0 0
2898 4 10.791 26.9775 16.1865 0 0 0
1312 4 23.3805 26.9775 25.179 0 0 0
1116 4 23.3805 8.9925 28.776 0 0 0
1198 4 25.179 16.1865 34.1715 0 0 0
94 4 34.1715 16.1865 21.582 0 0 0
1509 4 21.582 7.194 25.179 0 0 0
3277 4 7.194 21.582 32.373 0 0 0
1456 4 19.7835 5.3955 10.791 0 0 0
2182 4 17.985 34.1715 19.7835 0 0 0
3251 4 5.3955 21.582 8.9925 0 0 0
1350 4 25.179 30.5745 26.9775 0 0 0
70 4 34.1715 12.5895 14.388 0 0 0
1573 4 21.582 14.388 10.791 0 0 0
1816 4 16.1865 1.7985 10.791 0 0 0
2157 4 17.985 28.776 32.373 0 0 0
104 4 34.1715 19.7835 3.597 0 0 0
1105 4 25.179 7.194 21.582 0 0 0
120 4 34.1715 19.7835 32.373 0 0 0
2338 4 14.388 12.5895 16.1865 0 0 0
1619 4 19.7835 17.985 16.1865 0 0 0
1138 4 25.179 12.5895 16.1865 0 0 0
100 4 34.1715 16.1865 32.373 0 0 0
12 4 34.1715 1.7985 17.985 0 0 0
2391 4 12.5895 14.388 26.9775 0 0 0
1140 4 23.3805 12.5895 14.388 0 0 0
459 4 30.5745 21.582 16.1865 0 0 0
3102 4 7.194 8.9925 19.7835 0 0 0
3515 4 1.7985 7.194 30.5745 0 0 0
3191 4 5.3955 14.388 26.9775 0 0 0
2104 4 16.1865 26.9775 17.985 0 0 0
3522 4 3.597 12.5895 1.7985 0 0 0
2070 4 17.985 23.3805 26.9775 0 0 0
3876 4 0.0 12.5895 26.9775 0 0 0
1014 4 25.179 1.7985 12.5895 0 0 0
1698 4 21.582 26.9775 16.1865 0 0 0
921 4 28.776 28.776 0.0 0 0 0
3935 4 0.0 21.582 25.179 0 0 0
549 4 32.373 28.776 25.179 0 0 0
2886 4 10.791 26.9775 5.3955 0 0 0
1594 4 21.582 16.1865 30.5745 0 0 0
161 4 34.1715 28.776 1.7985 0 0 0
2339 4 12.5895 10.791 16.1865 0 0 0
1195 4 23.3805 14.388 30.5745 0 0 0
1606 4 21.582 19.7835 5.3955 0 0 0
2369 4 14.388 14.388 7.194 0 0 0
3177 4 7.194 14.388 14.388 0 0 0
129 4 34.1715 21.582 16.1865 0 0 0
3708 4 1.7985 26.9775 21.582 0 0 0
2308 4 12.5895 8.9925 21.582 0 0 0
1324 4 23.3805 30.5745 0.0 0 0 0
3268 4 5.3955 23.3805 21.582 0 0 0
3081 4 7.194 7.194 0.0 0 0 0
1082 4 25.179 8.9925 1.7985 0 0 0
1319 4 23.3805 25.179 34.1715 0 0 0
3887 4 0.0 14.388 10.791 0 0 0
3997 4 0.0 32.373 28.776 0 0 0
357 4 32.373 10.791 32.373 0 0 0
2716 4 8.9925 8.9925 28.776 0 0 0
1696 4 19.7835 26.9775 10.791 0 0 0
2434 4 14.388 19.7835 30.5745 0 0 0
1568 4 19.7835 16.1865 3.597 0 0 0
2319 4 12.5895 7.194 34.1715 0 0 0
54 4 34.1715 8.9925 21.582 0 0 0
1186 4 25.179 16.1865 23.3805 0 0 0
2330 4 14.388 12.5895 8.9925 0 0 0
1895 4 16.1865 7.194 12.5895 0 0 0
2723 4 8.9925 10.791 1.7985 0 0 0
35 4 34.1715 3.597 26.9775 0 0 0
2254 4 14.388 5.3955 12.5895 0 0 0
311 4 30.5745 7.194 26.9775 0 0 0
1332 4 23.3805 30.5745 7.194 0 0 0
3830 4 0.0 5.3955 16.1865 0 0 0
3754 4 3.597 30.5745 30.5745 0 0 0
3104 4 5.3955 8.9925 17.985 0 0 0
1420 4 19.7835 1.7985 14.388 0 0 0
2838 4 10.791 19.7835 34.1715 0 0 0
322 4 32.373 12.5895 1.7985 0 0 0
3149 4 7.194 10.791 25.179 0 0 0
3922 4 0.0 23.3805 1.7985 0 0 0
1122 4 25.179 12.5895 1.7985 0 0 0
2726 4 10.791 12.5895 5.3955 0 0 0
3636 4 1.7985 19.7835 28.776 0 0 0
2218 4 14.388 1.7985 16.1865 0 0 0
1305 4 25.179 25.179 21.582 0 0 0
1171 4 23.3805 14.388 8.9925 0 0 0
347 4 30.5745 10.791 23.3805 0 0 0
50 4 34.1715 8.9925 14.388 0 0 0
3409 4 3.597 0.0 7.194 0 0 0
2216 4 12.5895 1.7985 10.791 0 0 0
3336 4 5.3955 30.5745 10.791 0 0 0
2286 4 14.388 8.9925 5.3955 0 0 0
1041 4 25.179 3.597 0.0 0 0 0
3791 4 1.7985 32.373 26.9775 0 0 0
1273 4 25.179 21.582 28.776 0 0 0
387 4 30.5745 14.388 23.3805 0 0 0
3806 4 0.0 1.7985 8.9925 0 0 0
2447 4 12.5895 21.582 5.3955 0 0 0
2027 4 16.1865 17.985 23.3805 0 0 0
3529 4 3.597 10.791 7.194 0 0 0
1753 4 21.582 28.776 28.776 0 0 0
3525 4 3.597 10.791 3.597 0 0 0
2178 4 17.985 34.1715 16.1865 0 0 0
3844 4 0.0 8.9925 5.3955 0 0 0
187 4 34.1715 32.373 12.5895 0 0 0
2923 4 8.9925 28.776 1.7985 0 0 0
642 4 28.776 5.3955 1.7985 0 0 0
26 4 34.1715 5.3955 7.194 0 0 0
293 4 32.373 7.194 10.791 0 0 0
2574 4 14.388 34.1715 12.5895 0 0 0
2162 4 17.985 34.1715 1.7985 0 0 0
1164 4 23.3805 16.1865 0.0 0 0 0
2549 4 14.388 28.776 25.179 0 0 0
541 4 32.373 28.776 17.985 0 0 0
1991 4 16.1865 14.388 26.9775 0 0 0
3099 4 5.3955 7.194 16.1865 0 0 0
1969 4 17.985 14.388 7.194 0 0 0
2301 4 14.388 7.194 17.985 0 0 0
1617 4 21.582 17.985 14.388 0 0 0
2335 4 12.5895 10.791 12.5895 0 0 0
1018 4 25.179 1.7985 16.1865 0 0 0
526 4 32.373 30.5745 5.3955 0 0 0
1436 4 19.7835 1.7985 28.776 0 0 0
644 4 26.9775 5.3955 0.0 0 0 0
1040 4 23.3805 1.7985 32.373 0 0 0
1090 4 25.179 8.9925 8.9925 0 0 0
437 4 32.373 17.985 32.373 0 0 0
1843 4 16.1865 3.597 1.7985 0 0 0
2316 4 12.5895 8.9925 28.776 0 0 0
1038 4 25.179 1.7985 34.1715 0 0 0
3948 4 0.0 26.9775 12.5895 0 0 0
3738 4 3.597 30.5745 16.1865 0 0 0
2060 4 16.1865 23.3805 14.388 0 0 0
955 4 26.9775 28.776 30.5745 0 0 0
478 4 32.373 23.3805 34.1715 0 0 0
675 4 26.9775 3.597 30.5745 0 0 0
634 4 28.776 1.7985 30.5745 0 0 0
2239 4 12.5895 0.0 34.1715 0 0 0
1342 4 25.179 30.5745 19.7835 0 0 0
518 4 32.373 26.9775 34.1715 0 0 0
188 4 34.1715 34.1715 10.791 0 0 0
3420 4 1.7985 1.7985 14.388 0 0 0
1464 4 19.7835 5.3955 17.985 0 0 0
237 4 32.373 0.0 32.373 0 0 0
855 4 26.9775 21.582 12.5895 0 0 0
760 4 26.9775 12.5895 32.373 0 0 0
2439 4 12.5895 17.985 34.1715 0 0 0
1214 4 25.179 19.7835 12.5895 0 0 0
581 4 32.373 32.373 17.985 0 0 0
3189 4 7.194 14.388 25.179 0 0 0
275 4 30.5745 3.597 30.5745 0 0 0
2863 4 8.9925 21.582 19.7835 0 0 0
1820 4 16.1865 1.7985 14.388 0 0 0
1019 4 23.3805 0.0 16.1865 0 0 0
2739 4 8.9925 10.791 16.1865 0 0 0
1665 4 21.582 21.582 21.582 0 0 0
1869 4 17.985 3.597 25.179 0 0 0
539 4 30.5745 28.776 16.1865 0 0 0
2935 4 8.9925 28.776 12.5895 0 0 0
2452 4 12.5895 23.3805 7.194 0 0 0
3199 4 5.3955 14.388 34.1715 0 0 0
3717 4 3.597 25.179 32.373 0 0 0
1113 4 25.179 7.194 28.776 0 0 0
3084 4 5.3955 8.9925 0.0 0 0 0
1180 4 23.3805 16.1865 14.388 0 0 0
1488 4 19.7835 8.9925 3.597 0 0 0
2482 4 14.388 26.9775 1.7985 0 0 0
338 4 32.373 12.5895 16.1865 0 0 0
2097 4 17.985 25.179 14.388 0 0 0
3730 4 3.597 30.5745 8.9925 0 0 0
2797 4 10.791 14.388 32.373 0 0 0
740 4 26.9775 12.5895 14.388 0 0 0
2219 4 12.5895 0.0 16.1865 0 0 0
910 4 28.776 26.9775 26.9775 0 0 0
712 4 26.9775 8.9925 25.179 0 0 0
3166 4 7.194 16.1865 5.3955 0 0 0
495 4 30.5745 25.179 12.5895 0 0 0
3727 4 1.7985 28.776 5.3955 0 0 0
1838 4 17.985 1.7985 34.1715 0 0 0
53 4 34.1715 7.194 23.3805 0 0 0
44 4 34.1715 8.9925 3.597 0 0 0
778 4 28.776 16.1865 16.1865 0 0 0
755 4 26.9775 10.791 30.5745 0 0 0
1633 4 21.582 17.985 28.776 0 0 0
3891 4 0.0 14.388 17.985 0 0 0
2727 4 8.9925 10.791 5.3955 0 0 0
1705 4 21.582 25.179 21.582 0 0 0
3394 4 7.194 34.1715 30.5745 0 0 0
3925 4 0.0 21.582 7.194 0 0 0
3835 4 0.0 3.597 25.179 0 0 0
93 4 34.1715 14.388 23.3805 0 0 0
2191 4 16.1865 32.373 26.9775 0 0 0
2352 4 12.5895 12.5895 25.179 0 0 0
3157 4 7.194 10.791 32.373 0 0 0
1284 4 23.3805 26.9775 0.0 0 0 0
24 4 34.1715 5.3955 3.597 0 0 0
2958 4 10.791 30.5745 34.1715 0 0 0
3961 4 0.0 28.776 0.0 0 0 0
1924 4 16.1865 12.5895 0.0 0 0 0
1480 4 19.7835 5.3955 32.373 0 0 0
1645 4 21.582 21.582 3.597 0 0 0
3371 4 5.3955 32.373 8.9925 0 0 0
1387 4 23.3805 32.373 23.3805 0 0 0
329 4 32.373 10.791 7.194 0 0 0
1986 4 17.985 16.1865 23.3805 0 0 0
3568 4 1.7985 16.1865 3.597 0 0 0
545 4 32.373 28.776 21.582 0 0 0
3328 4 5.3955 30.5745 3.597 0 0 0
2188 4 16.1865 34.1715 21.582 0 0 0
2069 4 17.985 21.582 25.179 0 0 0
3169 4 7.194 14.388 7.194 0 0 0
2859 4 8.9925 21.582 16.1865 0 0 0
3706 4 3.597 26.9775 23.3805 0 0 0
1427 4 19.7835 0.0 23.3805 0 0 0
1877 4 17.985 3.597 32.373 0 0 0
443 4 30.5745 21.582 1.7985 0 0 0
400 4 30.5745 16.1865 32.373 0 0 0
2495 4 12.5895 25.179 12.5895 0 0 0
3659 4 1.7985 21.582 16.1865 0 0 0
486 4 32.373 26.9775 5.3955 0 0 0
3363 4 5.3955 32.373 1.7985 0 0 0
3667 4 1.7985 21.582 23.3805 0 0 0
392 4 30.5745 16.1865 25.179 0 0 0
948 4 26.9775 30.5745 21.582 0 0 0
3995 4 0.0 32.373 25.179 0 0 0
165 4 34.1715 28.776 8.9925 0 0 0
1577 4 21.582 14.388 14.388 0 0 0
1849 4 17.985 3.597 7.194 0 0 0
3993 4 0.0 32.373 21.582 0 0 0
2024 4 16.1865 19.7835 17.985 0 0 0
176 4 34.1715 30.5745 25.179 0 0 0
2497 4 14.388 25.179 14.388 0 0 0
479 4 30.5745 21.582 34.1715 0 0 0
447 4 30.5745 21.582 5.3955 0 0 0
3506 4 3.597 8.9925 23.3805 0 0 0
3116 4 5.3955 8.9925 28.776 0 0 0
3210 4 7.194 19.7835 8.9925 0 0 0
2235 4 12.5895 0.0 30.5745 0 0 0
1009 4 25.179 0.0 7.194 0 0 0
1449 4 21.582 3.597 7.194 0 0 0
31 4 34.1715 3.597 19.7835 0 0 0
3914 4 0.0 19.7835 23.3805 0 0 0
2937 4 10.791 28.776 14.388 0 0 0
3072 4 5.3955 5.3955 25.179 0 0 0
1487 4 19.7835 7.194 5.3955 0 0 0
1422 4 21.582 1.7985 19.7835 0 0 0
1445 4 21.582 3.597 3.597 0 0 0
3847 4 0.0 7.194 10.791 0 0 0
2970 4 10.791 34.1715 8.9925 0 0 0
3173 4 7.194 14.388 10.791 0 0 0
3605 4 3.597 17.985 3.597 0 0 0
2619 4 8.9925 0.0 16.1865 0 0 0
1529 4 21.582 10.791 7.194 0 0 0
3238 4 7.194 19.7835 34.1715 0 0 0
534 4 32.373 30.5745 12.5895 0 0 0
2697 4 10.791 7.194 14.388 0 0 0
3732 4 1.7985 30.5745 7.194 0 0 0
3516 4 1.7985 8.9925 28.776 0 0 0
2992 4 8.9925 34.1715 25.179 0 0 0
3049 4 7.194 3.597 7.194 0 0 0
2344 4 12.5895 12.5895 17.985 0 0 0
1912 4 16.1865 8.9925 25.179 0 0 0
2752 4 8.9925 12.5895 25.179 0 0 0
21 4 34.1715 3.597 1.7985 0 0 0
1361 4 25.179 32.373 0.0 0 0 0
2195 4 16.1865 32.373 30.5745 0 0 0
2053 4 17.985 21.582 10.791 0 0 0
1251 4 23.3805 21.582 8.9925 0 0 0
2180 4 16.1865 34.1715 14.388 0 0 0
2800 4 8.9925 16.1865 32.373 0 0 0
631 4 26.9775 0.0 26.9775 0 0 0
115 4 34.1715 17.985 26.9775 0 0 0
2611 4 8.9925 0.0 8.9925 0 0 0
1446 4 21.582 5.3955 5.3955 0 0 0
3587 4 1.7985 14.388 23.3805 0 0 0
1188 4 23.3805 16.1865 21.582 0 0 0
3269 4 7.194 21.582 25.179 0 0 0
553 4 32.373 28.776 28.776 0 0 0
1318 4 25.179 26.9775 34.1715 0 0 0
1298 4 25.179 26.9775 16.1865 0 0 0
2582 4 14.388 34.1715 19.7835 0 0 0
3344 4 5.3955 30.5745 17.985 0 0 0
2957 4 10.791 28.776 32.373 0 0 0
1416 4 19.7835 1.7985 10.791 0 0 0
455 4 30.5745 21.582 12.5895 0 0 0
3131 4 5.3955 10.791 8.9925 0 0 0
3451 4 1.7985 3.597 8.9925 0 0 0
1165 4 25.179 14.388 3.597 0 0 0
324 4 30.5745 12.5895 0.0 0 0 0
2722 4 10.791 12.5895 1.7985 0 0 0
666 4 28.776 5.3955 23.3805 0 0 0
2694 4 10.791 8.9925 12.5895 0 0 0
1368 4 23.3805 34.1715 3.597 0 0 0
3613 4 3.597 17.985 10.791 0 0 0
2738 4 10.791 12.5895 16.1865 0 0 0
2403 4 12.5895 17.985 1.7985 0 0 0
2940 4 8.9925 30.5745 14.388 0 0 0
370 4 32.373 16.1865 8.9925 0 0 0
3718 4 3.597 26.9775 34.1715 0 0 0
3464 4 1.7985 5.3955 17.985 0 0 0
223 4 30.5745 0.0 19.7835 0 0 0
1360 4 23.3805 30.5745 32.373 0 0 0
890 4 28.776 26.9775 8.9925 0 0 0
962 4 28.776 34.1715 1.7985 0 0 0
1845 4 17.985 3.597 3.597 0 0 0
1296 4 23.3805 26.9775 10.791 0 0 0
528 4 30.5745 30.5745 3.597 0 0 0
2108 4 16.1865 26.9775 21.582 0 0 0
2733 4 10.791 10.791 10.791 0 0 0
3652 4 1.7985 23.3805 7.194 0 0 0
874 4 28.776 23.3805 30.5745 0 0 0
3449 4 3.597 3.597 7.194 0 0 0
527 4 30.5745 28.776 5.3955 0 0 0
2657 4 10.791 3.597 14.388 0 0 0
3784 4 1.7985 34.1715 17.985 0 0 0
569 4 32.373 32.373 7.194 0 0 0
367 4 30.5745 14.388 5.3955 0 0 0
1890 4 17.985 8.9925 8.9925 0 0 0
3356 4 5.3955 30.5745 28.776 0 0 0
1059 4 23.3805 3.597 16.1865 0 0 0
2503 4 12.5895 25.179 19.7835 0 0 0
3456 4 1.7985 5.3955 10.791 0 0 0
451 4 30.5745 21.582 8.9925 0 0 0
1426 4 21.582 1.7985 23.3805 0 0 0
661 4 28.776 3.597 17.985 0 0 0
983 4 26.9775 32.373 19.7835 0 0 0
1862 4 17.985 5.3955 19.7835 0 0 0
1899 4 16.1865 7.194 16.1865 0 0 0
933 4 28.776 28.776 10.791 0 0 0
3127 4 5.3955 10.791 5.3955 0 0 0
326 4 32.373 12.5895 5.3955 0 0 0
2455 4 12.5895 21.582 12.5895 0 0 0
1439 4 19.7835 0.0 34.1715 0 0 0
1569 4 21.582 14.388 7.194 0 0 0
210 4 32.373 1.7985 8.9925 0 0 0
2398 4 14.388 16.1865 34.1715 0 0 0
943 4 26.9775 28.776 19.7835 0 0 0
3088 4 5.3955 8.9925 3.597 0 0 0
989 4 28.776 32.373 25.179 0 0 0
2057 4 17.985 21.582 14.388 0 0 0
1260 4 23.3805 23.3805 14.388 0 0 0
856 4 26.9775 23.3805 10.791 0 0 0
835 4 26.9775 17.985 30.5745 0 0 0
62 4 34.1715 12.5895 0.0 0 0 0
3233 4 7.194 17.985 28.776 0 0 0
2105 4 17.985 25.179 21.582 0 0 0
3855 4 0.0 7.194 25.179 0 0 0
1836 4 16.1865 1.7985 28.776 0 0 0
1033 4 25.179 0.0 28.776 0 0 0
860 4 26.9775 23.3805 14.388 0 0 0
2706 4 10.791 8.9925 23.3805 0 0 0
828 4 26.9775 19.7835 21.582 0 0 0
1792 4 19.7835 34.1715 25.179 0 0 0
953 4 28.776 28.776 28.776 0 0 0
1857 4 17.985 3.597 14.388 0 0 0
125 4 34.1715 21.582 8.9925 0 0 0
1880 4 16.1865 5.3955 32.373 0 0 0
1242 4 25.179 23.3805 1.7985 0 0 0
3096 4 5.3955 8.9925 10.791 0 0 0
1404 4 19.7835 1.7985 0.0 0 0 0
63 4 34.1715 10.791 5.3955 0 0 0
409 4 32.373 17.985 7.194 0 0 0
1072 4 23.3805 5.3955 25.179 0 0 0
1405 4 21.582 0.0 3.597 0 0 0
3151 4 5.3955 10.791 26.9775 0 0 0
1707 4 19.7835 25.179 23.3805 0 0 0
747 4 26.9775 10.791 23.3805 0 0 0
1073 4 25.179 3.597 28.776 0 0 0
2939 4 8.9925 28.776 16.1865 0 0 0
1512 4 19.7835 8.9925 25.179 0 0 0
1374 4 25.179 34.1715 12.5895 0 0 0
3928 4 0.0 23.3805 12.5895 0 0 0
1904 4 16.1865 8.9925 17.985 0 0 0
3017 4 7.194 0.0 14.388 0 0 0
39 4 34.1715 3.597 34.1715 0 0 0
3582 4 3.597 16.1865 19.7835 0 0 0
1994 4 17.985 16.1865 30.5745 0 0 0
3393 4 7.194 32.373 28.776 0 0 0
2046 4 17.985 23.3805 5.3955 0 0 0
1914 4 17.985 8.9925 30.5745 0 0 0
2540 4 12.5895 30.5745 14.388 0 0 0
586 4 32.373 34.1715 23.3805 0 0 0
1285 4 25.179 25.179 3.597 0 0 0
574 4 32.373 34.1715 12.5895 0 0 0
3023 4 5.3955 0.0 19.7835 0 0 0
508 4 30.5745 26.9775 21.582 0 0 0
2575 4 12.5895 32.373 12.5895 0 0 0
2080 4 16.1865 23.3805 32.373 0 0 0
1190 4 25.179 16.1865 26.9775 0 0 0
2786 4 10.791 16.1865 23.3805 0 0 0
1788 4 19.7835 34.1715 21.582 0 0 0
1758 4 21.582 30.5745 34.1715 0 0 0
243 4 30.5745 3.597 1.7985 0 0 0
2264 4 12.5895 5.3955 17.985 0 0 0
3458 4 3.597 5.3955 16.1865 0 0 0
1081 4 25.179 7.194 0.0 0 0 0
3662 4 3.597 23.3805 19.7835 0 0 0
1553 4 21.582 10.791 28.776 0 0 0
438 4 32.373 19.7835 34.1715 0 0 0
1832 4 16.1865 1.7985 25.179 0 0 0
3209 4 7.194 17.985 7.194 0 0 0
1533 4 21.582 10.791 10.791 0 0 0
3669 4 3.597 21.582 25.179 0 0 0
2938 4 10.791 30.5745 16.1865 0 0 0
1411 4 19.7835 0.0 8.9925 0 0 0
3032 4 5.3955 1.7985 25.179 0 0 0
906 4 28.776 26.9775 23.3805 0 0 0
3705 4 3.597 25.179 21.582 0 0 0
2972 4 8.9925 34.1715 7.194 0 0 0
2444 4 12.5895 23.3805 0.0 0 0 0
2847 4 8.9925 21.582 5.3955 0 0 0
1668 4 19.7835 23.3805 21.582 0 0 0
3543 4 1.7985 10.791 19.7835 0 0 0
2510 4 14.388 26.9775 26.9775 0 0 0
3234 4 7.194 19.7835 30.5745 0 0 0
2002 4 17.985 19.7835 1.7985 0 0 0
3526 4 3.597 12.5895 5.3955 0 0 0
3012 4 5.3955 1.7985 7.194 0 0 0
1803 4 16.1865 0.0 1.7985 0 0 0
2098 4 17.985 26.9775 16.1865 0 0 0
973 4 28.776 32.373 10.791 0 0 0
2355 4 12.5895 10.791 30.5745 0 0 0
2365 4 14.388 14.388 3.597 0 0 0
2269 4 14.388 3.597 25.179 0 0 0
1928 4 16.1865 12.5895 3.597 0 0 0
2721 4 10.791 10.791 0.0 0 0 0
2765 4 10.791 14.388 3.597 0 0 0
925 4 28.776 28.776 3.597 0 0 0
697 4 28.776 7.194 14.388 0 0 0
501 4 32.373 25.179 17.985 0 0 0
1775 4 19.7835 32.373 12.5895 0 0 0
2557 4 14.388 28.776 32.373 0 0 0
3996 4 0.0 34.1715 26.9775 0 0 0
3112 4 5.3955 8.9925 25.179 0 0 0
3779 4 1.7985 32.373 16.1865 0 0 0
1101 4 25.179 7.194 17.985 0 0 0
1174 4 25.179 16.1865 12.5895 0 0 0
881 4 28.776 25.179 0.0 0 0 0
2959 4 8.9925 28.776 34.1715 0 0 0
1339 4 23.3805 28.776 16.1865 0 0 0
366 4 32.373 16.1865 5.3955 0 0 0
2170 4 17.985 34.1715 8.9925 0 0 0
3634 4 3.597 19.7835 30.5745 0 0 0
3785 4 3.597 32.373 21.582 0 0 0
1098 4 25.179 8.9925 16.1865 0 0 0
852 4 26.9775 23.3805 7.194 0 0 0
1375 4 23.3805 32.373 12.5895 0 0 0
2870 4 10.791 23.3805 26.9775 0 0 0
1552 4 19.7835 12.5895 25.179 0 0 0
2112 4 16.1865 26.9775 25.179 0 0 0
3001 4 7.194 0.0 0.0 0 0 0
2 4 34.1715 1.7985 0.0 0 0 0
2900 4 8.9925 26.9775 14.388 0 0 0
1419 4 19.7835 0.0 16.1865 0 0 0
718 4 28.776 8.9925 34.1715 0 0 0
2165 4 17.985 32.373 3.597 0 0 0
2122 4 17.985 30.5745 1.7985 0 0 0
3144 4 5.3955 12.5895 17.985 0 0 0
2154 4 17.985 30.5745 30.5745 0 0 0
239 4 30.5745 0.0 34.1715 0 0 0
3247 4 5.3955 21.582 5.3955 0 0 0
2841 4 10.791 21.582 0.0 0 0 0
3281 4 7.194 25.179 0.0 0 0 0
372 4 30.5745 16.1865 7.194 0 0 0
2000 4 16.1865 16.1865 32.373 0 0 0
550 4 32.373 30.5745 26.9775 0 0 0
1415 4 19.7835 0.0 12.5895 0 0 0
808 4 26.9775 19.7835 3.597 0 0 0
2270 4 14.388 5.3955 26.9775 0 0 0
895 4 26.9775 25.179 12.5895 0 0 0
1546 4 21.582 12.5895 23.3805 0 0 0
192 4 34.1715 34.1715 17.985 0 0 0
1489 4 21.582 7.194 7.194 0 0 0
2651 4 8.9925 3.597 8.9925 0 0 0
2605 4 10.791 0.0 3.597 0 0 0
721 4 28.776 10.791 0.0 0 0 0
3055 4 5.3955 3.597 12.5895 0 0 0
3901 4 0.0 17.985 0.0 0 0 0
3857 4 0.0 7.194 28.776 0 0 0
3 5 34.1715 0.0 5.3955 0 0 0
8 5 34.1715 1.7985 10.791 0 0 0
9 5 34.1715 0.0 16.1865 0 0 0
10 5 34.1715 1.7985 14.388 0 0 0
18 5 34.1715 1.7985 28.776 0 0 0
19 5 34.1715 0.0 34.1715 0 0 0
25 5 34.1715 3.597 8.9925 0 0 0
36 5 34.1715 5.3955 25.179 0 0 0
37 5 34.1715 3.597 30.5745 0 0 0
42 5 34.1715 8.9925 0.0 0 0 0
52 5 34.1715 8.9925 17.985 0 0 0
57 5 34.1715 7.194 30.5745 0 0 0
59 5 34.1715 7.194 34.1715 0 0 0
65 5 34.1715 10.791 8.9925 0 0 0
66 5 34.1715 12.5895 7.194 0 0 0
68 5 34.1715 12.5895 10.791 0 0 0
69 5 34.1715 10.791 16.1865 0 0 0
71 5 34.1715 10.791 19.7835 0 0 0
74 5 34.1715 12.5895 21.582 0 0 0
75 5 34.1715 10.791 26.9775 0 0 0
79 5 34.1715 10.791 34.1715 0 0 0
81 5 34.1715 14.388 1.7985 0 0 0
83 5 34.1715 14.388 5.3955 0 0 0
89 5 34.1715 14.388 16.1865 0 0 0
92 5 34.1715 16.1865 17.985 0 0 0
95 5 34.1715 14.388 26.9775 0 0 0
97 5 34.1715 14.388 30.5745 0 0 0
102 5 34.1715 19.7835 0.0 0 0 0
109 5 34.1715 17.985 16.1865 0 0 0
110 5 34.1715 19.7835 14.388 0 0 0
116 5 34.1715 19.7835 25.179 0 0 0
117 5 34.1715 17.985 30.5745 0 0 0
123 5 34.1715 21.582 5.3955 0 0 0
124 5 34.1715 23.3805 3.597 0 0 0
131 5 34.1715 21.582 19.7835 0 0 0
132 5 34.1715 23.3805 17.985 0 0 0
134 5 34.1715 23.3805 21.582 0 0 0
136 5 34.1715 23.3805 25.179 0 0 0
139 5 34.1715 21.582 34.1715 0 0 0
141 5 34.1715 25.179 1.7985 0 0 0
145 5 34.1715 25.179 8.9925 0 0 0
153 5 34.1715 25.179 23.3805 0 0 0
154 5 34.1715 26.9775 21.582 0 0 0
160 5 34.1715 26.9775 32.373 0 0 0
164 5 34.1715 30.5745 3.597 0 0 0
168 5 34.1715 30.5745 10.791 0 0 0
169 5 34.1715 28.776 16.1865 0 0 0
170 5 34.1715 30.5745 14.388 0 0 0
172 5 34.1715 30.5745 17.985 0 0 0
173 5 34.1715 28.776 23.3805 0 0 0
178 5 34.1715 30.5745 28.776 0 0 0
180 5 34.1715 30.5745 32.373 0 0 0
182 5 34.1715 34.1715 0.0 0 0 0
189 5 34.1715 32.373 16.1865 0 0 0
190 5 34.1715 34.1715 14.388 0 0 0
195 5 34.1715 32.373 26.9775 0 0 0
208 5 30.5745 1.7985 3.597 0 0 0
209 5 32.373 0.0 7.194 0 0 0
213 5 32.373 0.0 10.791 0 0 0
214 5 32.373 1.7985 12.5895 0 0 0
215 5 30.5745 0.0 12.5895 0 0 0
216 5 30.5745 1.7985 10.791 0 0 0
218 5 32.373 1.7985 16.1865 0 0 0
222 5 32.373 1.7985 19.7835 0 0 0
229 5 32.373 0.0 25.179 0 0 0
231 5 30.5745 0.0 26.9775 0 0 0
232 5 30.5745 1.7985 25.179 0 0 0
233 5 32.373 0.0 28.776 0 0 0
235 5 30.5745 0.0 30.5745 0 0 0
241 5 32.373 3.597 0.0 0 0 0
246 5 32.373 5.3955 5.3955 0 0 0
252 5 30.5745 5.3955 7.194 0 0 0
253 5 32.373 3.597 10.791 0 0 0
254 5 32.373 5.3955 12.5895 0 0 0
255 5 30.5745 3.597 12.5895 0 0 0
258 5 32.373 5.3955 16.1865 0 0 0
259 5 30.5745 3.597 16.1865 0 0 0
263 5 30.5745 3.597 19.7835 0 0 0
266 5 32.373 5.3955 23.3805 0 0 0
267 5 30.5745 3.597 23.3805 0 0 0
268 5 30.5745 5.3955 21.582 0 0 0
271 5 30.5745 3.597 26.9775 0 0 0
272 5 30.5745 5.3955 25.179 0 0 0
274 5 32.373 5.3955 30.5745 0 0 0
276 5 30.5745 5.3955 28.776 0 0 0
279 5 30.5745 3.597 34.1715 0 0 0
282 5 32.373 8.9925 1.7985 0 0 0
283 5 30.5745 7.194 1.7985 0 0 0
284 5 30.5745 8.9925 0.0 0 0 0
285 5 32.373 7.194 3.597 0 0 0
291 5 30.5745 7.194 8.9925 0 0 0
292 5 30.5745 8.9925 7.194 0 0 0
296 5 30.5745 8.9925 10.791 0 0 0
297 5 32.373 7.194 14.388 0 0 0
298 5 32.373 8.9925 16.1865 0 0 0
301 5 32.373 7.194 17.985 0 0 0
303 5 30.5745 7.194 19.7835 0 0 0
305 5 32.373 7.194 21.582 0 0 0
307 5 30.5745 7.194 23.3805 0 0 0
308 5 30.5745 8.9925 21.582 0 0 0
310 5 32.373 8.9925 26.9775 0 0 0
312 5 30.5745 8.9925 25.179 0 0 0
314 5 32.373 8.9925 30.5745 0 0 0
316 5 30.5745 8.9925 28.776 0 0 0
319 5 30.5745 7.194 34.1715 0 0 0
323 5 30.5745 10.791 1.7985 0 0 0
325 5 32.373 10.791 3.597 0 0 0
330 5 32.373 12.5895 8.9925 0 0 0
336 5 30.5745 12.5895 10.791 0 0 0
342 5 32.373 12.5895 19.7835 0 0 0
349 5 32.373 10.791 25.179 0 0 0
355 5 30.5745 10.791 30.5745 0 0 0
356 5 30.5745 12.5895 28.776 0 0 0
361 5 32.373 14.388 0.0 0 0 0
368 5 30.5745 16.1865 3.597 0 0 0
369 5 32.373 14.388 7.194 0 0 0
374 5 32.373 16.1865 12.5895 0 0 0
376 5 30.5745 16.1865 10.791 0 0 0
379 5 30.5745 14.388 16.1865 0 0 0
380 5 30.5745 16.1865 14.388 0 0 0
382 5 32.373 16.1865 19.7835 0 0 0
388 5 30.5745 16.1865 21.582 0 0 0
389 5 32.373 14.388 25.179 0 0 0
396 5 30.5745 16.1865 28.776 0 0 0
397 5 32.373 14.388 32.373 0 0 0
402 5 32.373 19.7835 1.7985 0 0 0
403 5 30.5745 17.985 1.7985 0 0 0
406 5 32.373 19.7835 5.3955 0 0 0
407 5 30.5745 17.985 5.3955 0 0 0
410 5 32.373 19.7835 8.9925 0 0 0
412 5 30.5745 19.7835 7.194 0 0 0
413 5 32.373 17.985 10.791 0 0 0
414 5 32.373 19.7835 12.5895 0 0 0
415 5 30.5745 17.985 12.5895 0 0 0
416 5 30.5745 19.7835 10.791 0 0 0
418 5 32.373 19.7835 16.1865 0 0 0
419 5 30.5745 17.985 16.1865 0 0 0
423 5 30.5745 17.985 19.7835 0 0 0
424 5 30.5745 19.7835 17.985 0 0 0
428 5 30.5745 19.7835 21.582 0 0 0
435 5 30.5745 17.985 30.5745 0 0 0
439 5 30.5745 17.985 34.1715 0 0 0
440 5 30.5745 19.7835 32.373 0 0 0
445 5 32.373 21.582 3.597 0 0 0
446 5 32.373 23.3805 5.3955 0 0 0
448 5 30.5745 23.3805 3.597 0 0 0
450 5 32.373 23.3805 8.9925 0 0 0
464 5 30.5745 23.3805 17.985 0 0 0
465 5 32.373 21.582 21.582 0 0 0
468 5 30.5745 23.3805 21.582 0 0 0
472 5 30.5745 23.3805 25.179 0 0 0
474 5 32.373 23.3805 30.5745 0 0 0
477 5 32.373 21.582 32.373 0 0 0
481 5 32.373 25.179 0.0 0 0 0
483 5 30.5745 25.179 1.7985 0 0 0
484 5 30.5745 26.9775 0.0 0 0 0
488 5 30.5745 26.9775 3.597 0 0 0
490 5 32.373 26.9775 8.9925 0 0 0
496 5 30.5745 26.9775 10.791 0 0 0
498 5 32.373 26.9775 16.1865 0 0 0
503 5 30.5745 25.179 19.7835 0 0 0
504 5 30.5745 26.9775 17.985 0 0 0
510 5 32.373 26.9775 26.9775 0 0 0
517 5 32.373 25.179 32.373 0 0 0
520 5 30.5745 26.9775 32.373 0 0 0
522 5 32.373 30.5745 1.7985 0 0 0
532 5 30.5745 30.5745 7.194 0 0 0
533 5 32.373 28.776 10.791 0 0 0
535 5 30.5745 28.776 12.5895 0 0 0
538 5 32.373 30.5745 16.1865 0 0 0
540 5 30.5745 30.5745 14.388 0 0 0
548 5 30.5745 30.5745 21.582 0 0 0
554 5 32.373 30.5745 30.5745 0 0 0
555 5 30.5745 28.776 30.5745 0 0 0
560 5 30.5745 30.5745 32.373 0 0 0
562 5 32.373 34.1715 1.7985 0 0 0
563 5 30.5745 32.373 1.7985 0 0 0
567 5 30.5745 32.373 5.3955 0 0 0
573 5 32.373 32.373 10.791 0 0 0
576 5 30.5745 34.1715 10.791 0 0 0
579 5 30.5745 32.373 16.1865 0 0 0
580 5 30.5745 34.1715 14.388 0 0 0
582 5 32.373 34.1715 19.7835 0 0 0
589 5 32.373 32.373 25.179 0 0 0
592 5 30.5745 34.1715 25.179 0 0 0
593 5 32.373 32.373 28.776 0 0 0
595 5 30.5745 32.373 30.5745 0 0 0
597 5 32.373 32.373 32.373 0 0 0
598 5 32.373 34.1715 34.1715 0 0 0
599 5 30.5745 32.373 34.1715 0 0 0
603 5 26.9775 0.0 1.7985 0 0 0
605 5 28.776 0.0 3.597 0 0 0
610 5 28.776 1.7985 8.9925 0 0 0
617 5 28.776 0.0 14.388 0 0 0
621 5 28.776 0.0 17.985 0 0 0
622 5 28.776 1.7985 19.7835 0 0 0
626 5 28.776 1.7985 23.3805 0 0 0
627 5 26.9775 0.0 23.3805 0 0 0
633 5 28.776 0.0 28.776 0 0 0
641 5 28.776 3.597 0.0 0 0 0
645 5 28.776 3.597 3.597 0 0 0
647 5 26.9775 3.597 5.3955 0 0 0
648 5 26.9775 5.3955 3.597 0 0 0
649 5 28.776 3.597 7.194 0 0 0
650 5 28.776 5.3955 8.9925 0 0 0
652 5 26.9775 5.3955 7.194 0 0 0
653 5 28.776 3.597 10.791 0 0 0
660 5 26.9775 5.3955 14.388 0 0 0
662 5 28.776 5.3955 19.7835 0 0 0
663 5 26.9775 3.597 19.7835 0 0 0
676 5 26.9775 5.3955 28.776 0 0 0
679 5 26.9775 3.597 34.1715 0 0 0
690 5 28.776 8.9925 8.9925 0 0 0
691 5 26.9775 7.194 8.9925 0 0 0
692 5 26.9775 8.9925 7.194 0 0 0
696 5 26.9775 8.9925 10.791 0 0 0
698 5 28.776 8.9925 16.1865 0 0 0
699 5 26.9775 7.194 16.1865 0 0 0
702 5 28.776 8.9925 19.7835 0 0 0
703 5 26.9775 7.194 19.7835 0 0 0
708 5 26.9775 8.9925 21.582 0 0 0
710 5 28.776 8.9925 26.9775 0 0 0
711 5 26.9775 7.194 26.9775 0 0 0
716 5 26.9775 8.9925 28.776 0 0 0
717 5 28.776 7.194 32.373 0 0 0
720 5 26.9775 8.9925 32.373 0 0 0
725 5 28.776 10.791 3.597 0 0 0
726 5 28.776 12.5895 5.3955 0 0 0
732 5 26.9775 12.5895 7.194 0 0 0
735 5 26.9775 10.791 12.5895 0 0 0
742 5 28.776 12.5895 19.7835 0 0 0
744 5 26.9775 12.5895 17.985 0 0 0
749 5 28.776 10.791 25.179 0 0 0
750 5 28.776 12.5895 26.9775 0 0 0
754 5 28.776 12.5895 30.5745 0 0 0
758 5 28.776 12.5895 34.1715 0 0 0
763 5 26.9775 14.388 1.7985 0 0 0
764 5 26.9775 16.1865 0.0 0 0 0
766 5 28.776 16.1865 5.3955 0 0 0
767 5 26.9775 14.388 5.3955 0 0 0
768 5 26.9775 16.1865 3.597 0 0 0
771 5 26.9775 14.388 8.9925 0 0 0
773 5 28.776 14.388 10.791 0 0 0
786 5 28.776 16.1865 23.3805 0 0 0
788 5 26.9775 16.1865 21.582 0 0 0
794 5 28.776 16.1865 30.5745 0 0 0
795 5 26.9775 14.388 30.5745 0 0 0
796 5 26.9775 16.1865 28.776 0 0 0
800 5 26.9775 16.1865 32.373 0 0 0
805 5 28.776 17.985 3.597 0 0 0
806 5 28.776 19.7835 5.3955 0 0 0
810 5 28.776 19.7835 8.9925 0 0 0
811 5 26.9775 17.985 8.9925 0 0 0
812 5 26.9775 19.7835 7.194 0 0 0
813 5 28.776 17.985 10.791 0 0 0
814 5 28.776 19.7835 12.5895 0 0 0
818 5 28.776 19.7835 16.1865 0 0 0
819 5 26.9775 17.985 16.1865 0 0 0
821 5 28.776 17.985 17.985 0 0 0
825 5 28.776 17.985 21.582 0 0 0
830 5 28.776 19.7835 26.9775 0 0 0
833 5 28.776 17.985 28.776 0 0 0
834 5 28.776 19.7835 30.5745 0 0 0
837 5 28.776 17.985 32.373 0 0 0
839 5 26.9775 17.985 34.1715 0 0 0
842 5 28.776 23.3805 1.7985 0 0 0
845 5 28.776 21.582 3.597 0 0 0
848 5 26.9775 23.3805 3.597 0 0 0
849 5 28.776 21.582 7.194 0 0 0
854 5 28.776 23.3805 12.5895 0 0 0
857 5 28.776 21.582 14.388 0 0 0
859 5 26.9775 21.582 16.1865 0 0 0
862 5 28.776 23.3805 19.7835 0 0 0
868 5 26.9775 23.3805 21.582 0 0 0
871 5 26.9775 21.582 26.9775 0 0 0
873 5 28.776 21.582 28.776 0 0 0
875 5 26.9775 21.582 30.5745 0 0 0
878 5 28.776 23.3805 34.1715 0 0 0
883 5 26.9775 25.179 1.7985 0 0 0
889 5 28.776 25.179 7.194 0 0 0
892 5 26.9775 26.9775 7.194 0 0 0
894 5 28.776 26.9775 12.5895 0 0 0
898 5 28.776 26.9775 16.1865 0 0 0
900 5 26.9775 26.9775 14.388 0 0 0
903 5 26.9775 25.179 19.7835 0 0 0
908 5 26.9775 26.9775 21.582 0 0 0
909 5 28.776 25.179 25.179 0 0 0
912 5 26.9775 26.9775 25.179 0 0 0
914 5 28.776 26.9775 30.5745 0 0 0
915 5 26.9775 25.179 30.5745 0 0 0
916 5 26.9775 26.9775 28.776 0 0 0
918 5 28.776 26.9775 34.1715 0 0 0
922 5 28.776 30.5745 1.7985 0 0 0
923 5 26.9775 28.776 1.7985 0 0 0
929 5 28.776 28.776 7.194 0 0 0
931 5 26.9775 28.776 8.9925 0 0 0
934 5 28.776 30.5745 12.5895 0 0 0
935 5 26.9775 28.776 12.5895 0 0 0
936 5 26.9775 30.5745 10.791 0 0 0
937 5 28.776 28.776 14.388 0 0 0
944 5 26.9775 30.5745 17.985 0 0 0
947 5 26.9775 28.776 23.3805 0 0 0
950 5 28.776 30.5745 26.9775 0 0 0
958 5 28.776 30.5745 34.1715 0 0 0
961 5 28.776 32.373 0.0 0 0 0
966 5 28.776 34.1715 5.3955 0 0 0
971 5 26.9775 32.373 8.9925 0 0 0
972 5 26.9775 34.1715 7.194 0 0 0
974 5 28.776 34.1715 12.5895 0 0 0
979 5 26.9775 32.373 16.1865 0 0 0
980 5 26.9775 34.1715 14.388 0 0 0
981 5 28.776 32.373 17.985 0 0 0
982 5 28.776 34.1715 19.7835 0 0 0
991 5 26.9775 32.373 26.9775 0 0 0
994 5 28.776 34.1715 30.5745 0 0 0
995 5 26.9775 32.373 30.5745 0 0 0
996 5 26.9775 34.1715 28.776 0 0 0
998 5 28.776 34.1715 34.1715 0 0 0
999 5 26.9775 32.373 34.1715 0 0 0
1002 5 25.179 1.7985 1.7985 0 0 0
1005 5 25.179 0.0 3.597 0 0 0
1006 5 25.179 1.7985 5.3955 0 0 0
1007 5 23.3805 0.0 5.3955 0 0 0
1015 5 23.3805 0.0 12.5895 0 0 0
1016 5 23.3805 1.7985 10.791 0 0 0
1017 5 25.179 0.0 14.388 0 0 0
1022 5 25.179 1.7985 19.7835 0 0 0
1023 5 23.3805 0.0 19.7835 0 0 0
1027 5 23.3805 0.0 23.3805 0 0 0
1028 5 23.3805 1.7985 21.582 0 0 0
1034 5 25.179 1.7985 30.5745 0 0 0
1043 5 23.3805 3.597 1.7985 0 0 0
1050 5 25.179 5.3955 8.9925 0 0 0
1052 5 23.3805 5.3955 7.194 0 0 0
1053 5 25.179 3.597 10.791 0 0 0
1056 5 23.3805 5.3955 10.791 0 0 0
1057 5 25.179 3.597 14.388 0 0 0
1058 5 25.179 5.3955 16.1865 0 0 0
1060 5 23.3805 5.3955 14.388 0 0 0
1062 5 25.179 5.3955 19.7835 0 0 0
1063 5 23.3805 3.597 19.7835 0 0 0
1067 5 23.3805 3.597 23.3805 0 0 0
1071 5 23.3805 3.597 26.9775 0 0 0
1074 5 25.179 5.3955 30.5745 0 0 0
1075 5 23.3805 3.597 30.5745 0 0 0
1080 5 23.3805 5.3955 32.373 0 0 0
1084 5 23.3805 8.9925 0.0 0 0 0
1085 5 25.179 7.194 3.597 0 0 0
1087 5 23.3805 7.194 5.3955 0 0 0
1091 5 23.3805 7.194 8.9925 0 0 0
1092 5 23.3805 8.9925 7.194 0 0 0
1096 5 23.3805 8.9925 10.791 0 0 0
1100 5 23.3805 8.9925 14.388 0 0 0
1103 5 23.3805 7.194 19.7835 0 0 0
1106 5 25.179 8.9925 23.3805 0 0 0
1109 5 25.179 7.194 25.179 0 0 0
1110 5 25.179 8.9925 26.9775 0 0 0
1111 5 23.3805 7.194 26.9775 0 0 0
1117 5 25.179 7.194 32.373 0 0 0
1119 5 23.3805 7.194 34.1715 0 0 0
1121 5 25.179 10.791 0.0 0 0 0
1123 5 23.3805 10.791 1.7985 0 0 0
1125 5 25.179 10.791 3.597 0 0 0
1126 5 25.179 12.5895 5.3955 0 0 0
1131 5 23.3805 10.791 8.9925 0 0 0
1136 5 23.3805 12.5895 10.791 0 0 0
1137 5 25.179 10.791 14.388 0 0 0
1139 5 23.3805 10.791 16.1865 0 0 0
1141 5 25.179 10.791 17.985 0 0 0
1148 5 23.3805 12.5895 21.582 0 0 0
1154 5 25.179 12.5895 30.5745 0 0 0
1158 5 25.179 12.5895 34.1715 0 0 0
1163 5 23.3805 14.388 1.7985 0 0 0
1166 5 25.179 16.1865 5.3955 0 0 0
1175 5 23.3805 14.388 12.5895 0 0 0
1182 5 25.179 16.1865 19.7835 0 0 0
1183 5 23.3805 14.388 19.7835 0 0 0
1184 5 23.3805 16.1865 17.985 0 0 0
1185 5 25.179 14.388 21.582 0 0 0
1192 5 23.3805 16.1865 25.179 0 0 0
1193 5 25.179 14.388 28.776 0 0 0
1197 5 25.179 14.388 32.373 0 0 0
1199 5 23.3805 14.388 34.1715 0 0 0
1202 5 25.179 19.7835 1.7985 0 0 0
1203 5 23.3805 17.985 1.7985 0 0 0
1205 5 25.179 17.985 3.597 0 0 0
1206 5 25.179 19.7835 5.3955 0 0 0
1208 5 23.3805 19.7835 3.597 0 0 0
1209 5 25.179 17.985 7.194 0 0 0
1212 5 23.3805 19.7835 7.194 0 0 0
1213 5 25.179 17.985 10.791 0 0 0
1215 5 23.3805 17.985 12.5895 0 0 0
1219 5 23.3805 17.985 16.1865 0 0 0
1224 5 23.3805 19.7835 17.985 0 0 0
1226 5 25.179 19.7835 23.3805 0 0 0
1227 5 23.3805 17.985 23.3805 0 0 0
1229 5 25.179 17.985 25.179 0 0 0
1231 5 23.3805 17.985 26.9775 0 0 0
1232 5 23.3805 19.7835 25.179 0 0 0
1236 5 23.3805 19.7835 28.776 0 0 0
1244 5 23.3805 23.3805 0.0 0 0 0
1248 5 23.3805 23.3805 3.597 0 0 0
1249 5 25.179 21.582 7.194 0 0 0
1252 5 23.3805 23.3805 7.194 0 0 0
1253 5 25.179 21.582 10.791 0 0 0
1254 5 25.179 23.3805 12.5895 0 0 0
1256 5 23.3805 23.3805 10.791 0 0 0
1263 5 23.3805 21.582 19.7835 0 0 0
1264 5 23.3805 23.3805 17.985 0 0 0
1265 5 25.179 21.582 21.582 0 0 0
1267 5 23.3805 21.582 23.3805 0 0 0
1268 5 23.3805 23.3805 21.582 0 0 0
1270 5 25.179 23.3805 26.9775 0 0 0
1271 5 23.3805 21.582 26.9775 0 0 0
1274 5 25.179 23.3805 30.5745 0 0 0
1275 5 23.3805 21.582 30.5745 0 0 0
1280 5 23.3805 23.3805 32.373 0 0 0
1281 5 25.179 25.179 0.0 0 0 0
1282 5 25.179 26.9775 1.7985 0 0 0
1283 5 23.3805 25.179 1.7985 0 0 0
1286 5 25.179 26.9775 5.3955 0 0 0
1287 5 23.3805 25.179 5.3955 0 0 0
1293 5 25.179 25.179 10.791 0 0 0
1295 5 23.3805 25.179 12.5895 0 0 0
1297 5 25.179 25.179 14.388 0 0 0
1299 5 23.3805 25.179 16.1865 0 0 0
1301 5 25.179 25.179 17.985 0 0 0
1306 5 25.179 26.9775 23.3805 0 0 0
1308 5 23.3805 26.9775 21.582 0 0 0
1310 5 25.179 26.9775 26.9775 0 0 0
1314 5 25.179 26.9775 30.5745 0 0 0
1315 5 23.3805 25.179 30.5745 0 0 0
1323 5 23.3805 28.776 1.7985 0 0 0
1327 5 23.3805 28.776 5.3955 0 0 0
1333 5 25.179 28.776 10.791 0 0 0
1334 5 25.179 30.5745 12.5895 0 0 0
1335 5 23.3805 28.776 12.5895 0 0 0
1337 5 25.179 28.776 14.388 0 0 0
1338 5 25.179 30.5745 16.1865 0 0 0
1340 5 23.3805 30.5745 14.388 0 0 0
1344 5 23.3805 30.5745 17.985 0 0 0
1347 5 23.3805 28.776 23.3805 0 0 0
1351 5 23.3805 28.776 26.9775 0 0 0
1353 5 25.179 28.776 28.776 0 0 0
1357 5 25.179 28.776 32.373 0 0 0
1370 5 25.179 34.1715 8.9925 0 0 0
1376 5 23.3805 34.1715 10.791 0 0 0
1377 5 25.179 32.373 14.388 0 0 0
1378 5 25.179 34.1715 16.1865 0 0 0
1384 5 23.3805 34.1715 17.985 0 0 0
1385 5 25.179 32.373 21.582 0 0 0
1395 5 23.3805 32.373 30.5745 0 0 0
1400 5 23.3805 34.1715 32.373 0 0 0
1403 5 19.7835 0.0 1.7985 0 0 0
1407 5 19.7835 0.0 5.3955 0 0 0
1409 5 21.582 0.0 7.194 0 0 0
1417 5 21.582 0.0 14.388 0 0 0
1430 5 21.582 1.7985 26.9775 0 0 0
1434 5 21.582 1.7985 30.5745 0 0 0
1438 5 21.582 1.7985 34.1715 0 0 0
1440 5 19.7835 1.7985 32.373 0 0 0
1441 5 21.582 3.597 0.0 0 0 0
1443 5 19.7835 3.597 1.7985 0 0 0
1444 5 19.7835 5.3955 0.0 0 0 0
1447 5 19.7835 3.597 5.3955 0 0 0
1450 5 21.582 5.3955 8.9925 0 0 0
1451 5 19.7835 3.597 8.9925 0 0 0
1453 5 21.582 3.597 10.791 0 0 0
1454 5 21.582 5.3955 12.5895 0 0 0
1455 5 19.7835 3.597 12.5895 0 0 0
1458 5 21.582 5.3955 16.1865 0 0 0
1460 5 19.7835 5.3955 14.388 0 0 0
1469 5 21.582 3.597 25.179 0 0 0
1471 5 19.7835 3.597 26.9775 0 0 0
1472 5 19.7835 5.3955 25.179 0 0 0
1473 5 21.582 3.597 28.776 0 0 0
1476 5 19.7835 5.3955 28.776 0 0 0
1479 5 19.7835 3.597 34.1715 0 0 0
1483 5 19.7835 7.194 1.7985 0 0 0
1484 5 19.7835 8.9925 0.0 0 0 0
1490 5 21.582 8.9925 8.9925 0 0 0
1498 5 21.582 8.9925 16.1865 0 0 0
1499 5 19.7835 7.194 16.1865 0 0 0
1500 5 19.7835 8.9925 14.388 0 0 0
1501 5 21.582 7.194 17.985 0 0 0
1503 5 19.7835 7.194 19.7835 0 0 0
1504 5 19.7835 8.9925 17.985 0 0 0
1506 5 21.582 8.9925 23.3805 0 0 0
1510 5 21.582 8.9925 26.9775 0 0 0
1513 5 21.582 7.194 28.776 0 0 0
1514 5 21.582 8.9925 30.5745 0 0 0
1515 5 19.7835 7.194 30.5745 0 0 0
1517 5 21.582 7.194 32.373 0 0 0
1518 5 21.582 8.9925 34.1715 0 0 0
1522 5 21.582 12.5895 1.7985 0 0 0
1524 5 19.7835 12.5895 0.0 0 0 0
1525 5 21.582 10.791 3.597 0 0 0
1528 5 19.7835 12.5895 3.597 0 0 0
1535 5 19.7835 10.791 12.5895 0 0 0
1537 5 21.582 10.791 14.388 0 0 0
1544 5 19.7835 12.5895 17.985 0 0 0
1547 5 19.7835 10.791 23.3805 0 0 0
1548 5 19.7835 12.5895 21.582 0 0 0
1551 5 19.7835 10.791 26.9775 0 0 0
1556 5 19.7835 12.5895 28.776 0 0 0
1557 5 21.582 10.791 32.373 0 0 0
1558 5 21.582 12.5895 34.1715 0 0 0
1559 5 19.7835 10.791 34.1715 0 0 0
1562 5 21.582 16.1865 1.7985 0 0 0
1563 5 19.7835 14.388 1.7985 0 0 0
1565 5 21.582 14.388 3.597 0 0 0
1571 5 19.7835 14.388 8.9925 0 0 0
1574 5 21.582 16.1865 12.5895 0 0 0
1575 5 19.7835 14.388 12.5895 0 0 0
1576 5 19.7835 16.1865 10.791 0 0 0
1584 5 19.7835 16.1865 17.985 0 0 0
1585 5 21.582 14.388 21.582 0 0 0
1586 5 21.582 16.1865 23.3805 0 0 0
1588 5 19.7835 16.1865 21.582 0 0 0
1589 5 21.582 14.388 25.179 0 0 0
1595 5 19.7835 14.388 30.5745 0 0 0
1600 5 19.7835 16.1865 32.373 0 0 0
1601 5 21.582 17.985 0.0 0 0 0
1603 5 19.7835 17.985 1.7985 0 0 0
1604 5 19.7835 19.7835 0.0 0 0 0
1605 5 21.582 17.985 3.597 0 0 0
1608 5 19.7835 19.7835 3.597 0 0 0
1610 5 21.582 19.7835 8.9925 0 0 0
1611 5 19.7835 17.985 8.9925 0 0 0
1613 5 21.582 17.985 10.791 0 0 0
1618 5 21.582 19.7835 16.1865 0 0 0
1622 5 21.582 19.7835 19.7835 0 0 0
1623 5 19.7835 17.985 19.7835 0 0 0
1624 5 19.7835 19.7835 17.985 0 0 0
1627 5 19.7835 17.985 23.3805 0 0 0
1632 5 19.7835 19.7835 25.179 0 0 0
1634 5 21.582 19.7835 30.5745 0 0 0
1636 5 19.7835 19.7835 28.776 0 0 0
1639 5 19.7835 17.985 34.1715 0 0 0
1641 5 21.582 21.582 0.0 0 0 0
1642 5 21.582 23.3805 1.7985 0 0 0
1652 5 19.7835 23.3805 7.194 0 0 0
1653 5 21.582 21.582 10.791 0 0 0
1658 5 21.582 23.3805 16.1865 0 0 0
1659 5 19.7835 21.582 16.1865 0 0 0
1663 5 19.7835 21.582 19.7835 0 0 0
1669 5 21.582 21.582 25.179 0 0 0
1672 5 19.7835 23.3805 25.179 0 0 0
1678 5 21.582 23.3805 34.1715 0 0 0
1679 5 19.7835 21.582 34.1715 0 0 0
1680 5 19.7835 23.3805 32.373 0 0 0
1683 5 19.7835 25.179 1.7985 0 0 0
1686 5 21.582 26.9775 5.3955 0 0 0
1687 5 19.7835 25.179 5.3955 0 0 0
1688 5 19.7835 26.9775 3.597 0 0 0
1689 5 21.582 25.179 7.194 0 0 0
1697 5 21.582 25.179 14.388 0 0 0
1699 5 19.7835 25.179 16.1865 0 0 0
1700 5 19.7835 26.9775 14.388 0 0 0
1702 5 21.582 26.9775 19.7835 0 0 0
1703 5 19.7835 25.179 19.7835 0 0 0
1704 5 19.7835 26.9775 17.985 0 0 0
1706 5 21.582 26.9775 23.3805 0 0 0
1710 5 21.582 26.9775 26.9775 0 0 0
1711 5 19.7835 25.179 26.9775 0 0 0
1712 5 19.7835 26.9775 25.179 0 0 0
1713 5 21.582 25.179 28.776 0 0 0
1714 5 21.582 26.9775 30.5745 0 0 0
1723 5 19.7835 28.776 1.7985 0 0 0
1724 5 19.7835 30.5745 0.0 0 0 0
1727 5 19.7835 28.776 5.3955 0 0 0
1728 5 19.7835 30.5745 3.597 0 0 0
1730 5 21.582 30.5745 8.9925 0 0 0
1731 5 19.7835 28.776 8.9925 0 0 0
1732 5 19.7835 30.5745 7.194 0 0 0
1734 5 21.582 30.5745 12.5895 0 0 0
1736 5 19.7835 30.5745 10.791 0 0 0
1739 5 19.7835 28.776 16.1865 0 0 0
1743 5 19.7835 28.776 19.7835 0 0 0
1744 5 19.7835 30.5745 17.985 0 0 0
1747 5 19.7835 28.776 23.3805 0 0 0
1748 5 19.7835 30.5745 21.582 0 0 0
1751 5 19.7835 28.776 26.9775 0 0 0
1752 5 19.7835 30.5745 25.179 0 0 0
1755 5 19.7835 28.776 30.5745 0 0 0
1757 5 21.582 28.776 32.373 0 0 0
1761 5 21.582 32.373 0.0 0 0 0
1764 5 19.7835 34.1715 0.0 0 0 0
1766 5 21.582 34.1715 5.3955 0 0 0
1771 5 19.7835 32.373 8.9925 0 0 0
1773 5 21.582 32.373 10.791 0 0 0
1777 5 21.582 32.373 14.388 0 0 0
1791 5 19.7835 32.373 26.9775 0 0 0
1796 5 19.7835 34.1715 28.776 0 0 0
1798 5 21.582 34.1715 34.1715 0 0 0
1799 5 19.7835 32.373 34.1715 0 0 0
1806 5 17.985 1.7985 5.3955 0 0 0
1807 5 16.1865 0.0 5.3955 0 0 0
1808 5 16.1865 1.7985 3.597 0 0 0
1809 5 17.985 0.0 7.194 0 0 0
1813 5 17.985 0.0 10.791 0 0 0
1817 5 17.985 0.0 14.388 0 0 0
1818 5 17.985 1.7985 16.1865 0 0 0
1824 5 16.1865 1.7985 17.985 0 0 0
1830 5 17.985 1.7985 26.9775 0 0 0
1834 5 17.985 1.7985 30.5745 0 0 0
1835 5 16.1865 0.0 30.5745 0 0 0
1839 5 16.1865 0.0 34.1715 0 0 0
1841 5 17.985 3.597 0.0 0 0 0
1846 5 17.985 5.3955 5.3955 0 0 0
1851 5 16.1865 3.597 8.9925 0 0 0
1854 5 17.985 5.3955 12.5895 0 0 0
1867 5 16.1865 3.597 23.3805 0 0 0
1875 5 16.1865 3.597 30.5745 0 0 0
1878 5 17.985 5.3955 34.1715 0 0 0
1882 5 17.985 8.9925 1.7985 0 0 0
1883 5 16.1865 7.194 1.7985 0 0 0
1887 5 16.1865 7.194 5.3955 0 0 0
1891 5 16.1865 7.194 8.9925 0 0 0
1892 5 16.1865 8.9925 7.194 0 0 0
1897 5 17.985 7.194 14.388 0 0 0
1902 5 17.985 8.9925 19.7835 0 0 0
1905 5 17.985 7.194 21.582 0 0 0
1906 5 17.985 8.9925 23.3805 0 0 0
1907 5 16.1865 7.194 23.3805 0 0 0
1909 5 17.985 7.194 25.179 0 0 0
1916 5 16.1865 8.9925 28.776 0 0 0
1917 5 17.985 7.194 32.373 0 0 0
1919 5 16.1865 7.194 34.1715 0 0 0
1923 5 16.1865 10.791 1.7985 0 0 0
1932 5 16.1865 12.5895 7.194 0 0 0
1934 5 17.985 12.5895 12.5895 0 0 0
1949 5 17.985 10.791 25.179 0 0 0
1951 5 16.1865 10.791 26.9775 0 0 0
1953 5 17.985 10.791 28.776 0 0 0
1954 5 17.985 12.5895 30.5745 0 0 0
1956 5 16.1865 12.5895 28.776 0 0 0
1958 5 17.985 12.5895 34.1715 0 0 0
1959 5 16.1865 10.791 34.1715 0 0 0
1960 5 16.1865 12.5895 32.373 0 0 0
1974 5 17.985 16.1865 12.5895 0 0 0
1977 5 17.985 14.388 14.388 0 0 0
1979 5 16.1865 14.388 16.1865 0 0 0
1981 5 17.985 14.388 17.985 0 0 0
1993 5 17.985 14.388 28.776 0 0 0
1996 5 16.1865 16.1865 28.776 0 0 0
2001 5 17.985 17.985 0.0 0 0 0
2003 5 16.1865 17.985 1.7985 0 0 0
2005 5 17.985 17.985 3.597 0 0 0
2008 5 16.1865 19.7835 3.597 0 0 0
2010 5 17.985 19.7835 8.9925 0 0 0
2013 5 17.985 17.985 10.791 0 0 0
2017 5 17.985 17.985 14.388 0 0 0
2018 5 17.985 19.7835 16.1865 0 0 0
2020 5 16.1865 19.7835 14.388 0 0 0
2030 5 17.985 19.7835 26.9775 0 0 0
2032 5 16.1865 19.7835 25.179 0 0 0
2035 5 16.1865 17.985 30.5745 0 0 0
2040 5 16.1865 19.7835 32.373 0 0 0
2041 5 17.985 21.582 0.0 0 0 0
2043 5 16.1865 21.582 1.7985 0 0 0
2051 5 16.1865 21.582 8.9925 0 0 0
2055 5 16.1865 21.582 12.5895 0 0 0
2061 5 17.985 21.582 17.985 0 0 0
2062 5 17.985 23.3805 19.7835 0 0 0
2064 5 16.1865 23.3805 17.985 0 0 0
2066 5 17.985 23.3805 23.3805 0 0 0
2071 5 16.1865 21.582 26.9775 0 0 0
2072 5 16.1865 23.3805 25.179 0 0 0
2079 5 16.1865 21.582 34.1715 0 0 0
2081 5 17.985 25.179 0.0 0 0 0
2084 5 16.1865 26.9775 0.0 0 0 0
2085 5 17.985 25.179 3.597 0 0 0
2088 5 16.1865 26.9775 3.597 0 0 0
2089 5 17.985 25.179 7.194 0 0 0
2091 5 16.1865 25.179 8.9925 0 0 0
2096 5 16.1865 26.9775 10.791 0 0 0
2106 5 17.985 26.9775 23.3805 0 0 0
2107 5 16.1865 25.179 23.3805 0 0 0
2109 5 17.985 25.179 25.179 0 0 0
2116 5 16.1865 26.9775 28.776 0 0 0
2118 5 17.985 26.9775 34.1715 0 0 0
2119 5 16.1865 25.179 34.1715 0 0 0
2120 5 16.1865 26.9775 32.373 0 0 0
2124 5 16.1865 30.5745 0.0 0 0 0
2126 5 17.985 30.5745 5.3955 0 0 0
2127 5 16.1865 28.776 5.3955 0 0 0
2134 5 17.985 30.5745 12.5895 0 0 0
2138 5 17.985 30.5745 16.1865 0 0 0
2143 5 16.1865 28.776 19.7835 0 0 0
2144 5 16.1865 30.5745 17.985 0 0 0
2148 5 16.1865 30.5745 21.582 0 0 0
2151 5 16.1865 28.776 26.9775 0 0 0
2160 5 16.1865 30.5745 32.373 0 0 0
2163 5 16.1865 32.373 1.7985 0 0 0
2164 5 16.1865 34.1715 0.0 0 0 0
2169 5 17.985 32.373 7.194 0 0 0
2171 5 16.1865 32.373 8.9925 0 0 0
2177 5 17.985 32.373 14.388 0 0 0
2179 5 16.1865 32.373 16.1865 0 0 0
2183 5 16.1865 32.373 19.7835 0 0 0
2192 5 16.1865 34.1715 25.179 0 0 0
2194 5 17.985 34.1715 30.5745 0 0 0
2197 5 17.985 32.373 32.373 0 0 0
2199 5 16.1865 32.373 34.1715 0 0 0
2202 5 14.388 1.7985 1.7985 0 0 0
2205 5 14.388 0.0 3.597 0 0 0
2208 5 12.5895 1.7985 3.597 0 0 0
2212 5 12.5895 1.7985 7.194 0 0 0
2214 5 14.388 1.7985 12.5895 0 0 0
2220 5 12.5895 1.7985 14.388 0 0 0
2222 5 14.388 1.7985 19.7835 0 0 0
2225 5 14.388 0.0 21.582 0 0 0
2226 5 14.388 1.7985 23.3805 0 0 0
2227 5 12.5895 0.0 23.3805 0 0 0
2229 5 14.388 0.0 25.179 0 0 0
2230 5 14.388 1.7985 26.9775 0 0 0
2231 5 12.5895 0.0 26.9775 0 0 0
2233 5 14.388 0.0 28.776 0 0 0
2236 5 12.5895 1.7985 28.776 0 0 0
2237 5 14.388 0.0 32.373 0 0 0
2240 5 12.5895 1.7985 32.373 0 0 0
2244 5 12.5895 5.3955 0.0 0 0 0
2245 5 14.388 3.597 3.597 0 0 0
2247 5 12.5895 3.597 5.3955 0 0 0
2250 5 14.388 5.3955 8.9925 0 0 0
2253 5 14.388 3.597 10.791 0 0 0
2257 5 14.388 3.597 14.388 0 0 0
2258 5 14.388 5.3955 16.1865 0 0 0
2260 5 12.5895 5.3955 14.388 0 0 0
2267 5 12.5895 3.597 23.3805 0 0 0
2268 5 12.5895 5.3955 21.582 0 0 0
2271 5 12.5895 3.597 26.9775 0 0 0
2272 5 12.5895 5.3955 25.179 0 0 0
2273 5 14.388 3.597 28.776 0 0 0
2274 5 14.388 5.3955 30.5745 0 0 0
2275 5 12.5895 3.597 30.5745 0 0 0
2276 5 12.5895 5.3955 28.776 0 0 0
2277 5 14.388 3.597 32.373 0 0 0
2283 5 12.5895 7.194 1.7985 0 0 0
2285 5 14.388 7.194 3.597 0 0 0
2287 5 12.5895 7.194 5.3955 0 0 0
2289 5 14.388 7.194 7.194 0 0 0
2291 5 12.5895 7.194 8.9925 0 0 0
2292 5 12.5895 8.9925 7.194 0 0 0
2296 5 12.5895 8.9925 10.791 0 0 0
2298 5 14.388 8.9925 16.1865 0 0 0
2300 5 12.5895 8.9925 14.388 0 0 0
2306 5 14.388 8.9925 23.3805 0 0 0
2307 5 12.5895 7.194 23.3805 0 0 0
2310 5 14.388 8.9925 26.9775 0 0 0
2313 5 14.388 7.194 28.776 0 0 0
2322 5 14.388 12.5895 1.7985 0 0 0
2324 5 12.5895 12.5895 0.0 0 0 0
2328 5 12.5895 12.5895 3.597 0 0 0
2333 5 14.388 10.791 10.791 0 0 0
2347 5 12.5895 10.791 23.3805 0 0 0
2349 5 14.388 10.791 25.179 0 0 0
2351 5 12.5895 10.791 26.9775 0 0 0
2353 5 14.388 10.791 28.776 0 0 0
2354 5 14.388 12.5895 30.5745 0 0 0
2357 5 14.388 10.791 32.373 0 0 0
2358 5 14.388 12.5895 34.1715 0 0 0
2364 5 12.5895 16.1865 0.0 0 0 0
2366 5 14.388 16.1865 5.3955 0 0 0
2368 5 12.5895 16.1865 3.597 0 0 0
2370 5 14.388 16.1865 8.9925 0 0 0
2377 5 14.388 14.388 14.388 0 0 0
2378 5 14.388 16.1865 16.1865 0 0 0
2380 5 12.5895 16.1865 14.388 0 0 0
2381 5 14.388 14.388 17.985 0 0 0
2382 5 14.388 16.1865 19.7835 0 0 0
2384 5 12.5895 16.1865 17.985 0 0 0
2385 5 14.388 14.388 21.582 0 0 0
2386 5 14.388 16.1865 23.3805 0 0 0
2388 5 12.5895 16.1865 21.582 0 0 0
2389 5 14.388 14.388 25.179 0 0 0
2390 5 14.388 16.1865 26.9775 0 0 0
2399 5 12.5895 14.388 34.1715 0 0 0
2404 5 12.5895 19.7835 0.0 0 0 0
2410 5 14.388 19.7835 8.9925 0 0 0
2413 5 14.388 17.985 10.791 0 0 0
2415 5 12.5895 17.985 12.5895 0 0 0
2418 5 14.388 19.7835 16.1865 0 0 0
2420 5 12.5895 19.7835 14.388 0 0 0
2422 5 14.388 19.7835 19.7835 0 0 0
2425 5 14.388 17.985 21.582 0 0 0
2427 5 12.5895 17.985 23.3805 0 0 0
2430 5 14.388 19.7835 26.9775 0 0 0
2435 5 12.5895 17.985 30.5745 0 0 0
2437 5 14.388 17.985 32.373 0 0 0
2438 5 14.388 19.7835 34.1715 0 0 0
2441 5 14.388 21.582 0.0 0 0 0
2442 5 14.388 23.3805 1.7985 0 0 0
2443 5 12.5895 21.582 1.7985 0 0 0
2448 5 12.5895 23.3805 3.597 0 0 0
2450 5 14.388 23.3805 8.9925 0 0 0
2454 5 14.388 23.3805 12.5895 0 0 0
2460 5 12.5895 23.3805 14.388 0 0 0
2464 5 12.5895 23.3805 17.985 0 0 0
2465 5 14.388 21.582 21.582 0 0 0
2466 5 14.388 23.3805 23.3805 0 0 0
2468 5 12.5895 23.3805 21.582 0 0 0
2471 5 12.5895 21.582 26.9775 0 0 0
2472 5 12.5895 23.3805 25.179 0 0 0
2473 5 14.388 21.582 28.776 0 0 0
2478 5 14.388 23.3805 34.1715 0 0 0
2484 5 12.5895 26.9775 0.0 0 0 0
2487 5 12.5895 25.179 5.3955 0 0 0
2489 5 14.388 25.179 7.194 0 0 0
2490 5 14.388 26.9775 8.9925 0 0 0
2492 5 12.5895 26.9775 7.194 0 0 0
2494 5 14.388 26.9775 12.5895 0 0 0
2501 5 14.388 25.179 17.985 0 0 0
2506 5 14.388 26.9775 23.3805 0 0 0
2507 5 12.5895 25.179 23.3805 0 0 0
2517 5 14.388 25.179 32.373 0 0 0
2518 5 14.388 26.9775 34.1715 0 0 0
2524 5 12.5895 30.5745 0.0 0 0 0
2533 5 14.388 28.776 10.791 0 0 0
2539 5 12.5895 28.776 16.1865 0 0 0
2541 5 14.388 28.776 17.985 0 0 0
2546 5 14.388 30.5745 23.3805 0 0 0
2558 5 14.388 30.5745 34.1715 0 0 0
2561 5 14.388 32.373 0.0 0 0 0
2562 5 14.388 34.1715 1.7985 0 0 0
2566 5 14.388 34.1715 5.3955 0 0 0
2568 5 12.5895 34.1715 3.597 0 0 0
2570 5 14.388 34.1715 8.9925 0 0 0
2578 5 14.388 34.1715 16.1865 0 0 0
2579 5 12.5895 32.373 16.1865 0 0 0
2581 5 14.388 32.373 17.985 0 0 0
2583 5 12.5895 32.373 19.7835 0 0 0
2587 5 12.5895 32.373 23.3805 0 0 0
2588 5 12.5895 34.1715 21.582 0 0 0
2589 5 14.388 32.373 25.179 0 0 0
2594 5 14.388 34.1715 30.5745 0 0 0
2599 5 12.5895 32.373 34.1715 0 0 0
2606 5 10.791 1.7985 5.3955 0 0 0
2607 5 8.9925 0.0 5.3955 0 0 0
2614 5 10.791 1.7985 12.5895 0 0 0
2621 5 10.791 0.0 17.985 0 0 0
2624 5 8.9925 1.7985 17.985 0 0 0
2626 5 10.791 1.7985 23.3805 0 0 0
2627 5 8.9925 0.0 23.3805 0 0 0
2631 5 8.9925 0.0 26.9775 0 0 0
2633 5 10.791 0.0 28.776 0 0 0
2634 5 10.791 1.7985 30.5745 0 0 0
2639 5 8.9925 0.0 34.1715 0 0 0
2640 5 8.9925 1.7985 32.373 0 0 0
2642 5 10.791 5.3955 1.7985 0 0 0
2644 5 8.9925 5.3955 0.0 0 0 0
2650 5 10.791 5.3955 8.9925 0 0 0
2653 5 10.791 3.597 10.791 0 0 0
2659 5 8.9925 3.597 16.1865 0 0 0
2660 5 8.9925 5.3955 14.388 0 0 0
2664 5 8.9925 5.3955 17.985 0 0 0
2670 5 10.791 5.3955 26.9775 0 0 0
2671 5 8.9925 3.597 26.9775 0 0 0
2672 5 8.9925 5.3955 25.179 0 0 0
2676 5 8.9925 5.3955 28.776 0 0 0
2677 5 10.791 3.597 32.373 0 0 0
2678 5 10.791 5.3955 34.1715 0 0 0
2682 5 10.791 8.9925 1.7985 0 0 0
2683 5 8.9925 7.194 1.7985 0 0 0
2685 5 10.791 7.194 3.597 0 0 0
2686 5 10.791 8.9925 5.3955 0 0 0
2687 5 8.9925 7.194 5.3955 0 0 0
2689 5 10.791 7.194 7.194 0 0 0
2690 5 10.791 8.9925 8.9925 0 0 0
2691 5 8.9925 7.194 8.9925 0 0 0
2693 5 10.791 7.194 10.791 0 0 0
2695 5 8.9925 7.194 12.5895 0 0 0
2696 5 8.9925 8.9925 10.791 0 0 0
2698 5 10.791 8.9925 16.1865 0 0 0
2703 5 8.9925 7.194 19.7835 0 0 0
2708 5 8.9925 8.9925 21.582 0 0 0
2712 5 8.9925 8.9925 25.179 0 0 0
2729 5 10.791 10.791 7.194 0 0 0
2731 5 8.9925 10.791 8.9925 0 0 0
2737 5 10.791 10.791 14.388 0 0 0
2741 5 10.791 10.791 17.985 0 0 0
2744 5 8.9925 12.5895 17.985 0 0 0
2746 5 10.791 12.5895 23.3805 0 0 0
2753 5 10.791 10.791 28.776 0 0 0
2754 5 10.791 12.5895 30.5745 0 0 0
2760 5 8.9925 12.5895 32.373 0 0 0
2766 5 10.791 16.1865 5.3955 0 0 0
2768 5 8.9925 16.1865 3.597 0 0 0
2770 5 10.791 16.1865 8.9925 0 0 0
2772 5 8.9925 16.1865 7.194 0 0 0
2779 5 8.9925 14.388 16.1865 0 0 0
2781 5 10.791 14.388 17.985 0 0 0
2782 5 10.791 16.1865 19.7835 0 0 0
2783 5 8.9925 14.388 19.7835 0 0 0
2787 5 8.9925 14.388 23.3805 0 0 0
2791 5 8.9925 14.388 26.9775 0 0 0
2794 5 10.791 16.1865 30.5745 0 0 0
2798 5 10.791 16.1865 34.1715 0 0 0
2805 5 10.791 17.985 3.597 0 0 0
2809 5 10.791 17.985 7.194 0 0 0
2810 5 10.791 19.7835 8.9925 0 0 0
2811 5 8.9925 17.985 8.9925 0 0 0
2815 5 8.9925 17.985 12.5895 0 0 0
2816 5 8.9925 19.7835 10.791 0 0 0
2818 5 10.791 19.7835 16.1865 0 0 0
2821 5 10.791 17.985 17.985 0 0 0
2827 5 8.9925 17.985 23.3805 0 0 0
2829 5 10.791 17.985 25.179 0 0 0
2831 5 8.9925 17.985 26.9775 0 0 0
2834 5 10.791 19.7835 30.5745 0 0 0
2837 5 10.791 17.985 32.373 0 0 0
2839 5 8.9925 17.985 34.1715 0 0 0
2840 5 8.9925 19.7835 32.373 0 0 0
2844 5 8.9925 23.3805 0.0 0 0 0
2845 5 10.791 21.582 3.597 0 0 0
2852 5 8.9925 23.3805 7.194 0 0 0
2853 5 10.791 21.582 10.791 0 0 0
2854 5 10.791 23.3805 12.5895 0 0 0
2855 5 8.9925 21.582 12.5895 0 0 0
2856 5 8.9925 23.3805 10.791 0 0 0
2860 5 8.9925 23.3805 14.388 0 0 0
2861 5 10.791 21.582 17.985 0 0 0
2866 5 10.791 23.3805 23.3805 0 0 0
2872 5 8.9925 23.3805 25.179 0 0 0
2875 5 8.9925 21.582 30.5745 0 0 0
2881 5 10.791 25.179 0.0 0 0 0
2884 5 8.9925 26.9775 0.0 0 0 0
2887 5 8.9925 25.179 5.3955 0 0 0
2888 5 8.9925 26.9775 3.597 0 0 0
2889 5 10.791 25.179 7.194 0 0 0
2890 5 10.791 26.9775 8.9925 0 0 0
2893 5 10.791 25.179 10.791 0 0 0
2899 5 8.9925 25.179 16.1865 0 0 0
2901 5 10.791 25.179 17.985 0 0 0
2904 5 8.9925 26.9775 17.985 0 0 0
2912 5 8.9925 26.9775 25.179 0 0 0
2913 5 10.791 25.179 28.776 0 0 0
2916 5 8.9925 26.9775 28.776 0 0 0
2920 5 8.9925 26.9775 32.373 0 0 0
2926 5 10.791 30.5745 5.3955 0 0 0
2933 5 10.791 28.776 10.791 0 0 0
2946 5 10.791 30.5745 23.3805 0 0 0
2948 5 8.9925 30.5745 21.582 0 0 0
2951 5 8.9925 28.776 26.9775 0 0 0
2952 5 8.9925 30.5745 25.179 0 0 0
2960 5 8.9925 30.5745 32.373 0 0 0
2961 5 10.791 32.373 0.0 0 0 0
2968 5 8.9925 34.1715 3.597 0 0 0
2969 5 10.791 32.373 7.194 0 0 0
2971 5 8.9925 32.373 8.9925 0 0 0
2973 5 10.791 32.373 10.791 0 0 0
2974 5 10.791 34.1715 12.5895 0 0 0
2983 5 8.9925 32.373 19.7835 0 0 0
2987 5 8.9925 32.373 23.3805 0 0 0
2988 5 8.9925 34.1715 21.582 0 0 0
2989 5 10.791 32.373 25.179 0 0 0
2990 5 10.791 34.1715 26.9775 0 0 0
2991 5 8.9925 32.373 26.9775 0 0 0
2996 5 8.9925 34.1715 28.776 0 0 0
2998 5 10.791 34.1715 34.1715 0 0 0
3000 5 8.9925 34.1715 32.373 0 0 0
3007 5 5.3955 0.0 5.3955 0 0 0
3009 5 7.194 0.0 7.194 0 0 0
3010 5 7.194 1.7985 8.9925 0 0 0
3015 5 5.3955 0.0 12.5895 0 0 0
3024 5 5.3955 1.7985 17.985 0 0 0
3028 5 5.3955 1.7985 21.582 0 0 0
3035 5 5.3955 0.0 30.5745 0 0 0
3038 5 7.194 1.7985 34.1715 0 0 0
3039 5 5.3955 0.0 34.1715 0 0 0
3041 5 7.194 3.597 0.0 0 0 0
3044 5 5.3955 5.3955 0.0 0 0 0
3046 5 7.194 5.3955 5.3955 0 0 0
3051 5 5.3955 3.597 8.9925 0 0 0
3053 5 7.194 3.597 10.791 0 0 0
3054 5 7.194 5.3955 12.5895 0 0 0
3056 5 5.3955 5.3955 10.791 0 0 0
3057 5 7.194 3.597 14.388 0 0 0
3058 5 7.194 5.3955 16.1865 0 0 0
3061 5 7.194 3.597 17.985 0 0 0
3064 5 5.3955 5.3955 17.985 0 0 0
3067 5 5.3955 3.597 23.3805 0 0 0
3069 5 7.194 3.597 25.179 0 0 0
3070 5 7.194 5.3955 26.9775 0 0 0
3071 5 5.3955 3.597 26.9775 0 0 0
3074 5 7.194 5.3955 30.5745 0 0 0
3075 5 5.3955 3.597 30.5745 0 0 0
3076 5 5.3955 5.3955 28.776 0 0 0
3083 5 5.3955 7.194 1.7985 0 0 0
3087 5 5.3955 7.194 5.3955 0 0 0
3093 5 7.194 7.194 10.791 0 0 0
3094 5 7.194 8.9925 12.5895 0 0 0
3095 5 5.3955 7.194 12.5895 0 0 0
3108 5 5.3955 8.9925 21.582 0 0 0
3109 5 7.194 7.194 25.179 0 0 0
3110 5 7.194 8.9925 26.9775 0 0 0
3111 5 5.3955 7.194 26.9775 0 0 0
3118 5 7.194 8.9925 34.1715 0 0 0
3120 5 5.3955 8.9925 32.373 0 0 0
3124 5 5.3955 12.5895 0.0 0 0 0
3132 5 5.3955 12.5895 7.194 0 0 0
3133 5 7.194 10.791 10.791 0 0 0
3134 5 7.194 12.5895 12.5895 0 0 0
3139 5 5.3955 10.791 16.1865 0 0 0
3140 5 5.3955 12.5895 14.388 0 0 0
3145 5 7.194 10.791 21.582 0 0 0
3153 5 7.194 10.791 28.776 0 0 0
3156 5 5.3955 12.5895 28.776 0 0 0
3158 5 7.194 12.5895 34.1715 0 0 0
3159 5 5.3955 10.791 34.1715 0 0 0
3165 5 7.194 14.388 3.597 0 0 0
3167 5 5.3955 14.388 5.3955 0 0 0
3168 5 5.3955 16.1865 3.597 0 0 0
3172 5 5.3955 16.1865 7.194 0 0 0
3183 5 5.3955 14.388 19.7835 0 0 0
3184 5 5.3955 16.1865 17.985 0 0 0
3187 5 5.3955 14.388 23.3805 0 0 0
3192 5 5.3955 16.1865 25.179 0 0 0
3193 5 7.194 14.388 28.776 0 0 0
3196 5 5.3955 16.1865 28.776 0 0 0
3201 5 7.194 17.985 0.0 0 0 0
3203 5 5.3955 17.985 1.7985 0 0 0
3204 5 5.3955 19.7835 0.0 0 0 0
3205 5 7.194 17.985 3.597 0 0 0
3211 5 5.3955 17.985 8.9925 0 0 0
3213 5 7.194 17.985 10.791 0 0 0
3216 5 5.3955 19.7835 10.791 0 0 0
3219 5 5.3955 17.985 16.1865 0 0 0
3223 5 5.3955 17.985 19.7835 0 0 0
3226 5 7.194 19.7835 23.3805 0 0 0
3227 5 5.3955 17.985 23.3805 0 0 0
3230 5 7.194 19.7835 26.9775 0 0 0
3231 5 5.3955 17.985 26.9775 0 0 0
3239 5 5.3955 17.985 34.1715 0 0 0
3240 5 5.3955 19.7835 32.373 0 0 0
3241 5 7.194 21.582 0.0 0 0 0
3246 5 7.194 23.3805 5.3955 0 0 0
3248 5 5.3955 23.3805 3.597 0 0 0
3252 5 5.3955 23.3805 7.194 0 0 0
3253 5 7.194 21.582 10.791 0 0 0
3254 5 7.194 23.3805 12.5895 0 0 0
3255 5 5.3955 21.582 12.5895 0 0 0
3256 5 5.3955 23.3805 10.791 0 0 0
3258 5 7.194 23.3805 16.1865 0 0 0
3263 5 5.3955 21.582 19.7835 0 0 0
3265 5 7.194 21.582 21.582 0 0 0
3267 5 5.3955 21.582 23.3805 0 0 0
3274 5 7.194 23.3805 30.5745 0 0 0
3275 5 5.3955 21.582 30.5745 0 0 0
3276 5 5.3955 23.3805 28.776 0 0 0
3278 5 7.194 23.3805 34.1715 0 0 0
3279 5 5.3955 21.582 34.1715 0 0 0
3280 5 5.3955 23.3805 32.373 0 0 0
3282 5 7.194 26.9775 1.7985 0 0 0
3283 5 5.3955 25.179 1.7985 0 0 0
3287 5 5.3955 25.179 5.3955 0 0 0
3288 5 5.3955 26.9775 3.597 0 0 0
3296 5 5.3955 26.9775 10.791 0 0 0
3297 5 7.194 25.179 14.388 0 0 0
3303 5 5.3955 25.179 19.7835 0 0 0
3305 5 7.194 25.179 21.582 0 0 0
3306 5 7.194 26.9775 23.3805 0 0 0
3307 5 5.3955 25.179 23.3805 0 0 0
3310 5 7.194 26.9775 26.9775 0 0 0
3311 5 5.3955 25.179 26.9775 0 0 0
3316 5 5.3955 26.9775 28.776 0 0 0
3320 5 5.3955 26.9775 32.373 0 0 0
3321 5 7.194 28.776 0.0 0 0 0
3324 5 5.3955 30.5745 0.0 0 0 0
3325 5 7.194 28.776 3.597 0 0 0
3326 5 7.194 30.5745 5.3955 0 0 0
3331 5 5.3955 28.776 8.9925 0 0 0
3340 5 5.3955 30.5745 14.388 0 0 0
3346 5 7.194 30.5745 23.3805 0 0 0
3347 5 5.3955 28.776 23.3805 0 0 0
3349 5 7.194 28.776 25.179 0 0 0
3350 5 7.194 30.5745 26.9775 0 0 0
3355 5 5.3955 28.776 30.5745 0 0 0
3357 5 7.194 28.776 32.373 0 0 0
3360 5 5.3955 30.5745 32.373 0 0 0
3361 5 7.194 32.373 0.0 0 0 0
3368 5 5.3955 34.1715 3.597 0 0 0
3374 5 7.194 34.1715 12.5895 0 0 0
3375 5 5.3955 32.373 12.5895 0 0 0
3376 5 5.3955 34.1715 10.791 0 0 0
3378 5 7.194 34.1715 16.1865 0 0 0
3379 5 5.3955 32.373 16.1865 0 0 0
3383 5 5.3955 32.373 19.7835 0 0 0
3387 5 5.3955 32.373 23.3805 0 0 0
3388 5 5.3955 34.1715 21.582 0 0 0
3391 5 5.3955 32.373 26.9775 0 0 0
3395 5 5.3955 32.373 30.5745 0 0 0
3396 5 5.3955 34.1715 28.776 0 0 0
3398 5 7.194 34.1715 34.1715 0 0 0
3399 5 5.3955 32.373 34.1715 0 0 0
3400 5 5.3955 34.1715 32.373 0 0 0
3401 5 3.597 0.0 0.0 0 0 0
3403 5 1.7985 0.0 1.7985 0 0 0
3404 5 1.7985 1.7985 0.0 0 0 0
3416 5 1.7985 1.7985 10.791 0 0 0
3423 5 1.7985 0.0 19.7835 0 0 0
3431 5 1.7985 0.0 26.9775 0 0 0
3434 5 3.597 1.7985 30.5745 0 0 0
3435 5 1.7985 0.0 30.5745 0 0 0
3437 5 3.597 0.0 32.373 0 0 0
3438 5 3.597 1.7985 34.1715 0 0 0
3440 5 1.7985 1.7985 32.373 0 0 0
3441 5 3.597 3.597 0.0 0 0 0
3442 5 3.597 5.3955 1.7985 0 0 0
3443 5 1.7985 3.597 1.7985 0 0 0
3444 5 1.7985 5.3955 0.0 0 0 0
3447 5 1.7985 3.597 5.3955 0 0 0
3450 5 3.597 5.3955 8.9925 0 0 0
3457 5 3.597 3.597 14.388 0 0 0
3465 5 3.597 3.597 21.582 0 0 0
3472 5 1.7985 5.3955 25.179 0 0 0
3473 5 3.597 3.597 28.776 0 0 0
3475 5 1.7985 3.597 30.5745 0 0 0
3477 5 3.597 3.597 32.373 0 0 0
3481 5 3.597 7.194 0.0 0 0 0
3482 5 3.597 8.9925 1.7985 0 0 0
3483 5 1.7985 7.194 1.7985 0 0 0
3488 5 1.7985 8.9925 3.597 0 0 0
3495 5 1.7985 7.194 12.5895 0 0 0
3497 5 3.597 7.194 14.388 0 0 0
3503 5 1.7985 7.194 19.7835 0 0 0
3510 5 3.597 8.9925 26.9775 0 0 0
3518 5 3.597 8.9925 34.1715 0 0 0
3519 5 1.7985 7.194 34.1715 0 0 0
3520 5 1.7985 8.9925 32.373 0 0 0
3521 5 3.597 10.791 0.0 0 0 0
3527 5 1.7985 10.791 5.3955 0 0 0
3530 5 3.597 12.5895 8.9925 0 0 0
3531 5 1.7985 10.791 8.9925 0 0 0
3533 5 3.597 10.791 10.791 0 0 0
3537 5 3.597 10.791 14.388 0 0 0
3540 5 1.7985 12.5895 14.388 0 0 0
3541 5 3.597 10.791 17.985 0 0 0
3545 5 3.597 10.791 21.582 0 0 0
3550 5 3.597 12.5895 26.9775 0 0 0
3557 5 3.597 10.791 32.373 0 0 0
3561 5 3.597 14.388 0.0 0 0 0
3562 5 3.597 16.1865 1.7985 0 0 0
3563 5 1.7985 14.388 1.7985 0 0 0
3570 5 3.597 16.1865 8.9925 0 0 0
3573 5 3.597 14.388 10.791 0 0 0
3575 5 1.7985 14.388 12.5895 0 0 0
3580 5 1.7985 16.1865 14.388 0 0 0
3581 5 3.597 14.388 17.985 0 0 0
3584 5 1.7985 16.1865 17.985 0 0 0
3585 5 3.597 14.388 21.582 0 0 0
3586 5 3.597 16.1865 23.3805 0 0 0
3589 5 3.597 14.388 25.179 0 0 0
3590 5 3.597 16.1865 26.9775 0 0 0
3593 5 3.597 14.388 28.776 0 0 0
3601 5 3.597 17.985 0.0 0 0 0
3604 5 1.7985 19.7835 0.0 0 0 0
3606 5 3.597 19.7835 5.3955 0 0 0
3608 5 1.7985 19.7835 3.597 0 0 0
3609 5 3.597 17.985 7.194 0 0 0
3610 5 3.597 19.7835 8.9925 0 0 0
3619 5 1.7985 17.985 16.1865 0 0 0
3624 5 1.7985 19.7835 17.985 0 0 0
3626 5 3.597 19.7835 23.3805 0 0 0
3627 5 1.7985 17.985 23.3805 0 0 0
3629 5 3.597 17.985 25.179 0 0 0
3632 5 1.7985 19.7835 25.179 0 0 0
3635 5 1.7985 17.985 30.5745 0 0 0
3637 5 3.597 17.985 32.373 0 0 0
3639 5 1.7985 17.985 34.1715 0 0 0
3641 5 3.597 21.582 0.0 0 0 0
3644 5 1.7985 23.3805 0.0 0 0 0
3645 5 3.597 21.582 3.597 0 0 0
3649 5 3.597 21.582 7.194 0 0 0
3651 5 1.7985 21.582 8.9925 0 0 0
3655 5 1.7985 21.582 12.5895 0 0 0
3657 5 3.597 21.582 14.388 0 0 0
3664 5 1.7985 23.3805 17.985 0 0 0
3668 5 1.7985 23.3805 21.582 0 0 0
3672 5 1.7985 23.3805 25.179 0 0 0
3673 5 3.597 21.582 28.776 0 0 0
3675 5 1.7985 21.582 30.5745 0 0 0
3679 5 1.7985 21.582 34.1715 0 0 0
3692 5 1.7985 26.9775 7.194 0 0 0
3693 5 3.597 25.179 10.791 0 0 0
3694 5 3.597 26.9775 12.5895 0 0 0
3695 5 1.7985 25.179 12.5895 0 0 0
3696 5 1.7985 26.9775 10.791 0 0 0
3700 5 1.7985 26.9775 14.388 0 0 0
3707 5 1.7985 25.179 23.3805 0 0 0
3709 5 3.597 25.179 25.179 0 0 0
3714 5 3.597 26.9775 30.5745 0 0 0
3715 5 1.7985 25.179 30.5745 0 0 0
3716 5 1.7985 26.9775 28.776 0 0 0
3719 5 1.7985 25.179 34.1715 0 0 0
3721 5 3.597 28.776 0.0 0 0 0
3722 5 3.597 30.5745 1.7985 0 0 0
3723 5 1.7985 28.776 1.7985 0 0 0
3724 5 1.7985 30.5745 0.0 0 0 0
3725 5 3.597 28.776 3.597 0 0 0
3728 5 1.7985 30.5745 3.597 0 0 0
3729 5 3.597 28.776 7.194 0 0 0
3731 5 1.7985 28.776 8.9925 0 0 0
3735 5 1.7985 28.776 12.5895 0 0 0
3741 5 3.597 28.776 17.985 0 0 0
3742 5 3.597 30.5745 19.7835 0 0 0
3744 5 1.7985 30.5745 17.985 0 0 0
3746 5 3.597 30.5745 23.3805 0 0 0
3747 5 1.7985 28.776 23.3805 0 0 0
3755 5 1.7985 28.776 30.5745 0 0 0
3756 5 1.7985 30.5745 28.776 0 0 0
3757 5 3.597 28.776 32.373 0 0 0
3759 5 1.7985 28.776 34.1715 0 0 0
3761 5 3.597 32.373 0.0 0 0 0
3762 5 3.597 34.1715 1.7985 0 0 0
3769 5 3.597 32.373 7.194 0 0 0
3774 5 3.597 34.1715 12.5895 0 0 0
3776 5 1.7985 34.1715 10.791 0 0 0
3777 5 3.597 32.373 14.388 0 0 0
3787 5 1.7985 32.373 23.3805 0 0 0
3793 5 3.597 32.373 28.776 0 0 0
3794 5 3.597 34.1715 30.5745 0 0 0
3796 5 1.7985 34.1715 28.776 0 0 0
3797 5 3.597 32.373 32.373 0 0 0
3800 5 1.7985 34.1715 32.373 0 0 0
3803 5 0.0 0.0 3.597 0 0 0
3804 5 0.0 1.7985 5.3955 0 0 0
3805 5 0.0 0.0 7.194 0 0 0
3807 5 0.0 0.0 10.791 0 0 0
3808 5 0.0 1.7985 12.5895 0 0 0
3812 5 0.0 1.7985 19.7835 0 0 0
3816 5 0.0 1.7985 26.9775 0 0 0
3819 5 0.0 0.0 32.373 0 0 0
3822 5 0.0 5.3955 1.7985 0 0 0
3823 5 0.0 3.597 3.597 0 0 0
3824 5 0.0 5.3955 5.3955 0 0 0
3827 5 0.0 3.597 10.791 0 0 0
3834 5 0.0 5.3955 23.3805 0 0 0
3842 5 0.0 8.9925 1.7985 0 0 0
3843 5 0.0 7.194 3.597 0 0 0
3845 5 0.0 7.194 7.194 0 0 0
3851 5 0.0 7.194 17.985 0 0 0
3852 5 0.0 8.9925 19.7835 0 0 0
3856 5 0.0 8.9925 26.9775 0 0 0
3858 5 0.0 8.9925 30.5745 0 0 0
3859 5 0.0 7.194 32.373 0 0 0
3863 5 0.0 10.791 3.597 0 0 0
3865 5 0.0 10.791 7.194 0 0 0
3866 5 0.0 12.5895 8.9925 0 0 0
3874 5 0.0 12.5895 23.3805 0 0 0
3875 5 0.0 10.791 25.179 0 0 0
3878 5 0.0 12.5895 30.5745 0 0 0
3881 5 0.0 14.388 0.0 0 0 0
3882 5 0.0 16.1865 1.7985 0 0 0
3884 5 0.0 16.1865 5.3955 0 0 0
3889 5 0.0 14.388 14.388 0 0 0
3890 5 0.0 16.1865 16.1865 0 0 0
3894 5 0.0 16.1865 23.3805 0 0 0
3895 5 0.0 14.388 25.179 0 0 0
3897 5 0.0 14.388 28.776 0 0 0
3898 5 0.0 16.1865 30.5745 0 0 0
3903 5 0.0 17.985 3.597 0 0 0
3908 5 0.0 19.7835 12.5895 0 0 0
3910 5 0.0 19.7835 16.1865 0 0 0
3911 5 0.0 17.985 17.985 0 0 0
3915 5 0.0 17.985 25.179 0 0 0
3916 5 0.0 19.7835 26.9775 0 0 0
3919 5 0.0 17.985 32.373 0 0 0
3921 5 0.0 21.582 0.0 0 0 0
3927 5 0.0 21.582 10.791 0 0 0
3930 5 0.0 23.3805 16.1865 0 0 0
3932 5 0.0 23.3805 19.7835 0 0 0
3933 5 0.0 21.582 21.582 0 0 0
3939 5 0.0 21.582 32.373 0 0 0
3940 5 0.0 23.3805 34.1715 0 0 0
3941 5 0.0 25.179 0.0 0 0 0
3942 5 0.0 26.9775 1.7985 0 0 0
3943 5 0.0 25.179 3.597 0 0 0
3951 5 0.0 25.179 17.985 0 0 0
3953 5 0.0 25.179 21.582 0 0 0
3957 5 0.0 25.179 28.776 0 0 0
3958 5 0.0 26.9775 30.5745 0 0 0
3960 5 0.0 26.9775 34.1715 0 0 0
3962 5 0.0 30.5745 1.7985 0 0 0
3965 5 0.0 28.776 7.194 0 0 0
3966 5 0.0 30.5745 8.9925 0 0 0
3967 5 0.0 28.776 10.791 0 0 0
3971 5 0.0 28.776 17.985 0 0 0
3972 5 0.0 30.5745 19.7835 0 0 0
3973 5 0.0 28.776 21.582 0 0 0
3976 5 0.0 30.5745 26.9775 0 0 0
3979 5 0.0 28.776 32.373 0 0 0
3980 5 0.0 30.5745 34.1715 0 0 0
3984 5 0.0 34.1715 5.3955 0 0 0
3992 5 0.0 34.1715 19.7835 0 0 0
3999 5 0.0 32.373 32.373 0 0 0
4000 5 0.0 34.1715 34.1715 0 0 0
