LAMMPS data file via write_data version 30 Jul 2021 timestep = 0
4000 atoms
5 atom types
0 35.97 xlo xhi
0 35.97 ylo yhi
0 35.97 zlo zhi
0.0 0.0 0.0 xy xz yz
 
Masses
 
1 1.0
2 2.0
3 3.0
4 4.0
5 5.0
 
Atoms  # atomic
 
2848 1 8.9925 23.3805 3.597 0 0 0
3717 1 3.597 25.179 32.373 0 0 0
2541 1 14.388 28.776 17.985 0 0 0
510 1 32.373 26.9775 26.9775 0 0 0
155 1 34.1715 25.179 26.9775 0 0 0
1632 1 19.7835 19.7835 25.179 0 0 0
175 1 34.1715 28.776 26.9775 0 0 0
295 1 30.5745 7.194 12.5895 0 0 0
1345 1 25.179 28.776 21.582 0 0 0
802 1 28.776 19.7835 1.7985 0 0 0
2024 1 16.1865 19.7835 17.985 0 0 0
3154 1 7.194 12.5895 30.5745 0 0 0
1737 1 21.582 28.776 14.388 0 0 0
1683 1 19.7835 25.179 1.7985 0 0 0
1824 1 16.1865 1.7985 17.985 0 0 0
2415 1 12.5895 17.985 12.5895 0 0 0
3413 1 3.597 0.0 10.791 0 0 0
1645 1 21.582 21.582 3.597 0 0 0
3103 1 5.3955 7.194 19.7835 0 0 0
2913 1 10.791 25.179 28.776 0 0 0
2834 1 10.791 19.7835 30.5745 0 0 0
2866 1 10.791 23.3805 23.3805 0 0 0
3701 1 3.597 25.179 17.985 0 0 0
1237 1 25.179 17.985 32.373 0 0 0
437 1 32.373 17.985 32.373 0 0 0
3487 1 1.7985 7.194 5.3955 0 0 0
2627 1 8.9925 0.0 23.3805 0 0 0
3404 1 1.7985 1.7985 0.0 0 0 0
1898 1 17.985 8.9925 16.1865 0 0 0
2663 1 8.9925 3.597 19.7835 0 0 0
3332 1 5.3955 30.5745 7.194 0 0 0
756 1 26.9775 12.5895 28.776 0 0 0
1316 1 23.3805 26.9775 28.776 0 0 0
1015 1 23.3805 0.0 12.5895 0 0 0
1248 1 23.3805 23.3805 3.597 0 0 0
2687 1 8.9925 7.194 5.3955 0 0 0
343 1 30.5745 10.791 19.7835 0 0 0
957 1 28.776 28.776 32.373 0 0 0
222 1 32.373 1.7985 19.7835 0 0 0
2332 1 12.5895 12.5895 7.194 0 0 0
1119 1 23.3805 7.194 34.1715 0 0 0
3047 1 5.3955 3.597 5.3955 0 0 0
2614 1 10.791 1.7985 12.5895 0 0 0
16 1 34.1715 1.7985 25.179 0 0 0
2149 1 17.985 28.776 25.179 0 0 0
2007 1 16.1865 17.985 5.3955 0 0 0
2985 1 10.791 32.373 21.582 0 0 0
2775 1 8.9925 14.388 12.5895 0 0 0
3732 1 1.7985 30.5745 7.194 0 0 0
291 1 30.5745 7.194 8.9925 0 0 0
1532 1 19.7835 12.5895 7.194 0 0 0
1038 1 25.179 1.7985 34.1715 0 0 0
3892 1 0.0 16.1865 19.7835 0 0 0
3223 1 5.3955 17.985 19.7835 0 0 0
663 1 26.9775 3.597 19.7835 0 0 0
1855 1 16.1865 3.597 12.5895 0 0 0
1770 1 21.582 34.1715 8.9925 0 0 0
3418 1 3.597 1.7985 16.1865 0 0 0
1012 1 23.3805 1.7985 7.194 0 0 0
2741 1 10.791 10.791 17.985 0 0 0
2930 1 10.791 30.5745 8.9925 0 0 0
2822 1 10.791 19.7835 19.7835 0 0 0
1362 1 25.179 34.1715 1.7985 0 0 0
2079 1 16.1865 21.582 34.1715 0 0 0
1748 1 19.7835 30.5745 21.582 0 0 0
1351 1 23.3805 28.776 26.9775 0 0 0
1395 1 23.3805 32.373 30.5745 0 0 0
114 1 34.1715 19.7835 21.582 0 0 0
3052 1 5.3955 5.3955 7.194 0 0 0
3702 1 3.597 26.9775 19.7835 0 0 0
108 1 34.1715 19.7835 10.791 0 0 0
31 1 34.1715 3.597 19.7835 0 0 0
230 1 32.373 1.7985 26.9775 0 0 0
3714 1 3.597 26.9775 30.5745 0 0 0
58 1 34.1715 8.9925 28.776 0 0 0
2713 1 10.791 7.194 28.776 0 0 0
1786 1 21.582 34.1715 23.3805 0 0 0
2899 1 8.9925 25.179 16.1865 0 0 0
3542 1 3.597 12.5895 19.7835 0 0 0
251 1 30.5745 3.597 8.9925 0 0 0
66 1 34.1715 12.5895 7.194 0 0 0
2826 1 10.791 19.7835 23.3805 0 0 0
2382 1 14.388 16.1865 19.7835 0 0 0
2917 1 10.791 25.179 32.373 0 0 0
763 1 26.9775 14.388 1.7985 0 0 0
52 1 34.1715 8.9925 17.985 0 0 0
3076 1 5.3955 5.3955 28.776 0 0 0
2493 1 14.388 25.179 10.791 0 0 0
1910 1 17.985 8.9925 26.9775 0 0 0
318 1 32.373 8.9925 34.1715 0 0 0
1246 1 25.179 23.3805 5.3955 0 0 0
3230 1 7.194 19.7835 26.9775 0 0 0
3999 1 0.0 32.373 32.373 0 0 0
512 1 30.5745 26.9775 25.179 0 0 0
518 1 32.373 26.9775 34.1715 0 0 0
1556 1 19.7835 12.5895 28.776 0 0 0
1143 1 23.3805 10.791 19.7835 0 0 0
3347 1 5.3955 28.776 23.3805 0 0 0
688 1 26.9775 8.9925 3.597 0 0 0
234 1 32.373 1.7985 30.5745 0 0 0
348 1 30.5745 12.5895 21.582 0 0 0
844 1 26.9775 23.3805 0.0 0 0 0
1104 1 23.3805 8.9925 17.985 0 0 0
714 1 28.776 8.9925 30.5745 0 0 0
2510 1 14.388 26.9775 26.9775 0 0 0
969 1 28.776 32.373 7.194 0 0 0
419 1 30.5745 17.985 16.1865 0 0 0
2995 1 8.9925 32.373 30.5745 0 0 0
1188 1 23.3805 16.1865 21.582 0 0 0
417 1 32.373 17.985 14.388 0 0 0
1214 1 25.179 19.7835 12.5895 0 0 0
2422 1 14.388 19.7835 19.7835 0 0 0
1438 1 21.582 1.7985 34.1715 0 0 0
2845 1 10.791 21.582 3.597 0 0 0
1727 1 19.7835 28.776 5.3955 0 0 0
2163 1 16.1865 32.373 1.7985 0 0 0
3773 1 3.597 32.373 10.791 0 0 0
3786 1 3.597 34.1715 23.3805 0 0 0
3388 1 5.3955 34.1715 21.582 0 0 0
3422 1 3.597 1.7985 19.7835 0 0 0
3312 1 5.3955 26.9775 25.179 0 0 0
1658 1 21.582 23.3805 16.1865 0 0 0
1217 1 25.179 17.985 14.388 0 0 0
1849 1 17.985 3.597 7.194 0 0 0
1442 1 21.582 5.3955 1.7985 0 0 0
1948 1 16.1865 12.5895 21.582 0 0 0
2659 1 8.9925 3.597 16.1865 0 0 0
3624 1 1.7985 19.7835 17.985 0 0 0
2008 1 16.1865 19.7835 3.597 0 0 0
694 1 28.776 8.9925 12.5895 0 0 0
1596 1 19.7835 16.1865 28.776 0 0 0
2393 1 14.388 14.388 28.776 0 0 0
2720 1 8.9925 8.9925 32.373 0 0 0
3265 1 7.194 21.582 21.582 0 0 0
540 1 30.5745 30.5745 14.388 0 0 0
422 1 32.373 19.7835 19.7835 0 0 0
303 1 30.5745 7.194 19.7835 0 0 0
1729 1 21.582 28.776 7.194 0 0 0
3677 1 3.597 21.582 32.373 0 0 0
1674 1 21.582 23.3805 30.5745 0 0 0
1306 1 25.179 26.9775 23.3805 0 0 0
2146 1 17.985 30.5745 23.3805 0 0 0
465 1 32.373 21.582 21.582 0 0 0
658 1 28.776 5.3955 16.1865 0 0 0
3822 1 0.0 5.3955 1.7985 0 0 0
388 1 30.5745 16.1865 21.582 0 0 0
1471 1 19.7835 3.597 26.9775 0 0 0
3130 1 7.194 12.5895 8.9925 0 0 0
1137 1 25.179 10.791 14.388 0 0 0
3261 1 7.194 21.582 17.985 0 0 0
586 1 32.373 34.1715 23.3805 0 0 0
1211 1 23.3805 17.985 8.9925 0 0 0
770 1 28.776 16.1865 8.9925 0 0 0
1594 1 21.582 16.1865 30.5745 0 0 0
2526 1 14.388 30.5745 5.3955 0 0 0
2898 1 10.791 26.9775 16.1865 0 0 0
3658 1 3.597 23.3805 16.1865 0 0 0
3107 1 5.3955 7.194 23.3805 0 0 0
1557 1 21.582 10.791 32.373 0 0 0
1605 1 21.582 17.985 3.597 0 0 0
3981 1 0.0 32.373 0.0 0 0 0
3268 1 5.3955 23.3805 21.582 0 0 0
40 1 34.1715 5.3955 32.373 0 0 0
3759 1 1.7985 28.776 34.1715 0 0 0
3577 1 3.597 14.388 14.388 0 0 0
1713 1 21.582 25.179 28.776 0 0 0
2114 1 17.985 26.9775 30.5745 0 0 0
1094 1 25.179 8.9925 12.5895 0 0 0
1031 1 23.3805 0.0 26.9775 0 0 0
2841 1 10.791 21.582 0.0 0 0 0
3729 1 3.597 28.776 7.194 0 0 0
2472 1 12.5895 23.3805 25.179 0 0 0
1782 1 21.582 34.1715 19.7835 0 0 0
3440 1 1.7985 1.7985 32.373 0 0 0
2716 1 8.9925 8.9925 28.776 0 0 0
2222 1 14.388 1.7985 19.7835 0 0 0
3760 1 1.7985 30.5745 32.373 0 0 0
3534 1 3.597 12.5895 12.5895 0 0 0
3359 1 5.3955 28.776 34.1715 0 0 0
3062 1 7.194 5.3955 19.7835 0 0 0
2961 1 10.791 32.373 0.0 0 0 0
3733 1 3.597 28.776 10.791 0 0 0
755 1 26.9775 10.791 30.5745 0 0 0
896 1 26.9775 26.9775 10.791 0 0 0
3521 1 3.597 10.791 0.0 0 0 0
1065 1 25.179 3.597 21.582 0 0 0
994 1 28.776 34.1715 30.5745 0 0 0
2540 1 12.5895 30.5745 14.388 0 0 0
2639 1 8.9925 0.0 34.1715 0 0 0
247 1 30.5745 3.597 5.3955 0 0 0
1082 1 25.179 8.9925 1.7985 0 0 0
3470 1 3.597 5.3955 26.9775 0 0 0
2877 1 10.791 21.582 32.373 0 0 0
2166 1 17.985 34.1715 5.3955 0 0 0
901 1 28.776 25.179 17.985 0 0 0
2316 1 12.5895 8.9925 28.776 0 0 0
2849 1 10.791 21.582 7.194 0 0 0
650 1 28.776 5.3955 8.9925 0 0 0
1862 1 17.985 5.3955 19.7835 0 0 0
701 1 28.776 7.194 17.985 0 0 0
2846 2 10.791 23.3805 5.3955 0 0 0
587 2 30.5745 32.373 23.3805 0 0 0
3814 2 0.0 1.7985 23.3805 0 0 0
3270 2 7.194 23.3805 26.9775 0 0 0
3693 2 3.597 25.179 10.791 0 0 0
777 2 28.776 14.388 14.388 0 0 0
3114 2 7.194 8.9925 30.5745 0 0 0
2561 2 14.388 32.373 0.0 0 0 0
1346 2 25.179 30.5745 23.3805 0 0 0
267 2 30.5745 3.597 23.3805 0 0 0
1290 2 25.179 26.9775 8.9925 0 0 0
993 2 28.776 32.373 28.776 0 0 0
1004 2 23.3805 1.7985 0.0 0 0 0
2255 2 12.5895 3.597 12.5895 0 0 0
766 2 28.776 16.1865 5.3955 0 0 0
140 2 34.1715 23.3805 32.373 0 0 0
870 2 28.776 23.3805 26.9775 0 0 0
2288 2 12.5895 8.9925 3.597 0 0 0
2455 2 12.5895 21.582 12.5895 0 0 0
1811 2 16.1865 0.0 8.9925 0 0 0
1547 2 19.7835 10.791 23.3805 0 0 0
1867 2 16.1865 3.597 23.3805 0 0 0
3023 2 5.3955 0.0 19.7835 0 0 0
2931 2 8.9925 28.776 8.9925 0 0 0
2522 2 14.388 30.5745 1.7985 0 0 0
2726 2 10.791 12.5895 5.3955 0 0 0
2231 2 12.5895 0.0 26.9775 0 0 0
3395 2 5.3955 32.373 30.5745 0 0 0
2860 2 8.9925 23.3805 14.388 0 0 0
997 2 28.776 32.373 32.373 0 0 0
2344 2 12.5895 12.5895 17.985 0 0 0
628 2 26.9775 1.7985 21.582 0 0 0
3736 2 1.7985 30.5745 10.791 0 0 0
1817 2 17.985 0.0 14.388 0 0 0
3784 2 1.7985 34.1715 17.985 0 0 0
3147 2 5.3955 10.791 23.3805 0 0 0
2668 2 8.9925 5.3955 21.582 0 0 0
1276 2 23.3805 23.3805 28.776 0 0 0
1374 2 25.179 34.1715 12.5895 0 0 0
3483 2 1.7985 7.194 1.7985 0 0 0
1499 2 19.7835 7.194 16.1865 0 0 0
3100 2 5.3955 8.9925 14.388 0 0 0
221 2 32.373 0.0 17.985 0 0 0
1732 2 19.7835 30.5745 7.194 0 0 0
604 2 26.9775 1.7985 0.0 0 0 0
2326 2 14.388 12.5895 5.3955 0 0 0
1172 2 23.3805 16.1865 7.194 0 0 0
1507 2 19.7835 7.194 23.3805 0 0 0
787 2 26.9775 14.388 23.3805 0 0 0
226 2 32.373 1.7985 23.3805 0 0 0
3911 2 0.0 17.985 17.985 0 0 0
2700 2 8.9925 8.9925 14.388 0 0 0
1335 2 23.3805 28.776 12.5895 0 0 0
3137 2 7.194 10.791 14.388 0 0 0
270 2 32.373 5.3955 26.9775 0 0 0
3403 2 1.7985 0.0 1.7985 0 0 0
630 2 28.776 1.7985 26.9775 0 0 0
3648 2 1.7985 23.3805 3.597 0 0 0
2619 2 8.9925 0.0 16.1865 0 0 0
2785 2 10.791 14.388 21.582 0 0 0
3951 2 0.0 25.179 17.985 0 0 0
3721 2 3.597 28.776 0.0 0 0 0
2420 2 12.5895 19.7835 14.388 0 0 0
2574 2 14.388 34.1715 12.5895 0 0 0
177 2 34.1715 28.776 30.5745 0 0 0
28 2 34.1715 5.3955 10.791 0 0 0
3978 2 0.0 30.5745 30.5745 0 0 0
3379 2 5.3955 32.373 16.1865 0 0 0
1531 2 19.7835 10.791 8.9925 0 0 0
1344 2 23.3805 30.5745 17.985 0 0 0
1321 2 25.179 28.776 0.0 0 0 0
2629 2 10.791 0.0 25.179 0 0 0
1061 2 25.179 3.597 17.985 0 0 0
1110 2 25.179 8.9925 26.9775 0 0 0
2010 2 17.985 19.7835 8.9925 0 0 0
1930 2 17.985 12.5895 8.9925 0 0 0
2254 2 14.388 5.3955 12.5895 0 0 0
2238 2 14.388 1.7985 34.1715 0 0 0
1479 2 19.7835 3.597 34.1715 0 0 0
1891 2 16.1865 7.194 8.9925 0 0 0
447 2 30.5745 21.582 5.3955 0 0 0
207 2 30.5745 0.0 5.3955 0 0 0
233 2 32.373 0.0 28.776 0 0 0
1721 2 21.582 28.776 0.0 0 0 0
578 2 32.373 34.1715 16.1865 0 0 0
367 2 30.5745 14.388 5.3955 0 0 0
2206 2 14.388 1.7985 5.3955 0 0 0
1785 2 21.582 32.373 21.582 0 0 0
1187 2 23.3805 14.388 23.3805 0 0 0
1906 2 17.985 8.9925 23.3805 0 0 0
3874 2 0.0 12.5895 23.3805 0 0 0
2681 2 10.791 7.194 0.0 0 0 0
2051 2 16.1865 21.582 8.9925 0 0 0
3990 2 0.0 34.1715 16.1865 0 0 0
133 2 34.1715 21.582 23.3805 0 0 0
3361 2 7.194 32.373 0.0 0 0 0
2260 2 12.5895 5.3955 14.388 0 0 0
19 2 34.1715 0.0 34.1715 0 0 0
960 2 26.9775 30.5745 32.373 0 0 0
2373 2 14.388 14.388 10.791 0 0 0
2923 2 8.9925 28.776 1.7985 0 0 0
2445 2 14.388 21.582 3.597 0 0 0
313 2 32.373 7.194 28.776 0 0 0
3357 2 7.194 28.776 32.373 0 0 0
2170 2 17.985 34.1715 8.9925 0 0 0
1472 2 19.7835 5.3955 25.179 0 0 0
1147 2 23.3805 10.791 23.3805 0 0 0
3840 2 0.0 5.3955 34.1715 0 0 0
2174 2 17.985 34.1715 12.5895 0 0 0
1644 2 19.7835 23.3805 0.0 0 0 0
1117 2 25.179 7.194 32.373 0 0 0
1584 2 19.7835 16.1865 17.985 0 0 0
757 2 28.776 10.791 32.373 0 0 0
3525 2 3.597 10.791 3.597 0 0 0
3351 2 5.3955 28.776 26.9775 0 0 0
1423 2 19.7835 0.0 19.7835 0 0 0
3493 2 3.597 7.194 10.791 0 0 0
2542 2 14.388 30.5745 19.7835 0 0 0
903 2 26.9775 25.179 19.7835 0 0 0
1650 2 21.582 23.3805 8.9925 0 0 0
3937 2 0.0 21.582 28.776 0 0 0
1923 2 16.1865 10.791 1.7985 0 0 0
3305 2 7.194 25.179 21.582 0 0 0
1092 2 23.3805 8.9925 7.194 0 0 0
2761 2 10.791 14.388 0.0 0 0 0
598 2 32.373 34.1715 34.1715 0 0 0
1553 2 21.582 10.791 28.776 0 0 0
3414 2 3.597 1.7985 12.5895 0 0 0
449 2 32.373 21.582 7.194 0 0 0
1456 2 19.7835 5.3955 10.791 0 0 0
1554 2 21.582 12.5895 30.5745 0 0 0
1696 2 19.7835 26.9775 10.791 0 0 0
2975 2 8.9925 32.373 12.5895 0 0 0
3187 2 5.3955 14.388 23.3805 0 0 0
3401 2 3.597 0.0 0.0 0 0 0
1245 2 25.179 21.582 3.597 0 0 0
2585 2 14.388 32.373 21.582 0 0 0
1579 2 19.7835 14.388 16.1865 0 0 0
1888 2 16.1865 8.9925 3.597 0 0 0
1386 2 25.179 34.1715 23.3805 0 0 0
3089 2 7.194 7.194 7.194 0 0 0
476 2 30.5745 23.3805 28.776 0 0 0
3613 2 3.597 17.985 10.791 0 0 0
2851 2 8.9925 21.582 8.9925 0 0 0
1392 2 23.3805 34.1715 25.179 0 0 0
3925 2 0.0 21.582 7.194 0 0 0
2282 2 14.388 8.9925 1.7985 0 0 0
1041 2 25.179 3.597 0.0 0 0 0
1778 2 21.582 34.1715 16.1865 0 0 0
3249 2 7.194 21.582 7.194 0 0 0
2593 2 14.388 32.373 28.776 0 0 0
2314 2 14.388 8.9925 30.5745 0 0 0
2746 2 10.791 12.5895 23.3805 0 0 0
1903 2 16.1865 7.194 19.7835 0 0 0
3055 2 5.3955 3.597 12.5895 0 0 0
2697 2 10.791 7.194 14.388 0 0 0
160 2 34.1715 26.9775 32.373 0 0 0
674 2 28.776 5.3955 30.5745 0 0 0
35 2 34.1715 3.597 26.9775 0 0 0
3345 2 7.194 28.776 21.582 0 0 0
2446 2 14.388 23.3805 5.3955 0 0 0
919 2 26.9775 25.179 34.1715 0 0 0
3598 2 3.597 16.1865 34.1715 0 0 0
1254 2 25.179 23.3805 12.5895 0 0 0
2735 2 8.9925 10.791 12.5895 0 0 0
3976 2 0.0 30.5745 26.9775 0 0 0
424 2 30.5745 19.7835 17.985 0 0 0
2315 2 12.5895 7.194 30.5745 0 0 0
3723 2 1.7985 28.776 1.7985 0 0 0
470 2 32.373 23.3805 26.9775 0 0 0
1960 2 16.1865 12.5895 32.373 0 0 0
1018 2 25.179 1.7985 16.1865 0 0 0
715 2 26.9775 7.194 30.5745 0 0 0
1401 2 21.582 0.0 0.0 0 0 0
3141 2 7.194 10.791 17.985 0 0 0
2217 2 14.388 0.0 14.388 0 0 0
2938 2 10.791 30.5745 16.1865 0 0 0
432 2 30.5745 19.7835 25.179 0 0 0
1515 2 19.7835 7.194 30.5745 0 0 0
1389 2 25.179 32.373 25.179 0 0 0
405 2 32.373 17.985 3.597 0 0 0
1477 2 21.582 3.597 32.373 0 0 0
3202 2 7.194 19.7835 1.7985 0 0 0
1791 2 19.7835 32.373 26.9775 0 0 0
2580 2 12.5895 34.1715 14.388 0 0 0
1922 2 17.985 12.5895 1.7985 0 0 0
2043 2 16.1865 21.582 1.7985 0 0 0
2098 2 17.985 26.9775 16.1865 0 0 0
550 2 32.373 30.5745 26.9775 0 0 0
1999 2 16.1865 14.388 34.1715 0 0 0
1102 2 25.179 8.9925 19.7835 0 0 0
3527 2 1.7985 10.791 5.3955 0 0 0
1434 2 21.582 1.7985 30.5745 0 0 0
3792 2 1.7985 34.1715 25.179 0 0 0
3448 2 1.7985 5.3955 3.597 0 0 0
1583 2 19.7835 14.388 19.7835 0 0 0
2207 2 12.5895 0.0 5.3955 0 0 0
666 2 28.776 5.3955 23.3805 0 0 0
1385 2 25.179 32.373 21.582 0 0 0
1695 2 19.7835 25.179 12.5895 0 0 0
3737 2 3.597 28.776 14.388 0 0 0
3640 2 1.7985 19.7835 32.373 0 0 0
118 2 34.1715 19.7835 28.776 0 0 0
80 2 34.1715 12.5895 32.373 0 0 0
1131 2 23.3805 10.791 8.9925 0 0 0
50 2 34.1715 8.9925 14.388 0 0 0
3824 2 0.0 5.3955 5.3955 0 0 0
649 2 28.776 3.597 7.194 0 0 0
3946 2 0.0 26.9775 8.9925 0 0 0
1451 2 19.7835 3.597 8.9925 0 0 0
3080 2 5.3955 5.3955 32.373 0 0 0
1633 2 21.582 17.985 28.776 0 0 0
2065 2 17.985 21.582 21.582 0 0 0
1709 2 21.582 25.179 25.179 0 0 0
55 2 34.1715 7.194 26.9775 0 0 0
2801 2 10.791 17.985 0.0 0 0 0
2468 2 12.5895 23.3805 21.582 0 0 0
1700 2 19.7835 26.9775 14.388 0 0 0
1797 2 21.582 32.373 32.373 0 0 0
488 2 30.5745 26.9775 3.597 0 0 0
3834 2 0.0 5.3955 23.3805 0 0 0
2587 2 12.5895 32.373 23.3805 0 0 0
3104 2 5.3955 8.9925 17.985 0 0 0
1274 2 25.179 23.3805 30.5745 0 0 0
1503 2 19.7835 7.194 19.7835 0 0 0
2334 2 14.388 12.5895 12.5895 0 0 0
1864 2 16.1865 5.3955 17.985 0 0 0
696 2 26.9775 8.9925 10.791 0 0 0
3091 2 5.3955 7.194 8.9925 0 0 0
827 2 26.9775 17.985 23.3805 0 0 0
125 2 34.1715 21.582 8.9925 0 0 0
1689 2 21.582 25.179 7.194 0 0 0
517 2 32.373 25.179 32.373 0 0 0
1008 2 23.3805 1.7985 3.597 0 0 0
2916 2 8.9925 26.9775 28.776 0 0 0
2066 2 17.985 23.3805 23.3805 0 0 0
3857 2 0.0 7.194 28.776 0 0 0
1983 2 16.1865 14.388 19.7835 0 0 0
2951 2 8.9925 28.776 26.9775 0 0 0
2802 2 10.791 19.7835 1.7985 0 0 0
3688 2 1.7985 26.9775 3.597 0 0 0
1408 2 19.7835 1.7985 3.597 0 0 0
2040 2 16.1865 19.7835 32.373 0 0 0
1375 2 23.3805 32.373 12.5895 0 0 0
2738 2 10.791 12.5895 16.1865 0 0 0
1419 2 19.7835 0.0 16.1865 0 0 0
2321 2 14.388 10.791 0.0 0 0 0
1510 2 21.582 8.9925 26.9775 0 0 0
2847 2 8.9925 21.582 5.3955 0 0 0
1991 2 16.1865 14.388 26.9775 0 0 0
2394 2 14.388 16.1865 30.5745 0 0 0
237 2 32.373 0.0 32.373 0 0 0
51 2 34.1715 7.194 19.7835 0 0 0
720 2 26.9775 8.9925 32.373 0 0 0
3495 2 1.7985 7.194 12.5895 0 0 0
1875 2 16.1865 3.597 30.5745 0 0 0
3649 2 3.597 21.582 7.194 0 0 0
2352 2 12.5895 12.5895 25.179 0 0 0
3257 2 7.194 21.582 14.388 0 0 0
608 2 26.9775 1.7985 3.597 0 0 0
369 2 32.373 14.388 7.194 0 0 0
3514 2 3.597 8.9925 30.5745 0 0 0
3653 2 3.597 21.582 10.791 0 0 0
1751 2 19.7835 28.776 26.9775 0 0 0
276 2 30.5745 5.3955 28.776 0 0 0
2073 2 17.985 21.582 28.776 0 0 0
2960 2 8.9925 30.5745 32.373 0 0 0
1424 2 19.7835 1.7985 17.985 0 0 0
149 2 34.1715 25.179 16.1865 0 0 0
2894 2 10.791 26.9775 12.5895 0 0 0
3576 2 1.7985 16.1865 10.791 0 0 0
1349 2 25.179 28.776 25.179 0 0 0
3894 2 0.0 16.1865 23.3805 0 0 0
304 2 30.5745 8.9925 17.985 0 0 0
2480 2 12.5895 23.3805 32.373 0 0 0
2672 2 8.9925 5.3955 25.179 0 0 0
2892 2 8.9925 26.9775 7.194 0 0 0
1806 2 17.985 1.7985 5.3955 0 0 0
3212 2 5.3955 19.7835 7.194 0 0 0
474 2 32.373 23.3805 30.5745 0 0 0
958 2 28.776 30.5745 34.1715 0 0 0
2002 2 17.985 19.7835 1.7985 0 0 0
197 2 34.1715 32.373 30.5745 0 0 0
2306 2 14.388 8.9925 23.3805 0 0 0
2857 2 10.791 21.582 14.388 0 0 0
1680 2 19.7835 23.3805 32.373 0 0 0
1591 2 19.7835 14.388 26.9775 0 0 0
2100 2 16.1865 26.9775 14.388 0 0 0
3898 2 0.0 16.1865 30.5745 0 0 0
173 2 34.1715 28.776 23.3805 0 0 0
2320 2 12.5895 8.9925 32.373 0 0 0
835 2 26.9775 17.985 30.5745 0 0 0
1070 2 25.179 5.3955 26.9775 0 0 0
2817 2 10.791 17.985 14.388 0 0 0
606 2 28.776 1.7985 5.3955 0 0 0
3952 2 0.0 26.9775 19.7835 0 0 0
828 2 26.9775 19.7835 21.582 0 0 0
745 2 28.776 10.791 21.582 0 0 0
1739 2 19.7835 28.776 16.1865 0 0 0
1843 2 16.1865 3.597 1.7985 0 0 0
2122 2 17.985 30.5745 1.7985 0 0 0
3908 2 0.0 19.7835 12.5895 0 0 0
2870 2 10.791 23.3805 26.9775 0 0 0
983 2 26.9775 32.373 19.7835 0 0 0
3068 2 5.3955 5.3955 21.582 0 0 0
1353 2 25.179 28.776 28.776 0 0 0
959 2 26.9775 28.776 34.1715 0 0 0
2769 2 10.791 14.388 7.194 0 0 0
1166 2 25.179 16.1865 5.3955 0 0 0
3164 2 5.3955 16.1865 0.0 0 0 0
711 2 26.9775 7.194 26.9775 0 0 0
3561 2 3.597 14.388 0.0 0 0 0
1781 2 21.582 32.373 17.985 0 0 0
402 2 32.373 19.7835 1.7985 0 0 0
1116 2 23.3805 8.9925 28.776 0 0 0
3291 2 5.3955 25.179 8.9925 0 0 0
1208 2 23.3805 19.7835 3.597 0 0 0
3969 2 0.0 28.776 14.388 0 0 0
3888 2 0.0 16.1865 12.5895 0 0 0
1835 2 16.1865 0.0 30.5745 0 0 0
2973 2 10.791 32.373 10.791 0 0 0
2927 2 8.9925 28.776 5.3955 0 0 0
3158 2 7.194 12.5895 34.1715 0 0 0
1971 2 16.1865 14.388 8.9925 0 0 0
1516 2 19.7835 8.9925 28.776 0 0 0
2984 2 8.9925 34.1715 17.985 0 0 0
3176 2 5.3955 16.1865 10.791 0 0 0
986 2 28.776 34.1715 23.3805 0 0 0
3138 2 7.194 12.5895 16.1865 0 0 0
3175 2 5.3955 14.388 12.5895 0 0 0
576 2 30.5745 34.1715 10.791 0 0 0
3614 2 3.597 19.7835 12.5895 0 0 0
2208 2 12.5895 1.7985 3.597 0 0 0
3573 2 3.597 14.388 10.791 0 0 0
530 2 32.373 30.5745 8.9925 0 0 0
1967 2 16.1865 14.388 5.3955 0 0 0
3923 2 0.0 21.582 3.597 0 0 0
3275 2 5.3955 21.582 30.5745 0 0 0
3289 2 7.194 25.179 7.194 0 0 0
317 2 32.373 7.194 32.373 0 0 0
819 2 26.9775 17.985 16.1865 0 0 0
1056 2 23.3805 5.3955 10.791 0 0 0
3094 2 7.194 8.9925 12.5895 0 0 0
1177 2 25.179 14.388 14.388 0 0 0
3279 2 5.3955 21.582 34.1715 0 0 0
1260 2 23.3805 23.3805 14.388 0 0 0
2679 2 8.9925 3.597 34.1715 0 0 0
539 2 30.5745 28.776 16.1865 0 0 0
673 2 28.776 3.597 28.776 0 0 0
3697 2 3.597 25.179 14.388 0 0 0
2881 2 10.791 25.179 0.0 0 0 0
3681 2 3.597 25.179 0.0 0 0 0
225 2 32.373 0.0 21.582 0 0 0
3559 2 1.7985 10.791 34.1715 0 0 0
3556 2 1.7985 12.5895 28.776 0 0 0
2448 2 12.5895 23.3805 3.597 0 0 0
3369 2 7.194 32.373 7.194 0 0 0
3673 2 3.597 21.582 28.776 0 0 0
2521 2 14.388 28.776 0.0 0 0 0
3241 2 7.194 21.582 0.0 0 0 0
1278 2 25.179 23.3805 34.1715 0 0 0
1271 2 23.3805 21.582 26.9775 0 0 0
3081 2 7.194 7.194 0.0 0 0 0
3627 2 1.7985 17.985 23.3805 0 0 0
2780 2 8.9925 16.1865 14.388 0 0 0
689 2 28.776 7.194 7.194 0 0 0
644 2 26.9775 5.3955 0.0 0 0 0
1530 2 21.582 12.5895 8.9925 0 0 0
22 2 34.1715 5.3955 0.0 0 0 0
2837 2 10.791 17.985 32.373 0 0 0
1155 2 23.3805 10.791 30.5745 0 0 0
1798 2 21.582 34.1715 34.1715 0 0 0
1005 2 25.179 0.0 3.597 0 0 0
1394 2 25.179 34.1715 30.5745 0 0 0
1528 2 19.7835 12.5895 3.597 0 0 0
3562 2 3.597 16.1865 1.7985 0 0 0
1111 2 23.3805 7.194 26.9775 0 0 0
3492 2 1.7985 8.9925 7.194 0 0 0
67 2 34.1715 10.791 12.5895 0 0 0
2016 2 16.1865 19.7835 10.791 0 0 0
592 2 30.5745 34.1715 25.179 0 0 0
3178 2 7.194 16.1865 16.1865 0 0 0
3871 2 0.0 10.791 17.985 0 0 0
490 2 32.373 26.9775 8.9925 0 0 0
836 3 26.9775 19.7835 28.776 0 0 0
1704 3 19.7835 26.9775 17.985 0 0 0
296 3 30.5745 8.9925 10.791 0 0 0
2017 3 17.985 17.985 14.388 0 0 0
1088 3 23.3805 8.9925 3.597 0 0 0
1433 3 21.582 0.0 28.776 0 0 0
925 3 28.776 28.776 3.597 0 0 0
169 3 34.1715 28.776 16.1865 0 0 0
1124 3 23.3805 12.5895 0.0 0 0 0
2064 3 16.1865 23.3805 17.985 0 0 0
3088 3 5.3955 8.9925 3.597 0 0 0
1814 3 17.985 1.7985 12.5895 0 0 0
2974 3 10.791 34.1715 12.5895 0 0 0
3512 3 1.7985 8.9925 25.179 0 0 0
2441 3 14.388 21.582 0.0 0 0 0
929 3 28.776 28.776 7.194 0 0 0
3341 3 7.194 28.776 17.985 0 0 0
2467 3 12.5895 21.582 23.3805 0 0 0
1263 3 23.3805 21.582 19.7835 0 0 0
1060 3 23.3805 5.3955 14.388 0 0 0
1075 3 23.3805 3.597 30.5745 0 0 0
44 3 34.1715 8.9925 3.597 0 0 0
700 3 26.9775 8.9925 14.388 0 0 0
636 3 26.9775 1.7985 28.776 0 0 0
641 3 28.776 3.597 0.0 0 0 0
971 3 26.9775 32.373 8.9925 0 0 0
1376 3 23.3805 34.1715 10.791 0 0 0
282 3 32.373 8.9925 1.7985 0 0 0
667 3 26.9775 3.597 23.3805 0 0 0
1585 3 21.582 14.388 21.582 0 0 0
864 3 26.9775 23.3805 17.985 0 0 0
1429 3 21.582 0.0 25.179 0 0 0
2159 3 16.1865 28.776 34.1715 0 0 0
796 3 26.9775 16.1865 28.776 0 0 0
2418 3 14.388 19.7835 16.1865 0 0 0
1792 3 19.7835 34.1715 25.179 0 0 0
2616 3 8.9925 1.7985 10.791 0 0 0
2102 3 17.985 26.9775 19.7835 0 0 0
3511 3 1.7985 7.194 26.9775 0 0 0
2979 3 8.9925 32.373 16.1865 0 0 0
2183 3 16.1865 32.373 19.7835 0 0 0
1148 3 23.3805 12.5895 21.582 0 0 0
187 3 34.1715 32.373 12.5895 0 0 0
1740 3 19.7835 30.5745 14.388 0 0 0
2447 3 12.5895 21.582 5.3955 0 0 0
2340 3 12.5895 12.5895 14.388 0 0 0
1597 3 21.582 14.388 32.373 0 0 0
1656 3 19.7835 23.3805 10.791 0 0 0
3600 3 1.7985 16.1865 32.373 0 0 0
3851 3 0.0 7.194 17.985 0 0 0
976 3 26.9775 34.1715 10.791 0 0 0
1566 3 21.582 16.1865 5.3955 0 0 0
2056 3 16.1865 23.3805 10.791 0 0 0
143 3 34.1715 25.179 5.3955 0 0 0
2201 3 14.388 0.0 0.0 0 0 0
3591 3 1.7985 14.388 26.9775 0 0 0
2833 3 10.791 17.985 28.776 0 0 0
902 3 28.776 26.9775 19.7835 0 0 0
2879 3 8.9925 21.582 34.1715 0 0 0
159 3 34.1715 25.179 34.1715 0 0 0
3218 3 7.194 19.7835 16.1865 0 0 0
2012 3 16.1865 19.7835 7.194 0 0 0
1856 3 16.1865 5.3955 10.791 0 0 0
2956 3 8.9925 30.5745 28.776 0 0 0
3005 3 7.194 0.0 3.597 0 0 0
2129 3 17.985 28.776 7.194 0 0 0
2869 3 10.791 21.582 25.179 0 0 0
621 3 28.776 0.0 17.985 0 0 0
1810 3 17.985 1.7985 8.9925 0 0 0
1196 3 23.3805 16.1865 28.776 0 0 0
2601 3 10.791 0.0 0.0 0 0 0
223 3 30.5745 0.0 19.7835 0 0 0
843 3 26.9775 21.582 1.7985 0 0 0
693 3 28.776 7.194 10.791 0 0 0
1749 3 21.582 28.776 25.179 0 0 0
2265 3 14.388 3.597 21.582 0 0 0
1830 3 17.985 1.7985 26.9775 0 0 0
772 3 26.9775 16.1865 7.194 0 0 0
1219 3 23.3805 17.985 16.1865 0 0 0
2758 3 10.791 12.5895 34.1715 0 0 0
778 3 28.776 16.1865 16.1865 0 0 0
2378 3 14.388 16.1865 16.1865 0 0 0
2112 3 16.1865 26.9775 25.179 0 0 0
2935 3 8.9925 28.776 12.5895 0 0 0
3595 3 1.7985 14.388 30.5745 0 0 0
3903 3 0.0 17.985 3.597 0 0 0
3106 3 7.194 8.9925 23.3805 0 0 0
3071 3 5.3955 3.597 26.9775 0 0 0
1699 3 19.7835 25.179 16.1865 0 0 0
3817 3 0.0 0.0 28.776 0 0 0
3183 3 5.3955 14.388 19.7835 0 0 0
2189 3 17.985 32.373 25.179 0 0 0
1027 3 23.3805 0.0 23.3805 0 0 0
677 3 28.776 3.597 32.373 0 0 0
1301 3 25.179 25.179 17.985 0 0 0
651 3 26.9775 3.597 8.9925 0 0 0
2363 3 12.5895 14.388 1.7985 0 0 0
3530 3 3.597 12.5895 8.9925 0 0 0
3630 3 3.597 19.7835 26.9775 0 0 0
1390 3 25.179 34.1715 26.9775 0 0 0
2346 3 14.388 12.5895 23.3805 0 0 0
2310 3 14.388 8.9925 26.9775 0 0 0
3012 3 5.3955 1.7985 7.194 0 0 0
626 3 28.776 1.7985 23.3805 0 0 0
3171 3 5.3955 14.388 8.9925 0 0 0
559 3 30.5745 28.776 34.1715 0 0 0
3816 3 0.0 1.7985 26.9775 0 0 0
2031 3 16.1865 17.985 26.9775 0 0 0
1655 3 19.7835 21.582 12.5895 0 0 0
2808 3 8.9925 19.7835 3.597 0 0 0
3758 3 3.597 30.5745 34.1715 0 0 0
3672 3 1.7985 23.3805 25.179 0 0 0
231 3 30.5745 0.0 26.9775 0 0 0
2249 3 14.388 3.597 7.194 0 0 0
89 3 34.1715 14.388 16.1865 0 0 0
3086 3 7.194 8.9925 5.3955 0 0 0
1173 3 25.179 14.388 10.791 0 0 0
3803 3 0.0 0.0 3.597 0 0 0
1136 3 23.3805 12.5895 10.791 0 0 0
1287 3 23.3805 25.179 5.3955 0 0 0
2057 3 17.985 21.582 14.388 0 0 0
3830 3 0.0 5.3955 16.1865 0 0 0
2971 3 8.9925 32.373 8.9925 0 0 0
1255 3 23.3805 21.582 12.5895 0 0 0
112 3 34.1715 19.7835 17.985 0 0 0
398 3 32.373 16.1865 34.1715 0 0 0
741 3 28.776 10.791 17.985 0 0 0
12 3 34.1715 1.7985 17.985 0 0 0
3473 3 3.597 3.597 28.776 0 0 0
2403 3 12.5895 17.985 1.7985 0 0 0
1267 3 23.3805 21.582 23.3805 0 0 0
740 3 26.9775 12.5895 14.388 0 0 0
3090 3 7.194 8.9925 8.9925 0 0 0
4 3 34.1715 1.7985 3.597 0 0 0
795 3 26.9775 14.388 30.5745 0 0 0
1561 3 21.582 14.388 0.0 0 0 0
3444 3 1.7985 5.3955 0.0 0 0 0
53 3 34.1715 7.194 23.3805 0 0 0
433 3 32.373 17.985 28.776 0 0 0
1774 3 21.582 34.1715 12.5895 0 0 0
2175 3 16.1865 32.373 12.5895 0 0 0
3213 3 7.194 17.985 10.791 0 0 0
3216 3 5.3955 19.7835 10.791 0 0 0
2047 3 16.1865 21.582 5.3955 0 0 0
2220 3 12.5895 1.7985 14.388 0 0 0
3102 3 7.194 8.9925 19.7835 0 0 0
1413 3 21.582 0.0 10.791 0 0 0
1938 3 17.985 12.5895 16.1865 0 0 0
2530 3 14.388 30.5745 8.9925 0 0 0
111 3 34.1715 17.985 19.7835 0 0 0
1823 3 16.1865 0.0 19.7835 0 0 0
500 3 30.5745 26.9775 14.388 0 0 0
2261 3 14.388 3.597 17.985 0 0 0
2531 3 12.5895 28.776 8.9925 0 0 0
2729 3 10.791 10.791 7.194 0 0 0
2550 3 14.388 30.5745 26.9775 0 0 0
961 3 28.776 32.373 0.0 0 0 0
3519 3 1.7985 7.194 34.1715 0 0 0
412 3 30.5745 19.7835 7.194 0 0 0
2442 3 14.388 23.3805 1.7985 0 0 0
2188 3 16.1865 34.1715 21.582 0 0 0
263 3 30.5745 3.597 19.7835 0 0 0
1446 3 21.582 5.3955 5.3955 0 0 0
926 3 28.776 30.5745 5.3955 0 0 0
1839 3 16.1865 0.0 34.1715 0 0 0
1080 3 23.3805 5.3955 32.373 0 0 0
812 3 26.9775 19.7835 7.194 0 0 0
415 3 30.5745 17.985 12.5895 0 0 0
2723 3 8.9925 10.791 1.7985 0 0 0
978 3 28.776 34.1715 16.1865 0 0 0
2094 3 17.985 26.9775 12.5895 0 0 0
1049 3 25.179 3.597 7.194 0 0 0
2630 3 10.791 1.7985 26.9775 0 0 0
3550 3 3.597 12.5895 26.9775 0 0 0
2583 3 12.5895 32.373 19.7835 0 0 0
3209 3 7.194 17.985 7.194 0 0 0
2661 3 10.791 3.597 17.985 0 0 0
2819 3 8.9925 17.985 16.1865 0 0 0
3647 3 1.7985 21.582 5.3955 0 0 0
3850 3 0.0 8.9925 16.1865 0 0 0
1546 3 21.582 12.5895 23.3805 0 0 0
17 3 34.1715 0.0 30.5745 0 0 0
1742 3 21.582 30.5745 19.7835 0 0 0
2615 3 8.9925 0.0 12.5895 0 0 0
472 3 30.5745 23.3805 25.179 0 0 0
3421 3 3.597 0.0 17.985 0 0 0
122 3 34.1715 23.3805 0.0 0 0 0
1090 3 25.179 8.9925 8.9925 0 0 0
874 3 28.776 23.3805 30.5745 0 0 0
2292 3 12.5895 8.9925 7.194 0 0 0
3027 3 5.3955 0.0 23.3805 0 0 0
3256 3 5.3955 23.3805 10.791 0 0 0
3174 3 7.194 16.1865 12.5895 0 0 0
686 3 28.776 8.9925 5.3955 0 0 0
1062 3 25.179 5.3955 19.7835 0 0 0
1033 3 25.179 0.0 28.776 0 0 0
2074 3 17.985 23.3805 30.5745 0 0 0
1258 3 25.179 23.3805 16.1865 0 0 0
248 3 30.5745 5.3955 3.597 0 0 0
3754 3 3.597 30.5745 30.5745 0 0 0
2107 3 16.1865 25.179 23.3805 0 0 0
1158 3 25.179 12.5895 34.1715 0 0 0
1852 3 16.1865 5.3955 7.194 0 0 0
2387 3 12.5895 14.388 23.3805 0 0 0
705 3 28.776 7.194 21.582 0 0 0
283 3 30.5745 7.194 1.7985 0 0 0
1076 3 23.3805 5.3955 28.776 0 0 0
2495 3 12.5895 25.179 12.5895 0 0 0
2308 3 12.5895 8.9925 21.582 0 0 0
3989 3 0.0 32.373 14.388 0 0 0
2358 3 14.388 12.5895 34.1715 0 0 0
3848 3 0.0 8.9925 12.5895 0 0 0
3829 3 0.0 3.597 14.388 0 0 0
104 3 34.1715 19.7835 3.597 0 0 0
2745 3 10.791 10.791 21.582 0 0 0
2755 3 8.9925 10.791 30.5745 0 0 0
561 3 32.373 32.373 0.0 0 0 0
60 3 34.1715 8.9925 32.373 0 0 0
2655 3 8.9925 3.597 12.5895 0 0 0
3142 3 7.194 12.5895 19.7835 0 0 0
57 3 34.1715 7.194 30.5745 0 0 0
1577 3 21.582 14.388 14.388 0 0 0
1590 3 21.582 16.1865 26.9775 0 0 0
3486 3 3.597 8.9925 5.3955 0 0 0
1979 3 16.1865 14.388 16.1865 0 0 0
130 3 34.1715 23.3805 14.388 0 0 0
2125 3 17.985 28.776 3.597 0 0 0
2182 3 17.985 34.1715 19.7835 0 0 0
2241 3 14.388 3.597 0.0 0 0 0
1881 3 17.985 7.194 0.0 0 0 0
2272 3 12.5895 5.3955 25.179 0 0 0
1074 3 25.179 5.3955 30.5745 0 0 0
2496 3 12.5895 26.9775 10.791 0 0 0
106 3 34.1715 19.7835 7.194 0 0 0
150 3 34.1715 26.9775 14.388 0 0 0
3410 3 3.597 1.7985 8.9925 0 0 0
1336 3 23.3805 30.5745 10.791 0 0 0
389 3 32.373 14.388 25.179 0 0 0
308 3 30.5745 8.9925 21.582 0 0 0
950 3 28.776 30.5745 26.9775 0 0 0
219 3 30.5745 0.0 16.1865 0 0 0
3603 3 1.7985 17.985 1.7985 0 0 0
1542 3 21.582 12.5895 19.7835 0 0 0
3309 3 7.194 25.179 25.179 0 0 0
1047 3 23.3805 3.597 5.3955 0 0 0
2718 3 10.791 8.9925 34.1715 0 0 0
1233 3 25.179 17.985 28.776 0 0 0
849 3 28.776 21.582 7.194 0 0 0
1829 3 17.985 0.0 25.179 0 0 0
384 3 30.5745 16.1865 17.985 0 0 0
1873 3 17.985 3.597 28.776 0 0 0
1555 3 19.7835 10.791 30.5745 0 0 0
10 3 34.1715 1.7985 14.388 0 0 0
2374 3 14.388 16.1865 12.5895 0 0 0
3101 3 7.194 7.194 17.985 0 0 0
3193 3 7.194 14.388 28.776 0 0 0
1743 3 19.7835 28.776 19.7835 0 0 0
3523 3 1.7985 10.791 1.7985 0 0 0
2624 3 8.9925 1.7985 17.985 0 0 0
1226 3 25.179 19.7835 23.3805 0 0 0
1251 3 23.3805 21.582 8.9925 0 0 0
2348 3 12.5895 12.5895 21.582 0 0 0
505 3 32.373 25.179 21.582 0 0 0
2478 3 14.388 23.3805 34.1715 0 0 0
2127 3 16.1865 28.776 5.3955 0 0 0
2602 3 10.791 1.7985 1.7985 0 0 0
2116 3 16.1865 26.9775 28.776 0 0 0
3278 3 7.194 23.3805 34.1715 0 0 0
2070 3 17.985 23.3805 26.9775 0 0 0
3478 3 3.597 5.3955 34.1715 0 0 0
953 3 28.776 28.776 28.776 0 0 0
1816 3 16.1865 1.7985 10.791 0 0 0
1051 3 23.3805 3.597 8.9925 0 0 0
895 3 26.9775 25.179 12.5895 0 0 0
1338 3 25.179 30.5745 16.1865 0 0 0
878 3 28.776 23.3805 34.1715 0 0 0
2623 3 8.9925 0.0 19.7835 0 0 0
3994 3 0.0 34.1715 23.3805 0 0 0
3893 3 0.0 14.388 21.582 0 0 0
3002 3 7.194 1.7985 1.7985 0 0 0
2519 3 12.5895 25.179 34.1715 0 0 0
3335 3 5.3955 28.776 12.5895 0 0 0
1831 3 16.1865 0.0 26.9775 0 0 0
767 3 26.9775 14.388 5.3955 0 0 0
410 3 32.373 19.7835 8.9925 0 0 0
2426 3 14.388 19.7835 23.3805 0 0 0
1167 3 23.3805 14.388 5.3955 0 0 0
1819 3 16.1865 0.0 16.1865 0 0 0
1342 3 25.179 30.5745 19.7835 0 0 0
2918 3 10.791 26.9775 34.1715 0 0 0
2592 3 12.5895 34.1715 25.179 0 0 0
3054 3 7.194 5.3955 12.5895 0 0 0
2889 3 10.791 25.179 7.194 0 0 0
3051 3 5.3955 3.597 8.9925 0 0 0
1612 3 19.7835 19.7835 7.194 0 0 0
1063 3 23.3805 3.597 19.7835 0 0 0
1508 3 19.7835 8.9925 21.582 0 0 0
1899 3 16.1865 7.194 16.1865 0 0 0
115 3 34.1715 17.985 26.9775 0 0 0
2992 3 8.9925 34.1715 25.179 0 0 0
3841 3 0.0 7.194 0.0 0 0 0
1560 3 19.7835 12.5895 32.373 0 0 0
1610 3 21.582 19.7835 8.9925 0 0 0
1496 3 19.7835 8.9925 10.791 0 0 0
438 3 32.373 19.7835 34.1715 0 0 0
2351 3 12.5895 10.791 26.9775 0 0 0
804 3 26.9775 19.7835 0.0 0 0 0
1755 3 19.7835 28.776 30.5745 0 0 0
2816 3 8.9925 19.7835 10.791 0 0 0
1777 3 21.582 32.373 14.388 0 0 0
3655 3 1.7985 21.582 12.5895 0 0 0
2664 3 8.9925 5.3955 17.985 0 0 0
610 3 28.776 1.7985 8.9925 0 0 0
1883 3 16.1865 7.194 1.7985 0 0 0
2996 3 8.9925 34.1715 28.776 0 0 0
1034 3 25.179 1.7985 30.5745 0 0 0
406 3 32.373 19.7835 5.3955 0 0 0
2730 3 10.791 12.5895 8.9925 0 0 0
3120 3 5.3955 8.9925 32.373 0 0 0
692 3 26.9775 8.9925 7.194 0 0 0
3282 3 7.194 26.9775 1.7985 0 0 0
2665 3 10.791 3.597 21.582 0 0 0
1225 3 25.179 17.985 21.582 0 0 0
347 3 30.5745 10.791 23.3805 0 0 0
542 3 32.373 30.5745 19.7835 0 0 0
3635 3 1.7985 17.985 30.5745 0 0 0
1492 3 19.7835 8.9925 7.194 0 0 0
255 3 30.5745 3.597 12.5895 0 0 0
2595 3 12.5895 32.373 30.5745 0 0 0
1461 3 21.582 3.597 17.985 0 0 0
973 3 28.776 32.373 10.791 0 0 0
1626 3 21.582 19.7835 23.3805 0 0 0
1761 3 21.582 32.373 0.0 0 0 0
2041 3 17.985 21.582 0.0 0 0 0
2651 3 8.9925 3.597 8.9925 0 0 0
3253 3 7.194 21.582 10.791 0 0 0
2492 3 12.5895 26.9775 7.194 0 0 0
1160 3 23.3805 12.5895 32.373 0 0 0
2194 3 17.985 34.1715 30.5745 0 0 0
2560 3 12.5895 30.5745 32.373 0 0 0
463 3 30.5745 21.582 19.7835 0 0 0
2545 3 14.388 28.776 21.582 0 0 0
516 3 30.5745 26.9775 28.776 0 0 0
3389 3 7.194 32.373 25.179 0 0 0
1181 3 25.179 14.388 17.985 0 0 0
3906 3 0.0 19.7835 8.9925 0 0 0
3997 3 0.0 32.373 28.776 0 0 0
232 3 30.5745 1.7985 25.179 0 0 0
1142 3 25.179 12.5895 19.7835 0 0 0
1825 3 17.985 0.0 21.582 0 0 0
2855 3 8.9925 21.582 12.5895 0 0 0
153 3 34.1715 25.179 23.3805 0 0 0
2232 3 12.5895 1.7985 25.179 0 0 0
1985 3 17.985 14.388 21.582 0 0 0
3910 3 0.0 19.7835 16.1865 0 0 0
1625 3 21.582 17.985 21.582 0 0 0
1206 3 25.179 19.7835 5.3955 0 0 0
898 3 28.776 26.9775 16.1865 0 0 0
1490 3 21.582 8.9925 8.9925 0 0 0
1804 3 16.1865 1.7985 0.0 0 0 0
1201 3 25.179 17.985 0.0 0 0 0
2347 3 12.5895 10.791 23.3805 0 0 0
3152 3 5.3955 12.5895 25.179 0 0 0
1441 3 21.582 3.597 0.0 0 0 0
1109 3 25.179 7.194 25.179 0 0 0
3740 3 1.7985 30.5745 14.388 0 0 0
498 3 32.373 26.9775 16.1865 0 0 0
24 3 34.1715 5.3955 3.597 0 0 0
975 3 26.9775 32.373 12.5895 0 0 0
915 3 26.9775 25.179 30.5745 0 0 0
794 3 28.776 16.1865 30.5745 0 0 0
1495 3 19.7835 7.194 12.5895 0 0 0
2786 3 10.791 16.1865 23.3805 0 0 0
3507 3 1.7985 7.194 23.3805 0 0 0
3342 3 7.194 30.5745 19.7835 0 0 0
2586 3 14.388 34.1715 23.3805 0 0 0
3161 3 7.194 14.388 0.0 0 0 0
1980 3 16.1865 16.1865 14.388 0 0 0
3953 3 0.0 25.179 21.582 0 0 0
1391 3 23.3805 32.373 26.9775 0 0 0
3611 3 1.7985 17.985 8.9925 0 0 0
370 3 32.373 16.1865 8.9925 0 0 0
2911 3 8.9925 25.179 26.9775 0 0 0
555 3 30.5745 28.776 30.5745 0 0 0
489 3 32.373 25.179 7.194 0 0 0
176 3 34.1715 30.5745 25.179 0 0 0
2176 3 16.1865 34.1715 10.791 0 0 0
2014 3 17.985 19.7835 12.5895 0 0 0
912 3 26.9775 26.9775 25.179 0 0 0
3136 3 5.3955 12.5895 10.791 0 0 0
590 3 32.373 34.1715 26.9775 0 0 0
65 3 34.1715 10.791 8.9925 0 0 0
3399 3 5.3955 32.373 34.1715 0 0 0
1398 3 25.179 34.1715 34.1715 0 0 0
2158 3 17.985 30.5745 34.1715 0 0 0
3050 3 7.194 5.3955 8.9925 0 0 0
1476 3 19.7835 5.3955 28.776 0 0 0
2554 3 14.388 30.5745 30.5745 0 0 0
1571 3 19.7835 14.388 8.9925 0 0 0
346 3 32.373 12.5895 23.3805 0 0 0
3329 3 7.194 28.776 7.194 0 0 0
366 3 32.373 16.1865 5.3955 0 0 0
3416 3 1.7985 1.7985 10.791 0 0 0
2000 3 16.1865 16.1865 32.373 0 0 0
3287 3 5.3955 25.179 5.3955 0 0 0
571 3 30.5745 32.373 8.9925 0 0 0
886 3 28.776 26.9775 5.3955 0 0 0
2364 3 12.5895 16.1865 0.0 0 0 0
602 3 28.776 1.7985 1.7985 0 0 0
3133 3 7.194 10.791 10.791 0 0 0
3958 3 0.0 26.9775 30.5745 0 0 0
1190 3 25.179 16.1865 26.9775 0 0 0
201 3 32.373 0.0 0.0 0 0 0
876 3 26.9775 23.3805 28.776 0 0 0
3762 3 3.597 34.1715 1.7985 0 0 0
2579 3 12.5895 32.373 16.1865 0 0 0
848 3 26.9775 23.3805 3.597 0 0 0
2843 3 8.9925 21.582 1.7985 0 0 0
1283 3 23.3805 25.179 1.7985 0 0 0
3794 3 3.597 34.1715 30.5745 0 0 0
1662 3 21.582 23.3805 19.7835 0 0 0
2417 3 14.388 17.985 14.388 0 0 0
330 3 32.373 12.5895 8.9925 0 0 0
2461 3 14.388 21.582 17.985 0 0 0
554 3 32.373 30.5745 30.5745 0 0 0
709 3 28.776 7.194 25.179 0 0 0
605 3 28.776 0.0 3.597 0 0 0
2767 3 8.9925 14.388 5.3955 0 0 0
923 3 26.9775 28.776 1.7985 0 0 0
1698 3 21.582 26.9775 16.1865 0 0 0
984 3 26.9775 34.1715 17.985 0 0 0
2295 3 12.5895 7.194 12.5895 0 0 0
3387 3 5.3955 32.373 23.3805 0 0 0
2505 3 14.388 25.179 21.582 0 0 0
3179 3 5.3955 14.388 16.1865 0 0 0
2318 3 14.388 8.9925 34.1715 0 0 0
655 3 26.9775 3.597 12.5895 0 0 0
3581 3 3.597 14.388 17.985 0 0 0
3778 3 3.597 34.1715 16.1865 0 0 0
750 3 28.776 12.5895 26.9775 0 0 0
676 3 26.9775 5.3955 28.776 0 0 0
1837 3 17.985 0.0 32.373 0 0 0
1511 3 19.7835 7.194 26.9775 0 0 0
3296 3 5.3955 26.9775 10.791 0 0 0
154 3 34.1715 26.9775 21.582 0 0 0
3123 3 5.3955 10.791 1.7985 0 0 0
1204 3 23.3805 19.7835 0.0 0 0 0
2151 3 16.1865 28.776 26.9775 0 0 0
3437 3 3.597 0.0 32.373 0 0 0
722 3 28.776 12.5895 1.7985 0 0 0
452 3 30.5745 23.3805 7.194 0 0 0
1997 3 17.985 14.388 32.373 0 0 0
1631 3 19.7835 17.985 26.9775 0 0 0
1607 3 19.7835 17.985 5.3955 0 0 0
314 3 32.373 8.9925 30.5745 0 0 0
1763 3 19.7835 32.373 1.7985 0 0 0
2573 3 14.388 32.373 10.791 0 0 0
731 3 26.9775 10.791 8.9925 0 0 0
3804 3 0.0 1.7985 5.3955 0 0 0
954 3 28.776 30.5745 30.5745 0 0 0
3317 3 7.194 25.179 32.373 0 0 0
264 3 30.5745 5.3955 17.985 0 0 0
782 3 28.776 16.1865 19.7835 0 0 0
1673 3 21.582 21.582 28.776 0 0 0
1480 3 19.7835 5.3955 32.373 0 0 0
922 3 28.776 30.5745 1.7985 0 0 0
703 3 26.9775 7.194 19.7835 0 0 0
1215 3 23.3805 17.985 12.5895 0 0 0
2648 3 8.9925 5.3955 3.597 0 0 0
2978 3 10.791 34.1715 16.1865 0 0 0
477 3 32.373 21.582 32.373 0 0 0
1552 3 19.7835 12.5895 25.179 0 0 0
2290 3 14.388 8.9925 8.9925 0 0 0
208 3 30.5745 1.7985 3.597 0 0 0
3168 3 5.3955 16.1865 3.597 0 0 0
753 3 28.776 10.791 28.776 0 0 0
1563 3 19.7835 14.388 1.7985 0 0 0
2728 3 8.9925 12.5895 3.597 0 0 0
2760 3 8.9925 12.5895 32.373 0 0 0
3726 3 3.597 30.5745 5.3955 0 0 0
392 3 30.5745 16.1865 25.179 0 0 0
3578 3 3.597 16.1865 16.1865 0 0 0
1084 3 23.3805 8.9925 0.0 0 0 0
2076 3 16.1865 23.3805 28.776 0 0 0
2354 3 14.388 12.5895 30.5745 0 0 0
386 3 32.373 16.1865 23.3805 0 0 0
364 3 30.5745 16.1865 0.0 0 0 0
2799 3 8.9925 14.388 34.1715 0 0 0
85 3 34.1715 14.388 8.9925 0 0 0
3928 3 0.0 23.3805 12.5895 0 0 0
998 3 28.776 34.1715 34.1715 0 0 0
1236 3 23.3805 19.7835 28.776 0 0 0
359 3 30.5745 10.791 34.1715 0 0 0
428 3 30.5745 19.7835 21.582 0 0 0
2980 3 8.9925 34.1715 14.388 0 0 0
642 3 28.776 5.3955 1.7985 0 0 0
3945 3 0.0 25.179 7.194 0 0 0
3615 3 1.7985 17.985 12.5895 0 0 0
1220 3 23.3805 19.7835 14.388 0 0 0
2160 3 16.1865 30.5745 32.373 0 0 0
3339 3 5.3955 28.776 16.1865 0 0 0
191 3 34.1715 32.373 19.7835 0 0 0
2123 3 16.1865 28.776 1.7985 0 0 0
2656 3 8.9925 5.3955 10.791 0 0 0
94 3 34.1715 16.1865 21.582 0 0 0
1127 3 23.3805 10.791 5.3955 0 0 0
1428 3 19.7835 1.7985 21.582 0 0 0
1275 3 23.3805 21.582 30.5745 0 0 0
4000 3 0.0 34.1715 34.1715 0 0 0
2459 3 12.5895 21.582 16.1865 0 0 0
1975 3 16.1865 14.388 12.5895 0 0 0
861 3 28.776 21.582 17.985 0 0 0
2424 3 12.5895 19.7835 17.985 0 0 0
1455 3 19.7835 3.597 12.5895 0 0 0
3374 3 7.194 34.1715 12.5895 0 0 0
1820 3 16.1865 1.7985 14.388 0 0 0
390 3 32.373 16.1865 26.9775 0 0 0
356 3 30.5745 12.5895 28.776 0 0 0
2086 3 17.985 26.9775 5.3955 0 0 0
2476 3 12.5895 23.3805 28.776 0 0 0
2582 3 14.388 34.1715 19.7835 0 0 0
399 3 30.5745 14.388 34.1715 0 0 0
1593 3 21.582 14.388 28.776 0 0 0
2032 3 16.1865 19.7835 25.179 0 0 0
1234 3 25.179 19.7835 30.5745 0 0 0
2329 3 14.388 10.791 7.194 0 0 0
2564 3 12.5895 34.1715 0.0 0 0 0
2430 3 14.388 19.7835 26.9775 0 0 0
2685 3 10.791 7.194 3.597 0 0 0
2597 3 14.388 32.373 32.373 0 0 0
2928 3 8.9925 30.5745 3.597 0 0 0
2111 3 16.1865 25.179 26.9775 0 0 0
2893 3 10.791 25.179 10.791 0 0 0
1599 3 19.7835 14.388 34.1715 0 0 0
1871 3 16.1865 3.597 26.9775 0 0 0
1753 3 21.582 28.776 28.776 0 0 0
2604 3 8.9925 1.7985 0.0 0 0 0
1067 3 23.3805 3.597 23.3805 0 0 0
3318 3 7.194 26.9775 34.1715 0 0 0
1497 3 21.582 7.194 14.388 0 0 0
916 3 26.9775 26.9775 28.776 0 0 0
884 3 26.9775 26.9775 0.0 0 0 0
3805 3 0.0 0.0 7.194 0 0 0
194 3 34.1715 34.1715 21.582 0 0 0
3400 3 5.3955 34.1715 32.373 0 0 0
529 3 32.373 28.776 7.194 0 0 0
3135 3 5.3955 10.791 12.5895 0 0 0
1506 3 21.582 8.9925 23.3805 0 0 0
3420 3 1.7985 1.7985 14.388 0 0 0
3694 3 3.597 26.9775 12.5895 0 0 0
760 3 26.9775 12.5895 32.373 0 0 0
59 3 34.1715 7.194 34.1715 0 0 0
3502 3 3.597 8.9925 19.7835 0 0 0
2693 3 10.791 7.194 10.791 0 0 0
934 3 28.776 30.5745 12.5895 0 0 0
3915 3 0.0 17.985 25.179 0 0 0
2095 3 16.1865 25.179 12.5895 0 0 0
1182 3 25.179 16.1865 19.7835 0 0 0
3867 3 0.0 10.791 10.791 0 0 0
2608 3 8.9925 1.7985 3.597 0 0 0
1589 3 21.582 14.388 25.179 0 0 0
3260 3 5.3955 23.3805 14.388 0 0 0
2566 3 14.388 34.1715 5.3955 0 0 0
691 3 26.9775 7.194 8.9925 0 0 0
43 3 34.1715 7.194 5.3955 0 0 0
3083 3 5.3955 7.194 1.7985 0 0 0
2991 3 8.9925 32.373 26.9775 0 0 0
1771 3 19.7835 32.373 8.9925 0 0 0
3443 3 1.7985 3.597 1.7985 0 0 0
1894 3 17.985 8.9925 12.5895 0 0 0
3583 3 1.7985 14.388 19.7835 0 0 0
1405 3 21.582 0.0 3.597 0 0 0
2270 3 14.388 5.3955 26.9775 0 0 0
3622 3 3.597 19.7835 19.7835 0 0 0
797 3 28.776 14.388 32.373 0 0 0
1313 3 25.179 25.179 28.776 0 0 0
2885 3 10.791 25.179 3.597 0 0 0
2236 3 12.5895 1.7985 28.776 0 0 0
2389 3 14.388 14.388 25.179 0 0 0
2184 3 16.1865 34.1715 17.985 0 0 0
2756 3 8.9925 12.5895 28.776 0 0 0
421 3 32.373 17.985 17.985 0 0 0
2401 3 14.388 17.985 0.0 0 0 0
1602 3 21.582 19.7835 1.7985 0 0 0
941 3 28.776 28.776 17.985 0 0 0
2625 3 10.791 0.0 21.582 0 0 0
3584 3 1.7985 16.1865 17.985 0 0 0
3920 3 0.0 19.7835 34.1715 0 0 0
2788 3 8.9925 16.1865 21.582 0 0 0
841 3 28.776 21.582 0.0 0 0 0
1195 3 23.3805 14.388 30.5745 0 0 0
1892 3 16.1865 8.9925 7.194 0 0 0
1239 3 23.3805 17.985 34.1715 0 0 0
640 3 26.9775 1.7985 32.373 0 0 0
629 3 28.776 0.0 25.179 0 0 0
373 3 32.373 14.388 10.791 0 0 0
1893 3 17.985 7.194 10.791 0 0 0
1736 3 19.7835 30.5745 10.791 0 0 0
1482 3 21.582 8.9925 1.7985 0 0 0
882 3 28.776 26.9775 1.7985 0 0 0
2667 3 8.9925 3.597 23.3805 0 0 0
1702 3 21.582 26.9775 19.7835 0 0 0
2576 3 12.5895 34.1715 10.791 0 0 0
2383 3 12.5895 14.388 19.7835 0 0 0
2904 3 8.9925 26.9775 17.985 0 0 0
2470 3 14.388 23.3805 26.9775 0 0 0
3764 3 1.7985 34.1715 0.0 0 0 0
2103 3 16.1865 25.179 19.7835 0 0 0
2969 3 10.791 32.373 7.194 0 0 0
1085 3 25.179 7.194 3.597 0 0 0
3415 3 1.7985 0.0 12.5895 0 0 0
2635 3 8.9925 0.0 30.5745 0 0 0
491 3 30.5745 25.179 8.9925 0 0 0
2964 3 8.9925 34.1715 0.0 0 0 0
3423 3 1.7985 0.0 19.7835 0 0 0
3433 3 3.597 0.0 28.776 0 0 0
793 3 28.776 14.388 28.776 0 0 0
937 3 28.776 28.776 14.388 0 0 0
1162 3 25.179 16.1865 1.7985 0 0 0
2504 3 12.5895 26.9775 17.985 0 0 0
2915 3 8.9925 25.179 30.5745 0 0 0
2642 3 10.791 5.3955 1.7985 0 0 0
1846 3 17.985 5.3955 5.3955 0 0 0
2805 3 10.791 17.985 3.597 0 0 0
1918 3 17.985 8.9925 34.1715 0 0 0
2856 3 8.9925 23.3805 10.791 0 0 0
1093 3 25.179 7.194 10.791 0 0 0
2684 3 8.9925 8.9925 0.0 0 0 0
743 3 26.9775 10.791 19.7835 0 0 0
524 3 30.5745 30.5745 0.0 0 0 0
2021 3 17.985 17.985 17.985 0 0 0
1121 3 25.179 10.791 0.0 0 0 0
3069 3 7.194 3.597 25.179 0 0 0
2698 3 10.791 8.9925 16.1865 0 0 0
444 3 30.5745 23.3805 0.0 0 0 0
1670 3 21.582 23.3805 26.9775 0 0 0
144 3 34.1715 26.9775 3.597 0 0 0
710 3 28.776 8.9925 26.9775 0 0 0
952 3 26.9775 30.5745 25.179 0 0 0
2709 3 10.791 7.194 25.179 0 0 0
965 3 28.776 32.373 3.597 0 0 0
297 3 32.373 7.194 14.388 0 0 0
2486 3 14.388 26.9775 5.3955 0 0 0
3365 3 7.194 32.373 3.597 0 0 0
3769 3 3.597 32.373 7.194 0 0 0
482 3 32.373 26.9775 1.7985 0 0 0
2967 3 8.9925 32.373 5.3955 0 0 0
3779 3 1.7985 32.373 16.1865 0 0 0
684 3 26.9775 8.9925 0.0 0 0 0
2369 3 14.388 14.388 7.194 0 0 0
1262 3 25.179 23.3805 19.7835 0 0 0
1224 3 23.3805 19.7835 17.985 0 0 0
1209 3 25.179 17.985 7.194 0 0 0
1026 3 25.179 1.7985 23.3805 0 0 0
2402 3 14.388 19.7835 1.7985 0 0 0
3148 3 5.3955 12.5895 21.582 0 0 0
3518 3 3.597 8.9925 34.1715 0 0 0
495 3 30.5745 25.179 12.5895 0 0 0
129 3 34.1715 21.582 16.1865 0 0 0
1218 3 25.179 19.7835 16.1865 0 0 0
1150 3 25.179 12.5895 26.9775 0 0 0
205 3 32.373 0.0 3.597 0 0 0
833 3 28.776 17.985 28.776 0 0 0
1780 3 19.7835 34.1715 14.388 0 0 0
2262 3 14.388 5.3955 19.7835 0 0 0
1895 3 16.1865 7.194 12.5895 0 0 0
1710 3 21.582 26.9775 26.9775 0 0 0
3118 3 7.194 8.9925 34.1715 0 0 0
697 3 28.776 7.194 14.388 0 0 0
171 3 34.1715 28.776 19.7835 0 0 0
352 3 30.5745 12.5895 25.179 0 0 0
541 3 32.373 28.776 17.985 0 0 0
1870 3 17.985 5.3955 26.9775 0 0 0
1145 3 25.179 10.791 21.582 0 0 0
1543 3 19.7835 10.791 19.7835 0 0 0
3360 3 5.3955 30.5745 32.373 0 0 0
1414 3 21.582 1.7985 12.5895 0 0 0
326 3 32.373 12.5895 5.3955 0 0 0
3610 3 3.597 19.7835 8.9925 0 0 0
858 3 28.776 23.3805 16.1865 0 0 0
2453 3 14.388 21.582 10.791 0 0 0
1186 3 25.179 16.1865 23.3805 0 0 0
1615 3 19.7835 17.985 12.5895 0 0 0
2750 3 10.791 12.5895 26.9775 0 0 0
855 3 26.9775 21.582 12.5895 0 0 0
1269 3 25.179 21.582 25.179 0 0 0
262 3 32.373 5.3955 19.7835 0 0 0
2514 3 14.388 26.9775 30.5745 0 0 0
1995 3 16.1865 14.388 30.5745 0 0 0
2990 3 10.791 34.1715 26.9775 0 0 0
1902 3 17.985 8.9925 19.7835 0 0 0
3489 3 3.597 7.194 7.194 0 0 0
2345 3 14.388 10.791 21.582 0 0 0
45 3 34.1715 7.194 8.9925 0 0 0
2782 3 10.791 16.1865 19.7835 0 0 0
3247 3 5.3955 21.582 5.3955 0 0 0
92 3 34.1715 16.1865 17.985 0 0 0
3927 3 0.0 21.582 10.791 0 0 0
1882 3 17.985 8.9925 1.7985 0 0 0
2567 3 12.5895 32.373 5.3955 0 0 0
2565 3 14.388 32.373 3.597 0 0 0
2285 3 14.388 7.194 3.597 0 0 0
200 3 34.1715 34.1715 32.373 0 0 0
3859 3 0.0 7.194 32.373 0 0 0
3675 3 1.7985 21.582 30.5745 0 0 0
371 3 30.5745 14.388 8.9925 0 0 0
1292 3 23.3805 26.9775 7.194 0 0 0
20 3 34.1715 1.7985 32.373 0 0 0
904 3 26.9775 26.9775 17.985 0 0 0
3245 3 7.194 21.582 3.597 0 0 0
747 3 26.9775 10.791 23.3805 0 0 0
2061 3 17.985 21.582 17.985 0 0 0
579 3 30.5745 32.373 16.1865 0 0 0
1570 3 21.582 16.1865 8.9925 0 0 0
3078 3 7.194 5.3955 34.1715 0 0 0
3065 3 7.194 3.597 21.582 0 0 0
908 3 26.9775 26.9775 21.582 0 0 0
3605 3 3.597 17.985 3.597 0 0 0
1661 3 21.582 21.582 17.985 0 0 0
469 3 32.373 21.582 25.179 0 0 0
2797 3 10.791 14.388 32.373 0 0 0
3206 3 7.194 19.7835 5.3955 0 0 0
137 3 34.1715 21.582 30.5745 0 0 0
3037 3 7.194 0.0 32.373 0 0 0
167 3 34.1715 28.776 12.5895 0 0 0
3402 3 3.597 1.7985 1.7985 0 0 0
1184 3 23.3805 16.1865 17.985 0 0 0
3316 3 5.3955 26.9775 28.776 0 0 0
1329 3 25.179 28.776 7.194 0 0 0
2632 3 8.9925 1.7985 25.179 0 0 0
1988 3 16.1865 16.1865 21.582 0 0 0
3043 3 5.3955 3.597 1.7985 0 0 0
3607 3 1.7985 17.985 5.3955 0 0 0
1444 3 19.7835 5.3955 0.0 0 0 0
1800 3 19.7835 34.1715 32.373 0 0 0
3327 3 5.3955 28.776 5.3955 0 0 0
3396 3 5.3955 34.1715 28.776 0 0 0
3742 3 3.597 30.5745 19.7835 0 0 0
1400 3 23.3805 34.1715 32.373 0 0 0
1129 3 25.179 10.791 7.194 0 0 0
1294 3 25.179 26.9775 12.5895 0 0 0
3205 3 7.194 17.985 3.597 0 0 0
3939 3 0.0 21.582 32.373 0 0 0
3228 3 5.3955 19.7835 21.582 0 0 0
254 3 32.373 5.3955 12.5895 0 0 0
1924 3 16.1865 12.5895 0.0 0 0 0
3885 3 0.0 14.388 7.194 0 0 0
3788 3 1.7985 34.1715 21.582 0 0 0
2736 3 8.9925 12.5895 10.791 0 0 0
2882 3 10.791 26.9775 1.7985 0 0 0
515 3 30.5745 25.179 30.5745 0 0 0
321 3 32.373 10.791 0.0 0 0 0
1159 3 23.3805 10.791 34.1715 0 0 0
3522 3 3.597 12.5895 1.7985 0 0 0
1768 3 19.7835 34.1715 3.597 0 0 0
603 3 26.9775 0.0 1.7985 0 0 0
2590 3 14.388 34.1715 26.9775 0 0 0
831 3 26.9775 17.985 26.9775 0 0 0
2702 3 10.791 8.9925 19.7835 0 0 0
3166 3 7.194 16.1865 5.3955 0 0 0
329 3 32.373 10.791 7.194 0 0 0
982 3 28.776 34.1715 19.7835 0 0 0
1045 3 25.179 3.597 3.597 0 0 0
3823 3 0.0 3.597 3.597 0 0 0
1227 3 23.3805 17.985 23.3805 0 0 0
1017 3 25.179 0.0 14.388 0 0 0
2921 3 10.791 28.776 0.0 0 0 0
2807 3 8.9925 17.985 5.3955 0 0 0
3947 3 0.0 25.179 10.791 0 0 0
3449 3 3.597 3.597 7.194 0 0 0
2754 3 10.791 12.5895 30.5745 0 0 0
1931 3 16.1865 10.791 8.9925 0 0 0
2180 3 16.1865 34.1715 14.388 0 0 0
3861 3 0.0 10.791 0.0 0 0 0
2405 3 14.388 17.985 3.597 0 0 0
136 3 34.1715 23.3805 25.179 0 0 0
2680 3 8.9925 5.3955 32.373 0 0 0
1897 3 17.985 7.194 14.388 0 0 0
821 3 28.776 17.985 17.985 0 0 0
1512 3 19.7835 8.9925 25.179 0 0 0
365 3 32.373 14.388 3.597 0 0 0
3749 3 3.597 28.776 25.179 0 0 0
229 3 32.373 0.0 25.179 0 0 0
2766 3 10.791 16.1865 5.3955 0 0 0
3046 3 7.194 5.3955 5.3955 0 0 0
461 3 32.373 21.582 17.985 0 0 0
1010 3 25.179 1.7985 8.9925 0 0 0
3563 3 1.7985 14.388 1.7985 0 0 0
2185 3 17.985 32.373 21.582 0 0 0
2982 3 10.791 34.1715 19.7835 0 0 0
2944 3 8.9925 30.5745 17.985 0 0 0
889 3 28.776 25.179 7.194 0 0 0
3380 3 5.3955 34.1715 14.388 0 0 0
525 3 32.373 28.776 3.597 0 0 0
2691 3 8.9925 7.194 8.9925 0 0 0
3755 3 1.7985 28.776 30.5745 0 0 0
382 3 32.373 16.1865 19.7835 0 0 0
1241 3 25.179 21.582 0.0 0 0 0
2410 3 14.388 19.7835 8.9925 0 0 0
549 3 32.373 28.776 25.179 0 0 0
2357 3 14.388 10.791 32.373 0 0 0
931 3 26.9775 28.776 8.9925 0 0 0
2838 3 10.791 19.7835 34.1715 0 0 0
1091 3 23.3805 7.194 8.9925 0 0 0
2814 3 10.791 19.7835 12.5895 0 0 0
3126 3 7.194 12.5895 5.3955 0 0 0
2498 3 14.388 26.9775 16.1865 0 0 0
1125 3 25.179 10.791 3.597 0 0 0
1273 3 25.179 21.582 28.776 0 0 0
2456 3 12.5895 23.3805 10.791 0 0 0
3845 3 0.0 7.194 7.194 0 0 0
2883 3 8.9925 25.179 1.7985 0 0 0
1978 3 17.985 16.1865 16.1865 0 0 0
2906 3 10.791 26.9775 23.3805 0 0 0
280 3 30.5745 5.3955 32.373 0 0 0
3198 3 7.194 16.1865 34.1715 0 0 0
2156 3 16.1865 30.5745 28.776 0 0 0
1911 3 16.1865 7.194 26.9775 0 0 0
2511 3 12.5895 25.179 26.9775 0 0 0
363 3 30.5745 14.388 1.7985 0 0 0
3343 3 5.3955 28.776 19.7835 0 0 0
3293 3 7.194 25.179 10.791 0 0 0
2034 3 17.985 19.7835 30.5745 0 0 0
1178 3 25.179 16.1865 16.1865 0 0 0
1207 3 23.3805 17.985 5.3955 0 0 0
2792 3 8.9925 16.1865 25.179 0 0 0
3998 3 0.0 34.1715 30.5745 0 0 0
3703 3 1.7985 25.179 19.7835 0 0 0
560 3 30.5745 30.5745 32.373 0 0 0
2617 3 10.791 0.0 14.388 0 0 0
3974 3 0.0 30.5745 23.3805 0 0 0
3524 3 1.7985 12.5895 0.0 0 0 0
3467 3 1.7985 3.597 23.3805 0 0 0
3901 3 0.0 17.985 0.0 0 0 0
1834 3 17.985 1.7985 30.5745 0 0 0
272 3 30.5745 5.3955 25.179 0 0 0
2809 3 10.791 17.985 7.194 0 0 0
2050 3 17.985 23.3805 8.9925 0 0 0
513 3 32.373 25.179 28.776 0 0 0
3497 3 3.597 7.194 14.388 0 0 0
1235 3 23.3805 17.985 30.5745 0 0 0
2865 3 10.791 21.582 21.582 0 0 0
1682 3 21.582 26.9775 1.7985 0 0 0
3827 3 0.0 3.597 10.791 0 0 0
1350 3 25.179 30.5745 26.9775 0 0 0
3641 3 3.597 21.582 0.0 0 0 0
3129 3 7.194 10.791 7.194 0 0 0
2190 3 17.985 34.1715 26.9775 0 0 0
2532 3 12.5895 30.5745 7.194 0 0 0
726 3 28.776 12.5895 5.3955 0 0 0
3984 3 0.0 34.1715 5.3955 0 0 0
816 3 26.9775 19.7835 10.791 0 0 0
1993 3 17.985 14.388 28.776 0 0 0
3661 3 3.597 21.582 17.985 0 0 0
2386 3 14.388 16.1865 23.3805 0 0 0
3858 3 0.0 8.9925 30.5745 0 0 0
3394 3 7.194 34.1715 30.5745 0 0 0
2932 3 8.9925 30.5745 7.194 0 0 0
1361 3 25.179 32.373 0.0 0 0 0
1360 3 23.3805 30.5745 32.373 0 0 0
1152 3 23.3805 12.5895 25.179 0 0 0
3807 3 0.0 0.0 10.791 0 0 0
451 3 30.5745 21.582 8.9925 0 0 0
2204 3 12.5895 1.7985 0.0 0 0 0
2443 3 12.5895 21.582 1.7985 0 0 0
3558 3 3.597 12.5895 34.1715 0 0 0
3355 3 5.3955 28.776 30.5745 0 0 0
3710 3 3.597 26.9775 26.9775 0 0 0
2029 3 17.985 17.985 25.179 0 0 0
2230 3 14.388 1.7985 26.9775 0 0 0
548 3 30.5745 30.5745 21.582 0 0 0
781 3 28.776 14.388 17.985 0 0 0
3432 3 1.7985 1.7985 25.179 0 0 0
260 3 30.5745 5.3955 14.388 0 0 0
3954 3 0.0 26.9775 23.3805 0 0 0
3385 3 7.194 32.373 21.582 0 0 0
1257 3 25.179 21.582 14.388 0 0 0
2408 3 12.5895 19.7835 3.597 0 0 0
2053 3 17.985 21.582 10.791 0 0 0
1627 3 19.7835 17.985 23.3805 0 0 0
1445 3 21.582 3.597 3.597 0 0 0
3377 3 7.194 32.373 14.388 0 0 0
266 3 32.373 5.3955 23.3805 0 0 0
138 3 34.1715 23.3805 28.776 0 0 0
1493 3 21.582 7.194 10.791 0 0 0
3266 3 7.194 23.3805 23.3805 0 0 0
1 3 34.1715 0.0 1.7985 0 0 0
2874 3 10.791 23.3805 30.5745 0 0 0
2144 3 16.1865 30.5745 17.985 0 0 0
245 3 32.373 3.597 3.597 0 0 0
6 3 34.1715 1.7985 7.194 0 0 0
2048 3 16.1865 23.3805 3.597 0 0 0
3060 3 5.3955 5.3955 14.388 0 0 0
2548 3 12.5895 30.5745 21.582 0 0 0
3538 3 3.597 12.5895 16.1865 0 0 0
2333 3 14.388 10.791 10.791 0 0 0
974 3 28.776 34.1715 12.5895 0 0 0
3242 3 7.194 23.3805 1.7985 0 0 0
2068 3 16.1865 23.3805 21.582 0 0 0
633 3 28.776 0.0 28.776 0 0 0
455 3 30.5745 21.582 12.5895 0 0 0
2771 3 8.9925 14.388 8.9925 0 0 0
3408 3 1.7985 1.7985 3.597 0 0 0
2653 3 10.791 3.597 10.791 0 0 0
3980 3 0.0 30.5745 34.1715 0 0 0
3757 3 3.597 28.776 32.373 0 0 0
2981 3 10.791 32.373 17.985 0 0 0
1937 3 17.985 10.791 14.388 0 0 0
2431 3 12.5895 17.985 26.9775 0 0 0
2764 3 8.9925 16.1865 0.0 0 0 0
2298 3 14.388 8.9925 16.1865 0 0 0
1210 3 25.179 19.7835 8.9925 0 0 0
2888 3 8.9925 26.9775 3.597 0 0 0
808 3 26.9775 19.7835 3.597 0 0 0
3668 3 1.7985 23.3805 21.582 0 0 0
771 3 26.9775 14.388 8.9925 0 0 0
1020 3 23.3805 1.7985 14.388 0 0 0
456 3 30.5745 23.3805 10.791 0 0 0
3353 3 7.194 28.776 28.776 0 0 0
2370 3 14.388 16.1865 8.9925 0 0 0
2578 3 14.388 34.1715 16.1865 0 0 0
3059 3 5.3955 3.597 16.1865 0 0 0
3971 3 0.0 28.776 17.985 0 0 0
718 3 28.776 8.9925 34.1715 0 0 0
2054 3 17.985 23.3805 12.5895 0 0 0
483 3 30.5745 25.179 1.7985 0 0 0
2101 3 17.985 25.179 17.985 0 0 0
788 3 26.9775 16.1865 21.582 0 0 0
3868 3 0.0 12.5895 12.5895 0 0 0
3267 3 5.3955 21.582 23.3805 0 0 0
2067 3 16.1865 21.582 23.3805 0 0 0
1675 3 19.7835 21.582 30.5745 0 0 0
3328 3 5.3955 30.5745 3.597 0 0 0
3484 3 1.7985 8.9925 0.0 0 0 0
3368 3 5.3955 34.1715 3.597 0 0 0
1744 3 19.7835 30.5745 17.985 0 0 0
353 3 32.373 10.791 28.776 0 0 0
2919 3 8.9925 25.179 34.1715 0 0 0
2933 3 10.791 28.776 10.791 0 0 0
2219 3 12.5895 0.0 16.1865 0 0 0
3720 3 1.7985 26.9775 32.373 0 0 0
2131 3 16.1865 28.776 8.9925 0 0 0
2571 3 12.5895 32.373 8.9925 0 0 0
2509 3 14.388 25.179 25.179 0 0 0
1022 3 25.179 1.7985 19.7835 0 0 0
2673 3 10.791 3.597 28.776 0 0 0
1448 3 19.7835 5.3955 3.597 0 0 0
2305 3 14.388 7.194 21.582 0 0 0
3728 3 1.7985 30.5745 3.597 0 0 0
3001 3 7.194 0.0 0.0 0 0 0
185 3 34.1715 32.373 8.9925 0 0 0
109 3 34.1715 17.985 16.1865 0 0 0
132 3 34.1715 23.3805 17.985 0 0 0
1231 3 23.3805 17.985 26.9775 0 0 0
3045 3 7.194 3.597 3.597 0 0 0
215 3 30.5745 0.0 12.5895 0 0 0
1078 3 25.179 5.3955 34.1715 0 0 0
1191 3 23.3805 14.388 26.9775 0 0 0
2588 3 12.5895 34.1715 21.582 0 0 0
3942 3 0.0 26.9775 1.7985 0 0 0
712 3 26.9775 8.9925 25.179 0 0 0
305 3 32.373 7.194 21.582 0 0 0
3766 3 3.597 34.1715 5.3955 0 0 0
475 3 30.5745 21.582 30.5745 0 0 0
423 3 30.5745 17.985 19.7835 0 0 0
286 3 32.373 8.9925 5.3955 0 0 0
1417 3 21.582 0.0 14.388 0 0 0
2033 3 17.985 17.985 28.776 0 0 0
3039 3 5.3955 0.0 34.1715 0 0 0
3203 3 5.3955 17.985 1.7985 0 0 0
2953 3 10.791 28.776 28.776 0 0 0
773 3 28.776 14.388 10.791 0 0 0
1484 3 19.7835 8.9925 0.0 0 0 0
2406 3 14.388 19.7835 5.3955 0 0 0
1387 3 23.3805 32.373 23.3805 0 0 0
3233 3 7.194 17.985 28.776 0 0 0
3691 3 1.7985 25.179 8.9925 0 0 0
1794 3 21.582 34.1715 30.5745 0 0 0
3886 3 0.0 16.1865 8.9925 0 0 0
217 3 32.373 0.0 14.388 0 0 0
1841 3 17.985 3.597 0.0 0 0 0
3320 3 5.3955 26.9775 32.373 0 0 0
679 3 26.9775 3.597 34.1715 0 0 0
3793 3 3.597 32.373 28.776 0 0 0
2690 3 10.791 8.9925 8.9925 0 0 0
660 3 26.9775 5.3955 14.388 0 0 0
3064 3 5.3955 5.3955 17.985 0 0 0
830 3 28.776 19.7835 26.9775 0 0 0
3909 3 0.0 17.985 14.388 0 0 0
2547 3 12.5895 28.776 23.3805 0 0 0
1545 3 21.582 10.791 21.582 0 0 0
3743 3 1.7985 28.776 19.7835 0 0 0
3948 3 0.0 26.9775 12.5895 0 0 0
3609 3 3.597 17.985 7.194 0 0 0
1801 3 17.985 0.0 0.0 0 0 0
1759 3 19.7835 28.776 34.1715 0 0 0
3354 3 7.194 30.5745 30.5745 0 0 0
3931 3 0.0 21.582 17.985 0 0 0
2781 3 10.791 14.388 17.985 0 0 0
1905 3 17.985 7.194 21.582 0 0 0
2862 3 10.791 23.3805 19.7835 0 0 0
3633 3 3.597 17.985 28.776 0 0 0
1788 3 19.7835 34.1715 21.582 0 0 0
2018 3 17.985 19.7835 16.1865 0 0 0
3338 3 7.194 30.5745 16.1865 0 0 0
1249 3 25.179 21.582 7.194 0 0 0
478 3 32.373 23.3805 34.1715 0 0 0
1703 3 19.7835 25.179 19.7835 0 0 0
989 3 28.776 32.373 25.179 0 0 0
1483 3 19.7835 7.194 1.7985 0 0 0
813 3 28.776 17.985 10.791 0 0 0
3243 3 5.3955 21.582 1.7985 0 0 0
102 3 34.1715 19.7835 0.0 0 0 0
1151 3 23.3805 10.791 26.9775 0 0 0
1364 3 23.3805 34.1715 0.0 0 0 0
1640 3 19.7835 19.7835 32.373 0 0 0
2423 3 12.5895 17.985 19.7835 0 0 0
1355 3 23.3805 28.776 30.5745 0 0 0
3955 3 0.0 25.179 25.179 0 0 0
526 3 32.373 30.5745 5.3955 0 0 0
3767 3 1.7985 32.373 5.3955 0 0 0
179 3 34.1715 28.776 34.1715 0 0 0
3475 3 1.7985 3.597 30.5745 0 0 0
3783 3 1.7985 32.373 19.7835 0 0 0
2955 3 8.9925 28.776 30.5745 0 0 0
3560 3 1.7985 12.5895 32.373 0 0 0
914 3 28.776 26.9775 30.5745 0 0 0
1101 3 25.179 7.194 17.985 0 0 0
938 3 28.776 30.5745 16.1865 0 0 0
2264 3 12.5895 5.3955 17.985 0 0 0
164 3 34.1715 30.5745 3.597 0 0 0
47 3 34.1715 7.194 12.5895 0 0 0
3314 3 7.194 26.9775 30.5745 0 0 0
3961 3 0.0 28.776 0.0 0 0 0
2490 3 14.388 26.9775 8.9925 0 0 0
1213 3 25.179 17.985 10.791 0 0 0
279 3 30.5745 3.597 34.1715 0 0 0
2743 3 8.9925 10.791 19.7835 0 0 0
2671 3 8.9925 3.597 26.9775 0 0 0
3334 3 7.194 30.5745 12.5895 0 0 0
955 3 26.9775 28.776 30.5745 0 0 0
3922 3 0.0 23.3805 1.7985 0 0 0
632 3 26.9775 1.7985 25.179 0 0 0
2774 3 10.791 16.1865 12.5895 0 0 0
1014 3 25.179 1.7985 12.5895 0 0 0
3476 3 1.7985 5.3955 28.776 0 0 0
1693 3 21.582 25.179 10.791 0 0 0
107 3 34.1715 17.985 12.5895 0 0 0
3777 3 3.597 32.373 14.388 0 0 0
1562 3 21.582 16.1865 1.7985 0 0 0
2934 3 10.791 30.5745 12.5895 0 0 0
3782 3 3.597 34.1715 19.7835 0 0 0
3049 3 7.194 3.597 7.194 0 0 0
595 3 30.5745 32.373 30.5745 0 0 0
151 3 34.1715 25.179 19.7835 0 0 0
3092 3 5.3955 8.9925 7.194 0 0 0
783 3 26.9775 14.388 19.7835 0 0 0
3011 3 5.3955 0.0 8.9925 0 0 0
445 3 32.373 21.582 3.597 0 0 0
3156 3 5.3955 12.5895 28.776 0 0 0
1431 3 19.7835 0.0 26.9775 0 0 0
1959 3 16.1865 10.791 34.1715 0 0 0
2164 3 16.1865 34.1715 0.0 0 0 0
2419 3 12.5895 17.985 16.1865 0 0 0
3157 3 7.194 10.791 32.373 0 0 0
3417 3 3.597 0.0 14.388 0 0 0
2529 3 14.388 28.776 7.194 0 0 0
3537 3 3.597 10.791 14.388 0 0 0
74 3 34.1715 12.5895 21.582 0 0 0
3140 3 5.3955 12.5895 14.388 0 0 0
3284 3 5.3955 26.9775 0.0 0 0 0
809 3 28.776 17.985 7.194 0 0 0
3833 3 0.0 3.597 21.582 0 0 0
2280 3 12.5895 5.3955 32.373 0 0 0
1465 3 21.582 3.597 21.582 0 0 0
1812 3 16.1865 1.7985 7.194 0 0 0
1297 3 25.179 25.179 14.388 0 0 0
3770 3 3.597 34.1715 8.9925 0 0 0
2886 3 10.791 26.9775 5.3955 0 0 0
62 3 34.1715 12.5895 0.0 0 0 0
2121 3 17.985 28.776 0.0 0 0 0
672 3 26.9775 5.3955 25.179 0 0 0
2875 3 8.9925 21.582 30.5745 0 0 0
3277 3 7.194 21.582 32.373 0 0 0
320 3 30.5745 8.9925 32.373 0 0 0
2525 3 14.388 28.776 3.597 0 0 0
203 3 30.5745 0.0 1.7985 0 0 0
139 3 34.1715 21.582 34.1715 0 0 0
1118 3 25.179 8.9925 34.1715 0 0 0
867 3 26.9775 21.582 23.3805 0 0 0
2559 3 12.5895 28.776 34.1715 0 0 0
887 3 26.9775 25.179 5.3955 0 0 0
2085 3 17.985 25.179 3.597 0 0 0
2475 3 12.5895 21.582 30.5745 0 0 0
2641 3 10.791 3.597 0.0 0 0 0
3765 3 3.597 32.373 3.597 0 0 0
639 3 26.9775 0.0 34.1715 0 0 0
935 3 26.9775 28.776 12.5895 0 0 0
2228 3 12.5895 1.7985 21.582 0 0 0
1706 3 21.582 26.9775 23.3805 0 0 0
2421 3 14.388 17.985 17.985 0 0 0
103 3 34.1715 17.985 5.3955 0 0 0
2089 3 17.985 25.179 7.194 0 0 0
2196 3 16.1865 34.1715 28.776 0 0 0
2520 3 12.5895 26.9775 32.373 0 0 0
1002 3 25.179 1.7985 1.7985 0 0 0
588 3 30.5745 34.1715 21.582 0 0 0
2557 3 14.388 28.776 32.373 0 0 0
271 3 30.5745 3.597 26.9775 0 0 0
3548 3 1.7985 12.5895 21.582 0 0 0
3459 3 1.7985 3.597 16.1865 0 0 0
3785 3 3.597 32.373 21.582 0 0 0
1920 3 16.1865 8.9925 32.373 0 0 0
1103 3 23.3805 7.194 19.7835 0 0 0
1989 3 17.985 14.388 25.179 0 0 0
2120 3 16.1865 26.9775 32.373 0 0 0
2377 3 14.388 14.388 14.388 0 0 0
1728 3 19.7835 30.5745 3.597 0 0 0
2118 3 17.985 26.9775 34.1715 0 0 0
21 3 34.1715 3.597 1.7985 0 0 0
3160 3 5.3955 12.5895 32.373 0 0 0
307 3 30.5745 7.194 23.3805 0 0 0
3428 3 1.7985 1.7985 21.582 0 0 0
3676 3 1.7985 23.3805 28.776 0 0 0
1793 3 21.582 32.373 28.776 0 0 0
3481 3 3.597 7.194 0.0 0 0 0
1373 3 25.179 32.373 10.791 0 0 0
853 3 28.776 21.582 10.791 0 0 0
2058 3 17.985 23.3805 16.1865 0 0 0
3862 3 0.0 12.5895 1.7985 0 0 0
699 3 26.9775 7.194 16.1865 0 0 0
3929 3 0.0 21.582 14.388 0 0 0
607 3 26.9775 0.0 5.3955 0 0 0
811 3 26.9775 17.985 8.9925 0 0 0
1854 3 17.985 5.3955 12.5895 0 0 0
3250 3 7.194 23.3805 8.9925 0 0 0
623 3 26.9775 0.0 19.7835 0 0 0
328 3 30.5745 12.5895 3.597 0 0 0
278 3 32.373 5.3955 34.1715 0 0 0
577 3 32.373 32.373 14.388 0 0 0
3904 3 0.0 19.7835 5.3955 0 0 0
2303 3 12.5895 7.194 19.7835 0 0 0
3670 3 3.597 23.3805 26.9775 0 0 0
2707 3 8.9925 7.194 23.3805 0 0 0
2099 3 16.1865 25.179 16.1865 0 0 0
3652 3 1.7985 23.3805 7.194 0 0 0
725 3 28.776 10.791 3.597 0 0 0
3340 3 5.3955 30.5745 14.388 0 0 0
1762 3 21.582 34.1715 1.7985 0 0 0
1230 3 25.179 19.7835 26.9775 0 0 0
1176 3 23.3805 16.1865 10.791 0 0 0
3398 3 7.194 34.1715 34.1715 0 0 0
2591 3 12.5895 32.373 26.9775 0 0 0
2570 3 14.388 34.1715 8.9925 0 0 0
924 3 26.9775 30.5745 0.0 0 0 0
3237 3 7.194 17.985 32.373 0 0 0
327 3 30.5745 10.791 5.3955 0 0 0
135 3 34.1715 21.582 26.9775 0 0 0
1945 3 17.985 10.791 21.582 0 0 0
375 3 30.5745 14.388 12.5895 0 0 0
1617 3 21.582 17.985 14.388 0 0 0
761 3 28.776 14.388 0.0 0 0 0
1291 3 23.3805 25.179 8.9925 0 0 0
3704 3 1.7985 26.9775 17.985 0 0 0
1868 3 16.1865 5.3955 21.582 0 0 0
2804 3 8.9925 19.7835 0.0 0 0 0
72 3 34.1715 12.5895 17.985 0 0 0
1962 3 17.985 16.1865 1.7985 0 0 0
888 3 26.9775 26.9775 3.597 0 0 0
3330 3 7.194 30.5745 8.9925 0 0 0
2818 3 10.791 19.7835 16.1865 0 0 0
3918 3 0.0 19.7835 30.5745 0 0 0
3269 3 7.194 21.582 25.179 0 0 0
3594 3 3.597 16.1865 30.5745 0 0 0
3201 3 7.194 17.985 0.0 0 0 0
1789 3 21.582 32.373 25.179 0 0 0
1509 3 21.582 7.194 25.179 0 0 0
1416 3 19.7835 1.7985 10.791 0 0 0
2936 3 8.9925 30.5745 10.791 0 0 0
1726 3 21.582 30.5745 5.3955 0 0 0
2835 3 8.9925 17.985 30.5745 0 0 0
613 3 28.776 0.0 10.791 0 0 0
1128 3 23.3805 12.5895 3.597 0 0 0
3310 3 7.194 26.9775 26.9775 0 0 0
81 3 34.1715 14.388 1.7985 0 0 0
3508 3 1.7985 8.9925 21.582 0 0 0
1943 3 16.1865 10.791 19.7835 0 0 0
1750 3 21.582 30.5745 26.9775 0 0 0
492 3 30.5745 26.9775 7.194 0 0 0
792 3 26.9775 16.1865 25.179 0 0 0
1879 3 16.1865 3.597 34.1715 0 0 0
2962 3 10.791 34.1715 1.7985 0 0 0
1379 3 23.3805 32.373 16.1865 0 0 0
2551 3 12.5895 28.776 26.9775 0 0 0
79 3 34.1715 10.791 34.1715 0 0 0
23 3 34.1715 3.597 5.3955 0 0 0
3612 3 1.7985 19.7835 7.194 0 0 0
857 3 28.776 21.582 14.388 0 0 0
3847 3 0.0 7.194 10.791 0 0 0
3709 3 3.597 25.179 25.179 0 0 0
1432 3 19.7835 1.7985 25.179 0 0 0
3547 3 1.7985 10.791 23.3805 0 0 0
1592 3 19.7835 16.1865 25.179 0 0 0
1954 3 17.985 12.5895 30.5745 0 0 0
1524 3 19.7835 12.5895 0.0 0 0 0
1896 3 16.1865 8.9925 10.791 0 0 0
2952 3 8.9925 30.5745 25.179 0 0 0
1382 3 25.179 34.1715 19.7835 0 0 0
1950 3 17.985 12.5895 26.9775 0 0 0
494 3 32.373 26.9775 12.5895 0 0 0
479 3 30.5745 21.582 34.1715 0 0 0
1916 3 16.1865 8.9925 28.776 0 0 0
457 3 32.373 21.582 14.388 0 0 0
2239 3 12.5895 0.0 34.1715 0 0 0
1708 3 19.7835 26.9775 21.582 0 0 0
1982 3 17.985 16.1865 19.7835 0 0 0
2059 3 16.1865 21.582 16.1865 0 0 0
32 3 34.1715 5.3955 17.985 0 0 0
2283 3 12.5895 7.194 1.7985 0 0 0
1367 3 23.3805 32.373 5.3955 0 0 0
227 3 30.5745 0.0 23.3805 0 0 0
7 3 34.1715 0.0 12.5895 0 0 0
1303 3 23.3805 25.179 19.7835 0 0 0
627 3 26.9775 0.0 23.3805 0 0 0
2749 3 10.791 10.791 25.179 0 0 0
1690 3 21.582 26.9775 8.9925 0 0 0
707 3 26.9775 7.194 23.3805 0 0 0
274 3 32.373 5.3955 30.5745 0 0 0
668 3 26.9775 5.3955 21.582 0 0 0
344 3 30.5745 12.5895 17.985 0 0 0
1942 3 17.985 12.5895 19.7835 0 0 0
3722 3 3.597 30.5745 1.7985 0 0 0
3259 3 5.3955 21.582 16.1865 0 0 0
3516 3 1.7985 8.9925 28.776 0 0 0
3747 3 1.7985 28.776 23.3805 0 0 0
1320 3 23.3805 26.9775 32.373 0 0 0
1450 3 21.582 5.3955 8.9925 0 0 0
2688 3 8.9925 8.9925 3.597 0 0 0
789 3 28.776 14.388 25.179 0 0 0
299 3 30.5745 7.194 16.1865 0 0 0
3315 3 5.3955 25.179 30.5745 0 0 0
1718 3 21.582 26.9775 34.1715 0 0 0
3271 3 5.3955 21.582 26.9775 0 0 0
1925 3 17.985 10.791 3.597 0 0 0
3482 3 3.597 8.9925 1.7985 0 0 0
2674 3 10.791 5.3955 30.5745 0 0 0
1641 3 21.582 21.582 0.0 0 0 0
3934 3 0.0 23.3805 23.3805 0 0 0
995 3 26.9775 32.373 30.5745 0 0 0
3881 3 0.0 14.388 0.0 0 0 0
657 3 28.776 3.597 14.388 0 0 0
2425 3 14.388 17.985 21.582 0 0 0
214 3 32.373 1.7985 12.5895 0 0 0
3117 3 7.194 7.194 32.373 0 0 0
3846 3 0.0 8.9925 8.9925 0 0 0
3601 3 3.597 17.985 0.0 0 0 0
216 3 30.5745 1.7985 10.791 0 0 0
1466 3 21.582 5.3955 23.3805 0 0 0
3066 3 7.194 5.3955 23.3805 0 0 0
3529 3 3.597 10.791 7.194 0 0 0
3349 3 7.194 28.776 25.179 0 0 0
2776 3 8.9925 16.1865 10.791 0 0 0
1818 3 17.985 1.7985 16.1865 0 0 0
1072 3 23.3805 5.3955 25.179 0 0 0
3040 3 5.3955 1.7985 32.373 0 0 0
425 3 32.373 17.985 21.582 0 0 0
1705 3 21.582 25.179 21.582 0 0 0
3469 3 3.597 3.597 25.179 0 0 0
2398 3 14.388 16.1865 34.1715 0 0 0
1932 3 16.1865 12.5895 7.194 0 0 0
2546 3 14.388 30.5745 23.3805 0 0 0
1678 3 21.582 23.3805 34.1715 0 0 0
3665 3 3.597 21.582 21.582 0 0 0
910 3 28.776 26.9775 26.9775 0 0 0
2999 3 8.9925 32.373 34.1715 0 0 0
1415 3 19.7835 0.0 12.5895 0 0 0
2503 3 12.5895 25.179 19.7835 0 0 0
1332 3 23.3805 30.5745 7.194 0 0 0
3623 3 1.7985 17.985 19.7835 0 0 0
1741 3 21.582 28.776 17.985 0 0 0
1135 3 23.3805 10.791 12.5895 0 0 0
1866 3 17.985 5.3955 23.3805 0 0 0
3616 3 1.7985 19.7835 10.791 0 0 0
2537 3 14.388 28.776 14.388 0 0 0
1293 3 25.179 25.179 10.791 0 0 0
3801 3 0.0 0.0 0.0 0 0 0
656 3 26.9775 5.3955 10.791 0 0 0
1541 3 21.582 10.791 17.985 0 0 0
1969 3 17.985 14.388 7.194 0 0 0
3323 3 5.3955 28.776 1.7985 0 0 0
1370 3 25.179 34.1715 8.9925 0 0 0
2986 3 10.791 34.1715 23.3805 0 0 0
3679 3 1.7985 21.582 34.1715 0 0 0
1133 3 25.179 10.791 10.791 0 0 0
1478 3 21.582 5.3955 34.1715 0 0 0
1183 3 23.3805 14.388 19.7835 0 0 0
683 3 26.9775 7.194 1.7985 0 0 0
3424 3 1.7985 1.7985 17.985 0 0 0
1915 3 16.1865 7.194 30.5745 0 0 0
2256 3 12.5895 5.3955 10.791 0 0 0
3093 3 7.194 7.194 10.791 0 0 0
3716 3 1.7985 26.9775 28.776 0 0 0
64 3 34.1715 12.5895 3.597 0 0 0
2790 3 10.791 16.1865 26.9775 0 0 0
2301 3 14.388 7.194 17.985 0 0 0
3802 3 0.0 1.7985 1.7985 0 0 0
2732 3 8.9925 12.5895 7.194 0 0 0
3144 3 5.3955 12.5895 17.985 0 0 0
2036 3 16.1865 19.7835 28.776 0 0 0
2605 3 10.791 0.0 3.597 0 0 0
3531 3 1.7985 10.791 8.9925 0 0 0
2778 3 10.791 16.1865 16.1865 0 0 0
2242 3 14.388 5.3955 1.7985 0 0 0
2200 3 16.1865 34.1715 32.373 0 0 0
379 3 30.5745 14.388 16.1865 0 0 0
609 3 28.776 0.0 7.194 0 0 0
1904 3 16.1865 8.9925 17.985 0 0 0
3819 3 0.0 0.0 32.373 0 0 0
2439 3 12.5895 17.985 34.1715 0 0 0
2658 3 10.791 5.3955 16.1865 0 0 0
3828 3 0.0 5.3955 12.5895 0 0 0
2657 3 10.791 3.597 14.388 0 0 0
73 3 34.1715 10.791 23.3805 0 0 0
1653 3 21.582 21.582 10.791 0 0 0
3058 3 7.194 5.3955 16.1865 0 0 0
1799 3 19.7835 32.373 34.1715 0 0 0
1908 3 16.1865 8.9925 21.582 0 0 0
2891 3 8.9925 25.179 8.9925 0 0 0
3031 3 5.3955 0.0 26.9775 0 0 0
2349 3 14.388 10.791 25.179 0 0 0
2253 3 14.388 3.597 10.791 0 0 0
1098 3 25.179 8.9925 16.1865 0 0 0
2473 3 14.388 21.582 28.776 0 0 0
616 3 26.9775 1.7985 10.791 0 0 0
2001 3 17.985 17.985 0.0 0 0 0
3304 3 5.3955 26.9775 17.985 0 0 0
1149 3 25.179 10.791 25.179 0 0 0
3539 3 1.7985 10.791 16.1865 0 0 0
1319 3 23.3805 25.179 34.1715 0 0 0
1981 3 17.985 14.388 17.985 0 0 0
514 3 32.373 26.9775 30.5745 0 0 0
1624 3 19.7835 19.7835 17.985 0 0 0
1426 3 21.582 1.7985 23.3805 0 0 0
3993 3 0.0 32.373 21.582 0 0 0
448 3 30.5745 23.3805 3.597 0 0 0
1318 3 25.179 26.9775 34.1715 0 0 0
1449 3 21.582 3.597 7.194 0 0 0
3570 3 3.597 16.1865 8.9925 0 0 0
3856 3 0.0 8.9925 26.9775 0 0 0
790 3 28.776 16.1865 26.9775 0 0 0
3234 3 7.194 19.7835 30.5745 0 0 0
2854 3 10.791 23.3805 12.5895 0 0 0
3771 3 1.7985 32.373 8.9925 0 0 0
2867 3 8.9925 21.582 23.3805 0 0 0
166 3 34.1715 30.5745 7.194 0 0 0
1372 3 23.3805 34.1715 7.194 0 0 0
335 3 30.5745 10.791 12.5895 0 0 0
1310 3 25.179 26.9775 26.9775 0 0 0
3146 3 7.194 12.5895 23.3805 0 0 0
9 3 34.1715 0.0 16.1865 0 0 0
3240 3 5.3955 19.7835 32.373 0 0 0
2063 3 16.1865 21.582 19.7835 0 0 0
1286 3 25.179 26.9775 5.3955 0 0 0
1365 3 25.179 32.373 3.597 0 0 0
2060 3 16.1865 23.3805 14.388 0 0 0
250 3 32.373 5.3955 8.9925 0 0 0
2247 3 12.5895 3.597 5.3955 0 0 0
275 3 30.5745 3.597 30.5745 0 0 0
8 3 34.1715 1.7985 10.791 0 0 0
1611 3 19.7835 17.985 8.9925 0 0 0
2508 3 12.5895 26.9775 21.582 0 0 0
1886 3 17.985 8.9925 5.3955 0 0 0
2025 3 17.985 17.985 21.582 0 0 0
1723 3 19.7835 28.776 1.7985 0 0 0
2006 3 17.985 19.7835 5.3955 0 0 0
3503 3 1.7985 7.194 19.7835 0 0 0
3480 3 1.7985 5.3955 32.373 0 0 0
2620 3 8.9925 1.7985 14.388 0 0 0
2338 3 14.388 12.5895 16.1865 0 0 0
871 3 26.9775 21.582 26.9775 0 0 0
3564 3 1.7985 16.1865 0.0 0 0 0
3810 3 0.0 1.7985 16.1865 0 0 0
1242 3 25.179 23.3805 1.7985 0 0 0
1198 3 25.179 16.1865 34.1715 0 0 0
2759 3 8.9925 10.791 34.1715 0 0 0
2483 3 12.5895 25.179 1.7985 0 0 0
1388 3 23.3805 34.1715 21.582 0 0 0
1956 3 16.1865 12.5895 28.776 0 0 0
1307 3 23.3805 25.179 23.3805 0 0 0
2197 3 17.985 32.373 32.373 0 0 0
2852 3 8.9925 23.3805 7.194 0 0 0
2853 3 10.791 21.582 10.791 0 0 0
601 3 28.776 0.0 0.0 0 0 0
3017 3 7.194 0.0 14.388 0 0 0
1322 3 25.179 30.5745 1.7985 0 0 0
600 3 30.5745 34.1715 32.373 0 0 0
63 3 34.1715 10.791 5.3955 0 0 0
2438 3 14.388 19.7835 34.1715 0 0 0
355 4 30.5745 10.791 30.5745 0 0 0
3557 4 3.597 10.791 32.373 0 0 0
2966 4 10.791 34.1715 5.3955 0 0 0
3897 4 0.0 14.388 28.776 0 0 0
1025 4 25.179 0.0 21.582 0 0 0
1077 4 25.179 3.597 32.373 0 0 0
2787 4 8.9925 14.388 23.3805 0 0 0
493 4 32.373 25.179 10.791 0 0 0
1621 4 21.582 17.985 17.985 0 0 0
1069 4 25.179 3.597 25.179 0 0 0
3407 4 1.7985 0.0 5.3955 0 0 0
1447 4 19.7835 3.597 5.3955 0 0 0
3572 4 1.7985 16.1865 7.194 0 0 0
3110 4 7.194 8.9925 26.9775 0 0 0
2362 4 14.388 16.1865 1.7985 0 0 0
2440 4 12.5895 19.7835 32.373 0 0 0
434 4 32.373 19.7835 30.5745 0 0 0
1032 4 23.3805 1.7985 25.179 0 0 0
1194 4 25.179 16.1865 30.5745 0 0 0
1968 4 16.1865 16.1865 3.597 0 0 0
289 4 32.373 7.194 7.194 0 0 0
1156 4 23.3805 12.5895 28.776 0 0 0
325 4 32.373 10.791 3.597 0 0 0
3139 4 5.3955 10.791 16.1865 0 0 0
204 4 30.5745 1.7985 0.0 0 0 0
752 4 26.9775 12.5895 25.179 0 0 0
2221 4 14.388 0.0 17.985 0 0 0
75 4 34.1715 10.791 26.9775 0 0 0
1659 4 19.7835 21.582 16.1865 0 0 0
807 4 26.9775 17.985 5.3955 0 0 0
360 4 30.5745 12.5895 32.373 0 0 0
2901 4 10.791 25.179 17.985 0 0 0
949 4 28.776 28.776 25.179 0 0 0
723 4 26.9775 10.791 1.7985 0 0 0
2078 4 17.985 23.3805 34.1715 0 0 0
3231 4 5.3955 17.985 26.9775 0 0 0
897 4 28.776 25.179 14.388 0 0 0
3813 4 0.0 0.0 21.582 0 0 0
615 4 26.9775 0.0 12.5895 0 0 0
188 4 34.1715 34.1715 10.791 0 0 0
1691 4 19.7835 25.179 8.9925 0 0 0
2355 4 12.5895 10.791 30.5745 0 0 0
573 4 32.373 32.373 10.791 0 0 0
3604 4 1.7985 19.7835 0.0 0 0 0
2015 4 16.1865 17.985 12.5895 0 0 0
2390 4 14.388 16.1865 26.9775 0 0 0
3825 4 0.0 3.597 7.194 0 0 0
739 4 26.9775 10.791 16.1865 0 0 0
2173 4 17.985 32.373 10.791 0 0 0
1649 4 21.582 21.582 7.194 0 0 0
3125 4 7.194 10.791 3.597 0 0 0
2484 4 12.5895 26.9775 0.0 0 0 0
3263 4 5.3955 21.582 19.7835 0 0 0
947 4 26.9775 28.776 23.3805 0 0 0
2900 4 8.9925 26.9775 14.388 0 0 0
3095 4 5.3955 7.194 12.5895 0 0 0
1256 4 23.3805 23.3805 10.791 0 0 0
1676 4 19.7835 23.3805 28.776 0 0 0
273 4 32.373 3.597 28.776 0 0 0
735 4 26.9775 10.791 12.5895 0 0 0
2959 4 8.9925 28.776 34.1715 0 0 0
2562 4 14.388 34.1715 1.7985 0 0 0
1357 4 25.179 28.776 32.373 0 0 0
2367 4 12.5895 14.388 5.3955 0 0 0
805 4 28.776 17.985 3.597 0 0 0
142 4 34.1715 26.9775 0.0 0 0 0
1767 4 19.7835 32.373 5.3955 0 0 0
3631 4 1.7985 17.985 26.9775 0 0 0
2450 4 14.388 23.3805 8.9925 0 0 0
3386 4 7.194 34.1715 23.3805 0 0 0
3214 4 7.194 19.7835 12.5895 0 0 0
401 4 32.373 17.985 0.0 0 0 0
2850 4 10.791 23.3805 8.9925 0 0 0
2710 4 10.791 8.9925 26.9775 0 0 0
2223 4 12.5895 0.0 19.7835 0 0 0
2840 4 8.9925 19.7835 32.373 0 0 0
2335 4 12.5895 10.791 12.5895 0 0 0
2009 4 17.985 17.985 7.194 0 0 0
3907 4 0.0 17.985 10.791 0 0 0
3921 4 0.0 21.582 0.0 0 0 0
2487 4 12.5895 25.179 5.3955 0 0 0
3744 4 1.7985 30.5745 17.985 0 0 0
301 4 32.373 7.194 17.985 0 0 0
2042 4 17.985 23.3805 1.7985 0 0 0
3748 4 1.7985 30.5745 21.582 0 0 0
1965 4 17.985 14.388 3.597 0 0 0
220 4 30.5745 1.7985 14.388 0 0 0
436 4 30.5745 19.7835 28.776 0 0 0
30 4 34.1715 5.3955 14.388 0 0 0
2140 4 16.1865 30.5745 14.388 0 0 0
2946 4 10.791 30.5745 23.3805 0 0 0
3061 4 7.194 3.597 17.985 0 0 0
1363 4 23.3805 32.373 1.7985 0 0 0
3684 4 1.7985 26.9775 0.0 0 0 0
1838 4 17.985 1.7985 34.1715 0 0 0
3960 4 0.0 26.9775 34.1715 0 0 0
1671 4 19.7835 21.582 26.9775 0 0 0
2793 4 10.791 14.388 28.776 0 0 0
110 4 34.1715 19.7835 14.388 0 0 0
354 4 32.373 12.5895 30.5745 0 0 0
2706 4 10.791 8.9925 23.3805 0 0 0
2407 4 12.5895 17.985 5.3955 0 0 0
3772 4 1.7985 34.1715 7.194 0 0 0
3098 4 7.194 8.9925 16.1865 0 0 0
2914 4 10.791 26.9775 30.5745 0 0 0
1279 4 23.3805 21.582 34.1715 0 0 0
1418 4 21.582 1.7985 16.1865 0 0 0
1638 4 21.582 19.7835 34.1715 0 0 0
1266 4 25.179 23.3805 23.3805 0 0 0
2214 4 14.388 1.7985 12.5895 0 0 0
2233 4 14.388 0.0 28.776 0 0 0
3032 4 5.3955 1.7985 25.179 0 0 0
2751 4 8.9925 10.791 26.9775 0 0 0
1006 4 25.179 1.7985 5.3955 0 0 0
3116 4 5.3955 8.9925 28.776 0 0 0
1657 4 21.582 21.582 14.388 0 0 0
3072 4 5.3955 5.3955 25.179 0 0 0
1284 4 23.3805 26.9775 0.0 0 0 0
1654 4 21.582 23.3805 12.5895 0 0 0
2309 4 14.388 7.194 25.179 0 0 0
2162 4 17.985 34.1715 1.7985 0 0 0
1169 4 25.179 14.388 7.194 0 0 0
1396 4 23.3805 34.1715 28.776 0 0 0
3590 4 3.597 16.1865 26.9775 0 0 0
1936 4 16.1865 12.5895 10.791 0 0 0
2941 4 10.791 28.776 17.985 0 0 0
3306 4 7.194 26.9775 23.3805 0 0 0
1974 4 17.985 16.1865 12.5895 0 0 0
1139 4 23.3805 10.791 16.1865 0 0 0
566 4 32.373 34.1715 5.3955 0 0 0
3582 4 3.597 16.1865 19.7835 0 0 0
2536 4 12.5895 30.5745 10.791 0 0 0
1667 4 19.7835 21.582 23.3805 0 0 0
2168 4 16.1865 34.1715 3.597 0 0 0
241 4 32.373 3.597 0.0 0 0 0
3143 4 5.3955 10.791 19.7835 0 0 0
2553 4 14.388 28.776 28.776 0 0 0
1138 4 25.179 12.5895 16.1865 0 0 0
3734 4 3.597 30.5745 12.5895 0 0 0
3541 4 3.597 10.791 17.985 0 0 0
1760 4 19.7835 30.5745 32.373 0 0 0
2714 4 10.791 8.9925 30.5745 0 0 0
1850 4 17.985 5.3955 8.9925 0 0 0
1613 4 21.582 17.985 10.791 0 0 0
1550 4 21.582 12.5895 26.9775 0 0 0
822 4 28.776 19.7835 19.7835 0 0 0
1877 4 17.985 3.597 32.373 0 0 0
33 4 34.1715 3.597 23.3805 0 0 0
614 4 28.776 1.7985 12.5895 0 0 0
3300 4 5.3955 26.9775 14.388 0 0 0
1651 4 19.7835 21.582 8.9925 0 0 0
2942 4 10.791 30.5745 19.7835 0 0 0
3761 4 3.597 32.373 0.0 0 0 0
2609 4 10.791 0.0 7.194 0 0 0
3105 4 7.194 7.194 21.582 0 0 0
1115 4 23.3805 7.194 30.5745 0 0 0
1144 4 23.3805 12.5895 17.985 0 0 0
2907 4 8.9925 25.179 23.3805 0 0 0
2413 4 14.388 17.985 10.791 0 0 0
404 4 30.5745 19.7835 0.0 0 0 0
968 4 26.9775 34.1715 3.597 0 0 0
87 4 34.1715 14.388 12.5895 0 0 0
1430 4 21.582 1.7985 26.9775 0 0 0
331 4 30.5745 10.791 8.9925 0 0 0
544 4 30.5745 30.5745 17.985 0 0 0
3358 4 7.194 30.5745 34.1715 0 0 0
801 4 28.776 17.985 0.0 0 0 0
3608 4 1.7985 19.7835 3.597 0 0 0
2482 4 14.388 26.9775 1.7985 0 0 0
1941 4 17.985 10.791 17.985 0 0 0
1947 4 16.1865 10.791 23.3805 0 0 0
145 4 34.1715 25.179 8.9925 0 0 0
2396 4 12.5895 16.1865 28.776 0 0 0
3235 4 5.3955 17.985 30.5745 0 0 0
418 4 32.373 19.7835 16.1865 0 0 0
397 4 32.373 14.388 32.373 0 0 0
3375 4 5.3955 32.373 12.5895 0 0 0
3866 4 0.0 12.5895 8.9925 0 0 0
3619 4 1.7985 17.985 16.1865 0 0 0
3863 4 0.0 10.791 3.597 0 0 0
1790 4 21.582 34.1715 26.9775 0 0 0
2610 4 10.791 1.7985 8.9925 0 0 0
3468 4 1.7985 5.3955 21.582 0 0 0
572 4 30.5745 34.1715 7.194 0 0 0
3466 4 3.597 5.3955 23.3805 0 0 0
1929 4 17.985 10.791 7.194 0 0 0
3132 4 5.3955 12.5895 7.194 0 0 0
443 4 30.5745 21.582 1.7985 0 0 0
612 4 26.9775 1.7985 7.194 0 0 0
1668 4 19.7835 23.3805 21.582 0 0 0
3036 4 5.3955 1.7985 28.776 0 0 0
3586 4 3.597 16.1865 23.3805 0 0 0
3843 4 0.0 7.194 3.597 0 0 0
1769 4 21.582 32.373 7.194 0 0 0
985 4 28.776 32.373 21.582 0 0 0
1486 4 21.582 8.9925 5.3955 0 0 0
2606 4 10.791 1.7985 5.3955 0 0 0
473 4 32.373 21.582 28.776 0 0 0
1747 4 19.7835 28.776 23.3805 0 0 0
3301 4 7.194 25.179 17.985 0 0 0
172 4 34.1715 30.5745 17.985 0 0 0
1802 4 17.985 1.7985 1.7985 0 0 0
3453 4 3.597 3.597 10.791 0 0 0
842 4 28.776 23.3805 1.7985 0 0 0
2577 4 14.388 32.373 14.388 0 0 0
1665 4 21.582 21.582 21.582 0 0 0
3177 4 7.194 14.388 14.388 0 0 0
2115 4 16.1865 25.179 30.5745 0 0 0
1660 4 19.7835 23.3805 14.388 0 0 0
1842 4 17.985 5.3955 1.7985 0 0 0
3873 4 0.0 10.791 21.582 0 0 0
339 4 30.5745 10.791 16.1865 0 0 0
3504 4 1.7985 8.9925 17.985 0 0 0
1059 4 23.3805 3.597 16.1865 0 0 0
2675 4 8.9925 3.597 30.5745 0 0 0
2622 4 10.791 1.7985 19.7835 0 0 0
3498 4 3.597 8.9925 16.1865 0 0 0
1498 4 21.582 8.9925 16.1865 0 0 0
1470 4 21.582 5.3955 26.9775 0 0 0
1764 4 19.7835 34.1715 0.0 0 0 0
2366 4 14.388 16.1865 5.3955 0 0 0
2636 4 8.9925 1.7985 28.776 0 0 0
2647 4 8.9925 3.597 5.3955 0 0 0
3535 4 1.7985 10.791 12.5895 0 0 0
933 4 28.776 28.776 10.791 0 0 0
545 4 32.373 28.776 21.582 0 0 0
3326 4 7.194 30.5745 5.3955 0 0 0
2777 4 10.791 14.388 14.388 0 0 0
1334 4 25.179 30.5745 12.5895 0 0 0
687 4 26.9775 7.194 5.3955 0 0 0
3167 4 5.3955 14.388 5.3955 0 0 0
3169 4 7.194 14.388 7.194 0 0 0
156 4 34.1715 26.9775 25.179 0 0 0
599 4 30.5745 32.373 34.1715 0 0 0
1813 4 17.985 0.0 10.791 0 0 0
3170 4 7.194 16.1865 8.9925 0 0 0
1223 4 23.3805 17.985 19.7835 0 0 0
2105 4 17.985 25.179 21.582 0 0 0
14 4 34.1715 1.7985 21.582 0 0 0
1009 4 25.179 0.0 7.194 0 0 0
3567 4 1.7985 14.388 5.3955 0 0 0
3014 4 7.194 1.7985 12.5895 0 0 0
2937 4 10.791 28.776 14.388 0 0 0
834 4 28.776 19.7835 30.5745 0 0 0
2603 4 8.9925 0.0 1.7985 0 0 0
119 4 34.1715 17.985 34.1715 0 0 0
3409 4 3.597 0.0 7.194 0 0 0
1558 4 21.582 12.5895 34.1715 0 0 0
2637 4 10.791 0.0 32.373 0 0 0
1140 4 23.3805 12.5895 14.388 0 0 0
3087 4 5.3955 7.194 5.3955 0 0 0
244 4 30.5745 5.3955 0.0 0 0 0
3509 4 3.597 7.194 25.179 0 0 0
440 4 30.5745 19.7835 32.373 0 0 0
2611 4 8.9925 0.0 8.9925 0 0 0
3191 4 5.3955 14.388 26.9775 0 0 0
212 4 30.5745 1.7985 7.194 0 0 0
1315 4 23.3805 25.179 30.5745 0 0 0
2069 4 17.985 21.582 25.179 0 0 0
1502 4 21.582 8.9925 19.7835 0 0 0
265 4 32.373 3.597 21.582 0 0 0
970 4 28.776 34.1715 8.9925 0 0 0
1311 4 23.3805 25.179 26.9775 0 0 0
894 4 28.776 26.9775 12.5895 0 0 0
862 4 28.776 23.3805 19.7835 0 0 0
1517 4 21.582 7.194 32.373 0 0 0
2135 4 16.1865 28.776 12.5895 0 0 0
3940 4 0.0 23.3805 34.1715 0 0 0
3501 4 3.597 7.194 17.985 0 0 0
944 4 26.9775 30.5745 17.985 0 0 0
2812 4 8.9925 19.7835 7.194 0 0 0
1324 4 23.3805 30.5745 0.0 0 0 0
1663 4 19.7835 21.582 19.7835 0 0 0
2436 4 12.5895 19.7835 28.776 0 0 0
2084 4 16.1865 26.9775 0.0 0 0 0
1280 4 23.3805 23.3805 32.373 0 0 0
127 4 34.1715 21.582 12.5895 0 0 0
1730 4 21.582 30.5745 8.9925 0 0 0
435 4 30.5745 17.985 30.5745 0 0 0
3839 4 0.0 3.597 32.373 0 0 0
1491 4 19.7835 7.194 8.9925 0 0 0
198 4 34.1715 34.1715 28.776 0 0 0
2949 4 10.791 28.776 25.179 0 0 0
184 4 34.1715 34.1715 3.597 0 0 0
3554 4 3.597 12.5895 30.5745 0 0 0
1157 4 25.179 10.791 32.373 0 0 0
2762 4 10.791 16.1865 1.7985 0 0 0
3899 4 0.0 14.388 32.373 0 0 0
3835 4 0.0 3.597 25.179 0 0 0
3988 4 0.0 34.1715 12.5895 0 0 0
2384 4 12.5895 16.1865 17.985 0 0 0
2213 4 14.388 0.0 10.791 0 0 0
2589 4 14.388 32.373 25.179 0 0 0
685 4 28.776 7.194 3.597 0 0 0
2638 4 10.791 1.7985 34.1715 0 0 0
1243 4 23.3805 21.582 1.7985 0 0 0
3303 4 5.3955 25.179 19.7835 0 0 0
2027 4 16.1865 17.985 23.3805 0 0 0
3932 4 0.0 23.3805 19.7835 0 0 0
3985 4 0.0 32.373 7.194 0 0 0
3674 4 3.597 23.3805 30.5745 0 0 0
3877 4 0.0 10.791 28.776 0 0 0
1876 4 16.1865 5.3955 28.776 0 0 0
141 4 34.1715 25.179 1.7985 0 0 0
2584 4 12.5895 34.1715 17.985 0 0 0
631 4 26.9775 0.0 26.9775 0 0 0
582 4 32.373 34.1715 19.7835 0 0 0
1647 4 19.7835 21.582 5.3955 0 0 0
2361 4 14.388 14.388 0.0 0 0 0
450 4 32.373 23.3805 8.9925 0 0 0
1474 4 21.582 5.3955 30.5745 0 0 0
3887 4 0.0 14.388 10.791 0 0 0
3285 4 7.194 25.179 3.597 0 0 0
2072 4 16.1865 23.3805 25.179 0 0 0
2038 4 17.985 19.7835 34.1715 0 0 0
3393 4 7.194 32.373 28.776 0 0 0
3035 4 5.3955 0.0 30.5745 0 0 0
1221 4 25.179 17.985 17.985 0 0 0
1970 4 17.985 16.1865 8.9925 0 0 0
38 4 34.1715 5.3955 28.776 0 0 0
508 4 30.5745 26.9775 21.582 0 0 0
2660 4 8.9925 5.3955 14.388 0 0 0
2859 4 8.9925 21.582 16.1865 0 0 0
3626 4 3.597 19.7835 23.3805 0 0 0
1858 4 17.985 5.3955 16.1865 0 0 0
3496 4 1.7985 8.9925 10.791 0 0 0
3458 4 3.597 5.3955 16.1865 0 0 0
927 4 26.9775 28.776 5.3955 0 0 0
570 4 32.373 34.1715 8.9925 0 0 0
776 4 26.9775 16.1865 10.791 0 0 0
911 4 26.9775 25.179 26.9775 0 0 0
2153 4 17.985 28.776 28.776 0 0 0
2832 4 8.9925 19.7835 25.179 0 0 0
3348 4 5.3955 30.5745 21.582 0 0 0
3226 4 7.194 19.7835 23.3805 0 0 0
2789 4 10.791 14.388 25.179 0 0 0
3532 4 1.7985 12.5895 7.194 0 0 0
3220 4 5.3955 19.7835 14.388 0 0 0
1559 4 19.7835 10.791 34.1715 0 0 0
3008 4 5.3955 1.7985 3.597 0 0 0
2077 4 17.985 21.582 32.373 0 0 0
3629 4 3.597 17.985 25.179 0 0 0
1222 4 25.179 19.7835 19.7835 0 0 0
408 4 30.5745 19.7835 3.597 0 0 0
3075 4 5.3955 3.597 30.5745 0 0 0
2821 4 10.791 17.985 17.985 0 0 0
3505 4 3.597 7.194 21.582 0 0 0
3461 4 3.597 3.597 17.985 0 0 0
1086 4 25.179 8.9925 5.3955 0 0 0
3067 4 5.3955 3.597 23.3805 0 0 0
2708 4 8.9925 8.9925 21.582 0 0 0
3549 4 3.597 10.791 25.179 0 0 0
662 4 28.776 5.3955 19.7835 0 0 0
2083 4 16.1865 25.179 1.7985 0 0 0
3553 4 3.597 10.791 28.776 0 0 0
3370 4 7.194 34.1715 8.9925 0 0 0
2380 4 12.5895 16.1865 14.388 0 0 0
1619 4 19.7835 17.985 16.1865 0 0 0
558 4 32.373 30.5745 34.1715 0 0 0
2989 4 10.791 32.373 25.179 0 0 0
1232 4 23.3805 19.7835 25.179 0 0 0
1459 4 19.7835 3.597 16.1865 0 0 0
2161 4 17.985 32.373 0.0 0 0 0
2323 4 12.5895 10.791 1.7985 0 0 0
2555 4 12.5895 28.776 30.5745 0 0 0
1356 4 23.3805 30.5745 28.776 0 0 0
1523 4 19.7835 10.791 1.7985 0 0 0
1384 4 23.3805 34.1715 17.985 0 0 0
2731 4 8.9925 10.791 8.9925 0 0 0
3441 4 3.597 3.597 0.0 0 0 0
3780 4 1.7985 34.1715 14.388 0 0 0
499 4 30.5745 25.179 16.1865 0 0 0
3964 4 0.0 30.5745 5.3955 0 0 0
2090 4 17.985 26.9775 8.9925 0 0 0
1629 4 21.582 17.985 25.179 0 0 0
2763 4 8.9925 14.388 1.7985 0 0 0
2662 4 10.791 5.3955 19.7835 0 0 0
1865 4 17.985 3.597 21.582 0 0 0
3809 4 0.0 0.0 14.388 0 0 0
1253 4 25.179 21.582 10.791 0 0 0
259 4 30.5745 3.597 16.1865 0 0 0
3930 4 0.0 23.3805 16.1865 0 0 0
2968 4 8.9925 34.1715 3.597 0 0 0
2198 4 17.985 34.1715 34.1715 0 0 0
357 4 32.373 10.791 32.373 0 0 0
585 4 32.373 32.373 21.582 0 0 0
1826 4 17.985 1.7985 23.3805 0 0 0
161 4 34.1715 28.776 1.7985 0 0 0
1672 4 19.7835 23.3805 25.179 0 0 0
2381 4 14.388 14.388 17.985 0 0 0
893 4 28.776 25.179 10.791 0 0 0
407 4 30.5745 17.985 5.3955 0 0 0
3026 4 7.194 1.7985 23.3805 0 0 0
899 4 26.9775 25.179 16.1865 0 0 0
3434 4 3.597 1.7985 30.5745 0 0 0
3831 4 0.0 3.597 17.985 0 0 0
1827 4 16.1865 0.0 23.3805 0 0 0
1564 4 19.7835 16.1865 0.0 0 0 0
2474 4 14.388 23.3805 30.5745 0 0 0
3566 4 3.597 16.1865 5.3955 0 0 0
3844 4 0.0 8.9925 5.3955 0 0 0
930 4 28.776 30.5745 8.9925 0 0 0
2957 4 10.791 28.776 32.373 0 0 0
3015 4 5.3955 0.0 12.5895 0 0 0
2654 4 10.791 5.3955 12.5895 0 0 0
845 4 28.776 21.582 3.597 0 0 0
1940 4 16.1865 12.5895 14.388 0 0 0
1996 4 16.1865 16.1865 28.776 0 0 0
3821 4 0.0 3.597 0.0 0 0 0
2650 4 10.791 5.3955 8.9925 0 0 0
99 4 34.1715 14.388 34.1715 0 0 0
3109 4 7.194 7.194 25.179 0 0 0
2783 4 8.9925 14.388 19.7835 0 0 0
1126 4 25.179 12.5895 5.3955 0 0 0
3905 4 0.0 17.985 7.194 0 0 0
3643 4 1.7985 21.582 1.7985 0 0 0
1244 4 23.3805 23.3805 0.0 0 0 0
846 4 28.776 23.3805 5.3955 0 0 0
2337 4 14.388 10.791 14.388 0 0 0
1337 4 25.179 28.776 14.388 0 0 0
1247 4 23.3805 21.582 5.3955 0 0 0
1487 4 19.7835 7.194 5.3955 0 0 0
3815 4 0.0 0.0 25.179 0 0 0
196 4 34.1715 34.1715 25.179 0 0 0
2250 4 14.388 5.3955 8.9925 0 0 0
1469 4 21.582 3.597 25.179 0 0 0
734 4 28.776 12.5895 12.5895 0 0 0
3311 4 5.3955 25.179 26.9775 0 0 0
2765 4 10.791 14.388 3.597 0 0 0
551 4 30.5745 28.776 26.9775 0 0 0
147 4 34.1715 25.179 12.5895 0 0 0
152 4 34.1715 26.9775 17.985 0 0 0
3264 4 5.3955 23.3805 17.985 0 0 0
885 4 28.776 25.179 3.597 0 0 0
681 4 28.776 7.194 0.0 0 0 0
312 4 30.5745 8.9925 25.179 0 0 0
3913 4 0.0 17.985 21.582 0 0 0
702 4 28.776 8.9925 19.7835 0 0 0
3221 4 7.194 17.985 17.985 0 0 0
5 4 34.1715 0.0 8.9925 0 0 0
481 4 32.373 25.179 0.0 0 0 0
3464 4 1.7985 5.3955 17.985 0 0 0
3411 4 1.7985 0.0 8.9925 0 0 0
1928 4 16.1865 12.5895 3.597 0 0 0
3634 4 3.597 19.7835 30.5745 0 0 0
120 4 34.1715 19.7835 32.373 0 0 0
420 4 30.5745 19.7835 14.388 0 0 0
285 4 32.373 7.194 3.597 0 0 0
3520 4 1.7985 8.9925 32.373 0 0 0
2947 4 8.9925 28.776 23.3805 0 0 0
791 4 26.9775 14.388 26.9775 0 0 0
1358 4 25.179 30.5745 34.1715 0 0 0
814 4 28.776 19.7835 12.5895 0 0 0
2599 4 12.5895 32.373 34.1715 0 0 0
1573 4 21.582 14.388 10.791 0 0 0
3712 4 1.7985 26.9775 25.179 0 0 0
1500 4 19.7835 8.9925 14.388 0 0 0
3506 4 3.597 8.9925 23.3805 0 0 0
3569 4 3.597 14.388 7.194 0 0 0
3186 4 7.194 16.1865 23.3805 0 0 0
3115 4 5.3955 7.194 30.5745 0 0 0
2147 4 16.1865 28.776 23.3805 0 0 0
1238 4 25.179 19.7835 34.1715 0 0 0
3795 4 1.7985 32.373 30.5745 0 0 0
3286 4 7.194 26.9775 5.3955 0 0 0
704 4 26.9775 8.9925 17.985 0 0 0
2411 4 12.5895 17.985 8.9925 0 0 0
3896 4 0.0 16.1865 26.9775 0 0 0
3890 4 0.0 16.1865 16.1865 0 0 0
856 4 26.9775 23.3805 10.791 0 0 0
3686 4 3.597 26.9775 5.3955 0 0 0
2925 4 10.791 28.776 3.597 0 0 0
3724 4 1.7985 30.5745 0.0 0 0 0
1734 4 21.582 30.5745 12.5895 0 0 0
3889 4 0.0 14.388 14.388 0 0 0
3471 4 1.7985 3.597 26.9775 0 0 0
2388 4 12.5895 16.1865 21.582 0 0 0
2273 4 14.388 3.597 28.776 0 0 0
1639 4 19.7835 17.985 34.1715 0 0 0
2534 4 14.388 30.5745 12.5895 0 0 0
3350 4 7.194 30.5745 26.9775 0 0 0
2727 4 8.9925 10.791 5.3955 0 0 0
581 4 32.373 32.373 17.985 0 0 0
1844 4 16.1865 5.3955 0.0 0 0 0
3074 4 7.194 5.3955 30.5745 0 0 0
2768 4 8.9925 16.1865 3.597 0 0 0
1331 4 23.3805 28.776 8.9925 0 0 0
70 4 34.1715 12.5895 14.388 0 0 0
243 4 30.5745 3.597 1.7985 0 0 0
2172 4 16.1865 34.1715 7.194 0 0 0
3356 4 5.3955 30.5745 28.776 0 0 0
3659 4 1.7985 21.582 16.1865 0 0 0
211 4 30.5745 0.0 8.9925 0 0 0
1694 4 21.582 26.9775 12.5895 0 0 0
3276 4 5.3955 23.3805 28.776 0 0 0
3295 4 5.3955 25.179 12.5895 0 0 0
528 4 30.5745 30.5745 3.597 0 0 0
2186 4 17.985 34.1715 23.3805 0 0 0
3364 4 5.3955 34.1715 0.0 0 0 0
1569 4 21.582 14.388 7.194 0 0 0
589 4 32.373 32.373 25.179 0 0 0
562 4 32.373 34.1715 1.7985 0 0 0
780 4 26.9775 16.1865 14.388 0 0 0
3397 4 7.194 32.373 32.373 0 0 0
3849 4 0.0 7.194 14.388 0 0 0
391 4 30.5745 14.388 26.9775 0 0 0
39 4 34.1715 3.597 34.1715 0 0 0
3745 4 3.597 28.776 21.582 0 0 0
238 4 32.373 1.7985 34.1715 0 0 0
939 4 26.9775 28.776 16.1865 0 0 0
928 4 26.9775 30.5745 3.597 0 0 0
1946 4 17.985 12.5895 23.3805 0 0 0
1058 4 25.179 5.3955 16.1865 0 0 0
3900 4 0.0 16.1865 34.1715 0 0 0
1514 4 21.582 8.9925 30.5745 0 0 0
2039 4 16.1865 17.985 34.1715 0 0 0
1339 4 23.3805 28.776 16.1865 0 0 0
1252 4 23.3805 23.3805 7.194 0 0 0
1537 4 21.582 10.791 14.388 0 0 0
246 4 32.373 5.3955 5.3955 0 0 0
2096 4 16.1865 26.9775 10.791 0 0 0
509 4 32.373 25.179 25.179 0 0 0
2109 4 17.985 25.179 25.179 0 0 0
323 4 30.5745 10.791 1.7985 0 0 0
1544 4 19.7835 12.5895 17.985 0 0 0
3756 4 1.7985 30.5745 28.776 0 0 0
1648 4 19.7835 23.3805 3.597 0 0 0
429 4 32.373 17.985 25.179 0 0 0
1519 4 19.7835 7.194 34.1715 0 0 0
2543 4 12.5895 28.776 19.7835 0 0 0
1833 4 17.985 0.0 28.776 0 0 0
146 4 34.1715 26.9775 7.194 0 0 0
1073 4 25.179 3.597 28.776 0 0 0
101 4 34.1715 17.985 1.7985 0 0 0
3217 4 7.194 17.985 14.388 0 0 0
3752 4 1.7985 30.5745 25.179 0 0 0
872 4 26.9775 23.3805 25.179 0 0 0
3943 4 0.0 25.179 3.597 0 0 0
1202 4 25.179 19.7835 1.7985 0 0 0
817 4 28.776 17.985 14.388 0 0 0
1003 4 23.3805 0.0 1.7985 0 0 0
1513 4 21.582 7.194 28.776 0 0 0
3700 4 1.7985 26.9775 14.388 0 0 0
569 4 32.373 32.373 7.194 0 0 0
1927 4 16.1865 10.791 5.3955 0 0 0
3982 4 0.0 34.1715 1.7985 0 0 0
2022 4 17.985 19.7835 19.7835 0 0 0
1453 4 21.582 3.597 10.791 0 0 0
3457 4 3.597 3.597 14.388 0 0 0
1635 4 19.7835 17.985 30.5745 0 0 0
2296 4 12.5895 8.9925 10.791 0 0 0
597 4 32.373 32.373 32.373 0 0 0
3013 4 7.194 0.0 10.791 0 0 0
563 4 30.5745 32.373 1.7985 0 0 0
3914 4 0.0 19.7835 23.3805 0 0 0
879 4 26.9775 21.582 34.1715 0 0 0
2740 4 8.9925 12.5895 14.388 0 0 0
1488 4 19.7835 8.9925 3.597 0 0 0
832 4 26.9775 19.7835 25.179 0 0 0
1171 4 23.3805 14.388 8.9925 0 0 0
3324 4 5.3955 30.5745 0.0 0 0 0
1567 4 19.7835 14.388 5.3955 0 0 0
3588 4 1.7985 16.1865 21.582 0 0 0
3865 4 0.0 10.791 7.194 0 0 0
3836 4 0.0 5.3955 26.9775 0 0 0
3575 4 1.7985 14.388 12.5895 0 0 0
3232 4 5.3955 19.7835 25.179 0 0 0
1598 4 21.582 16.1865 34.1715 0 0 0
3085 4 7.194 7.194 3.597 0 0 0
680 4 26.9775 5.3955 32.373 0 0 0
863 4 26.9775 21.582 19.7835 0 0 0
1783 4 19.7835 32.373 19.7835 0 0 0
2724 4 8.9925 12.5895 0.0 0 0 0
1439 4 19.7835 0.0 34.1715 0 0 0
1984 4 16.1865 16.1865 17.985 0 0 0
3808 4 0.0 1.7985 12.5895 0 0 0
3352 4 5.3955 30.5745 25.179 0 0 0
2734 4 10.791 12.5895 12.5895 0 0 0
769 4 28.776 14.388 7.194 0 0 0
3879 4 0.0 10.791 32.373 0 0 0
3695 4 1.7985 25.179 12.5895 0 0 0
54 4 34.1715 8.9925 21.582 0 0 0
1535 4 19.7835 10.791 12.5895 0 0 0
3082 4 7.194 8.9925 1.7985 0 0 0
3878 4 0.0 12.5895 30.5745 0 0 0
3875 4 0.0 10.791 25.179 0 0 0
239 4 30.5745 0.0 34.1715 0 0 0
361 4 32.373 14.388 0.0 0 0 0
2003 4 16.1865 17.985 1.7985 0 0 0
3977 4 0.0 28.776 28.776 0 0 0
3660 4 1.7985 23.3805 14.388 0 0 0
748 4 26.9775 12.5895 21.582 0 0 0
453 4 32.373 21.582 10.791 0 0 0
1016 4 23.3805 1.7985 10.791 0 0 0
128 4 34.1715 23.3805 10.791 0 0 0
3880 4 0.0 12.5895 34.1715 0 0 0
3073 4 7.194 3.597 28.776 0 0 0
2429 4 14.388 17.985 25.179 0 0 0
1199 4 23.3805 14.388 34.1715 0 0 0
195 4 34.1715 32.373 26.9775 0 0 0
2572 4 12.5895 34.1715 7.194 0 0 0
485 4 32.373 25.179 3.597 0 0 0
358 4 32.373 12.5895 34.1715 0 0 0
3150 4 7.194 12.5895 26.9775 0 0 0
890 4 28.776 26.9775 8.9925 0 0 0
1715 4 19.7835 25.179 30.5745 0 0 0
2748 4 8.9925 12.5895 21.582 0 0 0
3077 4 7.194 3.597 32.373 0 0 0
306 4 32.373 8.9925 23.3805 0 0 0
3425 4 3.597 0.0 21.582 0 0 0
3181 4 7.194 14.388 17.985 0 0 0
1809 4 17.985 0.0 7.194 0 0 0
228 4 30.5745 1.7985 21.582 0 0 0
302 4 32.373 8.9925 19.7835 0 0 0
503 4 30.5745 25.179 19.7835 0 0 0
2444 4 12.5895 23.3805 0.0 0 0 0
1420 4 19.7835 1.7985 14.388 0 0 0
1987 4 16.1865 14.388 23.3805 0 0 0
972 4 26.9775 34.1715 7.194 0 0 0
3666 4 3.597 23.3805 23.3805 0 0 0
2737 4 10.791 10.791 14.388 0 0 0
413 4 32.373 17.985 10.791 0 0 0
779 4 26.9775 14.388 16.1865 0 0 0
1637 4 21.582 17.985 32.373 0 0 0
1272 4 23.3805 23.3805 25.179 0 0 0
2644 4 8.9925 5.3955 0.0 0 0 0
1887 4 16.1865 7.194 5.3955 0 0 0
1712 4 19.7835 26.9775 25.179 0 0 0
2082 4 17.985 26.9775 1.7985 0 0 0
2607 4 8.9925 0.0 5.3955 0 0 0
90 4 34.1715 16.1865 14.388 0 0 0
3442 4 3.597 5.3955 1.7985 0 0 0
2371 4 12.5895 14.388 8.9925 0 0 0
1383 4 23.3805 32.373 19.7835 0 0 0
1083 4 23.3805 7.194 1.7985 0 0 0
2210 4 14.388 1.7985 8.9925 0 0 0
2142 4 17.985 30.5745 19.7835 0 0 0
1473 4 21.582 3.597 28.776 0 0 0
350 4 32.373 12.5895 26.9775 0 0 0
3272 4 5.3955 23.3805 25.179 0 0 0
825 4 28.776 17.985 21.582 0 0 0
652 4 26.9775 5.3955 7.194 0 0 0
3774 4 3.597 34.1715 12.5895 0 0 0
372 4 30.5745 16.1865 7.194 0 0 0
1122 4 25.179 12.5895 1.7985 0 0 0
332 4 30.5745 12.5895 7.194 0 0 0
3020 4 5.3955 1.7985 14.388 0 0 0
2106 4 17.985 26.9775 23.3805 0 0 0
2803 4 8.9925 17.985 1.7985 0 0 0
3429 4 3.597 0.0 25.179 0 0 0
2489 4 14.388 25.179 7.194 0 0 0
1475 4 19.7835 3.597 30.5745 0 0 0
3513 4 3.597 7.194 28.776 0 0 0
258 4 32.373 5.3955 16.1865 0 0 0
981 4 28.776 32.373 17.985 0 0 0
298 4 32.373 8.9925 16.1865 0 0 0
2666 4 10.791 5.3955 23.3805 0 0 0
3739 4 1.7985 28.776 16.1865 0 0 0
1681 4 21.582 25.179 0.0 0 0 0
2409 4 14.388 17.985 7.194 0 0 0
218 4 32.373 1.7985 16.1865 0 0 0
311 4 30.5745 7.194 26.9775 0 0 0
1548 4 19.7835 12.5895 21.582 0 0 0
393 4 32.373 14.388 28.776 0 0 0
2970 4 10.791 34.1715 8.9925 0 0 0
315 4 30.5745 7.194 30.5745 0 0 0
3687 4 1.7985 25.179 5.3955 0 0 0
3207 4 5.3955 17.985 5.3955 0 0 0
1185 4 25.179 14.388 21.582 0 0 0
18 4 34.1715 1.7985 28.776 0 0 0
3589 4 3.597 14.388 25.179 0 0 0
1410 4 21.582 1.7985 8.9925 0 0 0
3274 4 7.194 23.3805 30.5745 0 0 0
1527 4 19.7835 10.791 5.3955 0 0 0
2823 4 8.9925 17.985 19.7835 0 0 0
3488 4 1.7985 8.9925 3.597 0 0 0
3718 4 3.597 26.9775 34.1715 0 0 0
3692 4 1.7985 26.9775 7.194 0 0 0
2240 4 12.5895 1.7985 32.373 0 0 0
3465 4 3.597 3.597 21.582 0 0 0
670 4 28.776 5.3955 26.9775 0 0 0
41 4 34.1715 7.194 1.7985 0 0 0
3919 4 0.0 17.985 32.373 0 0 0
3 4 34.1715 0.0 5.3955 0 0 0
3308 4 5.3955 26.9775 21.582 0 0 0
3391 4 5.3955 32.373 26.9775 0 0 0
36 4 34.1715 5.3955 25.179 0 0 0
635 4 26.9775 0.0 30.5745 0 0 0
868 4 26.9775 23.3805 21.582 0 0 0
1574 4 21.582 16.1865 12.5895 0 0 0
2353 4 14.388 10.791 28.776 0 0 0
737 4 28.776 10.791 14.388 0 0 0
1964 4 16.1865 16.1865 0.0 0 0 0
1354 4 25.179 30.5745 30.5745 0 0 0
3236 4 5.3955 19.7835 28.776 0 0 0
818 4 28.776 19.7835 16.1865 0 0 0
381 4 32.373 14.388 17.985 0 0 0
568 4 30.5745 34.1715 3.597 0 0 0
288 4 30.5745 8.9925 3.597 0 0 0
2117 4 17.985 25.179 32.373 0 0 0
2284 4 12.5895 8.9925 0.0 0 0 0
996 4 26.9775 34.1715 28.776 0 0 0
661 4 28.776 3.597 17.985 0 0 0
2829 4 10.791 17.985 25.179 0 0 0
2634 4 10.791 1.7985 30.5745 0 0 0
671 4 26.9775 3.597 26.9775 0 0 0
3004 4 5.3955 1.7985 0.0 0 0 0
190 4 34.1715 34.1715 14.388 0 0 0
2055 4 16.1865 21.582 12.5895 0 0 0
624 4 26.9775 1.7985 17.985 0 0 0
3372 4 5.3955 34.1715 7.194 0 0 0
3884 4 0.0 16.1865 5.3955 0 0 0
2427 4 12.5895 17.985 23.3805 0 0 0
1380 4 23.3805 34.1715 14.388 0 0 0
1664 4 19.7835 23.3805 17.985 0 0 0
3454 4 3.597 5.3955 12.5895 0 0 0
1776 4 19.7835 34.1715 10.791 0 0 0
3775 4 1.7985 32.373 12.5895 0 0 0
3200 4 5.3955 16.1865 32.373 0 0 0
2864 4 8.9925 23.3805 17.985 0 0 0
2828 4 8.9925 19.7835 21.582 0 0 0
799 4 26.9775 14.388 34.1715 0 0 0
2 5 34.1715 1.7985 0.0 0 0 0
11 5 34.1715 0.0 19.7835 0 0 0
13 5 34.1715 0.0 23.3805 0 0 0
15 5 34.1715 0.0 26.9775 0 0 0
25 5 34.1715 3.597 8.9925 0 0 0
26 5 34.1715 5.3955 7.194 0 0 0
27 5 34.1715 3.597 12.5895 0 0 0
29 5 34.1715 3.597 16.1865 0 0 0
34 5 34.1715 5.3955 21.582 0 0 0
37 5 34.1715 3.597 30.5745 0 0 0
42 5 34.1715 8.9925 0.0 0 0 0
46 5 34.1715 8.9925 7.194 0 0 0
48 5 34.1715 8.9925 10.791 0 0 0
49 5 34.1715 7.194 16.1865 0 0 0
56 5 34.1715 8.9925 25.179 0 0 0
61 5 34.1715 10.791 1.7985 0 0 0
68 5 34.1715 12.5895 10.791 0 0 0
69 5 34.1715 10.791 16.1865 0 0 0
71 5 34.1715 10.791 19.7835 0 0 0
76 5 34.1715 12.5895 25.179 0 0 0
77 5 34.1715 10.791 30.5745 0 0 0
78 5 34.1715 12.5895 28.776 0 0 0
82 5 34.1715 16.1865 0.0 0 0 0
83 5 34.1715 14.388 5.3955 0 0 0
84 5 34.1715 16.1865 3.597 0 0 0
86 5 34.1715 16.1865 7.194 0 0 0
88 5 34.1715 16.1865 10.791 0 0 0
91 5 34.1715 14.388 19.7835 0 0 0
93 5 34.1715 14.388 23.3805 0 0 0
95 5 34.1715 14.388 26.9775 0 0 0
96 5 34.1715 16.1865 25.179 0 0 0
97 5 34.1715 14.388 30.5745 0 0 0
98 5 34.1715 16.1865 28.776 0 0 0
100 5 34.1715 16.1865 32.373 0 0 0
105 5 34.1715 17.985 8.9925 0 0 0
113 5 34.1715 17.985 23.3805 0 0 0
116 5 34.1715 19.7835 25.179 0 0 0
117 5 34.1715 17.985 30.5745 0 0 0
121 5 34.1715 21.582 1.7985 0 0 0
123 5 34.1715 21.582 5.3955 0 0 0
124 5 34.1715 23.3805 3.597 0 0 0
126 5 34.1715 23.3805 7.194 0 0 0
131 5 34.1715 21.582 19.7835 0 0 0
134 5 34.1715 23.3805 21.582 0 0 0
148 5 34.1715 26.9775 10.791 0 0 0
157 5 34.1715 25.179 30.5745 0 0 0
158 5 34.1715 26.9775 28.776 0 0 0
162 5 34.1715 30.5745 0.0 0 0 0
163 5 34.1715 28.776 5.3955 0 0 0
165 5 34.1715 28.776 8.9925 0 0 0
168 5 34.1715 30.5745 10.791 0 0 0
170 5 34.1715 30.5745 14.388 0 0 0
174 5 34.1715 30.5745 21.582 0 0 0
178 5 34.1715 30.5745 28.776 0 0 0
180 5 34.1715 30.5745 32.373 0 0 0
181 5 34.1715 32.373 1.7985 0 0 0
182 5 34.1715 34.1715 0.0 0 0 0
183 5 34.1715 32.373 5.3955 0 0 0
186 5 34.1715 34.1715 7.194 0 0 0
189 5 34.1715 32.373 16.1865 0 0 0
192 5 34.1715 34.1715 17.985 0 0 0
193 5 34.1715 32.373 23.3805 0 0 0
199 5 34.1715 32.373 34.1715 0 0 0
202 5 32.373 1.7985 1.7985 0 0 0
206 5 32.373 1.7985 5.3955 0 0 0
209 5 32.373 0.0 7.194 0 0 0
210 5 32.373 1.7985 8.9925 0 0 0
213 5 32.373 0.0 10.791 0 0 0
224 5 30.5745 1.7985 17.985 0 0 0
235 5 30.5745 0.0 30.5745 0 0 0
236 5 30.5745 1.7985 28.776 0 0 0
240 5 30.5745 1.7985 32.373 0 0 0
242 5 32.373 5.3955 1.7985 0 0 0
249 5 32.373 3.597 7.194 0 0 0
252 5 30.5745 5.3955 7.194 0 0 0
253 5 32.373 3.597 10.791 0 0 0
256 5 30.5745 5.3955 10.791 0 0 0
257 5 32.373 3.597 14.388 0 0 0
261 5 32.373 3.597 17.985 0 0 0
268 5 30.5745 5.3955 21.582 0 0 0
269 5 32.373 3.597 25.179 0 0 0
277 5 32.373 3.597 32.373 0 0 0
281 5 32.373 7.194 0.0 0 0 0
284 5 30.5745 8.9925 0.0 0 0 0
287 5 30.5745 7.194 5.3955 0 0 0
290 5 32.373 8.9925 8.9925 0 0 0
292 5 30.5745 8.9925 7.194 0 0 0
293 5 32.373 7.194 10.791 0 0 0
294 5 32.373 8.9925 12.5895 0 0 0
300 5 30.5745 8.9925 14.388 0 0 0
309 5 32.373 7.194 25.179 0 0 0
310 5 32.373 8.9925 26.9775 0 0 0
316 5 30.5745 8.9925 28.776 0 0 0
319 5 30.5745 7.194 34.1715 0 0 0
322 5 32.373 12.5895 1.7985 0 0 0
324 5 30.5745 12.5895 0.0 0 0 0
333 5 32.373 10.791 10.791 0 0 0
334 5 32.373 12.5895 12.5895 0 0 0
336 5 30.5745 12.5895 10.791 0 0 0
337 5 32.373 10.791 14.388 0 0 0
338 5 32.373 12.5895 16.1865 0 0 0
340 5 30.5745 12.5895 14.388 0 0 0
341 5 32.373 10.791 17.985 0 0 0
342 5 32.373 12.5895 19.7835 0 0 0
345 5 32.373 10.791 21.582 0 0 0
349 5 32.373 10.791 25.179 0 0 0
351 5 30.5745 10.791 26.9775 0 0 0
362 5 32.373 16.1865 1.7985 0 0 0
368 5 30.5745 16.1865 3.597 0 0 0
374 5 32.373 16.1865 12.5895 0 0 0
376 5 30.5745 16.1865 10.791 0 0 0
377 5 32.373 14.388 14.388 0 0 0
378 5 32.373 16.1865 16.1865 0 0 0
380 5 30.5745 16.1865 14.388 0 0 0
383 5 30.5745 14.388 19.7835 0 0 0
385 5 32.373 14.388 21.582 0 0 0
387 5 30.5745 14.388 23.3805 0 0 0
394 5 32.373 16.1865 30.5745 0 0 0
395 5 30.5745 14.388 30.5745 0 0 0
396 5 30.5745 16.1865 28.776 0 0 0
400 5 30.5745 16.1865 32.373 0 0 0
403 5 30.5745 17.985 1.7985 0 0 0
409 5 32.373 17.985 7.194 0 0 0
411 5 30.5745 17.985 8.9925 0 0 0
414 5 32.373 19.7835 12.5895 0 0 0
416 5 30.5745 19.7835 10.791 0 0 0
426 5 32.373 19.7835 23.3805 0 0 0
427 5 30.5745 17.985 23.3805 0 0 0
430 5 32.373 19.7835 26.9775 0 0 0
431 5 30.5745 17.985 26.9775 0 0 0
439 5 30.5745 17.985 34.1715 0 0 0
441 5 32.373 21.582 0.0 0 0 0
442 5 32.373 23.3805 1.7985 0 0 0
446 5 32.373 23.3805 5.3955 0 0 0
454 5 32.373 23.3805 12.5895 0 0 0
458 5 32.373 23.3805 16.1865 0 0 0
459 5 30.5745 21.582 16.1865 0 0 0
460 5 30.5745 23.3805 14.388 0 0 0
462 5 32.373 23.3805 19.7835 0 0 0
464 5 30.5745 23.3805 17.985 0 0 0
466 5 32.373 23.3805 23.3805 0 0 0
467 5 30.5745 21.582 23.3805 0 0 0
468 5 30.5745 23.3805 21.582 0 0 0
471 5 30.5745 21.582 26.9775 0 0 0
480 5 30.5745 23.3805 32.373 0 0 0
484 5 30.5745 26.9775 0.0 0 0 0
486 5 32.373 26.9775 5.3955 0 0 0
487 5 30.5745 25.179 5.3955 0 0 0
496 5 30.5745 26.9775 10.791 0 0 0
497 5 32.373 25.179 14.388 0 0 0
501 5 32.373 25.179 17.985 0 0 0
502 5 32.373 26.9775 19.7835 0 0 0
504 5 30.5745 26.9775 17.985 0 0 0
506 5 32.373 26.9775 23.3805 0 0 0
507 5 30.5745 25.179 23.3805 0 0 0
511 5 30.5745 25.179 26.9775 0 0 0
519 5 30.5745 25.179 34.1715 0 0 0
520 5 30.5745 26.9775 32.373 0 0 0
521 5 32.373 28.776 0.0 0 0 0
522 5 32.373 30.5745 1.7985 0 0 0
523 5 30.5745 28.776 1.7985 0 0 0
527 5 30.5745 28.776 5.3955 0 0 0
531 5 30.5745 28.776 8.9925 0 0 0
532 5 30.5745 30.5745 7.194 0 0 0
533 5 32.373 28.776 10.791 0 0 0
534 5 32.373 30.5745 12.5895 0 0 0
535 5 30.5745 28.776 12.5895 0 0 0
536 5 30.5745 30.5745 10.791 0 0 0
537 5 32.373 28.776 14.388 0 0 0
538 5 32.373 30.5745 16.1865 0 0 0
543 5 30.5745 28.776 19.7835 0 0 0
546 5 32.373 30.5745 23.3805 0 0 0
547 5 30.5745 28.776 23.3805 0 0 0
552 5 30.5745 30.5745 25.179 0 0 0
553 5 32.373 28.776 28.776 0 0 0
556 5 30.5745 30.5745 28.776 0 0 0
557 5 32.373 28.776 32.373 0 0 0
564 5 30.5745 34.1715 0.0 0 0 0
565 5 32.373 32.373 3.597 0 0 0
567 5 30.5745 32.373 5.3955 0 0 0
574 5 32.373 34.1715 12.5895 0 0 0
575 5 30.5745 32.373 12.5895 0 0 0
580 5 30.5745 34.1715 14.388 0 0 0
583 5 30.5745 32.373 19.7835 0 0 0
584 5 30.5745 34.1715 17.985 0 0 0
591 5 30.5745 32.373 26.9775 0 0 0
593 5 32.373 32.373 28.776 0 0 0
594 5 32.373 34.1715 30.5745 0 0 0
596 5 30.5745 34.1715 28.776 0 0 0
611 5 26.9775 0.0 8.9925 0 0 0
617 5 28.776 0.0 14.388 0 0 0
618 5 28.776 1.7985 16.1865 0 0 0
619 5 26.9775 0.0 16.1865 0 0 0
620 5 26.9775 1.7985 14.388 0 0 0
622 5 28.776 1.7985 19.7835 0 0 0
625 5 28.776 0.0 21.582 0 0 0
634 5 28.776 1.7985 30.5745 0 0 0
637 5 28.776 0.0 32.373 0 0 0
638 5 28.776 1.7985 34.1715 0 0 0
643 5 26.9775 3.597 1.7985 0 0 0
645 5 28.776 3.597 3.597 0 0 0
646 5 28.776 5.3955 5.3955 0 0 0
647 5 26.9775 3.597 5.3955 0 0 0
648 5 26.9775 5.3955 3.597 0 0 0
653 5 28.776 3.597 10.791 0 0 0
654 5 28.776 5.3955 12.5895 0 0 0
659 5 26.9775 3.597 16.1865 0 0 0
664 5 26.9775 5.3955 17.985 0 0 0
665 5 28.776 3.597 21.582 0 0 0
669 5 28.776 3.597 25.179 0 0 0
675 5 26.9775 3.597 30.5745 0 0 0
678 5 28.776 5.3955 34.1715 0 0 0
682 5 28.776 8.9925 1.7985 0 0 0
690 5 28.776 8.9925 8.9925 0 0 0
695 5 26.9775 7.194 12.5895 0 0 0
698 5 28.776 8.9925 16.1865 0 0 0
706 5 28.776 8.9925 23.3805 0 0 0
708 5 26.9775 8.9925 21.582 0 0 0
713 5 28.776 7.194 28.776 0 0 0
716 5 26.9775 8.9925 28.776 0 0 0
717 5 28.776 7.194 32.373 0 0 0
719 5 26.9775 7.194 34.1715 0 0 0
721 5 28.776 10.791 0.0 0 0 0
724 5 26.9775 12.5895 0.0 0 0 0
727 5 26.9775 10.791 5.3955 0 0 0
728 5 26.9775 12.5895 3.597 0 0 0
729 5 28.776 10.791 7.194 0 0 0
730 5 28.776 12.5895 8.9925 0 0 0
732 5 26.9775 12.5895 7.194 0 0 0
733 5 28.776 10.791 10.791 0 0 0
736 5 26.9775 12.5895 10.791 0 0 0
738 5 28.776 12.5895 16.1865 0 0 0
742 5 28.776 12.5895 19.7835 0 0 0
744 5 26.9775 12.5895 17.985 0 0 0
746 5 28.776 12.5895 23.3805 0 0 0
749 5 28.776 10.791 25.179 0 0 0
751 5 26.9775 10.791 26.9775 0 0 0
754 5 28.776 12.5895 30.5745 0 0 0
758 5 28.776 12.5895 34.1715 0 0 0
759 5 26.9775 10.791 34.1715 0 0 0
762 5 28.776 16.1865 1.7985 0 0 0
764 5 26.9775 16.1865 0.0 0 0 0
765 5 28.776 14.388 3.597 0 0 0
768 5 26.9775 16.1865 3.597 0 0 0
774 5 28.776 16.1865 12.5895 0 0 0
775 5 26.9775 14.388 12.5895 0 0 0
784 5 26.9775 16.1865 17.985 0 0 0
785 5 28.776 14.388 21.582 0 0 0
786 5 28.776 16.1865 23.3805 0 0 0
798 5 28.776 16.1865 34.1715 0 0 0
800 5 26.9775 16.1865 32.373 0 0 0
803 5 26.9775 17.985 1.7985 0 0 0
806 5 28.776 19.7835 5.3955 0 0 0
810 5 28.776 19.7835 8.9925 0 0 0
815 5 26.9775 17.985 12.5895 0 0 0
820 5 26.9775 19.7835 14.388 0 0 0
823 5 26.9775 17.985 19.7835 0 0 0
824 5 26.9775 19.7835 17.985 0 0 0
826 5 28.776 19.7835 23.3805 0 0 0
829 5 28.776 17.985 25.179 0 0 0
837 5 28.776 17.985 32.373 0 0 0
838 5 28.776 19.7835 34.1715 0 0 0
839 5 26.9775 17.985 34.1715 0 0 0
840 5 26.9775 19.7835 32.373 0 0 0
847 5 26.9775 21.582 5.3955 0 0 0
850 5 28.776 23.3805 8.9925 0 0 0
851 5 26.9775 21.582 8.9925 0 0 0
852 5 26.9775 23.3805 7.194 0 0 0
854 5 28.776 23.3805 12.5895 0 0 0
859 5 26.9775 21.582 16.1865 0 0 0
860 5 26.9775 23.3805 14.388 0 0 0
865 5 28.776 21.582 21.582 0 0 0
866 5 28.776 23.3805 23.3805 0 0 0
869 5 28.776 21.582 25.179 0 0 0
873 5 28.776 21.582 28.776 0 0 0
875 5 26.9775 21.582 30.5745 0 0 0
877 5 28.776 21.582 32.373 0 0 0
880 5 26.9775 23.3805 32.373 0 0 0
881 5 28.776 25.179 0.0 0 0 0
883 5 26.9775 25.179 1.7985 0 0 0
891 5 26.9775 25.179 8.9925 0 0 0
892 5 26.9775 26.9775 7.194 0 0 0
900 5 26.9775 26.9775 14.388 0 0 0
905 5 28.776 25.179 21.582 0 0 0
906 5 28.776 26.9775 23.3805 0 0 0
907 5 26.9775 25.179 23.3805 0 0 0
909 5 28.776 25.179 25.179 0 0 0
913 5 28.776 25.179 28.776 0 0 0
917 5 28.776 25.179 32.373 0 0 0
918 5 28.776 26.9775 34.1715 0 0 0
920 5 26.9775 26.9775 32.373 0 0 0
921 5 28.776 28.776 0.0 0 0 0
932 5 26.9775 30.5745 7.194 0 0 0
936 5 26.9775 30.5745 10.791 0 0 0
940 5 26.9775 30.5745 14.388 0 0 0
942 5 28.776 30.5745 19.7835 0 0 0
943 5 26.9775 28.776 19.7835 0 0 0
945 5 28.776 28.776 21.582 0 0 0
946 5 28.776 30.5745 23.3805 0 0 0
948 5 26.9775 30.5745 21.582 0 0 0
951 5 26.9775 28.776 26.9775 0 0 0
956 5 26.9775 30.5745 28.776 0 0 0
962 5 28.776 34.1715 1.7985 0 0 0
963 5 26.9775 32.373 1.7985 0 0 0
964 5 26.9775 34.1715 0.0 0 0 0
966 5 28.776 34.1715 5.3955 0 0 0
967 5 26.9775 32.373 5.3955 0 0 0
977 5 28.776 32.373 14.388 0 0 0
979 5 26.9775 32.373 16.1865 0 0 0
980 5 26.9775 34.1715 14.388 0 0 0
987 5 26.9775 32.373 23.3805 0 0 0
988 5 26.9775 34.1715 21.582 0 0 0
990 5 28.776 34.1715 26.9775 0 0 0
991 5 26.9775 32.373 26.9775 0 0 0
992 5 26.9775 34.1715 25.179 0 0 0
999 5 26.9775 32.373 34.1715 0 0 0
1000 5 26.9775 34.1715 32.373 0 0 0
1001 5 25.179 0.0 0.0 0 0 0
1007 5 23.3805 0.0 5.3955 0 0 0
1011 5 23.3805 0.0 8.9925 0 0 0
1013 5 25.179 0.0 10.791 0 0 0
1019 5 23.3805 0.0 16.1865 0 0 0
1021 5 25.179 0.0 17.985 0 0 0
1023 5 23.3805 0.0 19.7835 0 0 0
1024 5 23.3805 1.7985 17.985 0 0 0
1028 5 23.3805 1.7985 21.582 0 0 0
1029 5 25.179 0.0 25.179 0 0 0
1030 5 25.179 1.7985 26.9775 0 0 0
1035 5 23.3805 0.0 30.5745 0 0 0
1036 5 23.3805 1.7985 28.776 0 0 0
1037 5 25.179 0.0 32.373 0 0 0
1039 5 23.3805 0.0 34.1715 0 0 0
1040 5 23.3805 1.7985 32.373 0 0 0
1042 5 25.179 5.3955 1.7985 0 0 0
1043 5 23.3805 3.597 1.7985 0 0 0
1044 5 23.3805 5.3955 0.0 0 0 0
1046 5 25.179 5.3955 5.3955 0 0 0
1048 5 23.3805 5.3955 3.597 0 0 0
1050 5 25.179 5.3955 8.9925 0 0 0
1052 5 23.3805 5.3955 7.194 0 0 0
1053 5 25.179 3.597 10.791 0 0 0
1054 5 25.179 5.3955 12.5895 0 0 0
1055 5 23.3805 3.597 12.5895 0 0 0
1057 5 25.179 3.597 14.388 0 0 0
1064 5 23.3805 5.3955 17.985 0 0 0
1066 5 25.179 5.3955 23.3805 0 0 0
1068 5 23.3805 5.3955 21.582 0 0 0
1071 5 23.3805 3.597 26.9775 0 0 0
1079 5 23.3805 3.597 34.1715 0 0 0
1081 5 25.179 7.194 0.0 0 0 0
1087 5 23.3805 7.194 5.3955 0 0 0
1089 5 25.179 7.194 7.194 0 0 0
1095 5 23.3805 7.194 12.5895 0 0 0
1096 5 23.3805 8.9925 10.791 0 0 0
1097 5 25.179 7.194 14.388 0 0 0
1099 5 23.3805 7.194 16.1865 0 0 0
1100 5 23.3805 8.9925 14.388 0 0 0
1105 5 25.179 7.194 21.582 0 0 0
1106 5 25.179 8.9925 23.3805 0 0 0
1107 5 23.3805 7.194 23.3805 0 0 0
1108 5 23.3805 8.9925 21.582 0 0 0
1112 5 23.3805 8.9925 25.179 0 0 0
1113 5 25.179 7.194 28.776 0 0 0
1114 5 25.179 8.9925 30.5745 0 0 0
1120 5 23.3805 8.9925 32.373 0 0 0
1123 5 23.3805 10.791 1.7985 0 0 0
1130 5 25.179 12.5895 8.9925 0 0 0
1132 5 23.3805 12.5895 7.194 0 0 0
1134 5 25.179 12.5895 12.5895 0 0 0
1141 5 25.179 10.791 17.985 0 0 0
1146 5 25.179 12.5895 23.3805 0 0 0
1153 5 25.179 10.791 28.776 0 0 0
1154 5 25.179 12.5895 30.5745 0 0 0
1161 5 25.179 14.388 0.0 0 0 0
1163 5 23.3805 14.388 1.7985 0 0 0
1164 5 23.3805 16.1865 0.0 0 0 0
1165 5 25.179 14.388 3.597 0 0 0
1168 5 23.3805 16.1865 3.597 0 0 0
1170 5 25.179 16.1865 8.9925 0 0 0
1174 5 25.179 16.1865 12.5895 0 0 0
1175 5 23.3805 14.388 12.5895 0 0 0
1179 5 23.3805 14.388 16.1865 0 0 0
1180 5 23.3805 16.1865 14.388 0 0 0
1189 5 25.179 14.388 25.179 0 0 0
1192 5 23.3805 16.1865 25.179 0 0 0
1193 5 25.179 14.388 28.776 0 0 0
1197 5 25.179 14.388 32.373 0 0 0
1200 5 23.3805 16.1865 32.373 0 0 0
1203 5 23.3805 17.985 1.7985 0 0 0
1205 5 25.179 17.985 3.597 0 0 0
1212 5 23.3805 19.7835 7.194 0 0 0
1216 5 23.3805 19.7835 10.791 0 0 0
1228 5 23.3805 19.7835 21.582 0 0 0
1229 5 25.179 17.985 25.179 0 0 0
1240 5 23.3805 19.7835 32.373 0 0 0
1250 5 25.179 23.3805 8.9925 0 0 0
1259 5 23.3805 21.582 16.1865 0 0 0
1261 5 25.179 21.582 17.985 0 0 0
1264 5 23.3805 23.3805 17.985 0 0 0
1265 5 25.179 21.582 21.582 0 0 0
1268 5 23.3805 23.3805 21.582 0 0 0
1270 5 25.179 23.3805 26.9775 0 0 0
1277 5 25.179 21.582 32.373 0 0 0
1281 5 25.179 25.179 0.0 0 0 0
1282 5 25.179 26.9775 1.7985 0 0 0
1285 5 25.179 25.179 3.597 0 0 0
1288 5 23.3805 26.9775 3.597 0 0 0
1289 5 25.179 25.179 7.194 0 0 0
1295 5 23.3805 25.179 12.5895 0 0 0
1296 5 23.3805 26.9775 10.791 0 0 0
1298 5 25.179 26.9775 16.1865 0 0 0
1299 5 23.3805 25.179 16.1865 0 0 0
1300 5 23.3805 26.9775 14.388 0 0 0
1302 5 25.179 26.9775 19.7835 0 0 0
1304 5 23.3805 26.9775 17.985 0 0 0
1305 5 25.179 25.179 21.582 0 0 0
1308 5 23.3805 26.9775 21.582 0 0 0
1309 5 25.179 25.179 25.179 0 0 0
1312 5 23.3805 26.9775 25.179 0 0 0
1314 5 25.179 26.9775 30.5745 0 0 0
1317 5 25.179 25.179 32.373 0 0 0
1323 5 23.3805 28.776 1.7985 0 0 0
1325 5 25.179 28.776 3.597 0 0 0
1326 5 25.179 30.5745 5.3955 0 0 0
1327 5 23.3805 28.776 5.3955 0 0 0
1328 5 23.3805 30.5745 3.597 0 0 0
1330 5 25.179 30.5745 8.9925 0 0 0
1333 5 25.179 28.776 10.791 0 0 0
1340 5 23.3805 30.5745 14.388 0 0 0
1341 5 25.179 28.776 17.985 0 0 0
1343 5 23.3805 28.776 19.7835 0 0 0
1347 5 23.3805 28.776 23.3805 0 0 0
1348 5 23.3805 30.5745 21.582 0 0 0
1352 5 23.3805 30.5745 25.179 0 0 0
1359 5 23.3805 28.776 34.1715 0 0 0
1366 5 25.179 34.1715 5.3955 0 0 0
1368 5 23.3805 34.1715 3.597 0 0 0
1369 5 25.179 32.373 7.194 0 0 0
1371 5 23.3805 32.373 8.9925 0 0 0
1377 5 25.179 32.373 14.388 0 0 0
1378 5 25.179 34.1715 16.1865 0 0 0
1381 5 25.179 32.373 17.985 0 0 0
1393 5 25.179 32.373 28.776 0 0 0
1397 5 25.179 32.373 32.373 0 0 0
1399 5 23.3805 32.373 34.1715 0 0 0
1402 5 21.582 1.7985 1.7985 0 0 0
1403 5 19.7835 0.0 1.7985 0 0 0
1404 5 19.7835 1.7985 0.0 0 0 0
1406 5 21.582 1.7985 5.3955 0 0 0
1407 5 19.7835 0.0 5.3955 0 0 0
1409 5 21.582 0.0 7.194 0 0 0
1411 5 19.7835 0.0 8.9925 0 0 0
1412 5 19.7835 1.7985 7.194 0 0 0
1421 5 21.582 0.0 17.985 0 0 0
1422 5 21.582 1.7985 19.7835 0 0 0
1425 5 21.582 0.0 21.582 0 0 0
1427 5 19.7835 0.0 23.3805 0 0 0
1435 5 19.7835 0.0 30.5745 0 0 0
1436 5 19.7835 1.7985 28.776 0 0 0
1437 5 21.582 0.0 32.373 0 0 0
1440 5 19.7835 1.7985 32.373 0 0 0
1443 5 19.7835 3.597 1.7985 0 0 0
1452 5 19.7835 5.3955 7.194 0 0 0
1454 5 21.582 5.3955 12.5895 0 0 0
1457 5 21.582 3.597 14.388 0 0 0
1458 5 21.582 5.3955 16.1865 0 0 0
1460 5 19.7835 5.3955 14.388 0 0 0
1462 5 21.582 5.3955 19.7835 0 0 0
1463 5 19.7835 3.597 19.7835 0 0 0
1464 5 19.7835 5.3955 17.985 0 0 0
1467 5 19.7835 3.597 23.3805 0 0 0
1468 5 19.7835 5.3955 21.582 0 0 0
1481 5 21.582 7.194 0.0 0 0 0
1485 5 21.582 7.194 3.597 0 0 0
1489 5 21.582 7.194 7.194 0 0 0
1494 5 21.582 8.9925 12.5895 0 0 0
1501 5 21.582 7.194 17.985 0 0 0
1504 5 19.7835 8.9925 17.985 0 0 0
1505 5 21.582 7.194 21.582 0 0 0
1518 5 21.582 8.9925 34.1715 0 0 0
1520 5 19.7835 8.9925 32.373 0 0 0
1521 5 21.582 10.791 0.0 0 0 0
1522 5 21.582 12.5895 1.7985 0 0 0
1525 5 21.582 10.791 3.597 0 0 0
1526 5 21.582 12.5895 5.3955 0 0 0
1529 5 21.582 10.791 7.194 0 0 0
1533 5 21.582 10.791 10.791 0 0 0
1534 5 21.582 12.5895 12.5895 0 0 0
1536 5 19.7835 12.5895 10.791 0 0 0
1538 5 21.582 12.5895 16.1865 0 0 0
1539 5 19.7835 10.791 16.1865 0 0 0
1540 5 19.7835 12.5895 14.388 0 0 0
1549 5 21.582 10.791 25.179 0 0 0
1551 5 19.7835 10.791 26.9775 0 0 0
1565 5 21.582 14.388 3.597 0 0 0
1568 5 19.7835 16.1865 3.597 0 0 0
1572 5 19.7835 16.1865 7.194 0 0 0
1575 5 19.7835 14.388 12.5895 0 0 0
1576 5 19.7835 16.1865 10.791 0 0 0
1578 5 21.582 16.1865 16.1865 0 0 0
1580 5 19.7835 16.1865 14.388 0 0 0
1581 5 21.582 14.388 17.985 0 0 0
1582 5 21.582 16.1865 19.7835 0 0 0
1586 5 21.582 16.1865 23.3805 0 0 0
1587 5 19.7835 14.388 23.3805 0 0 0
1588 5 19.7835 16.1865 21.582 0 0 0
1595 5 19.7835 14.388 30.5745 0 0 0
1600 5 19.7835 16.1865 32.373 0 0 0
1601 5 21.582 17.985 0.0 0 0 0
1603 5 19.7835 17.985 1.7985 0 0 0
1604 5 19.7835 19.7835 0.0 0 0 0
1606 5 21.582 19.7835 5.3955 0 0 0
1608 5 19.7835 19.7835 3.597 0 0 0
1609 5 21.582 17.985 7.194 0 0 0
1614 5 21.582 19.7835 12.5895 0 0 0
1616 5 19.7835 19.7835 10.791 0 0 0
1618 5 21.582 19.7835 16.1865 0 0 0
1620 5 19.7835 19.7835 14.388 0 0 0
1622 5 21.582 19.7835 19.7835 0 0 0
1623 5 19.7835 17.985 19.7835 0 0 0
1628 5 19.7835 19.7835 21.582 0 0 0
1630 5 21.582 19.7835 26.9775 0 0 0
1634 5 21.582 19.7835 30.5745 0 0 0
1636 5 19.7835 19.7835 28.776 0 0 0
1642 5 21.582 23.3805 1.7985 0 0 0
1643 5 19.7835 21.582 1.7985 0 0 0
1646 5 21.582 23.3805 5.3955 0 0 0
1652 5 19.7835 23.3805 7.194 0 0 0
1666 5 21.582 23.3805 23.3805 0 0 0
1669 5 21.582 21.582 25.179 0 0 0
1677 5 21.582 21.582 32.373 0 0 0
1679 5 19.7835 21.582 34.1715 0 0 0
1684 5 19.7835 26.9775 0.0 0 0 0
1685 5 21.582 25.179 3.597 0 0 0
1686 5 21.582 26.9775 5.3955 0 0 0
1687 5 19.7835 25.179 5.3955 0 0 0
1688 5 19.7835 26.9775 3.597 0 0 0
1692 5 19.7835 26.9775 7.194 0 0 0
1697 5 21.582 25.179 14.388 0 0 0
1701 5 21.582 25.179 17.985 0 0 0
1707 5 19.7835 25.179 23.3805 0 0 0
1711 5 19.7835 25.179 26.9775 0 0 0
1714 5 21.582 26.9775 30.5745 0 0 0
1716 5 19.7835 26.9775 28.776 0 0 0
1717 5 21.582 25.179 32.373 0 0 0
1719 5 19.7835 25.179 34.1715 0 0 0
1720 5 19.7835 26.9775 32.373 0 0 0
1722 5 21.582 30.5745 1.7985 0 0 0
1724 5 19.7835 30.5745 0.0 0 0 0
1725 5 21.582 28.776 3.597 0 0 0
1731 5 19.7835 28.776 8.9925 0 0 0
1733 5 21.582 28.776 10.791 0 0 0
1735 5 19.7835 28.776 12.5895 0 0 0
1738 5 21.582 30.5745 16.1865 0 0 0
1745 5 21.582 28.776 21.582 0 0 0
1746 5 21.582 30.5745 23.3805 0 0 0
1752 5 19.7835 30.5745 25.179 0 0 0
1754 5 21.582 30.5745 30.5745 0 0 0
1756 5 19.7835 30.5745 28.776 0 0 0
1757 5 21.582 28.776 32.373 0 0 0
1758 5 21.582 30.5745 34.1715 0 0 0
1765 5 21.582 32.373 3.597 0 0 0
1766 5 21.582 34.1715 5.3955 0 0 0
1772 5 19.7835 34.1715 7.194 0 0 0
1773 5 21.582 32.373 10.791 0 0 0
1775 5 19.7835 32.373 12.5895 0 0 0
1779 5 19.7835 32.373 16.1865 0 0 0
1784 5 19.7835 34.1715 17.985 0 0 0
1787 5 19.7835 32.373 23.3805 0 0 0
1795 5 19.7835 32.373 30.5745 0 0 0
1796 5 19.7835 34.1715 28.776 0 0 0
1803 5 16.1865 0.0 1.7985 0 0 0
1805 5 17.985 0.0 3.597 0 0 0
1807 5 16.1865 0.0 5.3955 0 0 0
1808 5 16.1865 1.7985 3.597 0 0 0
1815 5 16.1865 0.0 12.5895 0 0 0
1821 5 17.985 0.0 17.985 0 0 0
1822 5 17.985 1.7985 19.7835 0 0 0
1828 5 16.1865 1.7985 21.582 0 0 0
1832 5 16.1865 1.7985 25.179 0 0 0
1836 5 16.1865 1.7985 28.776 0 0 0
1840 5 16.1865 1.7985 32.373 0 0 0
1845 5 17.985 3.597 3.597 0 0 0
1847 5 16.1865 3.597 5.3955 0 0 0
1848 5 16.1865 5.3955 3.597 0 0 0
1851 5 16.1865 3.597 8.9925 0 0 0
1853 5 17.985 3.597 10.791 0 0 0
1857 5 17.985 3.597 14.388 0 0 0
1859 5 16.1865 3.597 16.1865 0 0 0
1860 5 16.1865 5.3955 14.388 0 0 0
1861 5 17.985 3.597 17.985 0 0 0
1863 5 16.1865 3.597 19.7835 0 0 0
1869 5 17.985 3.597 25.179 0 0 0
1872 5 16.1865 5.3955 25.179 0 0 0
1874 5 17.985 5.3955 30.5745 0 0 0
1878 5 17.985 5.3955 34.1715 0 0 0
1880 5 16.1865 5.3955 32.373 0 0 0
1884 5 16.1865 8.9925 0.0 0 0 0
1885 5 17.985 7.194 3.597 0 0 0
1889 5 17.985 7.194 7.194 0 0 0
1890 5 17.985 8.9925 8.9925 0 0 0
1900 5 16.1865 8.9925 14.388 0 0 0
1901 5 17.985 7.194 17.985 0 0 0
1907 5 16.1865 7.194 23.3805 0 0 0
1909 5 17.985 7.194 25.179 0 0 0
1912 5 16.1865 8.9925 25.179 0 0 0
1913 5 17.985 7.194 28.776 0 0 0
1914 5 17.985 8.9925 30.5745 0 0 0
1917 5 17.985 7.194 32.373 0 0 0
1919 5 16.1865 7.194 34.1715 0 0 0
1921 5 17.985 10.791 0.0 0 0 0
1926 5 17.985 12.5895 5.3955 0 0 0
1933 5 17.985 10.791 10.791 0 0 0
1934 5 17.985 12.5895 12.5895 0 0 0
1935 5 16.1865 10.791 12.5895 0 0 0
1939 5 16.1865 10.791 16.1865 0 0 0
1944 5 16.1865 12.5895 17.985 0 0 0
1949 5 17.985 10.791 25.179 0 0 0
1951 5 16.1865 10.791 26.9775 0 0 0
1952 5 16.1865 12.5895 25.179 0 0 0
1953 5 17.985 10.791 28.776 0 0 0
1955 5 16.1865 10.791 30.5745 0 0 0
1957 5 17.985 10.791 32.373 0 0 0
1958 5 17.985 12.5895 34.1715 0 0 0
1961 5 17.985 14.388 0.0 0 0 0
1963 5 16.1865 14.388 1.7985 0 0 0
1966 5 17.985 16.1865 5.3955 0 0 0
1972 5 16.1865 16.1865 7.194 0 0 0
1973 5 17.985 14.388 10.791 0 0 0
1976 5 16.1865 16.1865 10.791 0 0 0
1977 5 17.985 14.388 14.388 0 0 0
1986 5 17.985 16.1865 23.3805 0 0 0
1990 5 17.985 16.1865 26.9775 0 0 0
1992 5 16.1865 16.1865 25.179 0 0 0
1994 5 17.985 16.1865 30.5745 0 0 0
1998 5 17.985 16.1865 34.1715 0 0 0
2004 5 16.1865 19.7835 0.0 0 0 0
2005 5 17.985 17.985 3.597 0 0 0
2011 5 16.1865 17.985 8.9925 0 0 0
2013 5 17.985 17.985 10.791 0 0 0
2019 5 16.1865 17.985 16.1865 0 0 0
2020 5 16.1865 19.7835 14.388 0 0 0
2023 5 16.1865 17.985 19.7835 0 0 0
2026 5 17.985 19.7835 23.3805 0 0 0
2028 5 16.1865 19.7835 21.582 0 0 0
2030 5 17.985 19.7835 26.9775 0 0 0
2035 5 16.1865 17.985 30.5745 0 0 0
2037 5 17.985 17.985 32.373 0 0 0
2044 5 16.1865 23.3805 0.0 0 0 0
2045 5 17.985 21.582 3.597 0 0 0
2046 5 17.985 23.3805 5.3955 0 0 0
2049 5 17.985 21.582 7.194 0 0 0
2052 5 16.1865 23.3805 7.194 0 0 0
2062 5 17.985 23.3805 19.7835 0 0 0
2071 5 16.1865 21.582 26.9775 0 0 0
2075 5 16.1865 21.582 30.5745 0 0 0
2080 5 16.1865 23.3805 32.373 0 0 0
2081 5 17.985 25.179 0.0 0 0 0
2087 5 16.1865 25.179 5.3955 0 0 0
2088 5 16.1865 26.9775 3.597 0 0 0
2091 5 16.1865 25.179 8.9925 0 0 0
2092 5 16.1865 26.9775 7.194 0 0 0
2093 5 17.985 25.179 10.791 0 0 0
2097 5 17.985 25.179 14.388 0 0 0
2104 5 16.1865 26.9775 17.985 0 0 0
2108 5 16.1865 26.9775 21.582 0 0 0
2110 5 17.985 26.9775 26.9775 0 0 0
2113 5 17.985 25.179 28.776 0 0 0
2119 5 16.1865 25.179 34.1715 0 0 0
2124 5 16.1865 30.5745 0.0 0 0 0
2126 5 17.985 30.5745 5.3955 0 0 0
2128 5 16.1865 30.5745 3.597 0 0 0
2130 5 17.985 30.5745 8.9925 0 0 0
2132 5 16.1865 30.5745 7.194 0 0 0
2133 5 17.985 28.776 10.791 0 0 0
2134 5 17.985 30.5745 12.5895 0 0 0
2136 5 16.1865 30.5745 10.791 0 0 0
2137 5 17.985 28.776 14.388 0 0 0
2138 5 17.985 30.5745 16.1865 0 0 0
2139 5 16.1865 28.776 16.1865 0 0 0
2141 5 17.985 28.776 17.985 0 0 0
2143 5 16.1865 28.776 19.7835 0 0 0
2145 5 17.985 28.776 21.582 0 0 0
2148 5 16.1865 30.5745 21.582 0 0 0
2150 5 17.985 30.5745 26.9775 0 0 0
2152 5 16.1865 30.5745 25.179 0 0 0
2154 5 17.985 30.5745 30.5745 0 0 0
2155 5 16.1865 28.776 30.5745 0 0 0
2157 5 17.985 28.776 32.373 0 0 0
2165 5 17.985 32.373 3.597 0 0 0
2167 5 16.1865 32.373 5.3955 0 0 0
2169 5 17.985 32.373 7.194 0 0 0
2171 5 16.1865 32.373 8.9925 0 0 0
2177 5 17.985 32.373 14.388 0 0 0
2178 5 17.985 34.1715 16.1865 0 0 0
2179 5 16.1865 32.373 16.1865 0 0 0
2181 5 17.985 32.373 17.985 0 0 0
2187 5 16.1865 32.373 23.3805 0 0 0
2191 5 16.1865 32.373 26.9775 0 0 0
2192 5 16.1865 34.1715 25.179 0 0 0
2193 5 17.985 32.373 28.776 0 0 0
2195 5 16.1865 32.373 30.5745 0 0 0
2199 5 16.1865 32.373 34.1715 0 0 0
2202 5 14.388 1.7985 1.7985 0 0 0
2203 5 12.5895 0.0 1.7985 0 0 0
2205 5 14.388 0.0 3.597 0 0 0
2209 5 14.388 0.0 7.194 0 0 0
2211 5 12.5895 0.0 8.9925 0 0 0
2212 5 12.5895 1.7985 7.194 0 0 0
2215 5 12.5895 0.0 12.5895 0 0 0
2216 5 12.5895 1.7985 10.791 0 0 0
2218 5 14.388 1.7985 16.1865 0 0 0
2224 5 12.5895 1.7985 17.985 0 0 0
2225 5 14.388 0.0 21.582 0 0 0
2226 5 14.388 1.7985 23.3805 0 0 0
2227 5 12.5895 0.0 23.3805 0 0 0
2229 5 14.388 0.0 25.179 0 0 0
2234 5 14.388 1.7985 30.5745 0 0 0
2235 5 12.5895 0.0 30.5745 0 0 0
2237 5 14.388 0.0 32.373 0 0 0
2243 5 12.5895 3.597 1.7985 0 0 0
2244 5 12.5895 5.3955 0.0 0 0 0
2245 5 14.388 3.597 3.597 0 0 0
2246 5 14.388 5.3955 5.3955 0 0 0
2248 5 12.5895 5.3955 3.597 0 0 0
2251 5 12.5895 3.597 8.9925 0 0 0
2252 5 12.5895 5.3955 7.194 0 0 0
2257 5 14.388 3.597 14.388 0 0 0
2258 5 14.388 5.3955 16.1865 0 0 0
2259 5 12.5895 3.597 16.1865 0 0 0
2263 5 12.5895 3.597 19.7835 0 0 0
2266 5 14.388 5.3955 23.3805 0 0 0
2267 5 12.5895 3.597 23.3805 0 0 0
2268 5 12.5895 5.3955 21.582 0 0 0
2269 5 14.388 3.597 25.179 0 0 0
2271 5 12.5895 3.597 26.9775 0 0 0
2274 5 14.388 5.3955 30.5745 0 0 0
2275 5 12.5895 3.597 30.5745 0 0 0
2276 5 12.5895 5.3955 28.776 0 0 0
2277 5 14.388 3.597 32.373 0 0 0
2278 5 14.388 5.3955 34.1715 0 0 0
2279 5 12.5895 3.597 34.1715 0 0 0
2281 5 14.388 7.194 0.0 0 0 0
2286 5 14.388 8.9925 5.3955 0 0 0
2287 5 12.5895 7.194 5.3955 0 0 0
2289 5 14.388 7.194 7.194 0 0 0
2291 5 12.5895 7.194 8.9925 0 0 0
2293 5 14.388 7.194 10.791 0 0 0
2294 5 14.388 8.9925 12.5895 0 0 0
2297 5 14.388 7.194 14.388 0 0 0
2299 5 12.5895 7.194 16.1865 0 0 0
2300 5 12.5895 8.9925 14.388 0 0 0
2302 5 14.388 8.9925 19.7835 0 0 0
2304 5 12.5895 8.9925 17.985 0 0 0
2307 5 12.5895 7.194 23.3805 0 0 0
2311 5 12.5895 7.194 26.9775 0 0 0
2312 5 12.5895 8.9925 25.179 0 0 0
2313 5 14.388 7.194 28.776 0 0 0
2317 5 14.388 7.194 32.373 0 0 0
2319 5 12.5895 7.194 34.1715 0 0 0
2322 5 14.388 12.5895 1.7985 0 0 0
2324 5 12.5895 12.5895 0.0 0 0 0
2325 5 14.388 10.791 3.597 0 0 0
2327 5 12.5895 10.791 5.3955 0 0 0
2328 5 12.5895 12.5895 3.597 0 0 0
2330 5 14.388 12.5895 8.9925 0 0 0
2331 5 12.5895 10.791 8.9925 0 0 0
2336 5 12.5895 12.5895 10.791 0 0 0
2339 5 12.5895 10.791 16.1865 0 0 0
2341 5 14.388 10.791 17.985 0 0 0
2342 5 14.388 12.5895 19.7835 0 0 0
2343 5 12.5895 10.791 19.7835 0 0 0
2350 5 14.388 12.5895 26.9775 0 0 0
2356 5 12.5895 12.5895 28.776 0 0 0
2359 5 12.5895 10.791 34.1715 0 0 0
2360 5 12.5895 12.5895 32.373 0 0 0
2365 5 14.388 14.388 3.597 0 0 0
2368 5 12.5895 16.1865 3.597 0 0 0
2372 5 12.5895 16.1865 7.194 0 0 0
2375 5 12.5895 14.388 12.5895 0 0 0
2376 5 12.5895 16.1865 10.791 0 0 0
2379 5 12.5895 14.388 16.1865 0 0 0
2385 5 14.388 14.388 21.582 0 0 0
2391 5 12.5895 14.388 26.9775 0 0 0
2392 5 12.5895 16.1865 25.179 0 0 0
2395 5 12.5895 14.388 30.5745 0 0 0
2397 5 14.388 14.388 32.373 0 0 0
2399 5 12.5895 14.388 34.1715 0 0 0
2400 5 12.5895 16.1865 32.373 0 0 0
2404 5 12.5895 19.7835 0.0 0 0 0
2412 5 12.5895 19.7835 7.194 0 0 0
2414 5 14.388 19.7835 12.5895 0 0 0
2416 5 12.5895 19.7835 10.791 0 0 0
2428 5 12.5895 19.7835 21.582 0 0 0
2432 5 12.5895 19.7835 25.179 0 0 0
2433 5 14.388 17.985 28.776 0 0 0
2434 5 14.388 19.7835 30.5745 0 0 0
2435 5 12.5895 17.985 30.5745 0 0 0
2437 5 14.388 17.985 32.373 0 0 0
2449 5 14.388 21.582 7.194 0 0 0
2451 5 12.5895 21.582 8.9925 0 0 0
2452 5 12.5895 23.3805 7.194 0 0 0
2454 5 14.388 23.3805 12.5895 0 0 0
2457 5 14.388 21.582 14.388 0 0 0
2458 5 14.388 23.3805 16.1865 0 0 0
2460 5 12.5895 23.3805 14.388 0 0 0
2462 5 14.388 23.3805 19.7835 0 0 0
2463 5 12.5895 21.582 19.7835 0 0 0
2464 5 12.5895 23.3805 17.985 0 0 0
2465 5 14.388 21.582 21.582 0 0 0
2466 5 14.388 23.3805 23.3805 0 0 0
2469 5 14.388 21.582 25.179 0 0 0
2471 5 12.5895 21.582 26.9775 0 0 0
2477 5 14.388 21.582 32.373 0 0 0
2479 5 12.5895 21.582 34.1715 0 0 0
2481 5 14.388 25.179 0.0 0 0 0
2485 5 14.388 25.179 3.597 0 0 0
2488 5 12.5895 26.9775 3.597 0 0 0
2491 5 12.5895 25.179 8.9925 0 0 0
2494 5 14.388 26.9775 12.5895 0 0 0
2497 5 14.388 25.179 14.388 0 0 0
2499 5 12.5895 25.179 16.1865 0 0 0
2500 5 12.5895 26.9775 14.388 0 0 0
2501 5 14.388 25.179 17.985 0 0 0
2502 5 14.388 26.9775 19.7835 0 0 0
2506 5 14.388 26.9775 23.3805 0 0 0
2507 5 12.5895 25.179 23.3805 0 0 0
2512 5 12.5895 26.9775 25.179 0 0 0
2513 5 14.388 25.179 28.776 0 0 0
2515 5 12.5895 25.179 30.5745 0 0 0
2516 5 12.5895 26.9775 28.776 0 0 0
2517 5 14.388 25.179 32.373 0 0 0
2518 5 14.388 26.9775 34.1715 0 0 0
2523 5 12.5895 28.776 1.7985 0 0 0
2524 5 12.5895 30.5745 0.0 0 0 0
2527 5 12.5895 28.776 5.3955 0 0 0
2528 5 12.5895 30.5745 3.597 0 0 0
2533 5 14.388 28.776 10.791 0 0 0
2535 5 12.5895 28.776 12.5895 0 0 0
2538 5 14.388 30.5745 16.1865 0 0 0
2539 5 12.5895 28.776 16.1865 0 0 0
2544 5 12.5895 30.5745 17.985 0 0 0
2549 5 14.388 28.776 25.179 0 0 0
2552 5 12.5895 30.5745 25.179 0 0 0
2556 5 12.5895 30.5745 28.776 0 0 0
2558 5 14.388 30.5745 34.1715 0 0 0
2563 5 12.5895 32.373 1.7985 0 0 0
2568 5 12.5895 34.1715 3.597 0 0 0
2569 5 14.388 32.373 7.194 0 0 0
2575 5 12.5895 32.373 12.5895 0 0 0
2581 5 14.388 32.373 17.985 0 0 0
2594 5 14.388 34.1715 30.5745 0 0 0
2596 5 12.5895 34.1715 28.776 0 0 0
2598 5 14.388 34.1715 34.1715 0 0 0
2600 5 12.5895 34.1715 32.373 0 0 0
2612 5 8.9925 1.7985 7.194 0 0 0
2613 5 10.791 0.0 10.791 0 0 0
2618 5 10.791 1.7985 16.1865 0 0 0
2621 5 10.791 0.0 17.985 0 0 0
2626 5 10.791 1.7985 23.3805 0 0 0
2628 5 8.9925 1.7985 21.582 0 0 0
2631 5 8.9925 0.0 26.9775 0 0 0
2633 5 10.791 0.0 28.776 0 0 0
2640 5 8.9925 1.7985 32.373 0 0 0
2643 5 8.9925 3.597 1.7985 0 0 0
2645 5 10.791 3.597 3.597 0 0 0
2646 5 10.791 5.3955 5.3955 0 0 0
2649 5 10.791 3.597 7.194 0 0 0
2652 5 8.9925 5.3955 7.194 0 0 0
2669 5 10.791 3.597 25.179 0 0 0
2670 5 10.791 5.3955 26.9775 0 0 0
2676 5 8.9925 5.3955 28.776 0 0 0
2677 5 10.791 3.597 32.373 0 0 0
2678 5 10.791 5.3955 34.1715 0 0 0
2682 5 10.791 8.9925 1.7985 0 0 0
2683 5 8.9925 7.194 1.7985 0 0 0
2686 5 10.791 8.9925 5.3955 0 0 0
2689 5 10.791 7.194 7.194 0 0 0
2692 5 8.9925 8.9925 7.194 0 0 0
2694 5 10.791 8.9925 12.5895 0 0 0
2695 5 8.9925 7.194 12.5895 0 0 0
2696 5 8.9925 8.9925 10.791 0 0 0
2699 5 8.9925 7.194 16.1865 0 0 0
2701 5 10.791 7.194 17.985 0 0 0
2703 5 8.9925 7.194 19.7835 0 0 0
2704 5 8.9925 8.9925 17.985 0 0 0
2705 5 10.791 7.194 21.582 0 0 0
2711 5 8.9925 7.194 26.9775 0 0 0
2712 5 8.9925 8.9925 25.179 0 0 0
2715 5 8.9925 7.194 30.5745 0 0 0
2717 5 10.791 7.194 32.373 0 0 0
2719 5 8.9925 7.194 34.1715 0 0 0
2721 5 10.791 10.791 0.0 0 0 0
2722 5 10.791 12.5895 1.7985 0 0 0
2725 5 10.791 10.791 3.597 0 0 0
2733 5 10.791 10.791 10.791 0 0 0
2739 5 8.9925 10.791 16.1865 0 0 0
2742 5 10.791 12.5895 19.7835 0 0 0
2744 5 8.9925 12.5895 17.985 0 0 0
2747 5 8.9925 10.791 23.3805 0 0 0
2752 5 8.9925 12.5895 25.179 0 0 0
2753 5 10.791 10.791 28.776 0 0 0
2757 5 10.791 10.791 32.373 0 0 0
2770 5 10.791 16.1865 8.9925 0 0 0
2772 5 8.9925 16.1865 7.194 0 0 0
2773 5 10.791 14.388 10.791 0 0 0
2779 5 8.9925 14.388 16.1865 0 0 0
2784 5 8.9925 16.1865 17.985 0 0 0
2791 5 8.9925 14.388 26.9775 0 0 0
2794 5 10.791 16.1865 30.5745 0 0 0
2795 5 8.9925 14.388 30.5745 0 0 0
2796 5 8.9925 16.1865 28.776 0 0 0
2798 5 10.791 16.1865 34.1715 0 0 0
2800 5 8.9925 16.1865 32.373 0 0 0
2806 5 10.791 19.7835 5.3955 0 0 0
2810 5 10.791 19.7835 8.9925 0 0 0
2811 5 8.9925 17.985 8.9925 0 0 0
2813 5 10.791 17.985 10.791 0 0 0
2815 5 8.9925 17.985 12.5895 0 0 0
2820 5 8.9925 19.7835 14.388 0 0 0
2824 5 8.9925 19.7835 17.985 0 0 0
2825 5 10.791 17.985 21.582 0 0 0
2827 5 8.9925 17.985 23.3805 0 0 0
2830 5 10.791 19.7835 26.9775 0 0 0
2831 5 8.9925 17.985 26.9775 0 0 0
2836 5 8.9925 19.7835 28.776 0 0 0
2839 5 8.9925 17.985 34.1715 0 0 0
2842 5 10.791 23.3805 1.7985 0 0 0
2844 5 8.9925 23.3805 0.0 0 0 0
2858 5 10.791 23.3805 16.1865 0 0 0
2861 5 10.791 21.582 17.985 0 0 0
2863 5 8.9925 21.582 19.7835 0 0 0
2868 5 8.9925 23.3805 21.582 0 0 0
2871 5 8.9925 21.582 26.9775 0 0 0
2872 5 8.9925 23.3805 25.179 0 0 0
2873 5 10.791 21.582 28.776 0 0 0
2876 5 8.9925 23.3805 28.776 0 0 0
2878 5 10.791 23.3805 34.1715 0 0 0
2880 5 8.9925 23.3805 32.373 0 0 0
2884 5 8.9925 26.9775 0.0 0 0 0
2887 5 8.9925 25.179 5.3955 0 0 0
2890 5 10.791 26.9775 8.9925 0 0 0
2895 5 8.9925 25.179 12.5895 0 0 0
2896 5 8.9925 26.9775 10.791 0 0 0
2897 5 10.791 25.179 14.388 0 0 0
2902 5 10.791 26.9775 19.7835 0 0 0
2903 5 8.9925 25.179 19.7835 0 0 0
2905 5 10.791 25.179 21.582 0 0 0
2908 5 8.9925 26.9775 21.582 0 0 0
2909 5 10.791 25.179 25.179 0 0 0
2910 5 10.791 26.9775 26.9775 0 0 0
2912 5 8.9925 26.9775 25.179 0 0 0
2920 5 8.9925 26.9775 32.373 0 0 0
2922 5 10.791 30.5745 1.7985 0 0 0
2924 5 8.9925 30.5745 0.0 0 0 0
2926 5 10.791 30.5745 5.3955 0 0 0
2929 5 10.791 28.776 7.194 0 0 0
2939 5 8.9925 28.776 16.1865 0 0 0
2940 5 8.9925 30.5745 14.388 0 0 0
2943 5 8.9925 28.776 19.7835 0 0 0
2945 5 10.791 28.776 21.582 0 0 0
2948 5 8.9925 30.5745 21.582 0 0 0
2950 5 10.791 30.5745 26.9775 0 0 0
2954 5 10.791 30.5745 30.5745 0 0 0
2958 5 10.791 30.5745 34.1715 0 0 0
2963 5 8.9925 32.373 1.7985 0 0 0
2965 5 10.791 32.373 3.597 0 0 0
2972 5 8.9925 34.1715 7.194 0 0 0
2976 5 8.9925 34.1715 10.791 0 0 0
2977 5 10.791 32.373 14.388 0 0 0
2983 5 8.9925 32.373 19.7835 0 0 0
2987 5 8.9925 32.373 23.3805 0 0 0
2988 5 8.9925 34.1715 21.582 0 0 0
2993 5 10.791 32.373 28.776 0 0 0
2994 5 10.791 34.1715 30.5745 0 0 0
2997 5 10.791 32.373 32.373 0 0 0
2998 5 10.791 34.1715 34.1715 0 0 0
3000 5 8.9925 34.1715 32.373 0 0 0
3003 5 5.3955 0.0 1.7985 0 0 0
3006 5 7.194 1.7985 5.3955 0 0 0
3007 5 5.3955 0.0 5.3955 0 0 0
3009 5 7.194 0.0 7.194 0 0 0
3010 5 7.194 1.7985 8.9925 0 0 0
3016 5 5.3955 1.7985 10.791 0 0 0
3018 5 7.194 1.7985 16.1865 0 0 0
3019 5 5.3955 0.0 16.1865 0 0 0
3021 5 7.194 0.0 17.985 0 0 0
3022 5 7.194 1.7985 19.7835 0 0 0
3024 5 5.3955 1.7985 17.985 0 0 0
3025 5 7.194 0.0 21.582 0 0 0
3028 5 5.3955 1.7985 21.582 0 0 0
3029 5 7.194 0.0 25.179 0 0 0
3030 5 7.194 1.7985 26.9775 0 0 0
3033 5 7.194 0.0 28.776 0 0 0
3034 5 7.194 1.7985 30.5745 0 0 0
3038 5 7.194 1.7985 34.1715 0 0 0
3041 5 7.194 3.597 0.0 0 0 0
3042 5 7.194 5.3955 1.7985 0 0 0
3044 5 5.3955 5.3955 0.0 0 0 0
3048 5 5.3955 5.3955 3.597 0 0 0
3053 5 7.194 3.597 10.791 0 0 0
3056 5 5.3955 5.3955 10.791 0 0 0
3057 5 7.194 3.597 14.388 0 0 0
3063 5 5.3955 3.597 19.7835 0 0 0
3070 5 7.194 5.3955 26.9775 0 0 0
3079 5 5.3955 3.597 34.1715 0 0 0
3084 5 5.3955 8.9925 0.0 0 0 0
3096 5 5.3955 8.9925 10.791 0 0 0
3097 5 7.194 7.194 14.388 0 0 0
3099 5 5.3955 7.194 16.1865 0 0 0
3108 5 5.3955 8.9925 21.582 0 0 0
3111 5 5.3955 7.194 26.9775 0 0 0
3112 5 5.3955 8.9925 25.179 0 0 0
3113 5 7.194 7.194 28.776 0 0 0
3119 5 5.3955 7.194 34.1715 0 0 0
3121 5 7.194 10.791 0.0 0 0 0
3122 5 7.194 12.5895 1.7985 0 0 0
3124 5 5.3955 12.5895 0.0 0 0 0
3127 5 5.3955 10.791 5.3955 0 0 0
3128 5 5.3955 12.5895 3.597 0 0 0
3131 5 5.3955 10.791 8.9925 0 0 0
3134 5 7.194 12.5895 12.5895 0 0 0
3145 5 7.194 10.791 21.582 0 0 0
3149 5 7.194 10.791 25.179 0 0 0
3151 5 5.3955 10.791 26.9775 0 0 0
3153 5 7.194 10.791 28.776 0 0 0
3155 5 5.3955 10.791 30.5745 0 0 0
3159 5 5.3955 10.791 34.1715 0 0 0
3162 5 7.194 16.1865 1.7985 0 0 0
3163 5 5.3955 14.388 1.7985 0 0 0
3165 5 7.194 14.388 3.597 0 0 0
3172 5 5.3955 16.1865 7.194 0 0 0
3173 5 7.194 14.388 10.791 0 0 0
3180 5 5.3955 16.1865 14.388 0 0 0
3182 5 7.194 16.1865 19.7835 0 0 0
3184 5 5.3955 16.1865 17.985 0 0 0
3185 5 7.194 14.388 21.582 0 0 0
3188 5 5.3955 16.1865 21.582 0 0 0
3189 5 7.194 14.388 25.179 0 0 0
3190 5 7.194 16.1865 26.9775 0 0 0
3192 5 5.3955 16.1865 25.179 0 0 0
3194 5 7.194 16.1865 30.5745 0 0 0
3195 5 5.3955 14.388 30.5745 0 0 0
3196 5 5.3955 16.1865 28.776 0 0 0
3197 5 7.194 14.388 32.373 0 0 0
3199 5 5.3955 14.388 34.1715 0 0 0
3204 5 5.3955 19.7835 0.0 0 0 0
3208 5 5.3955 19.7835 3.597 0 0 0
3210 5 7.194 19.7835 8.9925 0 0 0
3211 5 5.3955 17.985 8.9925 0 0 0
3215 5 5.3955 17.985 12.5895 0 0 0
3219 5 5.3955 17.985 16.1865 0 0 0
3222 5 7.194 19.7835 19.7835 0 0 0
3224 5 5.3955 19.7835 17.985 0 0 0
3225 5 7.194 17.985 21.582 0 0 0
3227 5 5.3955 17.985 23.3805 0 0 0
3229 5 7.194 17.985 25.179 0 0 0
3238 5 7.194 19.7835 34.1715 0 0 0
3239 5 5.3955 17.985 34.1715 0 0 0
3244 5 5.3955 23.3805 0.0 0 0 0
3246 5 7.194 23.3805 5.3955 0 0 0
3248 5 5.3955 23.3805 3.597 0 0 0
3251 5 5.3955 21.582 8.9925 0 0 0
3252 5 5.3955 23.3805 7.194 0 0 0
3254 5 7.194 23.3805 12.5895 0 0 0
3255 5 5.3955 21.582 12.5895 0 0 0
3258 5 7.194 23.3805 16.1865 0 0 0
3262 5 7.194 23.3805 19.7835 0 0 0
3273 5 7.194 21.582 28.776 0 0 0
3280 5 5.3955 23.3805 32.373 0 0 0
3281 5 7.194 25.179 0.0 0 0 0
3283 5 5.3955 25.179 1.7985 0 0 0
3288 5 5.3955 26.9775 3.597 0 0 0
3290 5 7.194 26.9775 8.9925 0 0 0
3292 5 5.3955 26.9775 7.194 0 0 0
3294 5 7.194 26.9775 12.5895 0 0 0
3297 5 7.194 25.179 14.388 0 0 0
3298 5 7.194 26.9775 16.1865 0 0 0
3299 5 5.3955 25.179 16.1865 0 0 0
3302 5 7.194 26.9775 19.7835 0 0 0
3307 5 5.3955 25.179 23.3805 0 0 0
3313 5 7.194 25.179 28.776 0 0 0
3319 5 5.3955 25.179 34.1715 0 0 0
3321 5 7.194 28.776 0.0 0 0 0
3322 5 7.194 30.5745 1.7985 0 0 0
3325 5 7.194 28.776 3.597 0 0 0
3331 5 5.3955 28.776 8.9925 0 0 0
3333 5 7.194 28.776 10.791 0 0 0
3336 5 5.3955 30.5745 10.791 0 0 0
3337 5 7.194 28.776 14.388 0 0 0
3344 5 5.3955 30.5745 17.985 0 0 0
3346 5 7.194 30.5745 23.3805 0 0 0
3362 5 7.194 34.1715 1.7985 0 0 0
3363 5 5.3955 32.373 1.7985 0 0 0
3366 5 7.194 34.1715 5.3955 0 0 0
3367 5 5.3955 32.373 5.3955 0 0 0
3371 5 5.3955 32.373 8.9925 0 0 0
3373 5 7.194 32.373 10.791 0 0 0
3376 5 5.3955 34.1715 10.791 0 0 0
3378 5 7.194 34.1715 16.1865 0 0 0
3381 5 7.194 32.373 17.985 0 0 0
3382 5 7.194 34.1715 19.7835 0 0 0
3383 5 5.3955 32.373 19.7835 0 0 0
3384 5 5.3955 34.1715 17.985 0 0 0
3390 5 7.194 34.1715 26.9775 0 0 0
3392 5 5.3955 34.1715 25.179 0 0 0
3405 5 3.597 0.0 3.597 0 0 0
3406 5 3.597 1.7985 5.3955 0 0 0
3412 5 1.7985 1.7985 7.194 0 0 0
3419 5 1.7985 0.0 16.1865 0 0 0
3426 5 3.597 1.7985 23.3805 0 0 0
3427 5 1.7985 0.0 23.3805 0 0 0
3430 5 3.597 1.7985 26.9775 0 0 0
3431 5 1.7985 0.0 26.9775 0 0 0
3435 5 1.7985 0.0 30.5745 0 0 0
3436 5 1.7985 1.7985 28.776 0 0 0
3438 5 3.597 1.7985 34.1715 0 0 0
3439 5 1.7985 0.0 34.1715 0 0 0
3445 5 3.597 3.597 3.597 0 0 0
3446 5 3.597 5.3955 5.3955 0 0 0
3447 5 1.7985 3.597 5.3955 0 0 0
3450 5 3.597 5.3955 8.9925 0 0 0
3451 5 1.7985 3.597 8.9925 0 0 0
3452 5 1.7985 5.3955 7.194 0 0 0
3455 5 1.7985 3.597 12.5895 0 0 0
3456 5 1.7985 5.3955 10.791 0 0 0
3460 5 1.7985 5.3955 14.388 0 0 0
3462 5 3.597 5.3955 19.7835 0 0 0
3463 5 1.7985 3.597 19.7835 0 0 0
3472 5 1.7985 5.3955 25.179 0 0 0
3474 5 3.597 5.3955 30.5745 0 0 0
3477 5 3.597 3.597 32.373 0 0 0
3479 5 1.7985 3.597 34.1715 0 0 0
3485 5 3.597 7.194 3.597 0 0 0
3490 5 3.597 8.9925 8.9925 0 0 0
3491 5 1.7985 7.194 8.9925 0 0 0
3494 5 3.597 8.9925 12.5895 0 0 0
3499 5 1.7985 7.194 16.1865 0 0 0
3500 5 1.7985 8.9925 14.388 0 0 0
3510 5 3.597 8.9925 26.9775 0 0 0
3515 5 1.7985 7.194 30.5745 0 0 0
3517 5 3.597 7.194 32.373 0 0 0
3526 5 3.597 12.5895 5.3955 0 0 0
3528 5 1.7985 12.5895 3.597 0 0 0
3533 5 3.597 10.791 10.791 0 0 0
3536 5 1.7985 12.5895 10.791 0 0 0
3540 5 1.7985 12.5895 14.388 0 0 0
3543 5 1.7985 10.791 19.7835 0 0 0
3544 5 1.7985 12.5895 17.985 0 0 0
3545 5 3.597 10.791 21.582 0 0 0
3546 5 3.597 12.5895 23.3805 0 0 0
3551 5 1.7985 10.791 26.9775 0 0 0
3552 5 1.7985 12.5895 25.179 0 0 0
3555 5 1.7985 10.791 30.5745 0 0 0
3565 5 3.597 14.388 3.597 0 0 0
3568 5 1.7985 16.1865 3.597 0 0 0
3571 5 1.7985 14.388 8.9925 0 0 0
3574 5 3.597 16.1865 12.5895 0 0 0
3579 5 1.7985 14.388 16.1865 0 0 0
3580 5 1.7985 16.1865 14.388 0 0 0
3585 5 3.597 14.388 21.582 0 0 0
3587 5 1.7985 14.388 23.3805 0 0 0
3592 5 1.7985 16.1865 25.179 0 0 0
3593 5 3.597 14.388 28.776 0 0 0
3596 5 1.7985 16.1865 28.776 0 0 0
3597 5 3.597 14.388 32.373 0 0 0
3599 5 1.7985 14.388 34.1715 0 0 0
3602 5 3.597 19.7835 1.7985 0 0 0
3606 5 3.597 19.7835 5.3955 0 0 0
3617 5 3.597 17.985 14.388 0 0 0
3618 5 3.597 19.7835 16.1865 0 0 0
3620 5 1.7985 19.7835 14.388 0 0 0
3621 5 3.597 17.985 17.985 0 0 0
3625 5 3.597 17.985 21.582 0 0 0
3628 5 1.7985 19.7835 21.582 0 0 0
3632 5 1.7985 19.7835 25.179 0 0 0
3636 5 1.7985 19.7835 28.776 0 0 0
3637 5 3.597 17.985 32.373 0 0 0
3638 5 3.597 19.7835 34.1715 0 0 0
3639 5 1.7985 17.985 34.1715 0 0 0
3642 5 3.597 23.3805 1.7985 0 0 0
3644 5 1.7985 23.3805 0.0 0 0 0
3645 5 3.597 21.582 3.597 0 0 0
3646 5 3.597 23.3805 5.3955 0 0 0
3650 5 3.597 23.3805 8.9925 0 0 0
3651 5 1.7985 21.582 8.9925 0 0 0
3654 5 3.597 23.3805 12.5895 0 0 0
3656 5 1.7985 23.3805 10.791 0 0 0
3657 5 3.597 21.582 14.388 0 0 0
3662 5 3.597 23.3805 19.7835 0 0 0
3663 5 1.7985 21.582 19.7835 0 0 0
3664 5 1.7985 23.3805 17.985 0 0 0
3667 5 1.7985 21.582 23.3805 0 0 0
3669 5 3.597 21.582 25.179 0 0 0
3671 5 1.7985 21.582 26.9775 0 0 0
3678 5 3.597 23.3805 34.1715 0 0 0
3680 5 1.7985 23.3805 32.373 0 0 0
3682 5 3.597 26.9775 1.7985 0 0 0
3683 5 1.7985 25.179 1.7985 0 0 0
3685 5 3.597 25.179 3.597 0 0 0
3689 5 3.597 25.179 7.194 0 0 0
3690 5 3.597 26.9775 8.9925 0 0 0
3696 5 1.7985 26.9775 10.791 0 0 0
3698 5 3.597 26.9775 16.1865 0 0 0
3699 5 1.7985 25.179 16.1865 0 0 0
3705 5 3.597 25.179 21.582 0 0 0
3706 5 3.597 26.9775 23.3805 0 0 0
3707 5 1.7985 25.179 23.3805 0 0 0
3708 5 1.7985 26.9775 21.582 0 0 0
3711 5 1.7985 25.179 26.9775 0 0 0
3713 5 3.597 25.179 28.776 0 0 0
3715 5 1.7985 25.179 30.5745 0 0 0
3719 5 1.7985 25.179 34.1715 0 0 0
3725 5 3.597 28.776 3.597 0 0 0
3727 5 1.7985 28.776 5.3955 0 0 0
3730 5 3.597 30.5745 8.9925 0 0 0
3731 5 1.7985 28.776 8.9925 0 0 0
3735 5 1.7985 28.776 12.5895 0 0 0
3738 5 3.597 30.5745 16.1865 0 0 0
3741 5 3.597 28.776 17.985 0 0 0
3746 5 3.597 30.5745 23.3805 0 0 0
3750 5 3.597 30.5745 26.9775 0 0 0
3751 5 1.7985 28.776 26.9775 0 0 0
3753 5 3.597 28.776 28.776 0 0 0
3763 5 1.7985 32.373 1.7985 0 0 0
3768 5 1.7985 34.1715 3.597 0 0 0
3776 5 1.7985 34.1715 10.791 0 0 0
3781 5 3.597 32.373 17.985 0 0 0
3787 5 1.7985 32.373 23.3805 0 0 0
3789 5 3.597 32.373 25.179 0 0 0
3790 5 3.597 34.1715 26.9775 0 0 0
3791 5 1.7985 32.373 26.9775 0 0 0
3796 5 1.7985 34.1715 28.776 0 0 0
3797 5 3.597 32.373 32.373 0 0 0
3798 5 3.597 34.1715 34.1715 0 0 0
3799 5 1.7985 32.373 34.1715 0 0 0
3800 5 1.7985 34.1715 32.373 0 0 0
3806 5 0.0 1.7985 8.9925 0 0 0
3811 5 0.0 0.0 17.985 0 0 0
3812 5 0.0 1.7985 19.7835 0 0 0
3818 5 0.0 1.7985 30.5745 0 0 0
3820 5 0.0 1.7985 34.1715 0 0 0
3826 5 0.0 5.3955 8.9925 0 0 0
3832 5 0.0 5.3955 19.7835 0 0 0
3837 5 0.0 3.597 28.776 0 0 0
3838 5 0.0 5.3955 30.5745 0 0 0
3842 5 0.0 8.9925 1.7985 0 0 0
3852 5 0.0 8.9925 19.7835 0 0 0
3853 5 0.0 7.194 21.582 0 0 0
3854 5 0.0 8.9925 23.3805 0 0 0
3855 5 0.0 7.194 25.179 0 0 0
3860 5 0.0 8.9925 34.1715 0 0 0
3864 5 0.0 12.5895 5.3955 0 0 0
3869 5 0.0 10.791 14.388 0 0 0
3870 5 0.0 12.5895 16.1865 0 0 0
3872 5 0.0 12.5895 19.7835 0 0 0
3876 5 0.0 12.5895 26.9775 0 0 0
3882 5 0.0 16.1865 1.7985 0 0 0
3883 5 0.0 14.388 3.597 0 0 0
3891 5 0.0 14.388 17.985 0 0 0
3895 5 0.0 14.388 25.179 0 0 0
3902 5 0.0 19.7835 1.7985 0 0 0
3912 5 0.0 19.7835 19.7835 0 0 0
3916 5 0.0 19.7835 26.9775 0 0 0
3917 5 0.0 17.985 28.776 0 0 0
3924 5 0.0 23.3805 5.3955 0 0 0
3926 5 0.0 23.3805 8.9925 0 0 0
3933 5 0.0 21.582 21.582 0 0 0
3935 5 0.0 21.582 25.179 0 0 0
3936 5 0.0 23.3805 26.9775 0 0 0
3938 5 0.0 23.3805 30.5745 0 0 0
3941 5 0.0 25.179 0.0 0 0 0
3944 5 0.0 26.9775 5.3955 0 0 0
3949 5 0.0 25.179 14.388 0 0 0
3950 5 0.0 26.9775 16.1865 0 0 0
3956 5 0.0 26.9775 26.9775 0 0 0
3957 5 0.0 25.179 28.776 0 0 0
3959 5 0.0 25.179 32.373 0 0 0
3962 5 0.0 30.5745 1.7985 0 0 0
3963 5 0.0 28.776 3.597 0 0 0
3965 5 0.0 28.776 7.194 0 0 0
3966 5 0.0 30.5745 8.9925 0 0 0
3967 5 0.0 28.776 10.791 0 0 0
3968 5 0.0 30.5745 12.5895 0 0 0
3970 5 0.0 30.5745 16.1865 0 0 0
3972 5 0.0 30.5745 19.7835 0 0 0
3973 5 0.0 28.776 21.582 0 0 0
3975 5 0.0 28.776 25.179 0 0 0
3979 5 0.0 28.776 32.373 0 0 0
3983 5 0.0 32.373 3.597 0 0 0
3986 5 0.0 34.1715 8.9925 0 0 0
3987 5 0.0 32.373 10.791 0 0 0
3991 5 0.0 32.373 17.985 0 0 0
3992 5 0.0 34.1715 19.7835 0 0 0
3995 5 0.0 32.373 25.179 0 0 0
3996 5 0.0 34.1715 26.9775 0 0 0
