LAMMPS data file via write_data version 30 Jul 2021 timestep = 0
4000 atoms
5 atom types
0 35.97 xlo xhi
0 35.97 ylo yhi
0 35.97 zlo zhi
0.0 0.0 0.0 xy xz yz
 
Masses
 
1 1.0
2 2.0
3 3.0
4 4.0
5 5.0
 
Atoms  # atomic
 
2614 1 10.791 1.7985 12.5895 0 0 0
3246 1 7.194 23.3805 5.3955 0 0 0
1049 1 25.179 3.597 7.194 0 0 0
3678 1 3.597 23.3805 34.1715 0 0 0
2411 1 12.5895 17.985 8.9925 0 0 0
2851 1 8.9925 21.582 8.9925 0 0 0
1084 1 23.3805 8.9925 0.0 0 0 0
836 1 26.9775 19.7835 28.776 0 0 0
2678 1 10.791 5.3955 34.1715 0 0 0
2898 1 10.791 26.9775 16.1865 0 0 0
216 1 30.5745 1.7985 10.791 0 0 0
1853 1 17.985 3.597 10.791 0 0 0
1871 1 16.1865 3.597 26.9775 0 0 0
229 1 32.373 0.0 25.179 0 0 0
99 1 34.1715 14.388 34.1715 0 0 0
2860 1 8.9925 23.3805 14.388 0 0 0
128 1 34.1715 23.3805 10.791 0 0 0
558 1 32.373 30.5745 34.1715 0 0 0
3656 1 1.7985 23.3805 10.791 0 0 0
1427 1 19.7835 0.0 23.3805 0 0 0
1902 1 17.985 8.9925 19.7835 0 0 0
840 1 26.9775 19.7835 32.373 0 0 0
3007 1 5.3955 0.0 5.3955 0 0 0
2750 1 10.791 12.5895 26.9775 0 0 0
1746 1 21.582 30.5745 23.3805 0 0 0
1960 1 16.1865 12.5895 32.373 0 0 0
1376 1 23.3805 34.1715 10.791 0 0 0
2694 1 10.791 8.9925 12.5895 0 0 0
219 1 30.5745 0.0 16.1865 0 0 0
1258 1 25.179 23.3805 16.1865 0 0 0
3313 1 7.194 25.179 28.776 0 0 0
1948 1 16.1865 12.5895 21.582 0 0 0
2833 1 10.791 17.985 28.776 0 0 0
2374 1 14.388 16.1865 12.5895 0 0 0
709 1 28.776 7.194 25.179 0 0 0
2864 1 8.9925 23.3805 17.985 0 0 0
554 1 32.373 30.5745 30.5745 0 0 0
1337 1 25.179 28.776 14.388 0 0 0
1810 1 17.985 1.7985 8.9925 0 0 0
950 1 28.776 30.5745 26.9775 0 0 0
1038 1 25.179 1.7985 34.1715 0 0 0
2433 1 14.388 17.985 28.776 0 0 0
2712 1 8.9925 8.9925 25.179 0 0 0
3116 1 5.3955 8.9925 28.776 0 0 0
389 1 32.373 14.388 25.179 0 0 0
2730 1 10.791 12.5895 8.9925 0 0 0
3073 1 7.194 3.597 28.776 0 0 0
2064 1 16.1865 23.3805 17.985 0 0 0
2815 1 8.9925 17.985 12.5895 0 0 0
1671 1 19.7835 21.582 26.9775 0 0 0
3146 1 7.194 12.5895 23.3805 0 0 0
1420 1 19.7835 1.7985 14.388 0 0 0
720 1 26.9775 8.9925 32.373 0 0 0
3660 1 1.7985 23.3805 14.388 0 0 0
3884 1 0.0 16.1865 5.3955 0 0 0
245 1 32.373 3.597 3.597 0 0 0
1253 1 25.179 21.582 10.791 0 0 0
3915 1 0.0 17.985 25.179 0 0 0
3204 1 5.3955 19.7835 0.0 0 0 0
1364 1 23.3805 34.1715 0.0 0 0 0
2228 1 12.5895 1.7985 21.582 0 0 0
2408 1 12.5895 19.7835 3.597 0 0 0
3094 1 7.194 8.9925 12.5895 0 0 0
2224 1 12.5895 1.7985 17.985 0 0 0
3783 1 1.7985 32.373 19.7835 0 0 0
2866 1 10.791 23.3805 23.3805 0 0 0
3087 1 5.3955 7.194 5.3955 0 0 0
1560 1 19.7835 12.5895 32.373 0 0 0
3808 1 0.0 1.7985 12.5895 0 0 0
30 1 34.1715 5.3955 14.388 0 0 0
447 1 30.5745 21.582 5.3955 0 0 0
2953 1 10.791 28.776 28.776 0 0 0
1316 1 23.3805 26.9775 28.776 0 0 0
1587 1 19.7835 14.388 23.3805 0 0 0
876 1 26.9775 23.3805 28.776 0 0 0
1510 1 21.582 8.9925 26.9775 0 0 0
1754 1 21.582 30.5745 30.5745 0 0 0
155 1 34.1715 25.179 26.9775 0 0 0
726 1 28.776 12.5895 5.3955 0 0 0
3288 1 5.3955 26.9775 3.597 0 0 0
2879 1 8.9925 21.582 34.1715 0 0 0
3916 1 0.0 19.7835 26.9775 0 0 0
2122 1 17.985 30.5745 1.7985 0 0 0
2238 1 14.388 1.7985 34.1715 0 0 0
3303 1 5.3955 25.179 19.7835 0 0 0
2331 1 12.5895 10.791 8.9925 0 0 0
3675 1 1.7985 21.582 30.5745 0 0 0
3404 1 1.7985 1.7985 0.0 0 0 0
3066 1 7.194 5.3955 23.3805 0 0 0
1651 1 19.7835 21.582 8.9925 0 0 0
1360 1 23.3805 30.5745 32.373 0 0 0
3388 1 5.3955 34.1715 21.582 0 0 0
1111 1 23.3805 7.194 26.9775 0 0 0
2418 1 14.388 19.7835 16.1865 0 0 0
1363 1 23.3805 32.373 1.7985 0 0 0
3572 1 1.7985 16.1865 7.194 0 0 0
3787 1 1.7985 32.373 23.3805 0 0 0
1300 1 23.3805 26.9775 14.388 0 0 0
1220 1 23.3805 19.7835 14.388 0 0 0
1429 1 21.582 0.0 25.179 0 0 0
2366 1 14.388 16.1865 5.3955 0 0 0
825 1 28.776 17.985 21.582 0 0 0
2110 1 17.985 26.9775 26.9775 0 0 0
3035 1 5.3955 0.0 30.5745 0 0 0
3315 1 5.3955 25.179 30.5745 0 0 0
746 1 28.776 12.5895 23.3805 0 0 0
1527 1 19.7835 10.791 5.3955 0 0 0
547 1 30.5745 28.776 23.3805 0 0 0
2191 1 16.1865 32.373 26.9775 0 0 0
1750 1 21.582 30.5745 26.9775 0 0 0
2918 1 10.791 26.9775 34.1715 0 0 0
1714 1 21.582 26.9775 30.5745 0 0 0
3531 1 1.7985 10.791 8.9925 0 0 0
1281 1 25.179 25.179 0.0 0 0 0
243 1 30.5745 3.597 1.7985 0 0 0
3949 1 0.0 25.179 14.388 0 0 0
3931 1 0.0 21.582 17.985 0 0 0
2129 1 17.985 28.776 7.194 0 0 0
1248 1 23.3805 23.3805 3.597 0 0 0
3376 1 5.3955 34.1715 10.791 0 0 0
318 1 32.373 8.9925 34.1715 0 0 0
1847 1 16.1865 3.597 5.3955 0 0 0
2481 1 14.388 25.179 0.0 0 0 0
665 1 28.776 3.597 21.582 0 0 0
325 1 32.373 10.791 3.597 0 0 0
1983 1 16.1865 14.388 19.7835 0 0 0
3405 1 3.597 0.0 3.597 0 0 0
2261 1 14.388 3.597 17.985 0 0 0
442 1 32.373 23.3805 1.7985 0 0 0
2392 1 12.5895 16.1865 25.179 0 0 0
3064 1 5.3955 5.3955 17.985 0 0 0
808 1 26.9775 19.7835 3.597 0 0 0
3195 1 5.3955 14.388 30.5745 0 0 0
2988 1 8.9925 34.1715 21.582 0 0 0
1751 1 19.7835 28.776 26.9775 0 0 0
628 1 26.9775 1.7985 21.582 0 0 0
2203 1 12.5895 0.0 1.7985 0 0 0
963 1 26.9775 32.373 1.7985 0 0 0
3177 1 7.194 14.388 14.388 0 0 0
2311 1 12.5895 7.194 26.9775 0 0 0
3184 1 5.3955 16.1865 17.985 0 0 0
415 1 30.5745 17.985 12.5895 0 0 0
801 1 28.776 17.985 0.0 0 0 0
1971 1 16.1865 14.388 8.9925 0 0 0
3163 1 5.3955 14.388 1.7985 0 0 0
782 1 28.776 16.1865 19.7835 0 0 0
1699 1 19.7835 25.179 16.1865 0 0 0
3395 1 5.3955 32.373 30.5745 0 0 0
334 1 32.373 12.5895 12.5895 0 0 0
1934 1 17.985 12.5895 12.5895 0 0 0
2063 1 16.1865 21.582 19.7835 0 0 0
1439 1 19.7835 0.0 34.1715 0 0 0
44 1 34.1715 8.9925 3.597 0 0 0
313 1 32.373 7.194 28.776 0 0 0
1402 1 21.582 1.7985 1.7985 0 0 0
2912 1 8.9925 26.9775 25.179 0 0 0
3888 1 0.0 16.1865 12.5895 0 0 0
486 1 32.373 26.9775 5.3955 0 0 0
2477 1 14.388 21.582 32.373 0 0 0
3099 1 5.3955 7.194 16.1865 0 0 0
171 1 34.1715 28.776 19.7835 0 0 0
605 1 28.776 0.0 3.597 0 0 0
3251 1 5.3955 21.582 8.9925 0 0 0
2391 1 12.5895 14.388 26.9775 0 0 0
3890 1 0.0 16.1865 16.1865 0 0 0
1704 1 19.7835 26.9775 17.985 0 0 0
682 1 28.776 8.9925 1.7985 0 0 0
187 1 34.1715 32.373 12.5895 0 0 0
1373 1 25.179 32.373 10.791 0 0 0
3924 1 0.0 23.3805 5.3955 0 0 0
15 1 34.1715 0.0 26.9775 0 0 0
368 1 30.5745 16.1865 3.597 0 0 0
2137 1 17.985 28.776 14.388 0 0 0
1472 1 19.7835 5.3955 25.179 0 0 0
3276 1 5.3955 23.3805 28.776 0 0 0
810 1 28.776 19.7835 8.9925 0 0 0
342 1 32.373 12.5895 19.7835 0 0 0
579 1 30.5745 32.373 16.1865 0 0 0
854 1 28.776 23.3805 12.5895 0 0 0
556 1 30.5745 30.5745 28.776 0 0 0
562 1 32.373 34.1715 1.7985 0 0 0
1278 1 25.179 23.3805 34.1715 0 0 0
71 1 34.1715 10.791 19.7835 0 0 0
1223 1 23.3805 17.985 19.7835 0 0 0
826 1 28.776 19.7835 23.3805 0 0 0
1909 1 17.985 7.194 25.179 0 0 0
991 1 26.9775 32.373 26.9775 0 0 0
3214 1 7.194 19.7835 12.5895 0 0 0
381 1 32.373 14.388 17.985 0 0 0
2908 1 8.9925 26.9775 21.582 0 0 0
1388 1 23.3805 34.1715 21.582 0 0 0
126 1 34.1715 23.3805 7.194 0 0 0
120 1 34.1715 19.7835 32.373 0 0 0
1950 1 17.985 12.5895 26.9775 0 0 0
349 1 32.373 10.791 25.179 0 0 0
3293 1 7.194 25.179 10.791 0 0 0
366 1 32.373 16.1865 5.3955 0 0 0
2605 1 10.791 0.0 3.597 0 0 0
1487 1 19.7835 7.194 5.3955 0 0 0
3914 1 0.0 19.7835 23.3805 0 0 0
2722 1 10.791 12.5895 1.7985 0 0 0
2013 1 17.985 17.985 10.791 0 0 0
1959 1 16.1865 10.791 34.1715 0 0 0
2148 1 16.1865 30.5745 21.582 0 0 0
53 1 34.1715 7.194 23.3805 0 0 0
3663 1 1.7985 21.582 19.7835 0 0 0
3917 1 0.0 17.985 28.776 0 0 0
3519 1 1.7985 7.194 34.1715 0 0 0
2818 1 10.791 19.7835 16.1865 0 0 0
1568 1 19.7835 16.1865 3.597 0 0 0
1989 1 17.985 14.388 25.179 0 0 0
3068 1 5.3955 5.3955 21.582 0 0 0
1554 1 21.582 12.5895 30.5745 0 0 0
2619 1 8.9925 0.0 16.1865 0 0 0
3172 1 5.3955 16.1865 7.194 0 0 0
1324 1 23.3805 30.5745 0.0 0 0 0
1454 1 21.582 5.3955 12.5895 0 0 0
2541 1 14.388 28.776 17.985 0 0 0
1569 1 21.582 14.388 7.194 0 0 0
623 1 26.9775 0.0 19.7835 0 0 0
3154 1 7.194 12.5895 30.5745 0 0 0
2709 1 10.791 7.194 25.179 0 0 0
1757 1 21.582 28.776 32.373 0 0 0
89 1 34.1715 14.388 16.1865 0 0 0
2959 1 8.9925 28.776 34.1715 0 0 0
993 1 28.776 32.373 28.776 0 0 0
3547 1 1.7985 10.791 23.3805 0 0 0
3912 1 0.0 19.7835 19.7835 0 0 0
1822 1 17.985 1.7985 19.7835 0 0 0
2731 1 8.9925 10.791 8.9925 0 0 0
2076 1 16.1865 23.3805 28.776 0 0 0
3752 1 1.7985 30.5745 25.179 0 0 0
3666 1 3.597 23.3805 23.3805 0 0 0
3698 1 3.597 26.9775 16.1865 0 0 0
3080 1 5.3955 5.3955 32.373 0 0 0
116 1 34.1715 19.7835 25.179 0 0 0
1480 1 19.7835 5.3955 32.373 0 0 0
328 1 30.5745 12.5895 3.597 0 0 0
1303 1 23.3805 25.179 19.7835 0 0 0
3322 1 7.194 30.5745 1.7985 0 0 0
478 1 32.373 23.3805 34.1715 0 0 0
1128 1 23.3805 12.5895 3.597 0 0 0
3062 1 7.194 5.3955 19.7835 0 0 0
2362 1 14.388 16.1865 1.7985 0 0 0
2847 1 8.9925 21.582 5.3955 0 0 0
2214 1 14.388 1.7985 12.5895 0 0 0
3739 1 1.7985 28.776 16.1865 0 0 0
1790 1 21.582 34.1715 26.9775 0 0 0
2294 1 14.388 8.9925 12.5895 0 0 0
2881 1 10.791 25.179 0.0 0 0 0
2303 1 12.5895 7.194 19.7835 0 0 0
3484 1 1.7985 8.9925 0.0 0 0 0
3372 1 5.3955 34.1715 7.194 0 0 0
1973 1 17.985 14.388 10.791 0 0 0
2696 1 8.9925 8.9925 10.791 0 0 0
3074 1 7.194 5.3955 30.5745 0 0 0
51 1 34.1715 7.194 19.7835 0 0 0
2054 1 17.985 23.3805 12.5895 0 0 0
3566 1 3.597 16.1865 5.3955 0 0 0
3196 1 5.3955 16.1865 28.776 0 0 0
1952 1 16.1865 12.5895 25.179 0 0 0
109 1 34.1715 17.985 16.1865 0 0 0
450 1 32.373 23.3805 8.9925 0 0 0
864 1 26.9775 23.3805 17.985 0 0 0
2551 1 12.5895 28.776 26.9775 0 0 0
2883 1 8.9925 25.179 1.7985 0 0 0
2622 1 10.791 1.7985 19.7835 0 0 0
2761 1 10.791 14.388 0.0 0 0 0
1417 1 21.582 0.0 14.388 0 0 0
905 1 28.776 25.179 21.582 0 0 0
2226 1 14.388 1.7985 23.3805 0 0 0
159 1 34.1715 25.179 34.1715 0 0 0
1432 1 19.7835 1.7985 25.179 0 0 0
2068 1 16.1865 23.3805 21.582 0 0 0
2616 1 8.9925 1.7985 10.791 0 0 0
1099 1 23.3805 7.194 16.1865 0 0 0
2620 1 8.9925 1.7985 14.388 0 0 0
1098 1 25.179 8.9925 16.1865 0 0 0
270 1 32.373 5.3955 26.9775 0 0 0
2756 1 8.9925 12.5895 28.776 0 0 0
2795 1 8.9925 14.388 30.5745 0 0 0
2323 1 12.5895 10.791 1.7985 0 0 0
211 1 30.5745 0.0 8.9925 0 0 0
2360 1 12.5895 12.5895 32.373 0 0 0
1169 1 25.179 14.388 7.194 0 0 0
1345 1 25.179 28.776 21.582 0 0 0
570 1 32.373 34.1715 8.9925 0 0 0
2142 1 17.985 30.5745 19.7835 0 0 0
1307 1 23.3805 25.179 23.3805 0 0 0
3815 1 0.0 0.0 25.179 0 0 0
1403 1 19.7835 0.0 1.7985 0 0 0
3218 1 7.194 19.7835 16.1865 0 0 0
1873 1 17.985 3.597 28.776 0 0 0
113 1 34.1715 17.985 23.3805 0 0 0
379 1 30.5745 14.388 16.1865 0 0 0
3779 1 1.7985 32.373 16.1865 0 0 0
271 1 30.5745 3.597 26.9775 0 0 0
2388 1 12.5895 16.1865 21.582 0 0 0
3734 1 3.597 30.5745 12.5895 0 0 0
2607 1 8.9925 0.0 5.3955 0 0 0
1393 1 25.179 32.373 28.776 0 0 0
1851 1 16.1865 3.597 8.9925 0 0 0
1678 1 21.582 23.3805 34.1715 0 0 0
1172 1 23.3805 16.1865 7.194 0 0 0
441 1 32.373 21.582 0.0 0 0 0
1760 1 19.7835 30.5745 32.373 0 0 0
1175 1 23.3805 14.388 12.5895 0 0 0
555 1 30.5745 28.776 30.5745 0 0 0
3717 1 3.597 25.179 32.373 0 0 0
1260 1 23.3805 23.3805 14.388 0 0 0
702 1 28.776 8.9925 19.7835 0 0 0
2749 1 10.791 10.791 25.179 0 0 0
2793 1 10.791 14.388 28.776 0 0 0
3905 1 0.0 17.985 7.194 0 0 0
2690 1 10.791 8.9925 8.9925 0 0 0
1716 1 19.7835 26.9775 28.776 0 0 0
1217 1 25.179 17.985 14.388 0 0 0
2305 1 14.388 7.194 21.582 0 0 0
968 1 26.9775 34.1715 3.597 0 0 0
489 1 32.373 25.179 7.194 0 0 0
661 1 28.776 3.597 17.985 0 0 0
1290 1 25.179 26.9775 8.9925 0 0 0
70 1 34.1715 12.5895 14.388 0 0 0
2711 1 8.9925 7.194 26.9775 0 0 0
1762 1 21.582 34.1715 1.7985 0 0 0
1011 1 23.3805 0.0 8.9925 0 0 0
1204 1 23.3805 19.7835 0.0 0 0 0
2523 1 12.5895 28.776 1.7985 0 0 0
1222 1 25.179 19.7835 19.7835 0 0 0
3468 1 1.7985 5.3955 21.582 0 0 0
3548 1 1.7985 12.5895 21.582 0 0 0
1053 1 25.179 3.597 10.791 0 0 0
2427 1 12.5895 17.985 23.3805 0 0 0
2018 1 17.985 19.7835 16.1865 0 0 0
3797 1 3.597 32.373 32.373 0 0 0
439 1 30.5745 17.985 34.1715 0 0 0
3511 1 1.7985 7.194 26.9775 0 0 0
3387 1 5.3955 32.373 23.3805 0 0 0
2172 1 16.1865 34.1715 7.194 0 0 0
3694 1 3.597 26.9775 12.5895 0 0 0
463 1 30.5745 21.582 19.7835 0 0 0
3466 1 3.597 5.3955 23.3805 0 0 0
561 1 32.373 32.373 0.0 0 0 0
1476 1 19.7835 5.3955 28.776 0 0 0
3782 1 3.597 34.1715 19.7835 0 0 0
3974 1 0.0 30.5745 23.3805 0 0 0
2469 1 14.388 21.582 25.179 0 0 0
695 1 26.9775 7.194 12.5895 0 0 0
2047 1 16.1865 21.582 5.3955 0 0 0
880 1 26.9775 23.3805 32.373 0 0 0
2003 1 16.1865 17.985 1.7985 0 0 0
2489 1 14.388 25.179 7.194 0 0 0
1600 1 19.7835 16.1865 32.373 0 0 0
3742 1 3.597 30.5745 19.7835 0 0 0
1733 1 21.582 28.776 10.791 0 0 0
3294 1 7.194 26.9775 12.5895 0 0 0
1698 1 21.582 26.9775 16.1865 0 0 0
3893 1 0.0 14.388 21.582 0 0 0
1201 1 25.179 17.985 0.0 0 0 0
1082 1 25.179 8.9925 1.7985 0 0 0
1809 1 17.985 0.0 7.194 0 0 0
683 1 26.9775 7.194 1.7985 0 0 0
2609 1 10.791 0.0 7.194 0 0 0
664 1 26.9775 5.3955 17.985 0 0 0
3772 1 1.7985 34.1715 7.194 0 0 0
3113 1 7.194 7.194 28.776 0 0 0
1532 1 19.7835 12.5895 7.194 0 0 0
3707 1 1.7985 25.179 23.3805 0 0 0
1668 1 19.7835 23.3805 21.582 0 0 0
1880 1 16.1865 5.3955 32.373 0 0 0
587 1 30.5745 32.373 23.3805 0 0 0
2123 1 16.1865 28.776 1.7985 0 0 0
3132 1 5.3955 12.5895 7.194 0 0 0
378 1 32.373 16.1865 16.1865 0 0 0
3164 1 5.3955 16.1865 0.0 0 0 0
2997 1 10.791 32.373 32.373 0 0 0
134 1 34.1715 23.3805 21.582 0 0 0
411 1 30.5745 17.985 8.9925 0 0 0
2363 1 12.5895 14.388 1.7985 0 0 0
1641 1 21.582 21.582 0.0 0 0 0
3885 1 0.0 14.388 7.194 0 0 0
1708 1 19.7835 26.9775 21.582 0 0 0
2970 1 10.791 34.1715 8.9925 0 0 0
1003 1 23.3805 0.0 1.7985 0 0 0
3141 1 7.194 10.791 17.985 0 0 0
3875 1 0.0 10.791 25.179 0 0 0
3336 1 5.3955 30.5745 10.791 0 0 0
3444 1 1.7985 5.3955 0.0 0 0 0
1837 1 17.985 0.0 32.373 0 0 0
2459 1 12.5895 21.582 16.1865 0 0 0
1617 1 21.582 17.985 14.388 0 0 0
3806 1 0.0 1.7985 8.9925 0 0 0
35 1 34.1715 3.597 26.9775 0 0 0
3850 1 0.0 8.9925 16.1865 0 0 0
1720 1 19.7835 26.9775 32.373 0 0 0
3841 1 0.0 7.194 0.0 0 0 0
962 1 28.776 34.1715 1.7985 0 0 0
2009 1 17.985 17.985 7.194 0 0 0
3166 1 7.194 16.1865 5.3955 0 0 0
2435 1 12.5895 17.985 30.5745 0 0 0
144 1 34.1715 26.9775 3.597 0 0 0
17 1 34.1715 0.0 30.5745 0 0 0
84 1 34.1715 16.1865 3.597 0 0 0
2592 1 12.5895 34.1715 25.179 0 0 0
1357 1 25.179 28.776 32.373 0 0 0
1932 1 16.1865 12.5895 7.194 0 0 0
3473 1 3.597 3.597 28.776 0 0 0
3604 1 1.7985 19.7835 0.0 0 0 0
474 1 32.373 23.3805 30.5745 0 0 0
2074 1 17.985 23.3805 30.5745 0 0 0
1588 1 19.7835 16.1865 21.582 0 0 0
1156 1 23.3805 12.5895 28.776 0 0 0
982 1 28.776 34.1715 19.7835 0 0 0
3556 1 1.7985 12.5895 28.776 0 0 0
2708 1 8.9925 8.9925 21.582 0 0 0
47 1 34.1715 7.194 12.5895 0 0 0
1984 1 16.1865 16.1865 17.985 0 0 0
3213 1 7.194 17.985 10.791 0 0 0
45 1 34.1715 7.194 8.9925 0 0 0
714 1 28.776 8.9925 30.5745 0 0 0
1988 1 16.1865 16.1865 21.582 0 0 0
1215 1 23.3805 17.985 12.5895 0 0 0
2702 1 10.791 8.9925 19.7835 0 0 0
744 1 26.9775 12.5895 17.985 0 0 0
3968 1 0.0 30.5745 12.5895 0 0 0
1331 1 23.3805 28.776 8.9925 0 0 0
3978 1 0.0 30.5745 30.5745 0 0 0
1730 1 21.582 30.5745 8.9925 0 0 0
3846 1 0.0 8.9925 8.9925 0 0 0
241 1 32.373 3.597 0.0 0 0 0
3492 1 1.7985 8.9925 7.194 0 0 0
764 1 26.9775 16.1865 0.0 0 0 0
3683 1 1.7985 25.179 1.7985 0 0 0
2742 1 10.791 12.5895 19.7835 0 0 0
204 1 30.5745 1.7985 0.0 0 0 0
732 1 26.9775 12.5895 7.194 0 0 0
3419 1 1.7985 0.0 16.1865 0 0 0
1872 1 16.1865 5.3955 25.179 0 0 0
346 1 32.373 12.5895 23.3805 0 0 0
2010 1 17.985 19.7835 8.9925 0 0 0
835 1 26.9775 17.985 30.5745 0 0 0
2097 1 17.985 25.179 14.388 0 0 0
2475 1 12.5895 21.582 30.5745 0 0 0
1168 1 23.3805 16.1865 3.597 0 0 0
2492 1 12.5895 26.9775 7.194 0 0 0
1434 1 21.582 1.7985 30.5745 0 0 0
2817 1 10.791 17.985 14.388 0 0 0
1297 1 25.179 25.179 14.388 0 0 0
95 1 34.1715 14.388 26.9775 0 0 0
1646 1 21.582 23.3805 5.3955 0 0 0
1752 1 19.7835 30.5745 25.179 0 0 0
523 1 30.5745 28.776 1.7985 0 0 0
1283 1 23.3805 25.179 1.7985 0 0 0
1718 1 21.582 26.9775 34.1715 0 0 0
3449 1 3.597 3.597 7.194 0 0 0
3436 1 1.7985 1.7985 28.776 0 0 0
1634 1 21.582 19.7835 30.5745 0 0 0
2921 1 10.791 28.776 0.0 0 0 0
2347 1 12.5895 10.791 23.3805 0 0 0
2177 1 17.985 32.373 14.388 0 0 0
2593 1 14.388 32.373 28.776 0 0 0
2867 1 8.9925 21.582 23.3805 0 0 0
1191 1 23.3805 14.388 26.9775 0 0 0
651 1 26.9775 3.597 8.9925 0 0 0
3725 1 3.597 28.776 3.597 0 0 0
2689 1 10.791 7.194 7.194 0 0 0
677 1 28.776 3.597 32.373 0 0 0
3188 1 5.3955 16.1865 21.582 0 0 0
2596 1 12.5895 34.1715 28.776 0 0 0
139 1 34.1715 21.582 34.1715 0 0 0
2617 1 10.791 0.0 14.388 0 0 0
936 1 26.9775 30.5745 10.791 0 0 0
2267 1 12.5895 3.597 23.3805 0 0 0
2832 1 8.9925 19.7835 25.179 0 0 0
3721 1 3.597 28.776 0.0 0 0 0
3448 1 1.7985 5.3955 3.597 0 0 0
3360 1 5.3955 30.5745 32.373 0 0 0
1812 1 16.1865 1.7985 7.194 0 0 0
3343 1 5.3955 28.776 19.7835 0 0 0
560 1 30.5745 30.5745 32.373 0 0 0
935 1 26.9775 28.776 12.5895 0 0 0
3349 1 7.194 28.776 25.179 0 0 0
348 1 30.5745 12.5895 21.582 0 0 0
3588 1 1.7985 16.1865 21.582 0 0 0
292 1 30.5745 8.9925 7.194 0 0 0
3695 1 1.7985 25.179 12.5895 0 0 0
1930 1 17.985 12.5895 8.9925 0 0 0
1206 1 25.179 19.7835 5.3955 0 0 0
2543 1 12.5895 28.776 19.7835 0 0 0
308 1 30.5745 8.9925 21.582 0 0 0
2810 1 10.791 19.7835 8.9925 0 0 0
596 1 30.5745 34.1715 28.776 0 0 0
1139 1 23.3805 10.791 16.1865 0 0 0
1231 1 23.3805 17.985 26.9775 0 0 0
3592 1 1.7985 16.1865 25.179 0 0 0
2675 1 8.9925 3.597 30.5745 0 0 0
1504 1 19.7835 8.9925 17.985 0 0 0
3480 1 1.7985 5.3955 32.373 0 0 0
400 1 30.5745 16.1865 32.373 0 0 0
2268 1 12.5895 5.3955 21.582 0 0 0
2493 1 14.388 25.179 10.791 0 0 0
980 1 26.9775 34.1715 14.388 0 0 0
3072 1 5.3955 5.3955 25.179 0 0 0
1155 1 23.3805 10.791 30.5745 0 0 0
2789 1 10.791 14.388 25.179 0 0 0
2079 1 16.1865 21.582 34.1715 0 0 0
3642 1 3.597 23.3805 1.7985 0 0 0
2292 1 12.5895 8.9925 7.194 0 0 0
1689 1 21.582 25.179 7.194 0 0 0
3339 1 5.3955 28.776 16.1865 0 0 0
3786 1 3.597 34.1715 23.3805 0 0 0
1882 1 17.985 8.9925 1.7985 0 0 0
1409 1 21.582 0.0 7.194 0 0 0
3715 1 1.7985 25.179 30.5745 0 0 0
457 1 32.373 21.582 14.388 0 0 0
3258 1 7.194 23.3805 16.1865 0 0 0
2017 1 17.985 17.985 14.388 0 0 0
2119 1 16.1865 25.179 34.1715 0 0 0
297 1 32.373 7.194 14.388 0 0 0
493 1 32.373 25.179 10.791 0 0 0
1531 1 19.7835 10.791 8.9925 0 0 0
1820 1 16.1865 1.7985 14.388 0 0 0
3969 1 0.0 28.776 14.388 0 0 0
356 1 30.5745 12.5895 28.776 0 0 0
3050 1 7.194 5.3955 8.9925 0 0 0
3942 1 0.0 26.9775 1.7985 0 0 0
63 1 34.1715 10.791 5.3955 0 0 0
253 1 32.373 3.597 10.791 0 0 0
3393 1 7.194 32.373 28.776 0 0 0
1539 1 19.7835 10.791 16.1865 0 0 0
131 1 34.1715 21.582 19.7835 0 0 0
1490 1 21.582 8.9925 8.9925 0 0 0
1479 1 19.7835 3.597 34.1715 0 0 0
1194 1 25.179 16.1865 30.5745 0 0 0
1758 1 21.582 30.5745 34.1715 0 0 0
2757 1 10.791 10.791 32.373 0 0 0
21 1 34.1715 3.597 1.7985 0 0 0
1272 1 23.3805 23.3805 25.179 0 0 0
2531 1 12.5895 28.776 8.9925 0 0 0
2150 1 17.985 30.5745 26.9775 0 0 0
57 1 34.1715 7.194 30.5745 0 0 0
2128 1 16.1865 30.5745 3.597 0 0 0
1808 1 16.1865 1.7985 3.597 0 0 0
3427 1 1.7985 0.0 23.3805 0 0 0
3674 1 3.597 23.3805 30.5745 0 0 0
758 1 28.776 12.5895 34.1715 0 0 0
2349 1 14.388 10.791 25.179 0 0 0
2171 1 16.1865 32.373 8.9925 0 0 0
1185 1 25.179 14.388 21.582 0 0 0
1663 1 19.7835 21.582 19.7835 0 0 0
2447 1 12.5895 21.582 5.3955 0 0 0
385 1 32.373 14.388 21.582 0 0 0
362 1 32.373 16.1865 1.7985 0 0 0
2060 1 16.1865 23.3805 14.388 0 0 0
1696 1 19.7835 26.9775 10.791 0 0 0
3544 1 1.7985 12.5895 17.985 0 0 0
3279 1 5.3955 21.582 34.1715 0 0 0
2486 1 14.388 26.9775 5.3955 0 0 0
3613 1 3.597 17.985 10.791 0 0 0
1860 1 16.1865 5.3955 14.388 0 0 0
1321 1 25.179 28.776 0.0 0 0 0
2454 1 14.388 23.3805 12.5895 0 0 0
1113 1 25.179 7.194 28.776 0 0 0
604 1 26.9775 1.7985 0.0 0 0 0
3792 1 1.7985 34.1715 25.179 0 0 0
452 1 30.5745 23.3805 7.194 0 0 0
3471 1 1.7985 3.597 26.9775 0 0 0
768 1 26.9775 16.1865 3.597 0 0 0
133 1 34.1715 21.582 23.3805 0 0 0
3340 1 5.3955 30.5745 14.388 0 0 0
1435 1 19.7835 0.0 30.5745 0 0 0
3410 1 3.597 1.7985 8.9925 0 0 0
1028 1 23.3805 1.7985 21.582 0 0 0
3180 1 5.3955 16.1865 14.388 0 0 0
392 1 30.5745 16.1865 25.179 0 0 0
1778 1 21.582 34.1715 16.1865 0 0 0
1514 1 21.582 8.9925 30.5745 0 0 0
3527 1 1.7985 10.791 5.3955 0 0 0
1686 1 21.582 26.9775 5.3955 0 0 0
3329 1 7.194 28.776 7.194 0 0 0
288 1 30.5745 8.9925 3.597 0 0 0
1396 1 23.3805 34.1715 28.776 0 0 0
3230 1 7.194 19.7835 26.9775 0 0 0
3271 1 5.3955 21.582 26.9775 0 0 0
1193 1 25.179 14.388 28.776 0 0 0
1559 1 19.7835 10.791 34.1715 0 0 0
988 1 26.9775 34.1715 21.582 0 0 0
2581 1 14.388 32.373 17.985 0 0 0
468 1 30.5745 23.3805 21.582 0 0 0
2713 1 10.791 7.194 28.776 0 0 0
1059 1 23.3805 3.597 16.1865 0 0 0
897 1 28.776 25.179 14.388 0 0 0
691 1 26.9775 7.194 8.9925 0 0 0
3328 1 5.3955 30.5745 3.597 0 0 0
3477 1 3.597 3.597 32.373 0 0 0
3212 1 5.3955 19.7835 7.194 0 0 0
3327 1 5.3955 28.776 5.3955 0 0 0
1921 1 17.985 10.791 0.0 0 0 0
2853 1 10.791 21.582 10.791 0 0 0
3946 1 0.0 26.9775 8.9925 0 0 0
3359 1 5.3955 28.776 34.1715 0 0 0
1979 1 16.1865 14.388 16.1865 0 0 0
2943 1 8.9925 28.776 19.7835 0 0 0
320 1 30.5745 8.9925 32.373 0 0 0
3485 1 3.597 7.194 3.597 0 0 0
188 1 34.1715 34.1715 10.791 0 0 0
2972 1 8.9925 34.1715 7.194 0 0 0
2685 1 10.791 7.194 3.597 0 0 0
2801 1 10.791 17.985 0.0 0 0 0
2664 1 8.9925 5.3955 17.985 0 0 0
2158 1 17.985 30.5745 34.1715 0 0 0
1911 1 16.1865 7.194 26.9775 0 0 0
449 1 32.373 21.582 7.194 0 0 0
2772 1 8.9925 16.1865 7.194 0 0 0
1640 1 19.7835 19.7835 32.373 0 0 0
3834 1 0.0 5.3955 23.3805 0 0 0
272 1 30.5745 5.3955 25.179 0 0 0
2434 1 14.388 19.7835 30.5745 0 0 0
2554 1 14.388 30.5745 30.5745 0 0 0
1328 1 23.3805 30.5745 3.597 0 0 0
2235 1 12.5895 0.0 30.5745 0 0 0
1876 1 16.1865 5.3955 28.776 0 0 0
2287 1 12.5895 7.194 5.3955 0 0 0
906 1 28.776 26.9775 23.3805 0 0 0
1598 1 21.582 16.1865 34.1715 0 0 0
2460 1 12.5895 23.3805 14.388 0 0 0
1827 1 16.1865 0.0 23.3805 0 0 0
1242 1 25.179 23.3805 1.7985 0 0 0
1732 1 19.7835 30.5745 7.194 0 0 0
1365 1 25.179 32.373 3.597 0 0 0
1319 1 23.3805 25.179 34.1715 0 0 0
3416 1 1.7985 1.7985 10.791 0 0 0
1209 1 25.179 17.985 7.194 0 0 0
2170 1 17.985 34.1715 8.9925 0 0 0
69 1 34.1715 10.791 16.1865 0 0 0
2673 1 10.791 3.597 28.776 0 0 0
2232 1 12.5895 1.7985 25.179 0 0 0
846 1 28.776 23.3805 5.3955 0 0 0
1441 1 21.582 3.597 0.0 0 0 0
401 1 32.373 17.985 0.0 0 0 0
499 1 30.5745 25.179 16.1865 0 0 0
2197 1 17.985 32.373 32.373 0 0 0
644 1 26.9775 5.3955 0.0 0 0 0
2125 1 17.985 28.776 3.597 0 0 0
3137 1 7.194 10.791 14.388 0 0 0
2994 1 10.791 34.1715 30.5745 0 0 0
785 1 28.776 14.388 21.582 0 0 0
1648 1 19.7835 23.3805 3.597 0 0 0
247 1 30.5745 3.597 5.3955 0 0 0
1144 1 23.3805 12.5895 17.985 0 0 0
898 1 28.776 26.9775 16.1865 0 0 0
2140 1 16.1865 30.5745 14.388 0 0 0
2216 1 12.5895 1.7985 10.791 0 0 0
1064 1 23.3805 5.3955 17.985 0 0 0
1109 1 25.179 7.194 25.179 0 0 0
549 1 32.373 28.776 25.179 0 0 0
3799 1 1.7985 32.373 34.1715 0 0 0
422 1 32.373 19.7835 19.7835 0 0 0
1938 1 17.985 12.5895 16.1865 0 0 0
3411 1 1.7985 0.0 8.9925 0 0 0
1645 1 21.582 21.582 3.597 0 0 0
3191 1 5.3955 14.388 26.9775 0 0 0
586 1 32.373 34.1715 23.3805 0 0 0
3866 1 0.0 12.5895 8.9925 0 0 0
3084 1 5.3955 8.9925 0.0 0 0 0
821 1 28.776 17.985 17.985 0 0 0
1181 1 25.179 14.388 17.985 0 0 0
1635 1 19.7835 17.985 30.5745 0 0 0
3711 1 1.7985 25.179 26.9775 0 0 0
1776 1 19.7835 34.1715 10.791 0 0 0
3574 1 3.597 16.1865 12.5895 0 0 0
674 1 28.776 5.3955 30.5745 0 0 0
725 1 28.776 10.791 3.597 0 0 0
2741 1 10.791 10.791 17.985 0 0 0
480 1 30.5745 23.3805 32.373 0 0 0
2244 1 12.5895 5.3955 0.0 0 0 0
3986 1 0.0 34.1715 8.9925 0 0 0
3575 1 1.7985 14.388 12.5895 0 0 0
80 1 34.1715 12.5895 32.373 0 0 0
1311 1 23.3805 25.179 26.9775 0 0 0
498 1 32.373 26.9775 16.1865 0 0 0
2638 1 10.791 1.7985 34.1715 0 0 0
223 1 30.5745 0.0 19.7835 0 0 0
2337 1 14.388 10.791 14.388 0 0 0
2025 1 17.985 17.985 21.582 0 0 0
3840 1 0.0 5.3955 34.1715 0 0 0
903 1 26.9775 25.179 19.7835 0 0 0
698 1 28.776 8.9925 16.1865 0 0 0
2784 1 8.9925 16.1865 17.985 0 0 0
2370 1 14.388 16.1865 8.9925 0 0 0
1401 1 21.582 0.0 0.0 0 0 0
3454 1 3.597 5.3955 12.5895 0 0 0
3829 1 0.0 3.597 14.388 0 0 0
1020 1 23.3805 1.7985 14.388 0 0 0
207 1 30.5745 0.0 5.3955 0 0 0
646 1 28.776 5.3955 5.3955 0 0 0
2351 1 12.5895 10.791 26.9775 0 0 0
2507 1 12.5895 25.179 23.3805 0 0 0
1682 1 21.582 26.9775 1.7985 0 0 0
875 1 26.9775 21.582 30.5745 0 0 0
1941 1 17.985 10.791 17.985 0 0 0
1265 1 25.179 21.582 21.582 0 0 0
600 1 30.5745 34.1715 32.373 0 0 0
3134 1 7.194 12.5895 12.5895 0 0 0
1294 1 25.179 26.9775 12.5895 0 0 0
3700 1 1.7985 26.9775 14.388 0 0 0
2920 1 8.9925 26.9775 32.373 0 0 0
3237 1 7.194 17.985 32.373 0 0 0
568 1 30.5745 34.1715 3.597 0 0 0
958 1 28.776 30.5745 34.1715 0 0 0
3696 1 1.7985 26.9775 10.791 0 0 0
1243 1 23.3805 21.582 1.7985 0 0 0
2471 1 12.5895 21.582 26.9775 0 0 0
1887 1 16.1865 7.194 5.3955 0 0 0
3541 1 3.597 10.791 17.985 0 0 0
469 1 32.373 21.582 25.179 0 0 0
2135 1 16.1865 28.776 12.5895 0 0 0
3460 1 1.7985 5.3955 14.388 0 0 0
824 1 26.9775 19.7835 17.985 0 0 0
1721 1 21.582 28.776 0.0 0 0 0
3504 1 1.7985 8.9925 17.985 0 0 0
2639 1 8.9925 0.0 34.1715 0 0 0
119 1 34.1715 17.985 34.1715 0 0 0
3295 1 5.3955 25.179 12.5895 0 0 0
3103 1 5.3955 7.194 19.7835 0 0 0
1534 1 21.582 12.5895 12.5895 0 0 0
3881 1 0.0 14.388 0.0 0 0 0
3749 1 3.597 28.776 25.179 0 0 0
2766 1 10.791 16.1865 5.3955 0 0 0
3176 1 5.3955 16.1865 10.791 0 0 0
2903 1 8.9925 25.179 19.7835 0 0 0
3415 1 1.7985 0.0 12.5895 0 0 0
688 1 26.9775 8.9925 3.597 0 0 0
2736 1 8.9925 12.5895 10.791 0 0 0
1826 1 17.985 1.7985 23.3805 0 0 0
1050 1 25.179 5.3955 8.9925 0 0 0
261 1 32.373 3.597 17.985 0 0 0
3564 1 1.7985 16.1865 0.0 0 0 0
2326 1 14.388 12.5895 5.3955 0 0 0
3665 1 3.597 21.582 21.582 0 0 0
894 1 28.776 26.9775 12.5895 0 0 0
1124 1 23.3805 12.5895 0.0 0 0 0
3052 1 5.3955 5.3955 7.194 0 0 0
2185 1 17.985 32.373 21.582 0 0 0
1650 1 21.582 23.3805 8.9925 0 0 0
3558 1 3.597 12.5895 34.1715 0 0 0
327 1 30.5745 10.791 5.3955 0 0 0
1354 1 25.179 30.5745 30.5745 0 0 0
350 1 32.373 12.5895 26.9775 0 0 0
2839 1 8.9925 17.985 34.1715 0 0 0
1010 1 25.179 1.7985 8.9925 0 0 0
3135 1 5.3955 10.791 12.5895 0 0 0
2634 1 10.791 1.7985 30.5745 0 0 0
3015 1 5.3955 0.0 12.5895 0 0 0
2230 1 14.388 1.7985 26.9775 0 0 0
490 1 32.373 26.9775 8.9925 0 0 0
1571 1 19.7835 14.388 8.9925 0 0 0
3244 1 5.3955 23.3805 0.0 0 0 0
909 1 28.776 25.179 25.179 0 0 0
690 1 28.776 8.9925 8.9925 0 0 0
456 1 30.5745 23.3805 10.791 0 0 0
641 1 28.776 3.597 0.0 0 0 0
755 1 26.9775 10.791 30.5745 0 0 0
3030 1 7.194 1.7985 26.9775 0 0 0
538 1 32.373 30.5745 16.1865 0 0 0
3472 1 1.7985 5.3955 25.179 0 0 0
3241 1 7.194 21.582 0.0 0 0 0
3298 1 7.194 26.9775 16.1865 0 0 0
2190 1 17.985 34.1715 26.9775 0 0 0
3033 1 7.194 0.0 28.776 0 0 0
3456 1 1.7985 5.3955 10.791 0 0 0
1841 1 17.985 3.597 0.0 0 0 0
3600 1 1.7985 16.1865 32.373 0 0 0
2069 1 17.985 21.582 25.179 0 0 0
2265 1 14.388 3.597 21.582 0 0 0
3671 1 1.7985 21.582 26.9775 0 0 0
2856 1 8.9925 23.3805 10.791 0 0 0
213 1 32.373 0.0 10.791 0 0 0
3446 1 3.597 5.3955 5.3955 0 0 0
2574 1 14.388 34.1715 12.5895 0 0 0
3680 1 1.7985 23.3805 32.373 0 0 0
2213 1 14.388 0.0 10.791 0 0 0
2315 1 12.5895 7.194 30.5745 0 0 0
3518 1 3.597 8.9925 34.1715 0 0 0
1235 1 23.3805 17.985 30.5745 0 0 0
3205 1 7.194 17.985 3.597 0 0 0
2800 1 8.9925 16.1865 32.373 0 0 0
3088 1 5.3955 8.9925 3.597 0 0 0
434 1 32.373 19.7835 30.5745 0 0 0
513 1 32.373 25.179 28.776 0 0 0
973 1 28.776 32.373 10.791 0 0 0
3904 1 0.0 19.7835 5.3955 0 0 0
3760 1 1.7985 30.5745 32.373 0 0 0
212 1 30.5745 1.7985 7.194 0 0 0
2241 1 14.388 3.597 0.0 0 0 0
2957 1 10.791 28.776 32.373 0 0 0
2169 1 17.985 32.373 7.194 0 0 0
2371 1 12.5895 14.388 8.9925 0 0 0
2257 1 14.388 3.597 14.388 0 0 0
576 1 30.5745 34.1715 10.791 0 0 0
589 1 32.373 32.373 25.179 0 0 0
893 1 28.776 25.179 10.791 0 0 0
1061 1 25.179 3.597 17.985 0 0 0
232 1 30.5745 1.7985 25.179 0 0 0
2221 1 14.388 0.0 17.985 0 0 0
1153 1 25.179 10.791 28.776 0 0 0
3338 1 7.194 30.5745 16.1865 0 0 0
5 1 34.1715 0.0 8.9925 0 0 0
2948 1 8.9925 30.5745 21.582 0 0 0
351 1 30.5745 10.791 26.9775 0 0 0
594 1 32.373 34.1715 30.5745 0 0 0
3756 1 1.7985 30.5745 28.776 0 0 0
3261 1 7.194 21.582 17.985 0 0 0
3609 1 3.597 17.985 7.194 0 0 0
694 1 28.776 8.9925 12.5895 0 0 0
2834 1 10.791 19.7835 30.5745 0 0 0
2799 1 8.9925 14.388 34.1715 0 0 0
3192 1 5.3955 16.1865 25.179 0 0 0
870 1 28.776 23.3805 26.9775 0 0 0
3070 1 7.194 5.3955 26.9775 0 0 0
2174 1 17.985 34.1715 12.5895 0 0 0
2780 1 8.9925 16.1865 14.388 0 0 0
541 1 32.373 28.776 17.985 0 0 0
3778 1 3.597 34.1715 16.1865 0 0 0
3900 1 0.0 16.1865 34.1715 0 0 0
2797 1 10.791 14.388 32.373 0 0 0
230 1 32.373 1.7985 26.9775 0 0 0
1262 1 25.179 23.3805 19.7835 0 0 0
2963 1 8.9925 32.373 1.7985 0 0 0
370 1 32.373 16.1865 8.9925 0 0 0
1344 1 23.3805 30.5745 17.985 0 0 0
1886 1 17.985 8.9925 5.3955 0 0 0
176 1 34.1715 30.5745 25.179 0 0 0
1821 1 17.985 0.0 17.985 0 0 0
2497 1 14.388 25.179 14.388 0 0 0
3517 1 3.597 7.194 32.373 0 0 0
3810 1 0.0 1.7985 16.1865 0 0 0
984 1 26.9775 34.1715 17.985 0 0 0
1672 1 19.7835 23.3805 25.179 0 0 0
2762 1 10.791 16.1865 1.7985 0 0 0
701 1 28.776 7.194 17.985 0 0 0
3958 1 0.0 26.9775 30.5745 0 0 0
533 1 32.373 28.776 10.791 0 0 0
3929 1 0.0 21.582 14.388 0 0 0
3234 2 7.194 19.7835 30.5745 0 0 0
3837 2 0.0 3.597 28.776 0 0 0
143 2 34.1715 25.179 5.3955 0 0 0
268 2 30.5745 5.3955 21.582 0 0 0
3593 2 3.597 14.388 28.776 0 0 0
2364 2 12.5895 16.1865 0.0 0 0 0
3016 2 5.3955 1.7985 10.791 0 0 0
3849 2 0.0 7.194 14.388 0 0 0
174 2 34.1715 30.5745 21.582 0 0 0
2028 2 16.1865 19.7835 21.582 0 0 0
2615 2 8.9925 0.0 12.5895 0 0 0
2968 2 8.9925 34.1715 3.597 0 0 0
2751 2 8.9925 10.791 26.9775 0 0 0
1613 2 21.582 17.985 10.791 0 0 0
396 2 30.5745 16.1865 28.776 0 0 0
3788 2 1.7985 34.1715 21.582 0 0 0
3848 2 0.0 8.9925 12.5895 0 0 0
917 2 28.776 25.179 32.373 0 0 0
492 2 30.5745 26.9775 7.194 0 0 0
1870 2 17.985 5.3955 26.9775 0 0 0
2446 2 14.388 23.3805 5.3955 0 0 0
460 2 30.5745 23.3805 14.388 0 0 0
1606 2 21.582 19.7835 5.3955 0 0 0
2828 2 8.9925 19.7835 21.582 0 0 0
3886 2 0.0 16.1865 8.9925 0 0 0
3754 2 3.597 30.5745 30.5745 0 0 0
1969 2 17.985 14.388 7.194 0 0 0
2309 2 14.388 7.194 25.179 0 0 0
2855 2 8.9925 21.582 12.5895 0 0 0
1844 2 16.1865 5.3955 0.0 0 0 0
3688 2 1.7985 26.9775 3.597 0 0 0
7 2 34.1715 0.0 12.5895 0 0 0
3185 2 7.194 14.388 21.582 0 0 0
1339 2 23.3805 28.776 16.1865 0 0 0
3001 2 7.194 0.0 0.0 0 0 0
2621 2 10.791 0.0 17.985 0 0 0
2803 2 8.9925 17.985 1.7985 0 0 0
473 2 32.373 21.582 28.776 0 0 0
2381 2 14.388 14.388 17.985 0 0 0
205 2 32.373 0.0 3.597 0 0 0
3503 2 1.7985 7.194 19.7835 0 0 0
3190 2 7.194 16.1865 26.9775 0 0 0
2748 2 8.9925 12.5895 21.582 0 0 0
1620 2 19.7835 19.7835 14.388 0 0 0
3597 2 3.597 14.388 32.373 0 0 0
2321 2 14.388 10.791 0.0 0 0 0
3350 2 7.194 30.5745 26.9775 0 0 0
974 2 28.776 34.1715 12.5895 0 0 0
1936 2 16.1865 12.5895 10.791 0 0 0
3918 2 0.0 19.7835 30.5745 0 0 0
729 2 28.776 10.791 7.194 0 0 0
2822 2 10.791 19.7835 19.7835 0 0 0
2902 2 10.791 26.9775 19.7835 0 0 0
3233 2 7.194 17.985 28.776 0 0 0
606 2 28.776 1.7985 5.3955 0 0 0
2919 2 8.9925 25.179 34.1715 0 0 0
1080 2 23.3805 5.3955 32.373 0 0 0
1805 2 17.985 0.0 3.597 0 0 0
3975 2 0.0 28.776 25.179 0 0 0
964 2 26.9775 34.1715 0.0 0 0 0
103 2 34.1715 17.985 5.3955 0 0 0
3713 2 3.597 25.179 28.776 0 0 0
1147 2 23.3805 10.791 23.3805 0 0 0
1085 2 25.179 7.194 3.597 0 0 0
955 2 26.9775 28.776 30.5745 0 0 0
3720 2 1.7985 26.9775 32.373 0 0 0
2502 2 14.388 26.9775 19.7835 0 0 0
3909 2 0.0 17.985 14.388 0 0 0
1282 2 25.179 26.9775 1.7985 0 0 0
3494 2 3.597 8.9925 12.5895 0 0 0
2990 2 10.791 34.1715 26.9775 0 0 0
1370 2 25.179 34.1715 8.9925 0 0 0
918 2 28.776 26.9775 34.1715 0 0 0
2480 2 12.5895 23.3805 32.373 0 0 0
1788 2 19.7835 34.1715 21.582 0 0 0
1167 2 23.3805 14.388 5.3955 0 0 0
1077 2 25.179 3.597 32.373 0 0 0
672 2 26.9775 5.3955 25.179 0 0 0
1229 2 25.179 17.985 25.179 0 0 0
3434 2 3.597 1.7985 30.5745 0 0 0
2930 2 10.791 30.5745 8.9925 0 0 0
2420 2 12.5895 19.7835 14.388 0 0 0
631 2 26.9775 0.0 26.9775 0 0 0
2037 2 17.985 17.985 32.373 0 0 0
3598 2 3.597 16.1865 34.1715 0 0 0
77 2 34.1715 10.791 30.5745 0 0 0
1664 2 19.7835 23.3805 17.985 0 0 0
3308 2 5.3955 26.9775 21.582 0 0 0
2811 2 8.9925 17.985 8.9925 0 0 0
660 2 26.9775 5.3955 14.388 0 0 0
11 2 34.1715 0.0 19.7835 0 0 0
3089 2 7.194 7.194 7.194 0 0 0
1459 2 19.7835 3.597 16.1865 0 0 0
2910 2 10.791 26.9775 26.9775 0 0 0
2814 2 10.791 19.7835 12.5895 0 0 0
3515 2 1.7985 7.194 30.5745 0 0 0
750 2 28.776 12.5895 26.9775 0 0 0
3952 2 0.0 26.9775 19.7835 0 0 0
940 2 26.9775 30.5745 14.388 0 0 0
3777 2 3.597 32.373 14.388 0 0 0
3838 2 0.0 5.3955 30.5745 0 0 0
564 2 30.5745 34.1715 0.0 0 0 0
3133 2 7.194 10.791 10.791 0 0 0
1072 2 23.3805 5.3955 25.179 0 0 0
2895 2 8.9925 25.179 12.5895 0 0 0
391 2 30.5745 14.388 26.9775 0 0 0
1628 2 19.7835 19.7835 21.582 0 0 0
3263 2 5.3955 21.582 19.7835 0 0 0
1999 2 16.1865 14.388 34.1715 0 0 0
3374 2 7.194 34.1715 12.5895 0 0 0
1675 2 19.7835 21.582 30.5745 0 0 0
3274 2 7.194 23.3805 30.5745 0 0 0
1330 2 25.179 30.5745 8.9925 0 0 0
2871 2 8.9925 21.582 26.9775 0 0 0
1264 2 23.3805 23.3805 17.985 0 0 0
3452 2 1.7985 5.3955 7.194 0 0 0
574 2 32.373 34.1715 12.5895 0 0 0
2982 2 10.791 34.1715 19.7835 0 0 0
2888 2 8.9925 26.9775 3.597 0 0 0
465 2 32.373 21.582 21.582 0 0 0
3643 2 1.7985 21.582 1.7985 0 0 0
2183 2 16.1865 32.373 19.7835 0 0 0
3108 2 5.3955 8.9925 21.582 0 0 0
2618 2 10.791 1.7985 16.1865 0 0 0
3231 2 5.3955 17.985 26.9775 0 0 0
730 2 28.776 12.5895 8.9925 0 0 0
2146 2 17.985 30.5745 23.3805 0 0 0
2727 2 8.9925 10.791 5.3955 0 0 0
1647 2 19.7835 21.582 5.3955 0 0 0
2271 2 12.5895 3.597 26.9775 0 0 0
1522 2 21.582 12.5895 1.7985 0 0 0
1594 2 21.582 16.1865 30.5745 0 0 0
3464 2 1.7985 5.3955 17.985 0 0 0
783 2 26.9775 14.388 19.7835 0 0 0
1854 2 17.985 5.3955 12.5895 0 0 0
797 2 28.776 14.388 32.373 0 0 0
3203 2 5.3955 17.985 1.7985 0 0 0
969 2 28.776 32.373 7.194 0 0 0
2270 2 14.388 5.3955 26.9775 0 0 0
2118 2 17.985 26.9775 34.1715 0 0 0
506 2 32.373 26.9775 23.3805 0 0 0
3738 2 3.597 30.5745 16.1865 0 0 0
39 2 34.1715 3.597 34.1715 0 0 0
1436 2 19.7835 1.7985 28.776 0 0 0
591 2 30.5745 32.373 26.9775 0 0 0
3475 2 1.7985 3.597 30.5745 0 0 0
3938 2 0.0 23.3805 30.5745 0 0 0
1540 2 19.7835 12.5895 14.388 0 0 0
3927 2 0.0 21.582 10.791 0 0 0
1899 2 16.1865 7.194 16.1865 0 0 0
1322 2 25.179 30.5745 1.7985 0 0 0
3626 2 3.597 19.7835 23.3805 0 0 0
3860 2 0.0 8.9925 34.1715 0 0 0
3051 2 5.3955 3.597 8.9925 0 0 0
3459 2 1.7985 3.597 16.1865 0 0 0
1904 2 16.1865 8.9925 17.985 0 0 0
3993 2 0.0 32.373 21.582 0 0 0
2721 2 10.791 10.791 0.0 0 0 0
981 2 28.776 32.373 17.985 0 0 0
3984 2 0.0 34.1715 5.3955 0 0 0
2509 2 14.388 25.179 25.179 0 0 0
166 2 34.1715 30.5745 7.194 0 0 0
2737 2 10.791 10.791 14.388 0 0 0
2222 2 14.388 1.7985 19.7835 0 0 0
747 2 26.9775 10.791 23.3805 0 0 0
643 2 26.9775 3.597 1.7985 0 0 0
466 2 32.373 23.3805 23.3805 0 0 0
3442 2 3.597 5.3955 1.7985 0 0 0
2767 2 8.9925 14.388 5.3955 0 0 0
2896 2 8.9925 26.9775 10.791 0 0 0
2342 2 14.388 12.5895 19.7835 0 0 0
965 2 28.776 32.373 3.597 0 0 0
386 2 32.373 16.1865 23.3805 0 0 0
2978 2 10.791 34.1715 16.1865 0 0 0
34 2 34.1715 5.3955 21.582 0 0 0
2096 2 16.1865 26.9775 10.791 0 0 0
3870 2 0.0 12.5895 16.1865 0 0 0
3919 2 0.0 17.985 32.373 0 0 0
3354 2 7.194 30.5745 30.5745 0 0 0
759 2 26.9775 10.791 34.1715 0 0 0
2627 2 8.9925 0.0 23.3805 0 0 0
78 2 34.1715 12.5895 28.776 0 0 0
1690 2 21.582 26.9775 8.9925 0 0 0
2436 2 12.5895 19.7835 28.776 0 0 0
2022 2 17.985 19.7835 19.7835 0 0 0
1649 2 21.582 21.582 7.194 0 0 0
1428 2 19.7835 1.7985 21.582 0 0 0
2160 2 16.1865 30.5745 32.373 0 0 0
3047 2 5.3955 3.597 5.3955 0 0 0
2082 2 17.985 26.9775 1.7985 0 0 0
497 2 32.373 25.179 14.388 0 0 0
712 2 26.9775 8.9925 25.179 0 0 0
3538 2 3.597 12.5895 16.1865 0 0 0
1007 2 23.3805 0.0 5.3955 0 0 0
1196 2 23.3805 16.1865 28.776 0 0 0
2193 2 17.985 32.373 28.776 0 0 0
2511 2 12.5895 25.179 26.9775 0 0 0
856 2 26.9775 23.3805 10.791 0 0 0
3331 2 5.3955 28.776 8.9925 0 0 0
681 2 28.776 7.194 0.0 0 0 0
1180 2 23.3805 16.1865 14.388 0 0 0
862 2 28.776 23.3805 19.7835 0 0 0
582 2 32.373 34.1715 19.7835 0 0 0
2986 2 10.791 34.1715 23.3805 0 0 0
2243 2 12.5895 3.597 1.7985 0 0 0
2248 2 12.5895 5.3955 3.597 0 0 0
173 2 34.1715 28.776 23.3805 0 0 0
3028 2 5.3955 1.7985 21.582 0 0 0
886 2 28.776 26.9775 5.3955 0 0 0
1839 2 16.1865 0.0 34.1715 0 0 0
2062 2 17.985 23.3805 19.7835 0 0 0
90 2 34.1715 16.1865 14.388 0 0 0
2019 2 16.1865 17.985 16.1865 0 0 0
1705 2 21.582 25.179 21.582 0 0 0
2559 2 12.5895 28.776 34.1715 0 0 0
3301 2 7.194 25.179 17.985 0 0 0
1987 2 16.1865 14.388 23.3805 0 0 0
671 2 26.9775 3.597 26.9775 0 0 0
2652 2 8.9925 5.3955 7.194 0 0 0
3824 2 0.0 5.3955 5.3955 0 0 0
684 2 26.9775 8.9925 0.0 0 0 0
3763 2 1.7985 32.373 1.7985 0 0 0
408 2 30.5745 19.7835 3.597 0 0 0
3653 2 3.597 21.582 10.791 0 0 0
3662 2 3.597 23.3805 19.7835 0 0 0
218 2 32.373 1.7985 16.1865 0 0 0
1323 2 23.3805 28.776 1.7985 0 0 0
569 2 32.373 32.373 7.194 0 0 0
911 2 26.9775 25.179 26.9775 0 0 0
3304 2 5.3955 26.9775 17.985 0 0 0
553 2 32.373 28.776 28.776 0 0 0
927 2 26.9775 28.776 5.3955 0 0 0
2242 2 14.388 5.3955 1.7985 0 0 0
3580 2 1.7985 16.1865 14.388 0 0 0
3020 2 5.3955 1.7985 14.388 0 0 0
1725 2 21.582 28.776 3.597 0 0 0
953 2 28.776 28.776 28.776 0 0 0
2769 2 10.791 14.388 7.194 0 0 0
1517 2 21.582 7.194 32.373 0 0 0
2785 2 10.791 14.388 21.582 0 0 0
2960 2 8.9925 30.5745 32.373 0 0 0
3140 2 5.3955 12.5895 14.388 0 0 0
3568 2 1.7985 16.1865 3.597 0 0 0
248 2 30.5745 5.3955 3.597 0 0 0
1966 2 17.985 16.1865 5.3955 0 0 0
3921 2 0.0 21.582 0.0 0 0 0
3021 2 7.194 0.0 17.985 0 0 0
1263 2 23.3805 21.582 19.7835 0 0 0
2149 2 17.985 28.776 25.179 0 0 0
1687 2 19.7835 25.179 5.3955 0 0 0
3431 2 1.7985 0.0 26.9775 0 0 0
2859 2 8.9925 21.582 16.1865 0 0 0
2976 2 8.9925 34.1715 10.791 0 0 0
2462 2 14.388 23.3805 19.7835 0 0 0
1178 2 25.179 16.1865 16.1865 0 0 0
2113 2 17.985 25.179 28.776 0 0 0
1112 2 23.3805 8.9925 25.179 0 0 0
1764 2 19.7835 34.1715 0.0 0 0 0
2223 2 12.5895 0.0 19.7835 0 0 0
281 2 32.373 7.194 0.0 0 0 0
427 2 30.5745 17.985 23.3805 0 0 0
1962 2 17.985 16.1865 1.7985 0 0 0
2207 2 12.5895 0.0 5.3955 0 0 0
3321 2 7.194 28.776 0.0 0 0 0
910 2 28.776 26.9775 26.9775 0 0 0
1694 2 21.582 26.9775 12.5895 0 0 0
842 2 28.776 23.3805 1.7985 0 0 0
428 2 30.5745 19.7835 21.582 0 0 0
249 2 32.373 3.597 7.194 0 0 0
3559 2 1.7985 10.791 34.1715 0 0 0
525 2 32.373 28.776 3.597 0 0 0
1508 2 19.7835 8.9925 21.582 0 0 0
777 2 28.776 14.388 14.388 0 0 0
244 2 30.5745 5.3955 0.0 0 0 0
3532 2 1.7985 12.5895 7.194 0 0 0
627 2 26.9775 0.0 23.3805 0 0 0
3578 2 3.597 16.1865 16.1865 0 0 0
1505 2 21.582 7.194 21.582 0 0 0
2720 2 8.9925 8.9925 32.373 0 0 0
771 2 26.9775 14.388 8.9925 0 0 0
2250 2 14.388 5.3955 8.9925 0 0 0
2468 2 12.5895 23.3805 21.582 0 0 0
1474 2 21.582 5.3955 30.5745 0 0 0
1855 2 16.1865 3.597 12.5895 0 0 0
153 2 34.1715 25.179 23.3805 0 0 0
1516 2 19.7835 8.9925 28.776 0 0 0
1329 2 25.179 28.776 7.194 0 0 0
2897 2 10.791 25.179 14.388 0 0 0
2515 2 12.5895 25.179 30.5745 0 0 0
1346 2 25.179 30.5745 23.3805 0 0 0
1202 2 25.179 19.7835 1.7985 0 0 0
3380 2 5.3955 34.1715 14.388 0 0 0
1277 2 25.179 21.582 32.373 0 0 0
1166 2 25.179 16.1865 5.3955 0 0 0
2805 2 10.791 17.985 3.597 0 0 0
3227 2 5.3955 17.985 23.3805 0 0 0
1670 2 21.582 23.3805 26.9775 0 0 0
1387 2 23.3805 32.373 23.3805 0 0 0
140 2 34.1715 23.3805 32.373 0 0 0
1094 2 25.179 8.9925 12.5895 0 0 0
509 2 32.373 25.179 25.179 0 0 0
1414 2 21.582 1.7985 12.5895 0 0 0
3697 2 3.597 25.179 14.388 0 0 0
792 2 26.9775 16.1865 25.179 0 0 0
380 2 30.5745 16.1865 14.388 0 0 0
1127 2 23.3805 10.791 5.3955 0 0 0
861 2 28.776 21.582 17.985 0 0 0
3351 2 5.3955 28.776 26.9775 0 0 0
2932 2 8.9925 30.5745 7.194 0 0 0
2046 2 17.985 23.3805 5.3955 0 0 0
2701 2 10.791 7.194 17.985 0 0 0
19 2 34.1715 0.0 34.1715 0 0 0
1237 2 25.179 17.985 32.373 0 0 0
307 2 30.5745 7.194 23.3805 0 0 0
2807 2 8.9925 17.985 5.3955 0 0 0
989 2 28.776 32.373 25.179 0 0 0
3992 2 0.0 34.1715 19.7835 0 0 0
1048 2 23.3805 5.3955 3.597 0 0 0
1589 2 21.582 14.388 25.179 0 0 0
26 2 34.1715 5.3955 7.194 0 0 0
3493 2 3.597 7.194 10.791 0 0 0
1974 2 17.985 16.1865 12.5895 0 0 0
3595 2 1.7985 14.388 30.5745 0 0 0
1958 2 17.985 12.5895 34.1715 0 0 0
1134 2 25.179 12.5895 12.5895 0 0 0
3445 2 3.597 3.597 3.597 0 0 0
145 2 34.1715 25.179 8.9925 0 0 0
1796 2 19.7835 34.1715 28.776 0 0 0
711 2 26.9775 7.194 26.9775 0 0 0
164 2 34.1715 30.5745 3.597 0 0 0
195 2 34.1715 32.373 26.9775 0 0 0
338 2 32.373 12.5895 16.1865 0 0 0
2437 2 14.388 17.985 32.373 0 0 0
2187 2 16.1865 32.373 23.3805 0 0 0
2913 2 10.791 25.179 28.776 0 0 0
2724 2 8.9925 12.5895 0.0 0 0 0
790 2 28.776 16.1865 26.9775 0 0 0
3523 2 1.7985 10.791 1.7985 0 0 0
752 2 26.9775 12.5895 25.179 0 0 0
865 2 28.776 21.582 21.582 0 0 0
2369 2 14.388 14.388 7.194 0 0 0
658 2 28.776 5.3955 16.1865 0 0 0
2812 2 8.9925 19.7835 7.194 0 0 0
1496 2 19.7835 8.9925 10.791 0 0 0
2002 2 17.985 19.7835 1.7985 0 0 0
2826 2 10.791 19.7835 23.3805 0 0 0
2836 2 8.9925 19.7835 28.776 0 0 0
2426 2 14.388 19.7835 23.3805 0 0 0
692 2 26.9775 8.9925 7.194 0 0 0
3142 2 7.194 12.5895 19.7835 0 0 0
812 2 26.9775 19.7835 7.194 0 0 0
1561 2 21.582 14.388 0.0 0 0 0
2745 2 10.791 10.791 21.582 0 0 0
194 2 34.1715 34.1715 21.582 0 0 0
947 2 26.9775 28.776 23.3805 0 0 0
3059 2 5.3955 3.597 16.1865 0 0 0
890 2 28.776 26.9775 8.9925 0 0 0
135 2 34.1715 21.582 26.9775 0 0 0
957 2 28.776 28.776 32.373 0 0 0
123 2 34.1715 21.582 5.3955 0 0 0
3802 2 0.0 1.7985 1.7985 0 0 0
3150 2 7.194 12.5895 26.9775 0 0 0
2637 2 10.791 0.0 32.373 0 0 0
3018 2 7.194 1.7985 16.1865 0 0 0
1688 2 19.7835 26.9775 3.597 0 0 0
2178 2 17.985 34.1715 16.1865 0 0 0
405 2 32.373 17.985 3.597 0 0 0
1744 2 19.7835 30.5745 17.985 0 0 0
1779 2 19.7835 32.373 16.1865 0 0 0
678 2 28.776 5.3955 34.1715 0 0 0
1566 2 21.582 16.1865 5.3955 0 0 0
3748 2 1.7985 30.5745 21.582 0 0 0
3421 2 3.597 0.0 17.985 0 0 0
2094 2 17.985 26.9775 12.5895 0 0 0
3930 2 0.0 23.3805 16.1865 0 0 0
1471 2 19.7835 3.597 26.9775 0 0 0
1523 2 19.7835 10.791 1.7985 0 0 0
3381 2 7.194 32.373 17.985 0 0 0
3990 2 0.0 34.1715 16.1865 0 0 0
3101 2 7.194 7.194 17.985 0 0 0
2479 2 12.5895 21.582 34.1715 0 0 0
1618 2 21.582 19.7835 16.1865 0 0 0
1928 2 16.1865 12.5895 3.597 0 0 0
3249 2 7.194 21.582 7.194 0 0 0
340 2 30.5745 12.5895 14.388 0 0 0
1458 2 21.582 5.3955 16.1865 0 0 0
2862 2 10.791 23.3805 19.7835 0 0 0
2979 2 8.9925 32.373 16.1865 0 0 0
1424 2 19.7835 1.7985 17.985 0 0 0
3450 2 3.597 5.3955 8.9925 0 0 0
1623 2 19.7835 17.985 19.7835 0 0 0
2274 2 14.388 5.3955 30.5745 0 0 0
267 2 30.5745 3.597 23.3805 0 0 0
1807 2 16.1865 0.0 5.3955 0 0 0
889 2 28.776 25.179 7.194 0 0 0
1461 2 21.582 3.597 17.985 0 0 0
160 2 34.1715 26.9775 32.373 0 0 0
3173 2 7.194 14.388 10.791 0 0 0
2040 2 16.1865 19.7835 32.373 0 0 0
1119 2 23.3805 7.194 34.1715 0 0 0
13 2 34.1715 0.0 23.3805 0 0 0
3726 2 3.597 30.5745 5.3955 0 0 0
1460 2 19.7835 5.3955 14.388 0 0 0
2725 2 10.791 10.791 3.597 0 0 0
2670 2 10.791 5.3955 26.9775 0 0 0
3277 2 7.194 21.582 32.373 0 0 0
3880 2 0.0 12.5895 34.1715 0 0 0
689 2 28.776 7.194 7.194 0 0 0
3691 2 1.7985 25.179 8.9925 0 0 0
440 2 30.5745 19.7835 32.373 0 0 0
1100 2 23.3805 8.9925 14.388 0 0 0
50 2 34.1715 8.9925 14.388 0 0 0
3953 2 0.0 25.179 21.582 0 0 0
1862 2 17.985 5.3955 19.7835 0 0 0
28 2 34.1715 5.3955 10.791 0 0 0
1065 2 25.179 3.597 21.582 0 0 0
1519 3 19.7835 7.194 34.1715 0 0 0
3453 3 3.597 3.597 10.791 0 0 0
3125 3 7.194 10.791 3.597 0 0 0
1308 3 23.3805 26.9775 21.582 0 0 0
996 3 26.9775 34.1715 28.776 0 0 0
563 3 30.5745 32.373 1.7985 0 0 0
2495 3 12.5895 25.179 12.5895 0 0 0
3324 3 5.3955 30.5745 0.0 0 0 0
1970 3 17.985 16.1865 8.9925 0 0 0
2217 3 14.388 0.0 14.388 0 0 0
426 3 32.373 19.7835 23.3805 0 0 0
2180 3 16.1865 34.1715 14.388 0 0 0
3722 3 3.597 30.5745 1.7985 0 0 0
3490 3 3.597 8.9925 8.9925 0 0 0
3255 3 5.3955 21.582 12.5895 0 0 0
2933 3 10.791 28.776 10.791 0 0 0
1603 3 19.7835 17.985 1.7985 0 0 0
1583 3 19.7835 14.388 19.7835 0 0 0
2288 3 12.5895 8.9925 3.597 0 0 0
1268 3 23.3805 23.3805 21.582 0 0 0
3586 3 3.597 16.1865 23.3805 0 0 0
537 3 32.373 28.776 14.388 0 0 0
3719 3 1.7985 25.179 34.1715 0 0 0
778 3 28.776 16.1865 16.1865 0 0 0
1793 3 21.582 32.373 28.776 0 0 0
951 3 26.9775 28.776 26.9775 0 0 0
1143 3 23.3805 10.791 19.7835 0 0 0
1203 3 23.3805 17.985 1.7985 0 0 0
1254 3 25.179 23.3805 12.5895 0 0 0
548 3 30.5745 30.5745 21.582 0 0 0
546 3 32.373 30.5745 23.3805 0 0 0
1102 3 25.179 8.9925 19.7835 0 0 0
1579 3 19.7835 14.388 16.1865 0 0 0
1400 3 23.3805 34.1715 32.373 0 0 0
573 3 32.373 32.373 10.791 0 0 0
3424 3 1.7985 1.7985 17.985 0 0 0
208 3 30.5745 1.7985 3.597 0 0 0
233 3 32.373 0.0 28.776 0 0 0
1132 3 23.3805 12.5895 7.194 0 0 0
1273 3 25.179 21.582 28.776 0 0 0
2925 3 10.791 28.776 3.597 0 0 0
3390 3 7.194 34.1715 26.9775 0 0 0
1320 3 23.3805 26.9775 32.373 0 0 0
3784 3 1.7985 34.1715 17.985 0 0 0
3128 3 5.3955 12.5895 3.597 0 0 0
1317 3 25.179 25.179 32.373 0 0 0
293 3 32.373 7.194 10.791 0 0 0
1677 3 21.582 21.582 32.373 0 0 0
252 3 30.5745 5.3955 7.194 0 0 0
542 3 32.373 30.5745 19.7835 0 0 0
1310 3 25.179 26.9775 26.9775 0 0 0
3647 3 1.7985 21.582 5.3955 0 0 0
1392 3 23.3805 34.1715 25.179 0 0 0
418 3 32.373 19.7835 16.1865 0 0 0
3418 3 3.597 1.7985 16.1865 0 0 0
2657 3 10.791 3.597 14.388 0 0 0
2809 3 10.791 17.985 7.194 0 0 0
2164 3 16.1865 34.1715 0.0 0 0 0
2610 3 10.791 1.7985 8.9925 0 0 0
2547 3 12.5895 28.776 23.3805 0 0 0
289 3 32.373 7.194 7.194 0 0 0
8 3 34.1715 1.7985 10.791 0 0 0
2819 3 8.9925 17.985 16.1865 0 0 0
1067 3 23.3805 3.597 23.3805 0 0 0
1130 3 25.179 12.5895 8.9925 0 0 0
1245 3 25.179 21.582 3.597 0 0 0
1445 3 21.582 3.597 3.597 0 0 0
2470 3 14.388 23.3805 26.9775 0 0 0
1051 3 23.3805 3.597 8.9925 0 0 0
1545 3 21.582 10.791 21.582 0 0 0
1120 3 23.3805 8.9925 32.373 0 0 0
2000 3 16.1865 16.1865 32.373 0 0 0
1047 3 23.3805 3.597 5.3955 0 0 0
3252 3 5.3955 23.3805 7.194 0 0 0
10 3 34.1715 1.7985 14.388 0 0 0
1891 3 16.1865 7.194 8.9925 0 0 0
1715 3 19.7835 25.179 30.5745 0 0 0
2626 3 10.791 1.7985 23.3805 0 0 0
3353 3 7.194 28.776 28.776 0 0 0
2635 3 8.9925 0.0 30.5745 0 0 0
663 3 26.9775 3.597 19.7835 0 0 0
2651 3 8.9925 3.597 8.9925 0 0 0
3406 3 3.597 1.7985 5.3955 0 0 0
2499 3 12.5895 25.179 16.1865 0 0 0
2506 3 14.388 26.9775 23.3805 0 0 0
616 3 26.9775 1.7985 10.791 0 0 0
3569 3 3.597 14.388 7.194 0 0 0
1658 3 21.582 23.3805 16.1865 0 0 0
3874 3 0.0 12.5895 23.3805 0 0 0
52 3 34.1715 8.9925 17.985 0 0 0
3972 3 0.0 30.5745 19.7835 0 0 0
3326 3 7.194 30.5745 5.3955 0 0 0
3121 3 7.194 10.791 0.0 0 0 0
2863 3 8.9925 21.582 19.7835 0 0 0
3959 3 0.0 25.179 32.373 0 0 0
316 3 30.5745 8.9925 28.776 0 0 0
3078 3 7.194 5.3955 34.1715 0 0 0
501 3 32.373 25.179 17.985 0 0 0
633 3 28.776 0.0 28.776 0 0 0
1355 3 23.3805 28.776 30.5745 0 0 0
2753 3 10.791 10.791 28.776 0 0 0
240 3 30.5745 1.7985 32.373 0 0 0
3325 3 7.194 28.776 3.597 0 0 0
3864 3 0.0 12.5895 5.3955 0 0 0
186 3 34.1715 34.1715 7.194 0 0 0
3753 3 3.597 28.776 28.776 0 0 0
2124 3 16.1865 30.5745 0.0 0 0 0
1981 3 17.985 14.388 17.985 0 0 0
2752 3 8.9925 12.5895 25.179 0 0 0
2941 3 10.791 28.776 17.985 0 0 0
3488 3 1.7985 8.9925 3.597 0 0 0
2399 3 12.5895 14.388 34.1715 0 0 0
2198 3 17.985 34.1715 34.1715 0 0 0
1511 3 19.7835 7.194 26.9775 0 0 0
1198 3 25.179 16.1865 34.1715 0 0 0
429 3 32.373 17.985 25.179 0 0 0
2760 3 8.9925 12.5895 32.373 0 0 0
908 3 26.9775 26.9775 21.582 0 0 0
2969 3 10.791 32.373 7.194 0 0 0
1795 3 19.7835 32.373 30.5745 0 0 0
66 3 34.1715 12.5895 7.194 0 0 0
1075 3 23.3805 3.597 30.5745 0 0 0
2899 3 8.9925 25.179 16.1865 0 0 0
1723 3 19.7835 28.776 1.7985 0 0 0
3438 3 3.597 1.7985 34.1715 0 0 0
2577 3 14.388 32.373 14.388 0 0 0
1374 3 25.179 34.1715 12.5895 0 0 0
766 3 28.776 16.1865 5.3955 0 0 0
1692 3 19.7835 26.9775 7.194 0 0 0
1148 3 23.3805 12.5895 21.582 0 0 0
590 3 32.373 34.1715 26.9775 0 0 0
3591 3 1.7985 14.388 26.9775 0 0 0
259 3 30.5745 3.597 16.1865 0 0 0
214 3 32.373 1.7985 12.5895 0 0 0
2041 3 17.985 21.582 0.0 0 0 0
559 3 30.5745 28.776 34.1715 0 0 0
3305 3 7.194 25.179 21.582 0 0 0
2251 3 12.5895 3.597 8.9925 0 0 0
3966 3 0.0 30.5745 8.9925 0 0 0
3545 3 3.597 10.791 21.582 0 0 0
3995 3 0.0 32.373 25.179 0 0 0
2644 3 8.9925 5.3955 0.0 0 0 0
1055 3 23.3805 3.597 12.5895 0 0 0
361 3 32.373 14.388 0.0 0 0 0
703 3 26.9775 7.194 19.7835 0 0 0
355 3 30.5745 10.791 30.5745 0 0 0
1033 3 25.179 0.0 28.776 0 0 0
1913 3 17.985 7.194 28.776 0 0 0
2572 3 12.5895 34.1715 7.194 0 0 0
1772 3 19.7835 34.1715 7.194 0 0 0
1279 3 23.3805 21.582 34.1715 0 0 0
1092 3 23.3805 8.9925 7.194 0 0 0
3731 3 1.7985 28.776 8.9925 0 0 0
323 3 30.5745 10.791 1.7985 0 0 0
3437 3 3.597 0.0 32.373 0 0 0
184 3 34.1715 34.1715 3.597 0 0 0
1622 3 21.582 19.7835 19.7835 0 0 0
1963 3 16.1865 14.388 1.7985 0 0 0
3439 3 1.7985 0.0 34.1715 0 0 0
1349 3 25.179 28.776 25.179 0 0 0
3751 3 1.7985 28.776 26.9775 0 0 0
1056 3 23.3805 5.3955 10.791 0 0 0
2632 3 8.9925 1.7985 25.179 0 0 0
3689 3 3.597 25.179 7.194 0 0 0
1397 3 25.179 32.373 32.373 0 0 0
2650 3 10.791 5.3955 8.9925 0 0 0
1782 3 21.582 34.1715 19.7835 0 0 0
1513 3 21.582 7.194 28.776 0 0 0
2704 3 8.9925 8.9925 17.985 0 0 0
2542 3 14.388 30.5745 19.7835 0 0 0
1840 3 16.1865 1.7985 32.373 0 0 0
511 3 30.5745 25.179 26.9775 0 0 0
162 3 34.1715 30.5745 0.0 0 0 0
500 3 30.5745 26.9775 14.388 0 0 0
2263 3 12.5895 3.597 19.7835 0 0 0
1977 3 17.985 14.388 14.388 0 0 0
2874 3 10.791 23.3805 30.5745 0 0 0
3433 3 3.597 0.0 28.776 0 0 0
3516 3 1.7985 8.9925 28.776 0 0 0
2603 3 8.9925 0.0 1.7985 0 0 0
425 3 32.373 17.985 21.582 0 0 0
745 3 28.776 10.791 21.582 0 0 0
3692 3 1.7985 26.9775 7.194 0 0 0
1473 3 21.582 3.597 28.776 0 0 0
2504 3 12.5895 26.9775 17.985 0 0 0
2522 3 14.388 30.5745 1.7985 0 0 0
1026 3 25.179 1.7985 23.3805 0 0 0
1199 3 23.3805 14.388 34.1715 0 0 0
387 3 30.5745 14.388 23.3805 0 0 0
2792 3 8.9925 16.1865 25.179 0 0 0
231 3 30.5745 0.0 26.9775 0 0 0
3611 3 1.7985 17.985 8.9925 0 0 0
2416 3 12.5895 19.7835 10.791 0 0 0
3385 3 7.194 32.373 21.582 0 0 0
1163 3 23.3805 14.388 1.7985 0 0 0
1068 3 23.3805 5.3955 21.582 0 0 0
1789 3 21.582 32.373 25.179 0 0 0
948 3 26.9775 30.5745 21.582 0 0 0
3102 3 7.194 8.9925 19.7835 0 0 0
2285 3 14.388 7.194 3.597 0 0 0
3447 3 1.7985 3.597 5.3955 0 0 0
3046 3 7.194 5.3955 5.3955 0 0 0
2443 3 12.5895 21.582 1.7985 0 0 0
1045 3 25.179 3.597 3.597 0 0 0
3567 3 1.7985 14.388 5.3955 0 0 0
1158 3 25.179 12.5895 34.1715 0 0 0
1462 3 21.582 5.3955 19.7835 0 0 0
306 3 32.373 8.9925 23.3805 0 0 0
1943 3 16.1865 10.791 19.7835 0 0 0
1976 3 16.1865 16.1865 10.791 0 0 0
796 3 26.9775 16.1865 28.776 0 0 0
373 3 32.373 14.388 10.791 0 0 0
88 3 34.1715 16.1865 10.791 0 0 0
1257 3 25.179 21.582 14.388 0 0 0
130 3 34.1715 23.3805 14.388 0 0 0
891 3 26.9775 25.179 8.9925 0 0 0
2312 3 12.5895 8.9925 25.179 0 0 0
858 3 28.776 23.3805 16.1865 0 0 0
1570 3 21.582 16.1865 8.9925 0 0 0
2334 3 14.388 12.5895 12.5895 0 0 0
3104 3 5.3955 8.9925 17.985 0 0 0
3262 3 7.194 23.3805 19.7835 0 0 0
3965 3 0.0 28.776 7.194 0 0 0
1639 3 19.7835 17.985 34.1715 0 0 0
1383 3 23.3805 32.373 19.7835 0 0 0
3954 3 0.0 26.9775 23.3805 0 0 0
167 3 34.1715 28.776 12.5895 0 0 0
1101 3 25.179 7.194 17.985 0 0 0
2023 3 16.1865 17.985 19.7835 0 0 0
2706 3 10.791 8.9925 23.3805 0 0 0
1256 3 23.3805 23.3805 10.791 0 0 0
3804 3 0.0 1.7985 5.3955 0 0 0
934 3 28.776 30.5745 12.5895 0 0 0
3706 3 3.597 26.9775 23.3805 0 0 0
2494 3 14.388 26.9775 12.5895 0 0 0
2604 3 8.9925 1.7985 0.0 0 0 0
1553 3 21.582 10.791 28.776 0 0 0
2665 3 10.791 3.597 21.582 0 0 0
1086 3 25.179 8.9925 5.3955 0 0 0
3605 3 3.597 17.985 3.597 0 0 0
931 3 26.9775 28.776 8.9925 0 0 0
2136 3 16.1865 30.5745 10.791 0 0 0
2212 3 12.5895 1.7985 7.194 0 0 0
3364 3 5.3955 34.1715 0.0 0 0 0
1013 3 25.179 0.0 10.791 0 0 0
296 3 30.5745 8.9925 10.791 0 0 0
106 3 34.1715 19.7835 7.194 0 0 0
3576 3 1.7985 16.1865 10.791 0 0 0
3039 3 5.3955 0.0 34.1715 0 0 0
2776 3 8.9925 16.1865 10.791 0 0 0
3330 3 7.194 30.5745 8.9925 0 0 0
2606 3 10.791 1.7985 5.3955 0 0 0
2508 3 12.5895 26.9775 21.582 0 0 0
64 3 34.1715 12.5895 3.597 0 0 0
1538 3 21.582 12.5895 16.1865 0 0 0
432 3 30.5745 19.7835 25.179 0 0 0
3565 3 3.597 14.388 3.597 0 0 0
3225 3 7.194 17.985 21.582 0 0 0
1794 3 21.582 34.1715 30.5745 0 0 0
2452 3 12.5895 23.3805 7.194 0 0 0
431 3 30.5745 17.985 26.9775 0 0 0
2539 3 12.5895 28.776 16.1865 0 0 0
1016 3 23.3805 1.7985 10.791 0 0 0
3746 3 3.597 30.5745 23.3805 0 0 0
3637 3 3.597 17.985 32.373 0 0 0
3461 3 3.597 3.597 17.985 0 0 0
1895 3 16.1865 7.194 12.5895 0 0 0
3024 3 5.3955 1.7985 17.985 0 0 0
1073 3 25.179 3.597 28.776 0 0 0
843 3 26.9775 21.582 1.7985 0 0 0
3587 3 1.7985 14.388 23.3805 0 0 0
3379 3 5.3955 32.373 16.1865 0 0 0
2430 3 14.388 19.7835 26.9775 0 0 0
108 3 34.1715 19.7835 10.791 0 0 0
2573 3 14.388 32.373 10.791 0 0 0
3076 3 5.3955 5.3955 28.776 0 0 0
1192 3 23.3805 16.1865 25.179 0 0 0
1562 3 21.582 16.1865 1.7985 0 0 0
1972 3 16.1865 16.1865 7.194 0 0 0
2583 3 12.5895 32.373 19.7835 0 0 0
2698 3 10.791 8.9925 16.1865 0 0 0
776 3 26.9775 16.1865 10.791 0 0 0
383 3 30.5745 14.388 19.7835 0 0 0
301 3 32.373 7.194 17.985 0 0 0
2993 3 10.791 32.373 28.776 0 0 0
332 3 30.5745 12.5895 7.194 0 0 0
347 3 30.5745 10.791 23.3805 0 0 0
557 3 32.373 28.776 32.373 0 0 0
3200 3 5.3955 16.1865 32.373 0 0 0
2314 3 14.388 8.9925 30.5745 0 0 0
3910 3 0.0 19.7835 16.1865 0 0 0
3606 3 3.597 19.7835 5.3955 0 0 0
3127 3 5.3955 10.791 5.3955 0 0 0
1411 3 19.7835 0.0 8.9925 0 0 0
1372 3 23.3805 34.1715 7.194 0 0 0
615 3 26.9775 0.0 12.5895 0 0 0
3650 3 3.597 23.3805 8.9925 0 0 0
1430 3 21.582 1.7985 26.9775 0 0 0
170 3 34.1715 30.5745 14.388 0 0 0
2138 3 17.985 30.5745 16.1865 0 0 0
1529 3 21.582 10.791 7.194 0 0 0
1118 3 25.179 8.9925 34.1715 0 0 0
3655 3 1.7985 21.582 12.5895 0 0 0
3120 3 5.3955 8.9925 32.373 0 0 0
822 3 28.776 19.7835 19.7835 0 0 0
650 3 28.776 5.3955 8.9925 0 0 0
2516 3 12.5895 26.9775 28.776 0 0 0
740 3 26.9775 12.5895 14.388 0 0 0
1703 3 19.7835 25.179 19.7835 0 0 0
2225 3 14.388 0.0 21.582 0 0 0
1597 3 21.582 14.388 32.373 0 0 0
1315 3 23.3805 25.179 30.5745 0 0 0
1408 3 19.7835 1.7985 3.597 0 0 0
3828 3 0.0 5.3955 12.5895 0 0 0
100 3 34.1715 16.1865 32.373 0 0 0
161 3 34.1715 28.776 1.7985 0 0 0
3755 3 1.7985 28.776 30.5745 0 0 0
1340 3 23.3805 30.5745 14.388 0 0 0
3317 3 7.194 25.179 32.373 0 0 0
3869 3 0.0 10.791 14.388 0 0 0
855 3 26.9775 21.582 12.5895 0 0 0
839 3 26.9775 17.985 34.1715 0 0 0
3768 3 1.7985 34.1715 3.597 0 0 0
20 3 34.1715 1.7985 32.373 0 0 0
494 3 32.373 26.9775 12.5895 0 0 0
1787 3 19.7835 32.373 23.3805 0 0 0
1580 3 19.7835 16.1865 14.388 0 0 0
630 3 28.776 1.7985 26.9775 0 0 0
2841 3 10.791 21.582 0.0 0 0 0
129 3 34.1715 21.582 16.1865 0 0 0
2865 3 10.791 21.582 21.582 0 0 0
1133 3 25.179 10.791 10.791 0 0 0
2503 3 12.5895 25.179 19.7835 0 0 0
2103 3 16.1865 25.179 19.7835 0 0 0
2410 3 14.388 19.7835 8.9925 0 0 0
2774 3 10.791 16.1865 12.5895 0 0 0
2088 3 16.1865 26.9775 3.597 0 0 0
2952 3 8.9925 30.5745 25.179 0 0 0
863 3 26.9775 21.582 19.7835 0 0 0
994 3 28.776 34.1715 30.5745 0 0 0
3684 3 1.7985 26.9775 0.0 0 0 0
1889 3 17.985 7.194 7.194 0 0 0
3362 3 7.194 34.1715 1.7985 0 0 0
2779 3 8.9925 14.388 16.1865 0 0 0
3219 3 5.3955 17.985 16.1865 0 0 0
2344 3 12.5895 12.5895 17.985 0 0 0
597 3 32.373 32.373 32.373 0 0 0
1712 3 19.7835 26.9775 25.179 0 0 0
1142 3 25.179 12.5895 19.7835 0 0 0
1955 3 16.1865 10.791 30.5745 0 0 0
1150 3 25.179 12.5895 26.9775 0 0 0
3543 3 1.7985 10.791 19.7835 0 0 0
1546 3 21.582 12.5895 23.3805 0 0 0
2683 3 8.9925 7.194 1.7985 0 0 0
3825 3 0.0 3.597 7.194 0 0 0
275 3 30.5745 3.597 30.5745 0 0 0
2341 3 14.388 10.791 17.985 0 0 0
1915 3 16.1865 7.194 30.5745 0 0 0
1179 3 23.3805 14.388 16.1865 0 0 0
1761 3 21.582 32.373 0.0 0 0 0
1326 3 25.179 30.5745 5.3955 0 0 0
3210 3 7.194 19.7835 8.9925 0 0 0
74 3 34.1715 12.5895 21.582 0 0 0
2520 3 12.5895 26.9775 32.373 0 0 0
1173 3 25.179 14.388 10.791 0 0 0
2692 3 8.9925 8.9925 7.194 0 0 0
625 3 28.776 0.0 21.582 0 0 0
2983 3 8.9925 32.373 19.7835 0 0 0
571 3 30.5745 32.373 8.9925 0 0 0
1518 3 21.582 8.9925 34.1715 0 0 0
3980 3 0.0 30.5745 34.1715 0 0 0
3264 3 5.3955 23.3805 17.985 0 0 0
1828 3 16.1865 1.7985 21.582 0 0 0
1636 3 19.7835 19.7835 28.776 0 0 0
867 3 26.9775 21.582 23.3805 0 0 0
1888 3 16.1865 8.9925 3.597 0 0 0
3858 3 0.0 8.9925 30.5745 0 0 0
1037 3 25.179 0.0 32.373 0 0 0
1293 3 25.179 25.179 10.791 0 0 0
1992 3 16.1865 16.1865 25.179 0 0 0
784 3 26.9775 16.1865 17.985 0 0 0
2075 3 16.1865 21.582 30.5745 0 0 0
2091 3 16.1865 25.179 8.9925 0 0 0
2733 3 10.791 10.791 10.791 0 0 0
804 3 26.9775 19.7835 0.0 0 0 0
2304 3 12.5895 8.9925 17.985 0 0 0
3970 3 0.0 30.5745 16.1865 0 0 0
3765 3 3.597 32.373 3.597 0 0 0
3791 3 1.7985 32.373 26.9775 0 0 0
1267 3 23.3805 21.582 23.3805 0 0 0
2179 3 16.1865 32.373 16.1865 0 0 0
774 3 28.776 16.1865 12.5895 0 0 0
2356 3 12.5895 12.5895 28.776 0 0 0
3143 3 5.3955 10.791 19.7835 0 0 0
3732 3 1.7985 30.5745 7.194 0 0 0
1491 3 19.7835 7.194 8.9925 0 0 0
1159 3 23.3805 10.791 34.1715 0 0 0
1702 3 21.582 26.9775 19.7835 0 0 0
3355 3 5.3955 28.776 30.5745 0 0 0
2269 3 14.388 3.597 25.179 0 0 0
2154 3 17.985 30.5745 30.5745 0 0 0
3796 3 1.7985 34.1715 28.776 0 0 0
3936 3 0.0 23.3805 26.9775 0 0 0
2380 3 12.5895 16.1865 14.388 0 0 0
2458 3 14.388 23.3805 16.1865 0 0 0
3254 3 7.194 23.3805 12.5895 0 0 0
319 3 30.5745 7.194 34.1715 0 0 0
656 3 26.9775 5.3955 10.791 0 0 0
2372 3 12.5895 16.1865 7.194 0 0 0
1247 3 23.3805 21.582 5.3955 0 0 0
367 3 30.5745 14.388 5.3955 0 0 0
3769 3 3.597 32.373 7.194 0 0 0
2937 3 10.791 28.776 14.388 0 0 0
3981 3 0.0 32.373 0.0 0 0 0
2365 3 14.388 14.388 3.597 0 0 0
3105 3 7.194 7.194 21.582 0 0 0
3555 3 1.7985 10.791 30.5745 0 0 0
1679 3 19.7835 21.582 34.1715 0 0 0
417 3 32.373 17.985 14.388 0 0 0
1012 3 23.3805 1.7985 7.194 0 0 0
2629 3 10.791 0.0 25.179 0 0 0
3123 3 5.3955 10.791 1.7985 0 0 0
2484 3 12.5895 26.9775 0.0 0 0 0
2306 3 14.388 8.9925 23.3805 0 0 0
2947 3 8.9925 28.776 23.3805 0 0 0
3803 3 0.0 0.0 3.597 0 0 0
3594 3 3.597 16.1865 30.5745 0 0 0
3300 3 5.3955 26.9775 14.388 0 0 0
938 3 28.776 30.5745 16.1865 0 0 0
915 3 26.9775 25.179 30.5745 0 0 0
3520 3 1.7985 8.9925 32.373 0 0 0
1160 3 23.3805 12.5895 32.373 0 0 0
762 3 28.776 16.1865 1.7985 0 0 0
3809 3 0.0 0.0 14.388 0 0 0
3526 3 3.597 12.5895 5.3955 0 0 0
3248 3 5.3955 23.3805 3.597 0 0 0
9 3 34.1715 0.0 16.1865 0 0 0
3316 3 5.3955 26.9775 28.776 0 0 0
921 3 28.776 28.776 0.0 0 0 0
3412 3 1.7985 1.7985 7.194 0 0 0
751 3 26.9775 10.791 26.9775 0 0 0
3926 3 0.0 23.3805 8.9925 0 0 0
2878 3 10.791 23.3805 34.1715 0 0 0
2802 3 10.791 19.7835 1.7985 0 0 0
3138 3 7.194 12.5895 16.1865 0 0 0
834 3 28.776 19.7835 30.5745 0 0 0
1009 3 25.179 0.0 7.194 0 0 0
1858 3 17.985 5.3955 16.1865 0 0 0
978 3 28.776 34.1715 16.1865 0 0 0
2535 3 12.5895 28.776 12.5895 0 0 0
3814 3 0.0 1.7985 23.3805 0 0 0
1740 3 19.7835 30.5745 14.388 0 0 0
2016 3 16.1865 19.7835 10.791 0 0 0
638 3 28.776 1.7985 34.1715 0 0 0
1359 3 23.3805 28.776 34.1715 0 0 0
883 3 26.9775 25.179 1.7985 0 0 0
608 3 26.9775 1.7985 3.597 0 0 0
3025 3 7.194 0.0 21.582 0 0 0
3253 3 7.194 21.582 10.791 0 0 0
2824 3 8.9925 19.7835 17.985 0 0 0
3186 3 7.194 16.1865 23.3805 0 0 0
2599 3 12.5895 32.373 34.1715 0 0 0
2663 3 8.9925 3.597 19.7835 0 0 0
283 3 30.5745 7.194 1.7985 0 0 0
1276 3 23.3805 23.3805 28.776 0 0 0
1800 3 19.7835 34.1715 32.373 0 0 0
716 3 26.9775 8.9925 28.776 0 0 0
1117 3 25.179 7.194 32.373 0 0 0
58 3 34.1715 8.9925 28.776 0 0 0
3843 3 0.0 7.194 3.597 0 0 0
868 3 26.9775 23.3805 21.582 0 0 0
3657 3 3.597 21.582 14.388 0 0 0
437 3 32.373 17.985 32.373 0 0 0
2890 3 10.791 26.9775 8.9925 0 0 0
3785 3 3.597 32.373 21.582 0 0 0
2857 3 10.791 21.582 14.388 0 0 0
1656 3 19.7835 23.3805 10.791 0 0 0
3100 3 5.3955 8.9925 14.388 0 0 0
3506 3 3.597 8.9925 23.3805 0 0 0
2215 3 12.5895 0.0 12.5895 0 0 0
1916 3 16.1865 8.9925 28.776 0 0 0
2014 3 17.985 19.7835 12.5895 0 0 0
2977 3 10.791 32.373 14.388 0 0 0
3082 3 7.194 8.9925 1.7985 0 0 0
1259 3 23.3805 21.582 16.1865 0 0 0
3000 3 8.9925 34.1715 32.373 0 0 0
3487 3 1.7985 7.194 5.3955 0 0 0
1285 3 25.179 25.179 3.597 0 0 0
3818 3 0.0 1.7985 30.5745 0 0 0
2758 3 10.791 12.5895 34.1715 0 0 0
1054 3 25.179 5.3955 12.5895 0 0 0
2050 3 17.985 23.3805 8.9925 0 0 0
321 3 32.373 10.791 0.0 0 0 0
3010 3 7.194 1.7985 8.9925 0 0 0
1395 3 23.3805 32.373 30.5745 0 0 0
3189 3 7.194 14.388 25.179 0 0 0
1135 3 23.3805 10.791 12.5895 0 0 0
3455 3 1.7985 3.597 12.5895 0 0 0
3988 3 0.0 34.1715 12.5895 0 0 0
2553 3 14.388 28.776 28.776 0 0 0
1477 3 21.582 3.597 32.373 0 0 0
3333 3 7.194 28.776 10.791 0 0 0
2911 3 8.9925 25.179 26.9775 0 0 0
2186 3 17.985 34.1715 23.3805 0 0 0
2524 3 12.5895 30.5745 0.0 0 0 0
1533 3 21.582 10.791 10.791 0 0 0
1063 3 23.3805 3.597 19.7835 0 0 0
2907 3 8.9925 25.179 23.3805 0 0 0
3499 3 1.7985 7.194 16.1865 0 0 0
2035 3 16.1865 17.985 30.5745 0 0 0
869 3 28.776 21.582 25.179 0 0 0
3465 3 3.597 3.597 21.582 0 0 0
1697 3 21.582 25.179 14.388 0 0 0
2861 3 10.791 21.582 17.985 0 0 0
360 3 30.5745 12.5895 32.373 0 0 0
3735 3 1.7985 28.776 12.5895 0 0 0
2782 3 10.791 16.1865 19.7835 0 0 0
3634 3 3.597 19.7835 30.5745 0 0 0
3216 3 5.3955 19.7835 10.791 0 0 0
637 3 28.776 0.0 32.373 0 0 0
1367 3 23.3805 32.373 5.3955 0 0 0
3063 3 5.3955 3.597 19.7835 0 0 0
2052 3 16.1865 23.3805 7.194 0 0 0
443 3 30.5745 21.582 1.7985 0 0 0
2726 3 10.791 12.5895 5.3955 0 0 0
339 3 30.5745 10.791 16.1865 0 0 0
444 3 30.5745 23.3805 0.0 0 0 0
1724 3 19.7835 30.5745 0.0 0 0 0
354 3 32.373 12.5895 30.5745 0 0 0
1149 3 25.179 10.791 25.179 0 0 0
31 3 34.1715 3.597 19.7835 0 0 0
1742 3 21.582 30.5745 19.7835 0 0 0
920 3 26.9775 26.9775 32.373 0 0 0
673 3 28.776 3.597 28.776 0 0 0
1574 3 21.582 16.1865 12.5895 0 0 0
3367 3 5.3955 32.373 5.3955 0 0 0
3699 3 1.7985 25.179 16.1865 0 0 0
2680 3 8.9925 5.3955 32.373 0 0 0
1536 3 19.7835 12.5895 10.791 0 0 0
3124 3 5.3955 12.5895 0.0 0 0 0
2765 3 10.791 14.388 3.597 0 0 0
2887 3 8.9925 25.179 5.3955 0 0 0
410 3 32.373 19.7835 8.9925 0 0 0
2116 3 16.1865 26.9775 28.776 0 0 0
197 3 34.1715 32.373 30.5745 0 0 0
2813 3 10.791 17.985 10.791 0 0 0
43 3 34.1715 7.194 5.3955 0 0 0
1240 3 23.3805 19.7835 32.373 0 0 0
2625 3 10.791 0.0 21.582 0 0 0
2289 3 14.388 7.194 7.194 0 0 0
2402 3 14.388 19.7835 1.7985 0 0 0
1399 3 23.3805 32.373 34.1715 0 0 0
1528 3 19.7835 12.5895 3.597 0 0 0
2029 3 17.985 17.985 25.179 0 0 0
2413 3 14.388 17.985 10.791 0 0 0
1351 3 23.3805 28.776 26.9775 0 0 0
1213 3 25.179 17.985 10.791 0 0 0
1407 3 19.7835 0.0 5.3955 0 0 0
156 3 34.1715 26.9775 25.179 0 0 0
3397 3 7.194 32.373 32.373 0 0 0
3375 3 5.3955 32.373 12.5895 0 0 0
966 3 28.776 34.1715 5.3955 0 0 0
585 3 32.373 32.373 21.582 0 0 0
1530 3 21.582 12.5895 8.9925 0 0 0
3168 3 5.3955 16.1865 3.597 0 0 0
1413 3 21.582 0.0 10.791 0 0 0
1030 3 25.179 1.7985 26.9775 0 0 0
838 3 28.776 19.7835 34.1715 0 0 0
1299 3 23.3805 25.179 16.1865 0 0 0
1188 3 23.3805 16.1865 21.582 0 0 0
2840 3 8.9925 19.7835 32.373 0 0 0
1743 3 19.7835 28.776 19.7835 0 0 0
3623 3 1.7985 17.985 19.7835 0 0 0
363 3 30.5745 14.388 1.7985 0 0 0
3391 3 5.3955 32.373 26.9775 0 0 0
1865 3 17.985 3.597 21.582 0 0 0
1572 3 19.7835 16.1865 7.194 0 0 0
3745 3 3.597 28.776 21.582 0 0 0
2783 3 8.9925 14.388 19.7835 0 0 0
3994 3 0.0 34.1715 23.3805 0 0 0
3378 3 7.194 34.1715 16.1865 0 0 0
2534 3 14.388 30.5745 12.5895 0 0 0
2348 3 12.5895 12.5895 21.582 0 0 0
1575 3 19.7835 14.388 12.5895 0 0 0
142 3 34.1715 26.9775 0.0 0 0 0
575 3 30.5745 32.373 12.5895 0 0 0
3740 3 1.7985 30.5745 14.388 0 0 0
1342 3 25.179 30.5745 19.7835 0 0 0
1917 3 17.985 7.194 32.373 0 0 0
639 3 26.9775 0.0 34.1715 0 0 0
3767 3 1.7985 32.373 5.3955 0 0 0
1177 3 25.179 14.388 14.388 0 0 0
738 3 28.776 12.5895 16.1865 0 0 0
305 3 32.373 7.194 21.582 0 0 0
3589 3 3.597 14.388 25.179 0 0 0
2105 3 17.985 25.179 21.582 0 0 0
3348 3 5.3955 30.5745 21.582 0 0 0
2550 3 14.388 30.5745 26.9775 0 0 0
2667 3 8.9925 3.597 23.3805 0 0 0
1661 3 21.582 21.582 17.985 0 0 0
2880 3 8.9925 23.3805 32.373 0 0 0
496 3 30.5745 26.9775 10.791 0 0 0
3712 3 1.7985 26.9775 25.179 0 0 0
2297 3 14.388 7.194 14.388 0 0 0
1416 3 19.7835 1.7985 10.791 0 0 0
1081 3 25.179 7.194 0.0 0 0 0
3896 3 0.0 16.1865 26.9775 0 0 0
1106 3 25.179 8.9925 23.3805 0 0 0
1453 3 21.582 3.597 10.791 0 0 0
3977 3 0.0 28.776 28.776 0 0 0
2176 3 16.1865 34.1715 10.791 0 0 0
3771 3 1.7985 32.373 8.9925 0 0 0
1739 3 19.7835 28.776 16.1865 0 0 0
1786 3 21.582 34.1715 23.3805 0 0 0
224 3 30.5745 1.7985 17.985 0 0 0
228 3 30.5745 1.7985 21.582 0 0 0
2143 3 16.1865 28.776 19.7835 0 0 0
3341 3 7.194 28.776 17.985 0 0 0
3238 3 7.194 19.7835 34.1715 0 0 0
3394 3 7.194 34.1715 30.5745 0 0 0
3215 3 5.3955 17.985 12.5895 0 0 0
3174 3 7.194 16.1865 12.5895 0 0 0
352 3 30.5745 12.5895 25.179 0 0 0
488 3 30.5745 26.9775 3.597 0 0 0
1313 3 25.179 25.179 28.776 0 0 0
1991 3 16.1865 14.388 26.9775 0 0 0
85 3 34.1715 14.388 8.9925 0 0 0
3179 3 5.3955 14.388 16.1865 0 0 0
2441 3 14.388 21.582 0.0 0 0 0
125 3 34.1715 21.582 8.9925 0 0 0
3714 3 3.597 26.9775 30.5745 0 0 0
680 3 26.9775 5.3955 32.373 0 0 0
2316 3 12.5895 8.9925 28.776 0 0 0
3153 3 7.194 10.791 28.776 0 0 0
3273 3 7.194 21.582 28.776 0 0 0
1898 3 17.985 8.9925 16.1865 0 0 0
2218 3 14.388 1.7985 16.1865 0 0 0
2496 3 12.5895 26.9775 10.791 0 0 0
3155 3 5.3955 10.791 30.5745 0 0 0
2526 3 14.388 30.5745 5.3955 0 0 0
2355 3 12.5895 10.791 30.5745 0 0 0
3037 3 7.194 0.0 32.373 0 0 0
1314 3 25.179 26.9775 30.5745 0 0 0
2473 3 14.388 21.582 28.776 0 0 0
40 3 34.1715 5.3955 32.373 0 0 0
1791 3 19.7835 32.373 26.9775 0 0 0
1964 3 16.1865 16.1865 0.0 0 0 0
1463 3 19.7835 3.597 19.7835 0 0 0
659 3 26.9775 3.597 16.1865 0 0 0
1114 3 25.179 8.9925 30.5745 0 0 0
3510 3 3.597 8.9925 26.9775 0 0 0
514 3 32.373 26.9775 30.5745 0 0 0
510 3 32.373 26.9775 26.9775 0 0 0
3467 3 1.7985 3.597 23.3805 0 0 0
3514 3 3.597 8.9925 30.5745 0 0 0
3075 3 5.3955 3.597 30.5745 0 0 0
2099 3 16.1865 25.179 16.1865 0 0 0
2525 3 14.388 28.776 3.597 0 0 0
309 3 32.373 7.194 25.179 0 0 0
2781 3 10.791 14.388 17.985 0 0 0
3469 3 3.597 3.597 25.179 0 0 0
397 3 32.373 14.388 32.373 0 0 0
2537 3 14.388 28.776 14.388 0 0 0
1978 3 17.985 16.1865 16.1865 0 0 0
3522 3 3.597 12.5895 1.7985 0 0 0
2117 3 17.985 25.179 32.373 0 0 0
829 3 28.776 17.985 25.179 0 0 0
1478 3 21.582 5.3955 34.1715 0 0 0
3985 3 0.0 32.373 7.194 0 0 0
879 3 26.9775 21.582 34.1715 0 0 0
1126 3 25.179 12.5895 5.3955 0 0 0
181 3 34.1715 32.373 1.7985 0 0 0
3280 3 5.3955 23.3805 32.373 0 0 0
2645 3 10.791 3.597 3.597 0 0 0
3581 3 3.597 14.388 17.985 0 0 0
1190 3 25.179 16.1865 26.9775 0 0 0
1735 3 19.7835 28.776 12.5895 0 0 0
803 3 26.9775 17.985 1.7985 0 0 0
610 3 28.776 1.7985 8.9925 0 0 0
3805 3 0.0 0.0 7.194 0 0 0
2916 3 8.9925 26.9775 28.776 0 0 0
3618 3 3.597 19.7835 16.1865 0 0 0
1161 3 25.179 14.388 0.0 0 0 0
2491 3 12.5895 25.179 8.9925 0 0 0
2252 3 12.5895 5.3955 7.194 0 0 0
1088 3 23.3805 8.9925 3.597 0 0 0
2439 3 12.5895 17.985 34.1715 0 0 0
251 3 30.5745 3.597 8.9925 0 0 0
727 3 26.9775 10.791 5.3955 0 0 0
1071 3 23.3805 3.597 26.9775 0 0 0
322 3 32.373 12.5895 1.7985 0 0 0
3014 3 7.194 1.7985 12.5895 0 0 0
1497 3 21.582 7.194 14.388 0 0 0
3148 3 5.3955 12.5895 21.582 0 0 0
436 3 30.5745 19.7835 28.776 0 0 0
3872 3 0.0 12.5895 19.7835 0 0 0
1208 3 23.3805 19.7835 3.597 0 0 0
1004 3 23.3805 1.7985 0.0 0 0 0
1907 3 16.1865 7.194 23.3805 0 0 0
1312 3 23.3805 26.9775 25.179 0 0 0
2549 3 14.388 28.776 25.179 0 0 0
3710 3 3.597 26.9775 26.9775 0 0 0
933 3 28.776 28.776 10.791 0 0 0
180 3 34.1715 30.5745 32.373 0 0 0
1486 3 21.582 8.9925 5.3955 0 0 0
1141 3 25.179 10.791 17.985 0 0 0
2126 3 17.985 30.5745 5.3955 0 0 0
3429 3 3.597 0.0 25.179 0 0 0
265 3 32.373 3.597 21.582 0 0 0
3114 3 7.194 8.9925 30.5745 0 0 0
2529 3 14.388 28.776 7.194 0 0 0
3136 3 5.3955 12.5895 10.791 0 0 0
453 3 32.373 21.582 10.791 0 0 0
3533 3 3.597 10.791 10.791 0 0 0
841 3 28.776 21.582 0.0 0 0 0
376 3 30.5745 16.1865 10.791 0 0 0
257 3 32.373 3.597 14.388 0 0 0
3507 3 1.7985 7.194 23.3805 0 0 0
2806 3 10.791 19.7835 5.3955 0 0 0
3235 3 5.3955 17.985 30.5745 0 0 0
2821 3 10.791 17.985 17.985 0 0 0
2658 3 10.791 5.3955 16.1865 0 0 0
2580 3 12.5895 34.1715 14.388 0 0 0
2086 3 17.985 26.9775 5.3955 0 0 0
2600 3 12.5895 34.1715 32.373 0 0 0
1255 3 23.3805 21.582 12.5895 0 0 0
2233 3 14.388 0.0 28.776 0 0 0
805 3 28.776 17.985 3.597 0 0 0
421 3 32.373 17.985 17.985 0 0 0
926 3 28.776 30.5745 5.3955 0 0 0
710 3 28.776 8.9925 26.9775 0 0 0
196 3 34.1715 34.1715 25.179 0 0 0
2582 3 14.388 34.1715 19.7835 0 0 0
375 3 30.5745 14.388 12.5895 0 0 0
693 3 28.776 7.194 10.791 0 0 0
634 3 28.776 1.7985 30.5745 0 0 0
2144 3 16.1865 30.5745 17.985 0 0 0
3757 3 3.597 28.776 32.373 0 0 0
2985 3 10.791 32.373 21.582 0 0 0
1078 3 25.179 5.3955 34.1715 0 0 0
566 3 32.373 34.1715 5.3955 0 0 0
887 3 26.9775 25.179 5.3955 0 0 0
583 3 30.5745 32.373 19.7835 0 0 0
2677 3 10.791 3.597 32.373 0 0 0
3573 3 3.597 14.388 10.791 0 0 0
3417 3 3.597 0.0 14.388 0 0 0
3346 3 7.194 30.5745 23.3805 0 0 0
1666 3 21.582 23.3805 23.3805 0 0 0
239 3 30.5745 0.0 34.1715 0 0 0
2923 3 8.9925 28.776 1.7985 0 0 0
3290 3 7.194 26.9775 8.9925 0 0 0
3423 3 1.7985 0.0 19.7835 0 0 0
1831 3 16.1865 0.0 26.9775 0 0 0
2566 3 14.388 34.1715 5.3955 0 0 0
2284 3 12.5895 8.9925 0.0 0 0 0
2407 3 12.5895 17.985 5.3955 0 0 0
3110 3 7.194 8.9925 26.9775 0 0 0
2317 3 14.388 7.194 32.373 0 0 0
1108 3 23.3805 8.9925 21.582 0 0 0
1379 3 23.3805 32.373 16.1865 0 0 0
262 3 32.373 5.3955 19.7835 0 0 0
3817 3 0.0 0.0 28.776 0 0 0
27 3 34.1715 3.597 12.5895 0 0 0
3628 3 1.7985 19.7835 21.582 0 0 0
3285 3 7.194 25.179 3.597 0 0 0
3960 3 0.0 26.9775 34.1715 0 0 0
1182 3 25.179 16.1865 19.7835 0 0 0
2398 3 14.388 16.1865 34.1715 0 0 0
1382 3 25.179 34.1715 19.7835 0 0 0
780 3 26.9775 16.1865 14.388 0 0 0
1043 3 23.3805 3.597 1.7985 0 0 0
1318 3 25.179 26.9775 34.1715 0 0 0
2409 3 14.388 17.985 7.194 0 0 0
1358 3 25.179 30.5745 34.1715 0 0 0
2584 3 12.5895 34.1715 17.985 0 0 0
1815 3 16.1865 0.0 12.5895 0 0 0
888 3 26.9775 26.9775 3.597 0 0 0
3081 3 7.194 7.194 0.0 0 0 0
3798 3 3.597 34.1715 34.1715 0 0 0
2262 3 14.388 5.3955 19.7835 0 0 0
3004 3 5.3955 1.7985 0.0 0 0 0
2844 3 8.9925 23.3805 0.0 0 0 0
3126 3 7.194 12.5895 5.3955 0 0 0
2746 3 10.791 12.5895 23.3805 0 0 0
220 3 30.5745 1.7985 14.388 0 0 0
2295 3 12.5895 7.194 12.5895 0 0 0
528 3 30.5745 30.5745 3.597 0 0 0
798 3 28.776 16.1865 34.1715 0 0 0
2151 3 16.1865 28.776 26.9775 0 0 0
1881 3 17.985 7.194 0.0 0 0 0
1398 3 25.179 34.1715 34.1715 0 0 0
3615 3 1.7985 17.985 12.5895 0 0 0
2350 3 14.388 12.5895 26.9775 0 0 0
3065 3 7.194 3.597 21.582 0 0 0
636 3 26.9775 1.7985 28.776 0 0 0
2234 3 14.388 1.7985 30.5745 0 0 0
3928 3 0.0 23.3805 12.5895 0 0 0
1136 3 23.3805 12.5895 10.791 0 0 0
676 3 26.9775 5.3955 28.776 0 0 0
3162 3 7.194 16.1865 1.7985 0 0 0
902 3 28.776 26.9775 19.7835 0 0 0
1949 3 17.985 10.791 25.179 0 0 0
1405 3 21.582 0.0 3.597 0 0 0
3750 3 3.597 30.5745 26.9775 0 0 0
2669 3 10.791 3.597 25.179 0 0 0
3821 3 0.0 3.597 0.0 0 0 0
191 3 34.1715 32.373 19.7835 0 0 0
127 3 34.1715 21.582 12.5895 0 0 0
2965 3 10.791 32.373 3.597 0 0 0
2980 3 8.9925 34.1715 14.388 0 0 0
1361 3 25.179 32.373 0.0 0 0 0
3766 3 3.597 34.1715 5.3955 0 0 0
1489 3 21.582 7.194 7.194 0 0 0
1089 3 25.179 7.194 7.194 0 0 0
3897 3 0.0 14.388 28.776 0 0 0
2049 3 17.985 21.582 7.194 0 0 0
3733 3 3.597 28.776 10.791 0 0 0
1868 3 16.1865 5.3955 21.582 0 0 0
3042 3 7.194 5.3955 1.7985 0 0 0
1069 3 25.179 3.597 25.179 0 0 0
1093 3 25.179 7.194 10.791 0 0 0
178 3 34.1715 30.5745 28.776 0 0 0
972 3 26.9775 34.1715 7.194 0 0 0
3584 3 1.7985 16.1865 17.985 0 0 0
3403 3 1.7985 0.0 1.7985 0 0 0
1023 3 23.3805 0.0 19.7835 0 0 0
254 3 32.373 5.3955 12.5895 0 0 0
3197 3 7.194 14.388 32.373 0 0 0
3800 3 1.7985 34.1715 32.373 0 0 0
2951 3 8.9925 28.776 26.9775 0 0 0
2107 3 16.1865 25.179 23.3805 0 0 0
1781 3 21.582 32.373 17.985 0 0 0
2133 3 17.985 28.776 10.791 0 0 0
1145 3 25.179 10.791 21.582 0 0 0
1187 3 23.3805 14.388 23.3805 0 0 0
1673 3 21.582 21.582 28.776 0 0 0
668 3 26.9775 5.3955 21.582 0 0 0
900 3 26.9775 26.9775 14.388 0 0 0
1759 3 19.7835 28.776 34.1715 0 0 0
2432 3 12.5895 19.7835 25.179 0 0 0
2451 3 12.5895 21.582 8.9925 0 0 0
715 3 26.9775 7.194 30.5745 0 0 0
1685 3 21.582 25.179 3.597 0 0 0
516 3 30.5745 26.9775 28.776 0 0 0
753 3 28.776 10.791 28.776 0 0 0
1926 3 17.985 12.5895 5.3955 0 0 0
907 3 26.9775 25.179 23.3805 0 0 0
3043 3 5.3955 3.597 1.7985 0 0 0
3202 3 7.194 19.7835 1.7985 0 0 0
2032 3 16.1865 19.7835 25.179 0 0 0
3640 3 1.7985 19.7835 32.373 0 0 0
3709 3 3.597 25.179 25.179 0 0 0
1341 3 25.179 28.776 17.985 0 0 0
3031 3 5.3955 0.0 26.9775 0 0 0
481 3 32.373 25.179 0.0 0 0 0
2322 3 14.388 12.5895 1.7985 0 0 0
2869 3 10.791 21.582 25.179 0 0 0
2872 3 8.9925 23.3805 25.179 0 0 0
2042 3 17.985 23.3805 1.7985 0 0 0
94 3 34.1715 16.1865 21.582 0 0 0
1691 3 19.7835 25.179 8.9925 0 0 0
2530 3 14.388 30.5745 8.9925 0 0 0
1239 3 23.3805 17.985 34.1715 0 0 0
666 3 28.776 5.3955 23.3805 0 0 0
3879 3 0.0 10.791 32.373 0 0 0
111 3 34.1715 17.985 19.7835 0 0 0
3759 3 1.7985 28.776 34.1715 0 0 0
1838 3 17.985 1.7985 34.1715 0 0 0
280 3 30.5745 5.3955 32.373 0 0 0
2909 3 10.791 25.179 25.179 0 0 0
809 3 28.776 17.985 7.194 0 0 0
3151 3 5.3955 10.791 26.9775 0 0 0
3562 3 3.597 16.1865 1.7985 0 0 0
3095 3 5.3955 7.194 12.5895 0 0 0
3272 3 5.3955 23.3805 25.179 0 0 0
2798 3 10.791 16.1865 34.1715 0 0 0
3309 3 7.194 25.179 25.179 0 0 0
2563 3 12.5895 32.373 1.7985 0 0 0
317 3 32.373 7.194 32.373 0 0 0
1107 3 23.3805 7.194 23.3805 0 0 0
3549 3 3.597 10.791 25.179 0 0 0
1042 3 25.179 5.3955 1.7985 0 0 0
1284 3 23.3805 26.9775 0.0 0 0 0
2768 3 8.9925 16.1865 3.597 0 0 0
1371 3 23.3805 32.373 8.9925 0 0 0
1230 3 25.179 19.7835 26.9775 0 0 0
519 3 30.5745 25.179 34.1715 0 0 0
3044 3 5.3955 5.3955 0.0 0 0 0
260 3 30.5745 5.3955 14.388 0 0 0
3895 3 0.0 14.388 25.179 0 0 0
1627 3 19.7835 17.985 23.3805 0 0 0
206 3 32.373 1.7985 5.3955 0 0 0
2474 3 14.388 23.3805 30.5745 0 0 0
154 3 34.1715 26.9775 21.582 0 0 0
945 3 28.776 28.776 21.582 0 0 0
165 3 34.1715 28.776 8.9925 0 0 0
1295 3 23.3805 25.179 12.5895 0 0 0
3060 3 5.3955 5.3955 14.388 0 0 0
2671 3 8.9925 3.597 26.9775 0 0 0
619 3 26.9775 0.0 16.1865 0 0 0
3525 3 3.597 10.791 3.597 0 0 0
1386 3 25.179 34.1715 23.3805 0 0 0
2636 3 8.9925 1.7985 28.776 0 0 0
757 3 28.776 10.791 32.373 0 0 0
3534 3 3.597 12.5895 12.5895 0 0 0
3221 3 7.194 17.985 17.985 0 0 0
1653 3 21.582 21.582 10.791 0 0 0
102 3 34.1715 19.7835 0.0 0 0 0
2693 3 10.791 7.194 10.791 0 0 0
1556 3 19.7835 12.5895 28.776 0 0 0
1390 3 25.179 34.1715 26.9775 0 0 0
3224 3 5.3955 19.7835 17.985 0 0 0
2950 3 10.791 30.5745 26.9775 0 0 0
282 3 32.373 8.9925 1.7985 0 0 0
1662 3 21.582 23.3805 19.7835 0 0 0
2333 3 14.388 10.791 10.791 0 0 0
2361 3 14.388 14.388 0.0 0 0 0
68 3 34.1715 12.5895 10.791 0 0 0
3049 3 7.194 3.597 7.194 0 0 0
2461 3 14.388 21.582 17.985 0 0 0
1234 3 25.179 19.7835 30.5745 0 0 0
3973 3 0.0 28.776 21.582 0 0 0
3577 3 3.597 14.388 14.388 0 0 0
2456 3 12.5895 23.3805 10.791 0 0 0
1542 3 21.582 12.5895 19.7835 0 0 0
2090 4 17.985 26.9775 8.9925 0 0 0
1455 4 19.7835 3.597 12.5895 0 0 0
1537 4 21.582 10.791 14.388 0 0 0
1291 4 23.3805 25.179 8.9925 0 0 0
2209 4 14.388 0.0 7.194 0 0 0
3741 4 3.597 28.776 17.985 0 0 0
2453 4 14.388 21.582 10.791 0 0 0
1563 4 19.7835 14.388 1.7985 0 0 0
1437 4 21.582 0.0 32.373 0 0 0
485 4 32.373 25.179 3.597 0 0 0
1706 4 21.582 26.9775 23.3805 0 0 0
3661 4 3.597 21.582 17.985 0 0 0
1501 4 21.582 7.194 17.985 0 0 0
3781 4 3.597 32.373 17.985 0 0 0
461 4 32.373 21.582 17.985 0 0 0
6 4 34.1715 1.7985 7.194 0 0 0
2882 4 10.791 26.9775 1.7985 0 0 0
3357 4 7.194 28.776 32.373 0 0 0
754 4 28.776 12.5895 30.5745 0 0 0
2219 4 12.5895 0.0 16.1865 0 0 0
1332 4 23.3805 30.5745 7.194 0 0 0
2012 4 16.1865 19.7835 7.194 0 0 0
2788 4 8.9925 16.1865 21.582 0 0 0
2613 4 10.791 0.0 10.791 0 0 0
2998 4 10.791 34.1715 34.1715 0 0 0
2608 4 8.9925 1.7985 3.597 0 0 0
101 4 34.1715 17.985 1.7985 0 0 0
3086 4 7.194 8.9925 5.3955 0 0 0
2630 4 10.791 1.7985 26.9775 0 0 0
3056 4 5.3955 5.3955 10.791 0 0 0
3579 4 1.7985 14.388 16.1865 0 0 0
3502 4 3.597 8.9925 19.7835 0 0 0
3610 4 3.597 19.7835 8.9925 0 0 0
3894 4 0.0 16.1865 23.3805 0 0 0
2196 4 16.1865 34.1715 28.776 0 0 0
201 4 32.373 0.0 0.0 0 0 0
3962 4 0.0 30.5745 1.7985 0 0 0
3220 4 5.3955 19.7835 14.388 0 0 0
3275 4 5.3955 21.582 30.5745 0 0 0
3266 4 7.194 23.3805 23.3805 0 0 0
2131 4 16.1865 28.776 8.9925 0 0 0
832 4 26.9775 19.7835 25.179 0 0 0
3607 4 1.7985 17.985 5.3955 0 0 0
150 4 34.1715 26.9775 14.388 0 0 0
1302 4 25.179 26.9775 19.7835 0 0 0
390 4 32.373 16.1865 26.9775 0 0 0
1121 4 25.179 10.791 0.0 0 0 0
2843 4 8.9925 21.582 1.7985 0 0 0
1766 4 21.582 34.1715 5.3955 0 0 0
482 4 32.373 26.9775 1.7985 0 0 0
353 4 32.373 10.791 28.776 0 0 0
1499 4 19.7835 7.194 16.1865 0 0 0
286 4 32.373 8.9925 5.3955 0 0 0
3898 4 0.0 16.1865 30.5745 0 0 0
1602 4 21.582 19.7835 1.7985 0 0 0
1014 4 25.179 1.7985 12.5895 0 0 0
2885 4 10.791 25.179 3.597 0 0 0
65 4 34.1715 10.791 8.9925 0 0 0
613 4 28.776 0.0 10.791 0 0 0
505 4 32.373 25.179 21.582 0 0 0
1713 4 21.582 25.179 28.776 0 0 0
1025 4 25.179 0.0 21.582 0 0 0
1391 4 23.3805 32.373 26.9775 0 0 0
1922 4 17.985 12.5895 1.7985 0 0 0
2236 4 12.5895 1.7985 28.776 0 0 0
2210 4 14.388 1.7985 8.9925 0 0 0
2102 4 17.985 26.9775 19.7835 0 0 0
578 4 32.373 34.1715 16.1865 0 0 0
364 4 30.5745 16.1865 0.0 0 0 0
1246 4 25.179 23.3805 5.3955 0 0 0
91 4 34.1715 14.388 19.7835 0 0 0
2031 4 16.1865 17.985 26.9775 0 0 0
1722 4 21.582 30.5745 1.7985 0 0 0
1079 4 23.3805 3.597 34.1715 0 0 0
2299 4 12.5895 7.194 16.1865 0 0 0
1763 4 19.7835 32.373 1.7985 0 0 0
2395 4 12.5895 14.388 30.5745 0 0 0
2428 4 12.5895 19.7835 21.582 0 0 0
2498 4 14.388 26.9775 16.1865 0 0 0
770 4 28.776 16.1865 8.9925 0 0 0
3616 4 1.7985 19.7835 10.791 0 0 0
2796 4 8.9925 16.1865 28.776 0 0 0
1700 4 19.7835 26.9775 14.388 0 0 0
904 4 26.9775 26.9775 17.985 0 0 0
1334 4 25.179 30.5745 12.5895 0 0 0
1309 4 25.179 25.179 25.179 0 0 0
3937 4 0.0 21.582 28.776 0 0 0
807 4 26.9775 17.985 5.3955 0 0 0
1925 4 17.985 10.791 3.597 0 0 0
3836 4 0.0 5.3955 26.9775 0 0 0
655 4 26.9775 3.597 12.5895 0 0 0
3158 4 7.194 12.5895 34.1715 0 0 0
3193 4 7.194 14.388 28.776 0 0 0
912 4 26.9775 26.9775 25.179 0 0 0
2359 4 12.5895 10.791 34.1715 0 0 0
3561 4 3.597 14.388 0.0 0 0 0
1544 4 19.7835 12.5895 17.985 0 0 0
3440 4 1.7985 1.7985 32.373 0 0 0
544 4 30.5745 30.5745 17.985 0 0 0
1849 4 17.985 3.597 7.194 0 0 0
1665 4 21.582 21.582 21.582 0 0 0
1680 4 19.7835 23.3805 32.373 0 0 0
303 4 30.5745 7.194 19.7835 0 0 0
3794 4 3.597 34.1715 30.5745 0 0 0
1074 4 25.179 5.3955 30.5745 0 0 0
1582 4 21.582 16.1865 19.7835 0 0 0
2743 4 8.9925 10.791 19.7835 0 0 0
3599 4 1.7985 14.388 34.1715 0 0 0
3006 4 7.194 1.7985 5.3955 0 0 0
2101 4 17.985 25.179 17.985 0 0 0
629 4 28.776 0.0 25.179 0 0 0
2260 4 12.5895 5.3955 14.388 0 0 0
1218 4 25.179 19.7835 16.1865 0 0 0
1975 4 16.1865 14.388 12.5895 0 0 0
2848 4 8.9925 23.3805 3.597 0 0 0
2790 4 10.791 16.1865 26.9775 0 0 0
2778 4 10.791 16.1865 16.1865 0 0 0
1785 4 21.582 32.373 21.582 0 0 0
1996 4 16.1865 16.1865 28.776 0 0 0
1669 4 21.582 21.582 25.179 0 0 0
2591 4 12.5895 32.373 26.9775 0 0 0
1362 4 25.179 34.1715 1.7985 0 0 0
1394 4 25.179 34.1715 30.5745 0 0 0
1852 4 16.1865 5.3955 7.194 0 0 0
3554 4 3.597 12.5895 30.5745 0 0 0
235 4 30.5745 0.0 30.5745 0 0 0
743 4 26.9775 10.791 19.7835 0 0 0
813 4 28.776 17.985 10.791 0 0 0
2571 4 12.5895 32.373 8.9925 0 0 0
2329 4 14.388 10.791 7.194 0 0 0
3932 4 0.0 23.3805 19.7835 0 0 0
1289 4 25.179 25.179 7.194 0 0 0
779 4 26.9775 14.388 16.1865 0 0 0
1369 4 25.179 32.373 7.194 0 0 0
3620 4 1.7985 19.7835 14.388 0 0 0
1241 4 25.179 21.582 0.0 0 0 0
735 4 26.9775 10.791 12.5895 0 0 0
1378 4 25.179 34.1715 16.1865 0 0 0
2249 4 14.388 3.597 7.194 0 0 0
1711 4 19.7835 25.179 26.9775 0 0 0
3222 4 7.194 19.7835 19.7835 0 0 0
3670 4 3.597 23.3805 26.9775 0 0 0
3582 4 3.597 16.1865 19.7835 0 0 0
1138 4 25.179 12.5895 16.1865 0 0 0
2279 4 12.5895 3.597 34.1715 0 0 0
200 4 34.1715 34.1715 32.373 0 0 0
817 4 28.776 17.985 14.388 0 0 0
1269 4 25.179 21.582 25.179 0 0 0
3971 4 0.0 28.776 17.985 0 0 0
3019 4 5.3955 0.0 16.1865 0 0 0
2199 4 16.1865 32.373 34.1715 0 0 0
56 4 34.1715 8.9925 25.179 0 0 0
3614 4 3.597 19.7835 12.5895 0 0 0
2256 4 12.5895 5.3955 10.791 0 0 0
1105 4 25.179 7.194 21.582 0 0 0
1856 4 16.1865 5.3955 10.791 0 0 0
1335 4 23.3805 28.776 12.5895 0 0 0
979 4 26.9775 32.373 16.1865 0 0 0
3553 4 3.597 10.791 28.776 0 0 0
2373 4 14.388 14.388 10.791 0 0 0
3681 4 3.597 25.179 0.0 0 0 0
2699 4 8.9925 7.194 16.1865 0 0 0
3036 4 5.3955 1.7985 28.776 0 0 0
2578 4 14.388 34.1715 16.1865 0 0 0
1001 4 25.179 0.0 0.0 0 0 0
3923 4 0.0 21.582 3.597 0 0 0
1731 4 19.7835 28.776 8.9925 0 0 0
341 4 32.373 10.791 17.985 0 0 0
2926 4 10.791 30.5745 5.3955 0 0 0
3862 4 0.0 12.5895 1.7985 0 0 0
2755 4 8.9925 10.791 30.5745 0 0 0
1643 4 19.7835 21.582 1.7985 0 0 0
2376 4 12.5895 16.1865 10.791 0 0 0
3199 4 5.3955 14.388 34.1715 0 0 0
2984 4 8.9925 34.1715 17.985 0 0 0
3648 4 1.7985 23.3805 3.597 0 0 0
595 4 30.5745 32.373 30.5745 0 0 0
2259 4 12.5895 3.597 16.1865 0 0 0
374 4 32.373 16.1865 12.5895 0 0 0
2280 4 12.5895 5.3955 32.373 0 0 0
3827 4 0.0 3.597 10.791 0 0 0
2558 4 14.388 30.5745 34.1715 0 0 0
3859 4 0.0 7.194 32.373 0 0 0
255 4 30.5745 3.597 12.5895 0 0 0
611 4 26.9775 0.0 8.9925 0 0 0
3476 4 1.7985 5.3955 28.776 0 0 0
3289 4 7.194 25.179 7.194 0 0 0
781 4 28.776 14.388 17.985 0 0 0
2134 4 17.985 30.5745 12.5895 0 0 0
3245 4 7.194 21.582 3.597 0 0 0
1953 4 17.985 10.791 28.776 0 0 0
55 4 34.1715 7.194 26.9775 0 0 0
1684 4 19.7835 26.9775 0.0 0 0 0
1799 4 19.7835 32.373 34.1715 0 0 0
2045 4 17.985 21.582 3.597 0 0 0
2954 4 10.791 30.5745 30.5745 0 0 0
3332 4 5.3955 30.5745 7.194 0 0 0
326 4 32.373 12.5895 5.3955 0 0 0
1935 4 16.1865 10.791 12.5895 0 0 0
2734 4 10.791 12.5895 12.5895 0 0 0
3622 4 3.597 19.7835 19.7835 0 0 0
3112 4 5.3955 8.9925 25.179 0 0 0
3686 4 3.597 26.9775 5.3955 0 0 0
2319 4 12.5895 7.194 34.1715 0 0 0
414 4 32.373 19.7835 12.5895 0 0 0
2081 4 17.985 25.179 0.0 0 0 0
1681 4 21.582 25.179 0.0 0 0 0
2463 4 12.5895 21.582 19.7835 0 0 0
1726 4 21.582 30.5745 5.3955 0 0 0
791 4 26.9775 14.388 26.9775 0 0 0
2938 4 10.791 30.5745 16.1865 0 0 0
550 4 32.373 30.5745 26.9775 0 0 0
924 4 26.9775 30.5745 0.0 0 0 0
141 4 34.1715 25.179 1.7985 0 0 0
2291 4 12.5895 7.194 8.9925 0 0 0
2715 4 8.9925 7.194 30.5745 0 0 0
507 4 30.5745 25.179 23.3805 0 0 0
3590 4 3.597 16.1865 26.9775 0 0 0
2873 4 10.791 21.582 28.776 0 0 0
2332 4 12.5895 12.5895 7.194 0 0 0
598 4 32.373 34.1715 34.1715 0 0 0
1896 4 16.1865 8.9925 10.791 0 0 0
1104 4 23.3805 8.9925 17.985 0 0 0
294 4 32.373 8.9925 12.5895 0 0 0
3282 4 7.194 26.9775 1.7985 0 0 0
3906 4 0.0 19.7835 8.9925 0 0 0
601 4 28.776 0.0 0.0 0 0 0
2051 4 16.1865 21.582 8.9925 0 0 0
814 4 28.776 19.7835 12.5895 0 0 0
3625 4 3.597 17.985 21.582 0 0 0
1604 4 19.7835 19.7835 0.0 0 0 0
3077 4 7.194 3.597 32.373 0 0 0
2044 4 16.1865 23.3805 0.0 0 0 0
3012 4 5.3955 1.7985 7.194 0 0 0
3152 4 5.3955 12.5895 25.179 0 0 0
2656 4 8.9925 5.3955 10.791 0 0 0
3903 4 0.0 17.985 3.597 0 0 0
2739 4 8.9925 10.791 16.1865 0 0 0
3029 4 7.194 0.0 25.179 0 0 0
704 4 26.9775 8.9925 17.985 0 0 0
3649 4 3.597 21.582 7.194 0 0 0
2958 4 10.791 30.5745 34.1715 0 0 0
3352 4 5.3955 30.5745 25.179 0 0 0
384 4 30.5745 16.1865 17.985 0 0 0
1857 4 17.985 3.597 14.388 0 0 0
1638 4 21.582 19.7835 34.1715 0 0 0
2162 4 17.985 34.1715 1.7985 0 0 0
67 4 34.1715 10.791 12.5895 0 0 0
3366 4 7.194 34.1715 5.3955 0 0 0
1287 4 23.3805 25.179 5.3955 0 0 0
946 4 28.776 30.5745 23.3805 0 0 0
1745 4 21.582 28.776 21.582 0 0 0
2383 4 12.5895 14.388 19.7835 0 0 0
2787 4 8.9925 14.388 23.3805 0 0 0
175 4 34.1715 28.776 26.9775 0 0 0
2589 4 14.388 32.373 25.179 0 0 0
2204 4 12.5895 1.7985 0.0 0 0 0
1633 4 21.582 17.985 28.776 0 0 0
3583 4 1.7985 14.388 19.7835 0 0 0
1146 4 25.179 12.5895 23.3805 0 0 0
3729 4 3.597 28.776 7.194 0 0 0
3530 4 3.597 12.5895 8.9925 0 0 0
2450 4 14.388 23.3805 8.9925 0 0 0
3090 4 7.194 8.9925 8.9925 0 0 0
1660 4 19.7835 23.3805 14.388 0 0 0
3286 4 7.194 26.9775 5.3955 0 0 0
2905 4 10.791 25.179 21.582 0 0 0
1492 4 19.7835 8.9925 7.194 0 0 0
1380 4 23.3805 34.1715 14.388 0 0 0
721 4 28.776 10.791 0.0 0 0 0
2697 4 10.791 7.194 14.388 0 0 0
2561 4 14.388 32.373 0.0 0 0 0
2027 4 16.1865 17.985 23.3805 0 0 0
1749 4 21.582 28.776 25.179 0 0 0
199 4 34.1715 32.373 34.1715 0 0 0
413 4 32.373 17.985 10.791 0 0 0
1557 4 21.582 10.791 32.373 0 0 0
3398 4 7.194 34.1715 34.1715 0 0 0
2738 4 10.791 12.5895 16.1865 0 0 0
515 4 30.5745 25.179 30.5745 0 0 0
1659 4 19.7835 21.582 16.1865 0 0 0
3744 4 1.7985 30.5745 17.985 0 0 0
733 4 28.776 10.791 10.791 0 0 0
2175 4 16.1865 32.373 12.5895 0 0 0
3117 4 7.194 7.194 32.373 0 0 0
3676 4 1.7985 23.3805 28.776 0 0 0
1154 4 25.179 12.5895 30.5745 0 0 0
3636 4 1.7985 19.7835 28.776 0 0 0
1836 4 16.1865 1.7985 28.776 0 0 0
2719 4 8.9925 7.194 34.1715 0 0 0
225 4 32.373 0.0 21.582 0 0 0
3723 4 1.7985 28.776 1.7985 0 0 0
203 4 30.5745 0.0 1.7985 0 0 0
986 4 28.776 34.1715 23.3805 0 0 0
551 4 30.5745 28.776 26.9775 0 0 0
484 4 30.5745 26.9775 0.0 0 0 0
76 4 34.1715 12.5895 25.179 0 0 0
2320 4 12.5895 8.9925 32.373 0 0 0
3226 4 7.194 19.7835 23.3805 0 0 0
881 4 28.776 25.179 0.0 0 0 0
209 4 32.373 0.0 7.194 0 0 0
2077 4 17.985 21.582 32.373 0 0 0
2565 4 14.388 32.373 3.597 0 0 0
2939 4 8.9925 28.776 16.1865 0 0 0
3996 4 0.0 34.1715 26.9775 0 0 0
1296 4 23.3805 26.9775 10.791 0 0 0
811 4 26.9775 17.985 8.9925 0 0 0
1753 4 21.582 28.776 28.776 0 0 0
3967 4 0.0 28.776 10.791 0 0 0
851 4 26.9775 21.582 8.9925 0 0 0
2532 4 12.5895 30.5745 7.194 0 0 0
2682 4 10.791 8.9925 1.7985 0 0 0
315 4 30.5745 7.194 30.5745 0 0 0
2973 4 10.791 32.373 10.791 0 0 0
3747 4 1.7985 28.776 23.3805 0 0 0
1498 4 21.582 8.9925 16.1865 0 0 0
1595 4 19.7835 14.388 30.5745 0 0 0
256 4 30.5745 5.3955 10.791 0 0 0
1457 4 21.582 3.597 14.388 0 0 0
1066 4 25.179 5.3955 23.3805 0 0 0
112 4 34.1715 19.7835 17.985 0 0 0
1469 4 21.582 3.597 25.179 0 0 0
2845 4 10.791 21.582 3.597 0 0 0
1426 4 21.582 1.7985 23.3805 0 0 0
2464 4 12.5895 23.3805 17.985 0 0 0
635 4 26.9775 0.0 30.5745 0 0 0
3211 4 5.3955 17.985 8.9925 0 0 0
2759 4 8.9925 10.791 34.1715 0 0 0
998 4 28.776 34.1715 34.1715 0 0 0
2368 4 12.5895 16.1865 3.597 0 0 0
60 4 34.1715 8.9925 32.373 0 0 0
1599 4 19.7835 14.388 34.1715 0 0 0
372 4 30.5745 16.1865 7.194 0 0 0
331 4 30.5745 10.791 8.9925 0 0 0
3034 4 7.194 1.7985 30.5745 0 0 0
3335 4 5.3955 28.776 12.5895 0 0 0
3413 4 3.597 0.0 10.791 0 0 0
2528 4 12.5895 30.5745 3.597 0 0 0
3344 4 5.3955 30.5745 17.985 0 0 0
1548 4 19.7835 12.5895 21.582 0 0 0
2080 4 16.1865 23.3805 32.373 0 0 0
3161 4 7.194 14.388 0.0 0 0 0
402 4 32.373 19.7835 1.7985 0 0 0
1768 4 19.7835 34.1715 3.597 0 0 0
1535 4 19.7835 10.791 12.5895 0 0 0
3209 4 7.194 17.985 7.194 0 0 0
445 4 32.373 21.582 3.597 0 0 0
263 4 30.5745 3.597 19.7835 0 0 0
685 4 28.776 7.194 3.597 0 0 0
215 4 30.5745 0.0 12.5895 0 0 0
2928 4 8.9925 30.5745 3.597 0 0 0
739 4 26.9775 10.791 16.1865 0 0 0
1846 4 17.985 5.3955 5.3955 0 0 0
3645 4 3.597 21.582 3.597 0 0 0
1611 4 19.7835 17.985 8.9925 0 0 0
592 4 30.5745 34.1715 25.179 0 0 0
2967 4 8.9925 32.373 5.3955 0 0 0
1485 4 21.582 7.194 3.597 0 0 0
266 4 32.373 5.3955 23.3805 0 0 0
2961 4 10.791 32.373 0.0 0 0 0
3402 4 3.597 1.7985 1.7985 0 0 0
679 4 26.9775 3.597 34.1715 0 0 0
1162 4 25.179 16.1865 1.7985 0 0 0
246 4 32.373 5.3955 5.3955 0 0 0
264 4 30.5745 5.3955 17.985 0 0 0
221 4 32.373 0.0 17.985 0 0 0
3961 4 0.0 28.776 0.0 0 0 0
1717 4 21.582 25.179 32.373 0 0 0
2310 4 14.388 8.9925 26.9775 0 0 0
3718 4 3.597 26.9775 34.1715 0 0 0
1353 4 25.179 28.776 28.776 0 0 0
470 4 32.373 23.3805 26.9775 0 0 0
707 4 26.9775 7.194 23.3805 0 0 0
446 4 32.373 23.3805 5.3955 0 0 0
1767 4 19.7835 32.373 5.3955 0 0 0
1475 4 19.7835 3.597 30.5745 0 0 0
3764 4 1.7985 34.1715 0.0 0 0 0
157 4 34.1715 25.179 30.5745 0 0 0
2393 4 14.388 14.388 28.776 0 0 0
1443 4 19.7835 3.597 1.7985 0 0 0
2794 4 10.791 16.1865 30.5745 0 0 0
3055 4 5.3955 3.597 12.5895 0 0 0
2568 4 12.5895 34.1715 3.597 0 0 0
3422 4 3.597 1.7985 19.7835 0 0 0
3217 4 7.194 17.985 14.388 0 0 0
882 4 28.776 26.9775 1.7985 0 0 0
949 4 28.776 28.776 25.179 0 0 0
2594 4 14.388 34.1715 30.5745 0 0 0
2488 4 12.5895 26.9775 3.597 0 0 0
2728 4 8.9925 12.5895 3.597 0 0 0
3876 4 0.0 12.5895 26.9775 0 0 0
3812 4 0.0 1.7985 19.7835 0 0 0
3999 4 0.0 32.373 32.373 0 0 0
475 4 30.5745 21.582 30.5745 0 0 0
290 4 32.373 8.9925 8.9925 0 0 0
717 4 28.776 7.194 32.373 0 0 0
952 4 26.9775 30.5745 25.179 0 0 0
2695 4 8.9925 7.194 12.5895 0 0 0
1211 4 23.3805 17.985 8.9925 0 0 0
1877 4 17.985 3.597 32.373 0 0 0
3243 4 5.3955 21.582 1.7985 0 0 0
2379 4 12.5895 14.388 16.1865 0 0 0
2100 4 16.1865 26.9775 14.388 0 0 0
1626 4 21.582 19.7835 23.3805 0 0 0
1804 4 16.1865 1.7985 0.0 0 0 0
1765 4 21.582 32.373 3.597 0 0 0
1780 4 19.7835 34.1715 14.388 0 0 0
1581 4 21.582 14.388 17.985 0 0 0
2377 4 14.388 14.388 14.388 0 0 0
114 4 34.1715 19.7835 21.582 0 0 0
3085 4 7.194 7.194 3.597 0 0 0
2966 4 10.791 34.1715 5.3955 0 0 0
2211 4 12.5895 0.0 8.9925 0 0 0
2852 4 8.9925 23.3805 7.194 0 0 0
3889 4 0.0 14.388 14.388 0 0 0
1076 4 23.3805 5.3955 28.776 0 0 0
2237 4 14.388 0.0 32.373 0 0 0
2422 4 14.388 19.7835 19.7835 0 0 0
477 4 32.373 21.582 32.373 0 0 0
612 4 26.9775 1.7985 7.194 0 0 0
1083 4 23.3805 7.194 1.7985 0 0 0
62 4 34.1715 12.5895 0.0 0 0 0
2659 4 8.9925 3.597 16.1865 0 0 0
1524 4 19.7835 12.5895 0.0 0 0 0
3041 4 7.194 3.597 0.0 0 0 0
1719 4 19.7835 25.179 34.1715 0 0 0
518 4 32.373 26.9775 34.1715 0 0 0
279 4 30.5745 3.597 34.1715 0 0 0
1225 4 25.179 17.985 21.582 0 0 0
1773 4 21.582 32.373 10.791 0 0 0
33 4 34.1715 3.597 23.3805 0 0 0
2884 4 8.9925 26.9775 0.0 0 0 0
976 4 26.9775 34.1715 10.791 0 0 0
1348 4 23.3805 30.5745 21.582 0 0 0
2011 4 16.1865 17.985 8.9925 0 0 0
1040 4 23.3805 1.7985 32.373 0 0 0
2962 4 10.791 34.1715 1.7985 0 0 0
148 4 34.1715 26.9775 10.791 0 0 0
388 4 30.5745 16.1865 21.582 0 0 0
3119 4 5.3955 7.194 34.1715 0 0 0
588 4 30.5745 34.1715 21.582 0 0 0
3941 4 0.0 25.179 0.0 0 0 0
3617 4 3.597 17.985 14.388 0 0 0
1817 4 17.985 0.0 14.388 0 0 0
2357 4 14.388 10.791 32.373 0 0 0
3097 4 7.194 7.194 14.388 0 0 0
2145 4 17.985 28.776 21.582 0 0 0
2201 4 14.388 0.0 0.0 0 0 0
2467 4 12.5895 21.582 23.3805 0 0 0
2397 4 14.388 14.388 32.373 0 0 0
2763 4 8.9925 14.388 1.7985 0 0 0
2684 4 8.9925 8.9925 0.0 0 0 0
2917 4 10.791 25.179 32.373 0 0 0
2286 4 14.388 8.9925 5.3955 0 0 0
2654 4 10.791 5.3955 12.5895 0 0 0
1404 4 19.7835 1.7985 0.0 0 0 0
1823 4 16.1865 0.0 19.7835 0 0 0
2838 4 10.791 19.7835 34.1715 0 0 0
529 4 32.373 28.776 7.194 0 0 0
943 4 26.9775 28.776 19.7835 0 0 0
2245 4 14.388 3.597 3.597 0 0 0
121 4 34.1715 21.582 1.7985 0 0 0
2875 4 8.9925 21.582 30.5745 0 0 0
2227 4 12.5895 0.0 23.3805 0 0 0
278 4 32.373 5.3955 34.1715 0 0 0
3296 4 5.3955 26.9775 10.791 0 0 0
1406 4 21.582 1.7985 5.3955 0 0 0
3435 4 1.7985 0.0 30.5745 0 0 0
649 4 28.776 3.597 7.194 0 0 0
1980 4 16.1865 16.1865 14.388 0 0 0
2053 4 17.985 21.582 10.791 0 0 0
3664 4 1.7985 23.3805 17.985 0 0 0
2723 4 8.9925 10.791 1.7985 0 0 0
1171 4 23.3805 14.388 8.9925 0 0 0
3496 4 1.7985 8.9925 10.791 0 0 0
3287 4 5.3955 25.179 5.3955 0 0 0
3646 4 3.597 23.3805 5.3955 0 0 0
471 4 30.5745 21.582 26.9775 0 0 0
93 4 34.1715 14.388 23.3805 0 0 0
1777 4 21.582 32.373 14.388 0 0 0
169 4 34.1715 28.776 16.1865 0 0 0
395 4 30.5745 14.388 30.5745 0 0 0
1251 4 23.3805 21.582 8.9925 0 0 0
3570 4 3.597 16.1865 8.9925 0 0 0
2189 4 17.985 32.373 25.179 0 0 0
3627 4 1.7985 17.985 23.3805 0 0 0
1939 4 16.1865 10.791 16.1865 0 0 0
377 4 32.373 14.388 14.388 0 0 0
1039 4 23.3805 0.0 34.1715 0 0 0
3677 4 3.597 21.582 32.373 0 0 0
1449 4 21.582 3.597 7.194 0 0 0
3048 4 5.3955 5.3955 3.597 0 0 0
3389 4 7.194 32.373 25.179 0 0 0
3842 4 0.0 8.9925 1.7985 0 0 0
1151 4 23.3805 10.791 26.9775 0 0 0
458 4 32.373 23.3805 16.1865 0 0 0
3481 4 3.597 7.194 0.0 0 0 0
788 4 26.9775 16.1865 21.582 0 0 0
193 4 34.1715 32.373 23.3805 0 0 0
1029 4 25.179 0.0 25.179 0 0 0
1512 4 19.7835 8.9925 25.179 0 0 0
399 4 30.5745 14.388 34.1715 0 0 0
3384 4 5.3955 34.1715 17.985 0 0 0
1041 4 25.179 3.597 0.0 0 0 0
179 4 34.1715 28.776 34.1715 0 0 0
1912 4 16.1865 8.9925 25.179 0 0 0
1883 4 16.1865 7.194 1.7985 0 0 0
3708 4 1.7985 26.9775 21.582 0 0 0
137 4 34.1715 21.582 30.5745 0 0 0
72 4 34.1715 12.5895 17.985 0 0 0
1644 4 19.7835 23.3805 0.0 0 0 0
2585 4 14.388 32.373 21.582 0 0 0
1543 4 19.7835 10.791 19.7835 0 0 0
3867 4 0.0 10.791 10.791 0 0 0
2501 4 14.388 25.179 17.985 0 0 0
884 4 26.9775 26.9775 0.0 0 0 0
2167 4 16.1865 32.373 5.3955 0 0 0
152 4 34.1715 26.9775 17.985 0 0 0
3629 4 3.597 17.985 25.179 0 0 0
3131 4 5.3955 10.791 8.9925 0 0 0
767 4 26.9775 14.388 5.3955 0 0 0
1903 4 16.1865 7.194 19.7835 0 0 0
1547 4 19.7835 10.791 23.3805 0 0 0
3250 4 7.194 23.3805 8.9925 0 0 0
3240 4 5.3955 19.7835 32.373 0 0 0
818 4 28.776 19.7835 16.1865 0 0 0
1305 4 25.179 25.179 21.582 0 0 0
769 4 28.776 14.388 7.194 0 0 0
1368 4 23.3805 34.1715 3.597 0 0 0
3612 4 1.7985 19.7835 7.194 0 0 0
2825 4 10.791 17.985 21.582 0 0 0
82 4 34.1715 16.1865 0.0 0 0 0
2500 4 12.5895 26.9775 14.388 0 0 0
3873 4 0.0 10.791 21.582 0 0 0
1906 4 17.985 8.9925 23.3805 0 0 0
3003 4 5.3955 0.0 1.7985 0 0 0
1195 4 23.3805 14.388 30.5745 0 0 0
696 4 26.9775 8.9925 10.791 0 0 0
3690 4 3.597 26.9775 8.9925 0 0 0
1573 4 21.582 14.388 10.791 0 0 0
2283 4 12.5895 7.194 1.7985 0 0 0
3470 4 3.597 5.3955 26.9775 0 0 0
3861 4 0.0 10.791 0.0 0 0 0
3432 4 1.7985 1.7985 25.179 0 0 0
1801 4 17.985 0.0 0.0 0 0 0
1734 4 21.582 30.5745 12.5895 0 0 0
2034 4 17.985 19.7835 30.5745 0 0 0
3668 4 1.7985 23.3805 21.582 0 0 0
3320 4 5.3955 26.9775 32.373 0 0 0
183 4 34.1715 32.373 5.3955 0 0 0
1830 4 17.985 1.7985 26.9775 0 0 0
237 4 32.373 0.0 32.373 0 0 0
336 4 30.5745 12.5895 10.791 0 0 0
3877 4 0.0 10.791 28.776 0 0 0
3268 4 5.3955 23.3805 21.582 0 0 0
3976 4 0.0 30.5745 26.9775 0 0 0
2472 4 12.5895 23.3805 25.179 0 0 0
2476 4 12.5895 23.3805 28.776 0 0 0
2717 4 10.791 7.194 32.373 0 0 0
2139 4 16.1865 28.776 16.1865 0 0 0
3284 4 5.3955 26.9775 0.0 0 0 0
2771 4 8.9925 14.388 8.9925 0 0 0
182 4 34.1715 34.1715 0.0 0 0 0
3550 4 3.597 12.5895 26.9775 0 0 0
222 4 32.373 1.7985 19.7835 0 0 0
2548 4 12.5895 30.5745 21.582 0 0 0
1866 4 17.985 5.3955 23.3805 0 0 0
2055 4 16.1865 21.582 12.5895 0 0 0
1584 4 19.7835 16.1865 17.985 0 0 0
999 4 26.9775 32.373 34.1715 0 0 0
3822 4 0.0 5.3955 1.7985 0 0 0
1910 4 17.985 8.9925 26.9775 0 0 0
723 4 26.9775 10.791 1.7985 0 0 0
168 4 34.1715 30.5745 10.791 0 0 0
2159 4 16.1865 28.776 34.1715 0 0 0
407 4 30.5745 17.985 5.3955 0 0 0
3023 4 5.3955 0.0 19.7835 0 0 0
3956 4 0.0 26.9775 26.9775 0 0 0
3536 4 1.7985 12.5895 10.791 0 0 0
3498 4 3.597 8.9925 16.1865 0 0 0
1940 4 16.1865 12.5895 14.388 0 0 0
1446 4 21.582 5.3955 5.3955 0 0 0
1770 4 21.582 34.1715 8.9925 0 0 0
1333 4 25.179 28.776 10.791 0 0 0
2282 4 14.388 8.9925 1.7985 0 0 0
1927 4 16.1865 10.791 5.3955 0 0 0
1442 4 21.582 5.3955 1.7985 0 0 0
3813 4 0.0 0.0 21.582 0 0 0
2307 4 12.5895 7.194 23.3805 0 0 0
3963 4 0.0 28.776 3.597 0 0 0
567 4 30.5745 32.373 5.3955 0 0 0
2188 4 16.1865 34.1715 21.582 0 0 0
1769 4 21.582 32.373 7.194 0 0 0
3181 4 7.194 14.388 17.985 0 0 0
1525 4 21.582 10.791 3.597 0 0 0
2971 4 8.9925 32.373 8.9925 0 0 0
3505 4 3.597 7.194 21.582 0 0 0
2338 4 14.388 12.5895 16.1865 0 0 0
236 4 30.5745 1.7985 28.776 0 0 0
2490 4 14.388 26.9775 8.9925 0 0 0
1929 4 17.985 10.791 7.194 0 0 0
2127 4 16.1865 28.776 5.3955 0 0 0
2403 4 12.5895 17.985 1.7985 0 0 0
2823 4 8.9925 17.985 19.7835 0 0 0
1381 4 25.179 32.373 17.985 0 0 0
3922 4 0.0 23.3805 1.7985 0 0 0
1467 4 19.7835 3.597 23.3805 0 0 0
1000 4 26.9775 34.1715 32.373 0 0 0
238 4 32.373 1.7985 34.1715 0 0 0
1567 4 19.7835 14.388 5.3955 0 0 0
3639 4 1.7985 17.985 34.1715 0 0 0
799 4 26.9775 14.388 34.1715 0 0 0
3414 4 3.597 1.7985 12.5895 0 0 0
2457 4 14.388 21.582 14.388 0 0 0
2597 4 14.388 32.373 32.373 0 0 0
1252 4 23.3805 23.3805 7.194 0 0 0
1848 4 16.1865 5.3955 3.597 0 0 0
3542 4 3.597 12.5895 19.7835 0 0 0
3311 4 5.3955 25.179 26.9775 0 0 0
2386 4 14.388 16.1865 23.3805 0 0 0
3194 4 7.194 16.1865 30.5745 0 0 0
1249 4 25.179 21.582 7.194 0 0 0
1558 4 21.582 12.5895 34.1715 0 0 0
423 4 30.5745 17.985 19.7835 0 0 0
614 4 28.776 1.7985 12.5895 0 0 0
16 4 34.1715 1.7985 25.179 0 0 0
371 4 30.5745 14.388 8.9925 0 0 0
3323 4 5.3955 28.776 1.7985 0 0 0
2070 4 17.985 23.3805 26.9775 0 0 0
877 4 28.776 21.582 32.373 0 0 0
860 4 26.9775 23.3805 14.388 0 0 0
358 4 32.373 12.5895 34.1715 0 0 0
2662 4 10.791 5.3955 19.7835 0 0 0
1456 4 19.7835 5.3955 10.791 0 0 0
2001 4 17.985 17.985 0.0 0 0 0
1125 4 25.179 10.791 3.597 0 0 0
1123 4 23.3805 10.791 1.7985 0 0 0
2744 4 8.9925 12.5895 17.985 0 0 0
540 4 30.5745 30.5745 14.388 0 0 0
1652 4 19.7835 23.3805 7.194 0 0 0
722 4 28.776 12.5895 1.7985 0 0 0
2562 4 14.388 34.1715 1.7985 0 0 0
2165 4 17.985 32.373 3.597 0 0 0
960 4 26.9775 30.5745 32.373 0 0 0
816 4 26.9775 19.7835 10.791 0 0 0
3017 4 7.194 0.0 14.388 0 0 0
1709 4 21.582 25.179 25.179 0 0 0
1995 4 16.1865 14.388 30.5745 0 0 0
2786 4 10.791 16.1865 23.3805 0 0 0
1214 4 25.179 19.7835 12.5895 0 0 0
2087 4 16.1865 25.179 5.3955 0 0 0
1945 4 17.985 10.791 21.582 0 0 0
2008 4 16.1865 19.7835 3.597 0 0 0
3743 4 1.7985 28.776 19.7835 0 0 0
1270 4 25.179 23.3805 26.9775 0 0 0
3208 4 5.3955 19.7835 3.597 0 0 0
503 4 30.5745 25.179 19.7835 0 0 0
2556 4 12.5895 30.5745 28.776 0 0 0
298 4 32.373 8.9925 16.1865 0 0 0
1495 4 19.7835 7.194 12.5895 0 0 0
914 4 28.776 26.9775 30.5745 0 0 0
1338 4 25.179 30.5745 16.1865 0 0 0
1292 4 23.3805 26.9775 7.194 0 0 0
2114 4 17.985 26.9775 30.5745 0 0 0
190 4 34.1715 34.1715 14.388 0 0 0
3430 4 3.597 1.7985 26.9775 0 0 0
2157 4 17.985 28.776 32.373 0 0 0
3373 4 7.194 32.373 10.791 0 0 0
2039 4 16.1865 17.985 34.1715 0 0 0
2945 4 10.791 28.776 21.582 0 0 0
3883 4 0.0 14.388 3.597 0 0 0
521 4 32.373 28.776 0.0 0 0 0
2293 4 14.388 7.194 10.791 0 0 0
3704 4 1.7985 26.9775 17.985 0 0 0
2066 4 17.985 23.3805 23.3805 0 0 0
2668 4 8.9925 5.3955 21.582 0 0 0
3638 4 3.597 19.7835 34.1715 0 0 0
124 4 34.1715 23.3805 3.597 0 0 0
2240 4 12.5895 1.7985 32.373 0 0 0
831 4 26.9775 17.985 26.9775 0 0 0
3730 4 3.597 30.5745 8.9925 0 0 0
48 4 34.1715 8.9925 10.791 0 0 0
3672 4 1.7985 23.3805 25.179 0 0 0
1032 4 23.3805 1.7985 25.179 0 0 0
1920 4 16.1865 8.9925 32.373 0 0 0
3310 4 7.194 26.9775 26.9775 0 0 0
1052 4 23.3805 5.3955 7.194 0 0 0
2404 4 12.5895 19.7835 0.0 0 0 0
3005 4 7.194 0.0 3.597 0 0 0
329 4 32.373 10.791 7.194 0 0 0
1036 4 23.3805 1.7985 28.776 0 0 0
1806 4 17.985 1.7985 5.3955 0 0 0
1541 4 21.582 10.791 17.985 0 0 0
304 4 30.5745 8.9925 17.985 0 0 0
3144 4 5.3955 12.5895 17.985 0 0 0
2575 4 12.5895 32.373 12.5895 0 0 0
2512 4 12.5895 26.9775 25.179 0 0 0
895 4 26.9775 25.179 12.5895 0 0 0
3685 4 3.597 25.179 3.597 0 0 0
580 4 30.5745 34.1715 14.388 0 0 0
3902 4 0.0 19.7835 1.7985 0 0 0
1352 4 23.3805 30.5745 25.179 0 0 0
1957 4 17.985 10.791 32.373 0 0 0
1564 4 19.7835 16.1865 0.0 0 0 0
3669 4 3.597 21.582 25.179 0 0 0
795 4 26.9775 14.388 30.5745 0 0 0
3187 4 5.3955 14.388 23.3805 0 0 0
2649 4 10.791 3.597 7.194 0 0 0
269 4 32.373 3.597 25.179 0 0 0
3228 4 5.3955 19.7835 21.582 0 0 0
2390 4 14.388 16.1865 26.9775 0 0 0
3667 4 1.7985 21.582 23.3805 0 0 0
3182 4 7.194 16.1865 19.7835 0 0 0
3347 4 5.3955 28.776 23.3805 0 0 0
1438 4 21.582 1.7985 34.1715 0 0 0
3111 4 5.3955 7.194 26.9775 0 0 0
3557 4 3.597 10.791 32.373 0 0 0
345 4 32.373 10.791 21.582 0 0 0
2877 4 10.791 21.582 32.373 0 0 0
1798 4 21.582 34.1715 34.1715 0 0 0
115 4 34.1715 17.985 26.9775 0 0 0
1728 4 19.7835 30.5745 3.597 0 0 0
3585 4 3.597 14.388 21.582 0 0 0
719 4 26.9775 7.194 34.1715 0 0 0
3260 4 5.3955 23.3805 14.388 0 0 0
2540 4 12.5895 30.5745 14.388 0 0 0
3776 4 1.7985 34.1715 10.791 0 0 0
2546 4 14.388 30.5745 23.3805 0 0 0
3071 4 5.3955 3.597 26.9775 0 0 0
2444 4 12.5895 23.3805 0.0 0 0 0
2112 4 16.1865 26.9775 25.179 0 0 0
2672 4 8.9925 5.3955 25.179 0 0 0
772 4 26.9775 16.1865 7.194 0 0 0
3761 4 3.597 32.373 0.0 0 0 0
847 4 26.9775 21.582 5.3955 0 0 0
3130 4 7.194 12.5895 8.9925 0 0 0
995 4 26.9775 32.373 30.5745 0 0 0
1590 4 21.582 16.1865 26.9775 0 0 0
1212 4 23.3805 19.7835 7.194 0 0 0
2513 4 14.388 25.179 28.776 0 0 0
2389 4 14.388 14.388 25.179 0 0 0
3807 4 0.0 0.0 10.791 0 0 0
1197 4 25.179 14.388 32.373 0 0 0
3129 4 7.194 10.791 7.194 0 0 0
572 4 30.5745 34.1715 7.194 0 0 0
2915 4 8.9925 25.179 30.5745 0 0 0
1890 4 17.985 8.9925 8.9925 0 0 0
565 4 32.373 32.373 3.597 0 0 0
3521 4 3.597 10.791 0.0 0 0 0
3345 4 7.194 28.776 21.582 0 0 0
416 4 30.5745 19.7835 10.791 0 0 0
3407 4 1.7985 0.0 5.3955 0 0 0
25 4 34.1715 3.597 8.9925 0 0 0
959 4 26.9775 28.776 34.1715 0 0 0
2084 4 16.1865 26.9775 0.0 0 0 0
3318 4 7.194 26.9775 34.1715 0 0 0
765 4 28.776 14.388 3.597 0 0 0
687 4 26.9775 7.194 5.3955 0 0 0
1488 4 19.7835 8.9925 3.597 0 0 0
2406 4 14.388 19.7835 5.3955 0 0 0
1228 4 23.3805 19.7835 21.582 0 0 0
2560 4 12.5895 30.5745 32.373 0 0 0
2415 4 12.5895 17.985 12.5895 0 0 0
2816 4 8.9925 19.7835 10.791 0 0 0
3027 4 5.3955 0.0 23.3805 0 0 0
2264 4 12.5895 5.3955 17.985 0 0 0
901 4 28.776 25.179 17.985 0 0 0
3933 4 0.0 21.582 21.582 0 0 0
971 4 26.9775 32.373 8.9925 0 0 0
2647 4 8.9925 3.597 5.3955 0 0 0
3160 4 5.3955 12.5895 32.373 0 0 0
2093 4 17.985 25.179 10.791 0 0 0
3619 4 1.7985 17.985 16.1865 0 0 0
312 4 30.5745 8.9925 25.179 0 0 0
2653 4 10.791 3.597 10.791 0 0 0
1816 4 16.1865 1.7985 10.791 0 0 0
2674 4 10.791 5.3955 30.5745 0 0 0
2438 4 14.388 19.7835 34.1715 0 0 0
2007 4 16.1865 17.985 5.3955 0 0 0
3644 4 1.7985 23.3805 0.0 0 0 0
2642 4 10.791 5.3955 1.7985 0 0 0
1994 4 17.985 16.1865 30.5745 0 0 0
1771 4 19.7835 32.373 8.9925 0 0 0
3299 4 5.3955 25.179 16.1865 0 0 0
2141 4 17.985 28.776 17.985 0 0 0
2703 4 8.9925 7.194 19.7835 0 0 0
1967 4 16.1865 14.388 5.3955 0 0 0
3501 4 3.597 7.194 17.985 0 0 0
857 4 28.776 21.582 14.388 0 0 0
3790 4 3.597 34.1715 26.9775 0 0 0
3512 4 1.7985 8.9925 25.179 0 0 0
435 4 30.5745 17.985 30.5745 0 0 0
146 4 34.1715 26.9775 7.194 0 0 0
2065 4 17.985 21.582 21.582 0 0 0
2648 4 8.9925 5.3955 3.597 0 0 0
2514 4 14.388 26.9775 30.5745 0 0 0
2246 4 14.388 5.3955 5.3955 0 0 0
1021 4 25.179 0.0 17.985 0 0 0
420 4 30.5745 19.7835 14.388 0 0 0
896 4 26.9775 26.9775 10.791 0 0 0
3009 4 7.194 0.0 7.194 0 0 0
2156 4 16.1865 30.5745 28.776 0 0 0
2343 4 12.5895 10.791 19.7835 0 0 0
3509 4 3.597 7.194 25.179 0 0 0
2354 4 14.388 12.5895 30.5745 0 0 0
3069 4 7.194 3.597 25.179 0 0 0
3951 4 0.0 25.179 17.985 0 0 0
3934 4 0.0 23.3805 23.3805 0 0 0
46 4 34.1715 8.9925 7.194 0 0 0
2676 4 8.9925 5.3955 28.776 0 0 0
1897 4 17.985 7.194 14.388 0 0 0
1484 4 19.7835 8.9925 0.0 0 0 0
1998 4 17.985 16.1865 34.1715 0 0 0
724 4 26.9775 12.5895 0.0 0 0 0
944 4 26.9775 30.5745 17.985 0 0 0
3658 4 3.597 23.3805 16.1865 0 0 0
12 4 34.1715 1.7985 17.985 0 0 0
508 4 30.5745 26.9775 21.582 0 0 0
850 4 28.776 23.3805 8.9925 0 0 0
3560 4 1.7985 12.5895 32.373 0 0 0
954 4 28.776 30.5745 30.5745 0 0 0
3546 4 3.597 12.5895 23.3805 0 0 0
3524 4 1.7985 12.5895 0.0 0 0 0
2991 4 8.9925 32.373 26.9775 0 0 0
3067 4 5.3955 3.597 23.3805 0 0 0
2325 4 14.388 10.791 3.597 0 0 0
2691 4 8.9925 7.194 8.9925 0 0 0
198 4 34.1715 34.1715 28.776 0 0 0
2602 4 10.791 1.7985 1.7985 0 0 0
3940 4 0.0 23.3805 34.1715 0 0 0
577 4 32.373 32.373 14.388 0 0 0
640 4 26.9775 1.7985 32.373 0 0 0
122 4 34.1715 23.3805 0.0 0 0 0
3839 4 0.0 3.597 32.373 0 0 0
3911 4 0.0 17.985 17.985 0 0 0
1271 4 23.3805 21.582 26.9775 0 0 0
1792 4 19.7835 34.1715 25.179 0 0 0
3529 4 3.597 10.791 7.194 0 0 0
622 4 28.776 1.7985 19.7835 0 0 0
2200 4 16.1865 34.1715 32.373 0 0 0
2253 4 14.388 3.597 10.791 0 0 0
3852 4 0.0 8.9925 19.7835 0 0 0
1924 4 16.1865 12.5895 0.0 0 0 0
742 4 28.776 12.5895 19.7835 0 0 0
406 4 32.373 19.7835 5.3955 0 0 0
1350 4 25.179 30.5745 26.9775 0 0 0
3283 4 5.3955 25.179 1.7985 0 0 0
2666 4 10.791 5.3955 23.3805 0 0 0
1170 4 25.179 16.1865 8.9925 0 0 0
899 4 26.9775 25.179 16.1865 0 0 0
2557 4 14.388 28.776 32.373 0 0 0
3281 4 7.194 25.179 0.0 0 0 0
2056 4 16.1865 23.3805 10.791 0 0 0
3635 4 1.7985 17.985 30.5745 0 0 0
2922 4 10.791 30.5745 1.7985 0 0 0
2414 4 14.388 19.7835 12.5895 0 0 0
1629 4 21.582 17.985 25.179 0 0 0
38 4 34.1715 5.3955 28.776 0 0 0
104 4 34.1715 19.7835 3.597 0 0 0
961 4 28.776 32.373 0.0 0 0 0
3032 4 5.3955 1.7985 25.179 0 0 0
1578 4 21.582 16.1865 16.1865 0 0 0
3819 4 0.0 0.0 32.373 0 0 0
2095 4 16.1865 25.179 12.5895 0 0 0
997 4 28.776 32.373 32.373 0 0 0
3011 4 5.3955 0.0 8.9925 0 0 0
617 4 28.776 0.0 14.388 0 0 0
1440 4 19.7835 1.7985 32.373 0 0 0
929 4 28.776 28.776 7.194 0 0 0
2655 4 8.9925 3.597 12.5895 0 0 0
1236 4 23.3805 19.7835 28.776 0 0 0
1736 4 19.7835 30.5745 10.791 0 0 0
1555 4 19.7835 10.791 30.5745 0 0 0
3847 4 0.0 7.194 10.791 0 0 0
2239 4 12.5895 0.0 34.1715 0 0 0
1423 4 19.7835 0.0 19.7835 0 0 0
3239 4 5.3955 17.985 34.1715 0 0 0
669 4 28.776 3.597 25.179 0 0 0
1500 4 19.7835 8.9925 14.388 0 0 0
2777 4 10.791 14.388 14.388 0 0 0
1515 4 19.7835 7.194 30.5745 0 0 0
2770 4 10.791 16.1865 8.9925 0 0 0
2989 4 10.791 32.373 25.179 0 0 0
2538 4 14.388 30.5745 16.1865 0 0 0
73 4 34.1715 10.791 23.3805 0 0 0
828 4 26.9775 19.7835 21.582 0 0 0
2487 4 12.5895 25.179 5.3955 0 0 0
2085 4 17.985 25.179 3.597 0 0 0
3242 4 7.194 23.3805 1.7985 0 0 0
3631 4 1.7985 17.985 26.9775 0 0 0
337 4 32.373 10.791 14.388 0 0 0
299 4 30.5745 7.194 16.1865 0 0 0
1210 4 25.179 19.7835 8.9925 0 0 0
3508 4 1.7985 8.9925 21.582 0 0 0
136 4 34.1715 23.3805 25.179 0 0 0
1610 4 21.582 19.7835 8.9925 0 0 0
2611 4 8.9925 0.0 8.9925 0 0 0
2106 4 17.985 26.9775 23.3805 0 0 0
3314 4 7.194 26.9775 30.5745 0 0 0
3693 4 3.597 25.179 10.791 0 0 0
4 4 34.1715 1.7985 3.597 0 0 0
2555 4 12.5895 28.776 30.5745 0 0 0
2072 4 16.1865 23.3805 25.179 0 0 0
2038 4 17.985 19.7835 34.1715 0 0 0
3358 4 7.194 30.5745 34.1715 0 0 0
2942 4 10.791 30.5745 19.7835 0 0 0
3170 4 7.194 16.1865 8.9925 0 0 0
1701 4 21.582 25.179 17.985 0 0 0
654 4 28.776 5.3955 12.5895 0 0 0
1802 4 17.985 1.7985 1.7985 0 0 0
3232 4 5.3955 19.7835 25.179 0 0 0
2421 4 14.388 17.985 17.985 0 0 0
1005 4 25.179 0.0 3.597 0 0 0
3563 4 1.7985 14.388 1.7985 0 0 0
2892 4 8.9925 26.9775 7.194 0 0 0
3334 4 7.194 30.5745 12.5895 0 0 0
1466 4 21.582 5.3955 23.3805 0 0 0
3463 4 1.7985 3.597 19.7835 0 0 0
1933 4 17.985 10.791 10.791 0 0 0
3851 4 0.0 7.194 17.985 0 0 0
531 4 30.5745 28.776 8.9925 0 0 0
1774 4 21.582 34.1715 12.5895 0 0 0
773 4 28.776 14.388 10.791 0 0 0
1304 4 23.3805 26.9775 17.985 0 0 0
2089 4 17.985 25.179 7.194 0 0 0
3107 4 5.3955 7.194 23.3805 0 0 0
3603 4 1.7985 17.985 1.7985 0 0 0
2020 4 16.1865 19.7835 14.388 0 0 0
1601 4 21.582 17.985 0.0 0 0 0
393 4 32.373 14.388 28.776 0 0 0
1507 4 19.7835 7.194 23.3805 0 0 0
3 4 34.1715 0.0 5.3955 0 0 0
1 5 34.1715 0.0 1.7985 0 0 0
2 5 34.1715 1.7985 0.0 0 0 0
14 5 34.1715 1.7985 21.582 0 0 0
18 5 34.1715 1.7985 28.776 0 0 0
22 5 34.1715 5.3955 0.0 0 0 0
23 5 34.1715 3.597 5.3955 0 0 0
24 5 34.1715 5.3955 3.597 0 0 0
29 5 34.1715 3.597 16.1865 0 0 0
32 5 34.1715 5.3955 17.985 0 0 0
36 5 34.1715 5.3955 25.179 0 0 0
37 5 34.1715 3.597 30.5745 0 0 0
41 5 34.1715 7.194 1.7985 0 0 0
42 5 34.1715 8.9925 0.0 0 0 0
49 5 34.1715 7.194 16.1865 0 0 0
54 5 34.1715 8.9925 21.582 0 0 0
59 5 34.1715 7.194 34.1715 0 0 0
61 5 34.1715 10.791 1.7985 0 0 0
75 5 34.1715 10.791 26.9775 0 0 0
79 5 34.1715 10.791 34.1715 0 0 0
81 5 34.1715 14.388 1.7985 0 0 0
83 5 34.1715 14.388 5.3955 0 0 0
86 5 34.1715 16.1865 7.194 0 0 0
87 5 34.1715 14.388 12.5895 0 0 0
92 5 34.1715 16.1865 17.985 0 0 0
96 5 34.1715 16.1865 25.179 0 0 0
97 5 34.1715 14.388 30.5745 0 0 0
98 5 34.1715 16.1865 28.776 0 0 0
105 5 34.1715 17.985 8.9925 0 0 0
107 5 34.1715 17.985 12.5895 0 0 0
110 5 34.1715 19.7835 14.388 0 0 0
117 5 34.1715 17.985 30.5745 0 0 0
118 5 34.1715 19.7835 28.776 0 0 0
132 5 34.1715 23.3805 17.985 0 0 0
138 5 34.1715 23.3805 28.776 0 0 0
147 5 34.1715 25.179 12.5895 0 0 0
149 5 34.1715 25.179 16.1865 0 0 0
151 5 34.1715 25.179 19.7835 0 0 0
158 5 34.1715 26.9775 28.776 0 0 0
163 5 34.1715 28.776 5.3955 0 0 0
172 5 34.1715 30.5745 17.985 0 0 0
177 5 34.1715 28.776 30.5745 0 0 0
185 5 34.1715 32.373 8.9925 0 0 0
189 5 34.1715 32.373 16.1865 0 0 0
192 5 34.1715 34.1715 17.985 0 0 0
202 5 32.373 1.7985 1.7985 0 0 0
210 5 32.373 1.7985 8.9925 0 0 0
217 5 32.373 0.0 14.388 0 0 0
226 5 32.373 1.7985 23.3805 0 0 0
227 5 30.5745 0.0 23.3805 0 0 0
234 5 32.373 1.7985 30.5745 0 0 0
242 5 32.373 5.3955 1.7985 0 0 0
250 5 32.373 5.3955 8.9925 0 0 0
258 5 32.373 5.3955 16.1865 0 0 0
273 5 32.373 3.597 28.776 0 0 0
274 5 32.373 5.3955 30.5745 0 0 0
276 5 30.5745 5.3955 28.776 0 0 0
277 5 32.373 3.597 32.373 0 0 0
284 5 30.5745 8.9925 0.0 0 0 0
285 5 32.373 7.194 3.597 0 0 0
287 5 30.5745 7.194 5.3955 0 0 0
291 5 30.5745 7.194 8.9925 0 0 0
295 5 30.5745 7.194 12.5895 0 0 0
300 5 30.5745 8.9925 14.388 0 0 0
302 5 32.373 8.9925 19.7835 0 0 0
310 5 32.373 8.9925 26.9775 0 0 0
311 5 30.5745 7.194 26.9775 0 0 0
314 5 32.373 8.9925 30.5745 0 0 0
324 5 30.5745 12.5895 0.0 0 0 0
330 5 32.373 12.5895 8.9925 0 0 0
333 5 32.373 10.791 10.791 0 0 0
335 5 30.5745 10.791 12.5895 0 0 0
343 5 30.5745 10.791 19.7835 0 0 0
344 5 30.5745 12.5895 17.985 0 0 0
357 5 32.373 10.791 32.373 0 0 0
359 5 30.5745 10.791 34.1715 0 0 0
365 5 32.373 14.388 3.597 0 0 0
369 5 32.373 14.388 7.194 0 0 0
382 5 32.373 16.1865 19.7835 0 0 0
394 5 32.373 16.1865 30.5745 0 0 0
398 5 32.373 16.1865 34.1715 0 0 0
403 5 30.5745 17.985 1.7985 0 0 0
404 5 30.5745 19.7835 0.0 0 0 0
409 5 32.373 17.985 7.194 0 0 0
412 5 30.5745 19.7835 7.194 0 0 0
419 5 30.5745 17.985 16.1865 0 0 0
424 5 30.5745 19.7835 17.985 0 0 0
430 5 32.373 19.7835 26.9775 0 0 0
433 5 32.373 17.985 28.776 0 0 0
438 5 32.373 19.7835 34.1715 0 0 0
448 5 30.5745 23.3805 3.597 0 0 0
451 5 30.5745 21.582 8.9925 0 0 0
454 5 32.373 23.3805 12.5895 0 0 0
455 5 30.5745 21.582 12.5895 0 0 0
459 5 30.5745 21.582 16.1865 0 0 0
462 5 32.373 23.3805 19.7835 0 0 0
464 5 30.5745 23.3805 17.985 0 0 0
467 5 30.5745 21.582 23.3805 0 0 0
472 5 30.5745 23.3805 25.179 0 0 0
476 5 30.5745 23.3805 28.776 0 0 0
479 5 30.5745 21.582 34.1715 0 0 0
483 5 30.5745 25.179 1.7985 0 0 0
487 5 30.5745 25.179 5.3955 0 0 0
491 5 30.5745 25.179 8.9925 0 0 0
495 5 30.5745 25.179 12.5895 0 0 0
502 5 32.373 26.9775 19.7835 0 0 0
504 5 30.5745 26.9775 17.985 0 0 0
512 5 30.5745 26.9775 25.179 0 0 0
517 5 32.373 25.179 32.373 0 0 0
520 5 30.5745 26.9775 32.373 0 0 0
522 5 32.373 30.5745 1.7985 0 0 0
524 5 30.5745 30.5745 0.0 0 0 0
526 5 32.373 30.5745 5.3955 0 0 0
527 5 30.5745 28.776 5.3955 0 0 0
530 5 32.373 30.5745 8.9925 0 0 0
532 5 30.5745 30.5745 7.194 0 0 0
534 5 32.373 30.5745 12.5895 0 0 0
535 5 30.5745 28.776 12.5895 0 0 0
536 5 30.5745 30.5745 10.791 0 0 0
539 5 30.5745 28.776 16.1865 0 0 0
543 5 30.5745 28.776 19.7835 0 0 0
545 5 32.373 28.776 21.582 0 0 0
552 5 30.5745 30.5745 25.179 0 0 0
581 5 32.373 32.373 17.985 0 0 0
584 5 30.5745 34.1715 17.985 0 0 0
593 5 32.373 32.373 28.776 0 0 0
599 5 30.5745 32.373 34.1715 0 0 0
602 5 28.776 1.7985 1.7985 0 0 0
603 5 26.9775 0.0 1.7985 0 0 0
607 5 26.9775 0.0 5.3955 0 0 0
609 5 28.776 0.0 7.194 0 0 0
618 5 28.776 1.7985 16.1865 0 0 0
620 5 26.9775 1.7985 14.388 0 0 0
621 5 28.776 0.0 17.985 0 0 0
624 5 26.9775 1.7985 17.985 0 0 0
626 5 28.776 1.7985 23.3805 0 0 0
632 5 26.9775 1.7985 25.179 0 0 0
642 5 28.776 5.3955 1.7985 0 0 0
645 5 28.776 3.597 3.597 0 0 0
647 5 26.9775 3.597 5.3955 0 0 0
648 5 26.9775 5.3955 3.597 0 0 0
652 5 26.9775 5.3955 7.194 0 0 0
653 5 28.776 3.597 10.791 0 0 0
657 5 28.776 3.597 14.388 0 0 0
662 5 28.776 5.3955 19.7835 0 0 0
667 5 26.9775 3.597 23.3805 0 0 0
670 5 28.776 5.3955 26.9775 0 0 0
675 5 26.9775 3.597 30.5745 0 0 0
686 5 28.776 8.9925 5.3955 0 0 0
697 5 28.776 7.194 14.388 0 0 0
699 5 26.9775 7.194 16.1865 0 0 0
700 5 26.9775 8.9925 14.388 0 0 0
705 5 28.776 7.194 21.582 0 0 0
706 5 28.776 8.9925 23.3805 0 0 0
708 5 26.9775 8.9925 21.582 0 0 0
713 5 28.776 7.194 28.776 0 0 0
718 5 28.776 8.9925 34.1715 0 0 0
728 5 26.9775 12.5895 3.597 0 0 0
731 5 26.9775 10.791 8.9925 0 0 0
734 5 28.776 12.5895 12.5895 0 0 0
736 5 26.9775 12.5895 10.791 0 0 0
737 5 28.776 10.791 14.388 0 0 0
741 5 28.776 10.791 17.985 0 0 0
748 5 26.9775 12.5895 21.582 0 0 0
749 5 28.776 10.791 25.179 0 0 0
756 5 26.9775 12.5895 28.776 0 0 0
760 5 26.9775 12.5895 32.373 0 0 0
761 5 28.776 14.388 0.0 0 0 0
763 5 26.9775 14.388 1.7985 0 0 0
775 5 26.9775 14.388 12.5895 0 0 0
786 5 28.776 16.1865 23.3805 0 0 0
787 5 26.9775 14.388 23.3805 0 0 0
789 5 28.776 14.388 25.179 0 0 0
793 5 28.776 14.388 28.776 0 0 0
794 5 28.776 16.1865 30.5745 0 0 0
800 5 26.9775 16.1865 32.373 0 0 0
802 5 28.776 19.7835 1.7985 0 0 0
806 5 28.776 19.7835 5.3955 0 0 0
815 5 26.9775 17.985 12.5895 0 0 0
819 5 26.9775 17.985 16.1865 0 0 0
820 5 26.9775 19.7835 14.388 0 0 0
823 5 26.9775 17.985 19.7835 0 0 0
827 5 26.9775 17.985 23.3805 0 0 0
830 5 28.776 19.7835 26.9775 0 0 0
833 5 28.776 17.985 28.776 0 0 0
837 5 28.776 17.985 32.373 0 0 0
844 5 26.9775 23.3805 0.0 0 0 0
845 5 28.776 21.582 3.597 0 0 0
848 5 26.9775 23.3805 3.597 0 0 0
849 5 28.776 21.582 7.194 0 0 0
852 5 26.9775 23.3805 7.194 0 0 0
853 5 28.776 21.582 10.791 0 0 0
859 5 26.9775 21.582 16.1865 0 0 0
866 5 28.776 23.3805 23.3805 0 0 0
871 5 26.9775 21.582 26.9775 0 0 0
872 5 26.9775 23.3805 25.179 0 0 0
873 5 28.776 21.582 28.776 0 0 0
874 5 28.776 23.3805 30.5745 0 0 0
878 5 28.776 23.3805 34.1715 0 0 0
885 5 28.776 25.179 3.597 0 0 0
892 5 26.9775 26.9775 7.194 0 0 0
913 5 28.776 25.179 28.776 0 0 0
916 5 26.9775 26.9775 28.776 0 0 0
919 5 26.9775 25.179 34.1715 0 0 0
922 5 28.776 30.5745 1.7985 0 0 0
923 5 26.9775 28.776 1.7985 0 0 0
925 5 28.776 28.776 3.597 0 0 0
928 5 26.9775 30.5745 3.597 0 0 0
930 5 28.776 30.5745 8.9925 0 0 0
932 5 26.9775 30.5745 7.194 0 0 0
937 5 28.776 28.776 14.388 0 0 0
939 5 26.9775 28.776 16.1865 0 0 0
941 5 28.776 28.776 17.985 0 0 0
942 5 28.776 30.5745 19.7835 0 0 0
956 5 26.9775 30.5745 28.776 0 0 0
967 5 26.9775 32.373 5.3955 0 0 0
970 5 28.776 34.1715 8.9925 0 0 0
975 5 26.9775 32.373 12.5895 0 0 0
977 5 28.776 32.373 14.388 0 0 0
983 5 26.9775 32.373 19.7835 0 0 0
985 5 28.776 32.373 21.582 0 0 0
987 5 26.9775 32.373 23.3805 0 0 0
990 5 28.776 34.1715 26.9775 0 0 0
992 5 26.9775 34.1715 25.179 0 0 0
1002 5 25.179 1.7985 1.7985 0 0 0
1006 5 25.179 1.7985 5.3955 0 0 0
1008 5 23.3805 1.7985 3.597 0 0 0
1015 5 23.3805 0.0 12.5895 0 0 0
1017 5 25.179 0.0 14.388 0 0 0
1018 5 25.179 1.7985 16.1865 0 0 0
1019 5 23.3805 0.0 16.1865 0 0 0
1022 5 25.179 1.7985 19.7835 0 0 0
1024 5 23.3805 1.7985 17.985 0 0 0
1027 5 23.3805 0.0 23.3805 0 0 0
1031 5 23.3805 0.0 26.9775 0 0 0
1034 5 25.179 1.7985 30.5745 0 0 0
1035 5 23.3805 0.0 30.5745 0 0 0
1044 5 23.3805 5.3955 0.0 0 0 0
1046 5 25.179 5.3955 5.3955 0 0 0
1057 5 25.179 3.597 14.388 0 0 0
1058 5 25.179 5.3955 16.1865 0 0 0
1060 5 23.3805 5.3955 14.388 0 0 0
1062 5 25.179 5.3955 19.7835 0 0 0
1070 5 25.179 5.3955 26.9775 0 0 0
1087 5 23.3805 7.194 5.3955 0 0 0
1090 5 25.179 8.9925 8.9925 0 0 0
1091 5 23.3805 7.194 8.9925 0 0 0
1095 5 23.3805 7.194 12.5895 0 0 0
1096 5 23.3805 8.9925 10.791 0 0 0
1097 5 25.179 7.194 14.388 0 0 0
1103 5 23.3805 7.194 19.7835 0 0 0
1110 5 25.179 8.9925 26.9775 0 0 0
1115 5 23.3805 7.194 30.5745 0 0 0
1116 5 23.3805 8.9925 28.776 0 0 0
1122 5 25.179 12.5895 1.7985 0 0 0
1129 5 25.179 10.791 7.194 0 0 0
1131 5 23.3805 10.791 8.9925 0 0 0
1137 5 25.179 10.791 14.388 0 0 0
1140 5 23.3805 12.5895 14.388 0 0 0
1152 5 23.3805 12.5895 25.179 0 0 0
1157 5 25.179 10.791 32.373 0 0 0
1164 5 23.3805 16.1865 0.0 0 0 0
1165 5 25.179 14.388 3.597 0 0 0
1174 5 25.179 16.1865 12.5895 0 0 0
1176 5 23.3805 16.1865 10.791 0 0 0
1183 5 23.3805 14.388 19.7835 0 0 0
1184 5 23.3805 16.1865 17.985 0 0 0
1186 5 25.179 16.1865 23.3805 0 0 0
1189 5 25.179 14.388 25.179 0 0 0
1200 5 23.3805 16.1865 32.373 0 0 0
1205 5 25.179 17.985 3.597 0 0 0
1207 5 23.3805 17.985 5.3955 0 0 0
1216 5 23.3805 19.7835 10.791 0 0 0
1219 5 23.3805 17.985 16.1865 0 0 0
1221 5 25.179 17.985 17.985 0 0 0
1224 5 23.3805 19.7835 17.985 0 0 0
1226 5 25.179 19.7835 23.3805 0 0 0
1227 5 23.3805 17.985 23.3805 0 0 0
1232 5 23.3805 19.7835 25.179 0 0 0
1233 5 25.179 17.985 28.776 0 0 0
1238 5 25.179 19.7835 34.1715 0 0 0
1244 5 23.3805 23.3805 0.0 0 0 0
1250 5 25.179 23.3805 8.9925 0 0 0
1261 5 25.179 21.582 17.985 0 0 0
1266 5 25.179 23.3805 23.3805 0 0 0
1274 5 25.179 23.3805 30.5745 0 0 0
1275 5 23.3805 21.582 30.5745 0 0 0
1280 5 23.3805 23.3805 32.373 0 0 0
1286 5 25.179 26.9775 5.3955 0 0 0
1288 5 23.3805 26.9775 3.597 0 0 0
1298 5 25.179 26.9775 16.1865 0 0 0
1301 5 25.179 25.179 17.985 0 0 0
1306 5 25.179 26.9775 23.3805 0 0 0
1325 5 25.179 28.776 3.597 0 0 0
1327 5 23.3805 28.776 5.3955 0 0 0
1336 5 23.3805 30.5745 10.791 0 0 0
1343 5 23.3805 28.776 19.7835 0 0 0
1347 5 23.3805 28.776 23.3805 0 0 0
1356 5 23.3805 30.5745 28.776 0 0 0
1366 5 25.179 34.1715 5.3955 0 0 0
1375 5 23.3805 32.373 12.5895 0 0 0
1377 5 25.179 32.373 14.388 0 0 0
1384 5 23.3805 34.1715 17.985 0 0 0
1385 5 25.179 32.373 21.582 0 0 0
1389 5 25.179 32.373 25.179 0 0 0
1410 5 21.582 1.7985 8.9925 0 0 0
1412 5 19.7835 1.7985 7.194 0 0 0
1415 5 19.7835 0.0 12.5895 0 0 0
1418 5 21.582 1.7985 16.1865 0 0 0
1419 5 19.7835 0.0 16.1865 0 0 0
1421 5 21.582 0.0 17.985 0 0 0
1422 5 21.582 1.7985 19.7835 0 0 0
1425 5 21.582 0.0 21.582 0 0 0
1431 5 19.7835 0.0 26.9775 0 0 0
1433 5 21.582 0.0 28.776 0 0 0
1444 5 19.7835 5.3955 0.0 0 0 0
1447 5 19.7835 3.597 5.3955 0 0 0
1448 5 19.7835 5.3955 3.597 0 0 0
1450 5 21.582 5.3955 8.9925 0 0 0
1451 5 19.7835 3.597 8.9925 0 0 0
1452 5 19.7835 5.3955 7.194 0 0 0
1464 5 19.7835 5.3955 17.985 0 0 0
1465 5 21.582 3.597 21.582 0 0 0
1468 5 19.7835 5.3955 21.582 0 0 0
1470 5 21.582 5.3955 26.9775 0 0 0
1481 5 21.582 7.194 0.0 0 0 0
1482 5 21.582 8.9925 1.7985 0 0 0
1483 5 19.7835 7.194 1.7985 0 0 0
1493 5 21.582 7.194 10.791 0 0 0
1494 5 21.582 8.9925 12.5895 0 0 0
1502 5 21.582 8.9925 19.7835 0 0 0
1503 5 19.7835 7.194 19.7835 0 0 0
1506 5 21.582 8.9925 23.3805 0 0 0
1509 5 21.582 7.194 25.179 0 0 0
1520 5 19.7835 8.9925 32.373 0 0 0
1521 5 21.582 10.791 0.0 0 0 0
1526 5 21.582 12.5895 5.3955 0 0 0
1549 5 21.582 10.791 25.179 0 0 0
1550 5 21.582 12.5895 26.9775 0 0 0
1551 5 19.7835 10.791 26.9775 0 0 0
1552 5 19.7835 12.5895 25.179 0 0 0
1565 5 21.582 14.388 3.597 0 0 0
1576 5 19.7835 16.1865 10.791 0 0 0
1577 5 21.582 14.388 14.388 0 0 0
1585 5 21.582 14.388 21.582 0 0 0
1586 5 21.582 16.1865 23.3805 0 0 0
1591 5 19.7835 14.388 26.9775 0 0 0
1592 5 19.7835 16.1865 25.179 0 0 0
1593 5 21.582 14.388 28.776 0 0 0
1596 5 19.7835 16.1865 28.776 0 0 0
1605 5 21.582 17.985 3.597 0 0 0
1607 5 19.7835 17.985 5.3955 0 0 0
1608 5 19.7835 19.7835 3.597 0 0 0
1609 5 21.582 17.985 7.194 0 0 0
1612 5 19.7835 19.7835 7.194 0 0 0
1614 5 21.582 19.7835 12.5895 0 0 0
1615 5 19.7835 17.985 12.5895 0 0 0
1616 5 19.7835 19.7835 10.791 0 0 0
1619 5 19.7835 17.985 16.1865 0 0 0
1621 5 21.582 17.985 17.985 0 0 0
1624 5 19.7835 19.7835 17.985 0 0 0
1625 5 21.582 17.985 21.582 0 0 0
1630 5 21.582 19.7835 26.9775 0 0 0
1631 5 19.7835 17.985 26.9775 0 0 0
1632 5 19.7835 19.7835 25.179 0 0 0
1637 5 21.582 17.985 32.373 0 0 0
1642 5 21.582 23.3805 1.7985 0 0 0
1654 5 21.582 23.3805 12.5895 0 0 0
1655 5 19.7835 21.582 12.5895 0 0 0
1657 5 21.582 21.582 14.388 0 0 0
1667 5 19.7835 21.582 23.3805 0 0 0
1674 5 21.582 23.3805 30.5745 0 0 0
1676 5 19.7835 23.3805 28.776 0 0 0
1683 5 19.7835 25.179 1.7985 0 0 0
1693 5 21.582 25.179 10.791 0 0 0
1695 5 19.7835 25.179 12.5895 0 0 0
1707 5 19.7835 25.179 23.3805 0 0 0
1710 5 21.582 26.9775 26.9775 0 0 0
1727 5 19.7835 28.776 5.3955 0 0 0
1729 5 21.582 28.776 7.194 0 0 0
1737 5 21.582 28.776 14.388 0 0 0
1738 5 21.582 30.5745 16.1865 0 0 0
1741 5 21.582 28.776 17.985 0 0 0
1747 5 19.7835 28.776 23.3805 0 0 0
1748 5 19.7835 30.5745 21.582 0 0 0
1755 5 19.7835 28.776 30.5745 0 0 0
1756 5 19.7835 30.5745 28.776 0 0 0
1775 5 19.7835 32.373 12.5895 0 0 0
1783 5 19.7835 32.373 19.7835 0 0 0
1784 5 19.7835 34.1715 17.985 0 0 0
1797 5 21.582 32.373 32.373 0 0 0
1803 5 16.1865 0.0 1.7985 0 0 0
1811 5 16.1865 0.0 8.9925 0 0 0
1813 5 17.985 0.0 10.791 0 0 0
1814 5 17.985 1.7985 12.5895 0 0 0
1818 5 17.985 1.7985 16.1865 0 0 0
1819 5 16.1865 0.0 16.1865 0 0 0
1824 5 16.1865 1.7985 17.985 0 0 0
1825 5 17.985 0.0 21.582 0 0 0
1829 5 17.985 0.0 25.179 0 0 0
1832 5 16.1865 1.7985 25.179 0 0 0
1833 5 17.985 0.0 28.776 0 0 0
1834 5 17.985 1.7985 30.5745 0 0 0
1835 5 16.1865 0.0 30.5745 0 0 0
1842 5 17.985 5.3955 1.7985 0 0 0
1843 5 16.1865 3.597 1.7985 0 0 0
1845 5 17.985 3.597 3.597 0 0 0
1850 5 17.985 5.3955 8.9925 0 0 0
1859 5 16.1865 3.597 16.1865 0 0 0
1861 5 17.985 3.597 17.985 0 0 0
1863 5 16.1865 3.597 19.7835 0 0 0
1864 5 16.1865 5.3955 17.985 0 0 0
1867 5 16.1865 3.597 23.3805 0 0 0
1869 5 17.985 3.597 25.179 0 0 0
1874 5 17.985 5.3955 30.5745 0 0 0
1875 5 16.1865 3.597 30.5745 0 0 0
1878 5 17.985 5.3955 34.1715 0 0 0
1879 5 16.1865 3.597 34.1715 0 0 0
1884 5 16.1865 8.9925 0.0 0 0 0
1885 5 17.985 7.194 3.597 0 0 0
1892 5 16.1865 8.9925 7.194 0 0 0
1893 5 17.985 7.194 10.791 0 0 0
1894 5 17.985 8.9925 12.5895 0 0 0
1900 5 16.1865 8.9925 14.388 0 0 0
1901 5 17.985 7.194 17.985 0 0 0
1905 5 17.985 7.194 21.582 0 0 0
1908 5 16.1865 8.9925 21.582 0 0 0
1914 5 17.985 8.9925 30.5745 0 0 0
1918 5 17.985 8.9925 34.1715 0 0 0
1919 5 16.1865 7.194 34.1715 0 0 0
1923 5 16.1865 10.791 1.7985 0 0 0
1931 5 16.1865 10.791 8.9925 0 0 0
1937 5 17.985 10.791 14.388 0 0 0
1942 5 17.985 12.5895 19.7835 0 0 0
1944 5 16.1865 12.5895 17.985 0 0 0
1946 5 17.985 12.5895 23.3805 0 0 0
1947 5 16.1865 10.791 23.3805 0 0 0
1951 5 16.1865 10.791 26.9775 0 0 0
1954 5 17.985 12.5895 30.5745 0 0 0
1956 5 16.1865 12.5895 28.776 0 0 0
1961 5 17.985 14.388 0.0 0 0 0
1965 5 17.985 14.388 3.597 0 0 0
1968 5 16.1865 16.1865 3.597 0 0 0
1982 5 17.985 16.1865 19.7835 0 0 0
1985 5 17.985 14.388 21.582 0 0 0
1986 5 17.985 16.1865 23.3805 0 0 0
1990 5 17.985 16.1865 26.9775 0 0 0
1993 5 17.985 14.388 28.776 0 0 0
1997 5 17.985 14.388 32.373 0 0 0
2004 5 16.1865 19.7835 0.0 0 0 0
2005 5 17.985 17.985 3.597 0 0 0
2006 5 17.985 19.7835 5.3955 0 0 0
2015 5 16.1865 17.985 12.5895 0 0 0
2021 5 17.985 17.985 17.985 0 0 0
2024 5 16.1865 19.7835 17.985 0 0 0
2026 5 17.985 19.7835 23.3805 0 0 0
2030 5 17.985 19.7835 26.9775 0 0 0
2033 5 17.985 17.985 28.776 0 0 0
2036 5 16.1865 19.7835 28.776 0 0 0
2043 5 16.1865 21.582 1.7985 0 0 0
2048 5 16.1865 23.3805 3.597 0 0 0
2057 5 17.985 21.582 14.388 0 0 0
2058 5 17.985 23.3805 16.1865 0 0 0
2059 5 16.1865 21.582 16.1865 0 0 0
2061 5 17.985 21.582 17.985 0 0 0
2067 5 16.1865 21.582 23.3805 0 0 0
2071 5 16.1865 21.582 26.9775 0 0 0
2073 5 17.985 21.582 28.776 0 0 0
2078 5 17.985 23.3805 34.1715 0 0 0
2083 5 16.1865 25.179 1.7985 0 0 0
2092 5 16.1865 26.9775 7.194 0 0 0
2098 5 17.985 26.9775 16.1865 0 0 0
2104 5 16.1865 26.9775 17.985 0 0 0
2108 5 16.1865 26.9775 21.582 0 0 0
2109 5 17.985 25.179 25.179 0 0 0
2111 5 16.1865 25.179 26.9775 0 0 0
2115 5 16.1865 25.179 30.5745 0 0 0
2120 5 16.1865 26.9775 32.373 0 0 0
2121 5 17.985 28.776 0.0 0 0 0
2130 5 17.985 30.5745 8.9925 0 0 0
2132 5 16.1865 30.5745 7.194 0 0 0
2147 5 16.1865 28.776 23.3805 0 0 0
2152 5 16.1865 30.5745 25.179 0 0 0
2153 5 17.985 28.776 28.776 0 0 0
2155 5 16.1865 28.776 30.5745 0 0 0
2161 5 17.985 32.373 0.0 0 0 0
2163 5 16.1865 32.373 1.7985 0 0 0
2166 5 17.985 34.1715 5.3955 0 0 0
2168 5 16.1865 34.1715 3.597 0 0 0
2173 5 17.985 32.373 10.791 0 0 0
2181 5 17.985 32.373 17.985 0 0 0
2182 5 17.985 34.1715 19.7835 0 0 0
2184 5 16.1865 34.1715 17.985 0 0 0
2192 5 16.1865 34.1715 25.179 0 0 0
2194 5 17.985 34.1715 30.5745 0 0 0
2195 5 16.1865 32.373 30.5745 0 0 0
2202 5 14.388 1.7985 1.7985 0 0 0
2205 5 14.388 0.0 3.597 0 0 0
2206 5 14.388 1.7985 5.3955 0 0 0
2208 5 12.5895 1.7985 3.597 0 0 0
2220 5 12.5895 1.7985 14.388 0 0 0
2229 5 14.388 0.0 25.179 0 0 0
2231 5 12.5895 0.0 26.9775 0 0 0
2247 5 12.5895 3.597 5.3955 0 0 0
2254 5 14.388 5.3955 12.5895 0 0 0
2255 5 12.5895 3.597 12.5895 0 0 0
2258 5 14.388 5.3955 16.1865 0 0 0
2266 5 14.388 5.3955 23.3805 0 0 0
2272 5 12.5895 5.3955 25.179 0 0 0
2273 5 14.388 3.597 28.776 0 0 0
2275 5 12.5895 3.597 30.5745 0 0 0
2276 5 12.5895 5.3955 28.776 0 0 0
2277 5 14.388 3.597 32.373 0 0 0
2278 5 14.388 5.3955 34.1715 0 0 0
2281 5 14.388 7.194 0.0 0 0 0
2290 5 14.388 8.9925 8.9925 0 0 0
2296 5 12.5895 8.9925 10.791 0 0 0
2298 5 14.388 8.9925 16.1865 0 0 0
2300 5 12.5895 8.9925 14.388 0 0 0
2301 5 14.388 7.194 17.985 0 0 0
2302 5 14.388 8.9925 19.7835 0 0 0
2308 5 12.5895 8.9925 21.582 0 0 0
2313 5 14.388 7.194 28.776 0 0 0
2318 5 14.388 8.9925 34.1715 0 0 0
2324 5 12.5895 12.5895 0.0 0 0 0
2327 5 12.5895 10.791 5.3955 0 0 0
2328 5 12.5895 12.5895 3.597 0 0 0
2330 5 14.388 12.5895 8.9925 0 0 0
2335 5 12.5895 10.791 12.5895 0 0 0
2336 5 12.5895 12.5895 10.791 0 0 0
2339 5 12.5895 10.791 16.1865 0 0 0
2340 5 12.5895 12.5895 14.388 0 0 0
2345 5 14.388 10.791 21.582 0 0 0
2346 5 14.388 12.5895 23.3805 0 0 0
2352 5 12.5895 12.5895 25.179 0 0 0
2353 5 14.388 10.791 28.776 0 0 0
2358 5 14.388 12.5895 34.1715 0 0 0
2367 5 12.5895 14.388 5.3955 0 0 0
2375 5 12.5895 14.388 12.5895 0 0 0
2378 5 14.388 16.1865 16.1865 0 0 0
2382 5 14.388 16.1865 19.7835 0 0 0
2384 5 12.5895 16.1865 17.985 0 0 0
2385 5 14.388 14.388 21.582 0 0 0
2387 5 12.5895 14.388 23.3805 0 0 0
2394 5 14.388 16.1865 30.5745 0 0 0
2396 5 12.5895 16.1865 28.776 0 0 0
2400 5 12.5895 16.1865 32.373 0 0 0
2401 5 14.388 17.985 0.0 0 0 0
2405 5 14.388 17.985 3.597 0 0 0
2412 5 12.5895 19.7835 7.194 0 0 0
2417 5 14.388 17.985 14.388 0 0 0
2419 5 12.5895 17.985 16.1865 0 0 0
2423 5 12.5895 17.985 19.7835 0 0 0
2424 5 12.5895 19.7835 17.985 0 0 0
2425 5 14.388 17.985 21.582 0 0 0
2429 5 14.388 17.985 25.179 0 0 0
2431 5 12.5895 17.985 26.9775 0 0 0
2440 5 12.5895 19.7835 32.373 0 0 0
2442 5 14.388 23.3805 1.7985 0 0 0
2445 5 14.388 21.582 3.597 0 0 0
2448 5 12.5895 23.3805 3.597 0 0 0
2449 5 14.388 21.582 7.194 0 0 0
2455 5 12.5895 21.582 12.5895 0 0 0
2465 5 14.388 21.582 21.582 0 0 0
2466 5 14.388 23.3805 23.3805 0 0 0
2478 5 14.388 23.3805 34.1715 0 0 0
2482 5 14.388 26.9775 1.7985 0 0 0
2483 5 12.5895 25.179 1.7985 0 0 0
2485 5 14.388 25.179 3.597 0 0 0
2505 5 14.388 25.179 21.582 0 0 0
2510 5 14.388 26.9775 26.9775 0 0 0
2517 5 14.388 25.179 32.373 0 0 0
2518 5 14.388 26.9775 34.1715 0 0 0
2519 5 12.5895 25.179 34.1715 0 0 0
2521 5 14.388 28.776 0.0 0 0 0
2527 5 12.5895 28.776 5.3955 0 0 0
2533 5 14.388 28.776 10.791 0 0 0
2536 5 12.5895 30.5745 10.791 0 0 0
2544 5 12.5895 30.5745 17.985 0 0 0
2545 5 14.388 28.776 21.582 0 0 0
2552 5 12.5895 30.5745 25.179 0 0 0
2564 5 12.5895 34.1715 0.0 0 0 0
2567 5 12.5895 32.373 5.3955 0 0 0
2569 5 14.388 32.373 7.194 0 0 0
2570 5 14.388 34.1715 8.9925 0 0 0
2576 5 12.5895 34.1715 10.791 0 0 0
2579 5 12.5895 32.373 16.1865 0 0 0
2586 5 14.388 34.1715 23.3805 0 0 0
2587 5 12.5895 32.373 23.3805 0 0 0
2588 5 12.5895 34.1715 21.582 0 0 0
2590 5 14.388 34.1715 26.9775 0 0 0
2595 5 12.5895 32.373 30.5745 0 0 0
2598 5 14.388 34.1715 34.1715 0 0 0
2601 5 10.791 0.0 0.0 0 0 0
2612 5 8.9925 1.7985 7.194 0 0 0
2623 5 8.9925 0.0 19.7835 0 0 0
2624 5 8.9925 1.7985 17.985 0 0 0
2628 5 8.9925 1.7985 21.582 0 0 0
2631 5 8.9925 0.0 26.9775 0 0 0
2633 5 10.791 0.0 28.776 0 0 0
2640 5 8.9925 1.7985 32.373 0 0 0
2641 5 10.791 3.597 0.0 0 0 0
2643 5 8.9925 3.597 1.7985 0 0 0
2646 5 10.791 5.3955 5.3955 0 0 0
2660 5 8.9925 5.3955 14.388 0 0 0
2661 5 10.791 3.597 17.985 0 0 0
2679 5 8.9925 3.597 34.1715 0 0 0
2681 5 10.791 7.194 0.0 0 0 0
2686 5 10.791 8.9925 5.3955 0 0 0
2687 5 8.9925 7.194 5.3955 0 0 0
2688 5 8.9925 8.9925 3.597 0 0 0
2700 5 8.9925 8.9925 14.388 0 0 0
2705 5 10.791 7.194 21.582 0 0 0
2707 5 8.9925 7.194 23.3805 0 0 0
2710 5 10.791 8.9925 26.9775 0 0 0
2714 5 10.791 8.9925 30.5745 0 0 0
2716 5 8.9925 8.9925 28.776 0 0 0
2718 5 10.791 8.9925 34.1715 0 0 0
2729 5 10.791 10.791 7.194 0 0 0
2732 5 8.9925 12.5895 7.194 0 0 0
2735 5 8.9925 10.791 12.5895 0 0 0
2740 5 8.9925 12.5895 14.388 0 0 0
2747 5 8.9925 10.791 23.3805 0 0 0
2754 5 10.791 12.5895 30.5745 0 0 0
2764 5 8.9925 16.1865 0.0 0 0 0
2773 5 10.791 14.388 10.791 0 0 0
2775 5 8.9925 14.388 12.5895 0 0 0
2791 5 8.9925 14.388 26.9775 0 0 0
2804 5 8.9925 19.7835 0.0 0 0 0
2808 5 8.9925 19.7835 3.597 0 0 0
2820 5 8.9925 19.7835 14.388 0 0 0
2827 5 8.9925 17.985 23.3805 0 0 0
2829 5 10.791 17.985 25.179 0 0 0
2830 5 10.791 19.7835 26.9775 0 0 0
2831 5 8.9925 17.985 26.9775 0 0 0
2835 5 8.9925 17.985 30.5745 0 0 0
2837 5 10.791 17.985 32.373 0 0 0
2842 5 10.791 23.3805 1.7985 0 0 0
2846 5 10.791 23.3805 5.3955 0 0 0
2849 5 10.791 21.582 7.194 0 0 0
2850 5 10.791 23.3805 8.9925 0 0 0
2854 5 10.791 23.3805 12.5895 0 0 0
2858 5 10.791 23.3805 16.1865 0 0 0
2868 5 8.9925 23.3805 21.582 0 0 0
2870 5 10.791 23.3805 26.9775 0 0 0
2876 5 8.9925 23.3805 28.776 0 0 0
2886 5 10.791 26.9775 5.3955 0 0 0
2889 5 10.791 25.179 7.194 0 0 0
2891 5 8.9925 25.179 8.9925 0 0 0
2893 5 10.791 25.179 10.791 0 0 0
2894 5 10.791 26.9775 12.5895 0 0 0
2900 5 8.9925 26.9775 14.388 0 0 0
2901 5 10.791 25.179 17.985 0 0 0
2904 5 8.9925 26.9775 17.985 0 0 0
2906 5 10.791 26.9775 23.3805 0 0 0
2914 5 10.791 26.9775 30.5745 0 0 0
2924 5 8.9925 30.5745 0.0 0 0 0
2927 5 8.9925 28.776 5.3955 0 0 0
2929 5 10.791 28.776 7.194 0 0 0
2931 5 8.9925 28.776 8.9925 0 0 0
2934 5 10.791 30.5745 12.5895 0 0 0
2935 5 8.9925 28.776 12.5895 0 0 0
2936 5 8.9925 30.5745 10.791 0 0 0
2940 5 8.9925 30.5745 14.388 0 0 0
2944 5 8.9925 30.5745 17.985 0 0 0
2946 5 10.791 30.5745 23.3805 0 0 0
2949 5 10.791 28.776 25.179 0 0 0
2955 5 8.9925 28.776 30.5745 0 0 0
2956 5 8.9925 30.5745 28.776 0 0 0
2964 5 8.9925 34.1715 0.0 0 0 0
2974 5 10.791 34.1715 12.5895 0 0 0
2975 5 8.9925 32.373 12.5895 0 0 0
2981 5 10.791 32.373 17.985 0 0 0
2987 5 8.9925 32.373 23.3805 0 0 0
2992 5 8.9925 34.1715 25.179 0 0 0
2995 5 8.9925 32.373 30.5745 0 0 0
2996 5 8.9925 34.1715 28.776 0 0 0
2999 5 8.9925 32.373 34.1715 0 0 0
3002 5 7.194 1.7985 1.7985 0 0 0
3008 5 5.3955 1.7985 3.597 0 0 0
3013 5 7.194 0.0 10.791 0 0 0
3022 5 7.194 1.7985 19.7835 0 0 0
3026 5 7.194 1.7985 23.3805 0 0 0
3038 5 7.194 1.7985 34.1715 0 0 0
3040 5 5.3955 1.7985 32.373 0 0 0
3045 5 7.194 3.597 3.597 0 0 0
3053 5 7.194 3.597 10.791 0 0 0
3054 5 7.194 5.3955 12.5895 0 0 0
3057 5 7.194 3.597 14.388 0 0 0
3058 5 7.194 5.3955 16.1865 0 0 0
3061 5 7.194 3.597 17.985 0 0 0
3079 5 5.3955 3.597 34.1715 0 0 0
3083 5 5.3955 7.194 1.7985 0 0 0
3091 5 5.3955 7.194 8.9925 0 0 0
3092 5 5.3955 8.9925 7.194 0 0 0
3093 5 7.194 7.194 10.791 0 0 0
3096 5 5.3955 8.9925 10.791 0 0 0
3098 5 7.194 8.9925 16.1865 0 0 0
3106 5 7.194 8.9925 23.3805 0 0 0
3109 5 7.194 7.194 25.179 0 0 0
3115 5 5.3955 7.194 30.5745 0 0 0
3118 5 7.194 8.9925 34.1715 0 0 0
3122 5 7.194 12.5895 1.7985 0 0 0
3139 5 5.3955 10.791 16.1865 0 0 0
3145 5 7.194 10.791 21.582 0 0 0
3147 5 5.3955 10.791 23.3805 0 0 0
3149 5 7.194 10.791 25.179 0 0 0
3156 5 5.3955 12.5895 28.776 0 0 0
3157 5 7.194 10.791 32.373 0 0 0
3159 5 5.3955 10.791 34.1715 0 0 0
3165 5 7.194 14.388 3.597 0 0 0
3167 5 5.3955 14.388 5.3955 0 0 0
3169 5 7.194 14.388 7.194 0 0 0
3171 5 5.3955 14.388 8.9925 0 0 0
3175 5 5.3955 14.388 12.5895 0 0 0
3178 5 7.194 16.1865 16.1865 0 0 0
3183 5 5.3955 14.388 19.7835 0 0 0
3198 5 7.194 16.1865 34.1715 0 0 0
3201 5 7.194 17.985 0.0 0 0 0
3206 5 7.194 19.7835 5.3955 0 0 0
3207 5 5.3955 17.985 5.3955 0 0 0
3223 5 5.3955 17.985 19.7835 0 0 0
3229 5 7.194 17.985 25.179 0 0 0
3236 5 5.3955 19.7835 28.776 0 0 0
3247 5 5.3955 21.582 5.3955 0 0 0
3256 5 5.3955 23.3805 10.791 0 0 0
3257 5 7.194 21.582 14.388 0 0 0
3259 5 5.3955 21.582 16.1865 0 0 0
3265 5 7.194 21.582 21.582 0 0 0
3267 5 5.3955 21.582 23.3805 0 0 0
3269 5 7.194 21.582 25.179 0 0 0
3270 5 7.194 23.3805 26.9775 0 0 0
3278 5 7.194 23.3805 34.1715 0 0 0
3291 5 5.3955 25.179 8.9925 0 0 0
3292 5 5.3955 26.9775 7.194 0 0 0
3297 5 7.194 25.179 14.388 0 0 0
3302 5 7.194 26.9775 19.7835 0 0 0
3306 5 7.194 26.9775 23.3805 0 0 0
3307 5 5.3955 25.179 23.3805 0 0 0
3312 5 5.3955 26.9775 25.179 0 0 0
3319 5 5.3955 25.179 34.1715 0 0 0
3337 5 7.194 28.776 14.388 0 0 0
3342 5 7.194 30.5745 19.7835 0 0 0
3356 5 5.3955 30.5745 28.776 0 0 0
3361 5 7.194 32.373 0.0 0 0 0
3363 5 5.3955 32.373 1.7985 0 0 0
3365 5 7.194 32.373 3.597 0 0 0
3368 5 5.3955 34.1715 3.597 0 0 0
3369 5 7.194 32.373 7.194 0 0 0
3370 5 7.194 34.1715 8.9925 0 0 0
3371 5 5.3955 32.373 8.9925 0 0 0
3377 5 7.194 32.373 14.388 0 0 0
3382 5 7.194 34.1715 19.7835 0 0 0
3383 5 5.3955 32.373 19.7835 0 0 0
3386 5 7.194 34.1715 23.3805 0 0 0
3392 5 5.3955 34.1715 25.179 0 0 0
3396 5 5.3955 34.1715 28.776 0 0 0
3399 5 5.3955 32.373 34.1715 0 0 0
3400 5 5.3955 34.1715 32.373 0 0 0
3401 5 3.597 0.0 0.0 0 0 0
3408 5 1.7985 1.7985 3.597 0 0 0
3409 5 3.597 0.0 7.194 0 0 0
3420 5 1.7985 1.7985 14.388 0 0 0
3425 5 3.597 0.0 21.582 0 0 0
3426 5 3.597 1.7985 23.3805 0 0 0
3428 5 1.7985 1.7985 21.582 0 0 0
3441 5 3.597 3.597 0.0 0 0 0
3443 5 1.7985 3.597 1.7985 0 0 0
3451 5 1.7985 3.597 8.9925 0 0 0
3457 5 3.597 3.597 14.388 0 0 0
3458 5 3.597 5.3955 16.1865 0 0 0
3462 5 3.597 5.3955 19.7835 0 0 0
3474 5 3.597 5.3955 30.5745 0 0 0
3478 5 3.597 5.3955 34.1715 0 0 0
3479 5 1.7985 3.597 34.1715 0 0 0
3482 5 3.597 8.9925 1.7985 0 0 0
3483 5 1.7985 7.194 1.7985 0 0 0
3486 5 3.597 8.9925 5.3955 0 0 0
3489 5 3.597 7.194 7.194 0 0 0
3491 5 1.7985 7.194 8.9925 0 0 0
3495 5 1.7985 7.194 12.5895 0 0 0
3497 5 3.597 7.194 14.388 0 0 0
3500 5 1.7985 8.9925 14.388 0 0 0
3513 5 3.597 7.194 28.776 0 0 0
3528 5 1.7985 12.5895 3.597 0 0 0
3535 5 1.7985 10.791 12.5895 0 0 0
3537 5 3.597 10.791 14.388 0 0 0
3539 5 1.7985 10.791 16.1865 0 0 0
3540 5 1.7985 12.5895 14.388 0 0 0
3551 5 1.7985 10.791 26.9775 0 0 0
3552 5 1.7985 12.5895 25.179 0 0 0
3571 5 1.7985 14.388 8.9925 0 0 0
3596 5 1.7985 16.1865 28.776 0 0 0
3601 5 3.597 17.985 0.0 0 0 0
3602 5 3.597 19.7835 1.7985 0 0 0
3608 5 1.7985 19.7835 3.597 0 0 0
3621 5 3.597 17.985 17.985 0 0 0
3624 5 1.7985 19.7835 17.985 0 0 0
3630 5 3.597 19.7835 26.9775 0 0 0
3632 5 1.7985 19.7835 25.179 0 0 0
3633 5 3.597 17.985 28.776 0 0 0
3641 5 3.597 21.582 0.0 0 0 0
3651 5 1.7985 21.582 8.9925 0 0 0
3652 5 1.7985 23.3805 7.194 0 0 0
3654 5 3.597 23.3805 12.5895 0 0 0
3659 5 1.7985 21.582 16.1865 0 0 0
3673 5 3.597 21.582 28.776 0 0 0
3679 5 1.7985 21.582 34.1715 0 0 0
3682 5 3.597 26.9775 1.7985 0 0 0
3687 5 1.7985 25.179 5.3955 0 0 0
3701 5 3.597 25.179 17.985 0 0 0
3702 5 3.597 26.9775 19.7835 0 0 0
3703 5 1.7985 25.179 19.7835 0 0 0
3705 5 3.597 25.179 21.582 0 0 0
3716 5 1.7985 26.9775 28.776 0 0 0
3724 5 1.7985 30.5745 0.0 0 0 0
3727 5 1.7985 28.776 5.3955 0 0 0
3728 5 1.7985 30.5745 3.597 0 0 0
3736 5 1.7985 30.5745 10.791 0 0 0
3737 5 3.597 28.776 14.388 0 0 0
3758 5 3.597 30.5745 34.1715 0 0 0
3762 5 3.597 34.1715 1.7985 0 0 0
3770 5 3.597 34.1715 8.9925 0 0 0
3773 5 3.597 32.373 10.791 0 0 0
3774 5 3.597 34.1715 12.5895 0 0 0
3775 5 1.7985 32.373 12.5895 0 0 0
3780 5 1.7985 34.1715 14.388 0 0 0
3789 5 3.597 32.373 25.179 0 0 0
3793 5 3.597 32.373 28.776 0 0 0
3795 5 1.7985 32.373 30.5745 0 0 0
3801 5 0.0 0.0 0.0 0 0 0
3811 5 0.0 0.0 17.985 0 0 0
3816 5 0.0 1.7985 26.9775 0 0 0
3820 5 0.0 1.7985 34.1715 0 0 0
3823 5 0.0 3.597 3.597 0 0 0
3826 5 0.0 5.3955 8.9925 0 0 0
3830 5 0.0 5.3955 16.1865 0 0 0
3831 5 0.0 3.597 17.985 0 0 0
3832 5 0.0 5.3955 19.7835 0 0 0
3833 5 0.0 3.597 21.582 0 0 0
3835 5 0.0 3.597 25.179 0 0 0
3844 5 0.0 8.9925 5.3955 0 0 0
3845 5 0.0 7.194 7.194 0 0 0
3853 5 0.0 7.194 21.582 0 0 0
3854 5 0.0 8.9925 23.3805 0 0 0
3855 5 0.0 7.194 25.179 0 0 0
3856 5 0.0 8.9925 26.9775 0 0 0
3857 5 0.0 7.194 28.776 0 0 0
3863 5 0.0 10.791 3.597 0 0 0
3865 5 0.0 10.791 7.194 0 0 0
3868 5 0.0 12.5895 12.5895 0 0 0
3871 5 0.0 10.791 17.985 0 0 0
3878 5 0.0 12.5895 30.5745 0 0 0
3882 5 0.0 16.1865 1.7985 0 0 0
3887 5 0.0 14.388 10.791 0 0 0
3891 5 0.0 14.388 17.985 0 0 0
3892 5 0.0 16.1865 19.7835 0 0 0
3899 5 0.0 14.388 32.373 0 0 0
3901 5 0.0 17.985 0.0 0 0 0
3907 5 0.0 17.985 10.791 0 0 0
3908 5 0.0 19.7835 12.5895 0 0 0
3913 5 0.0 17.985 21.582 0 0 0
3920 5 0.0 19.7835 34.1715 0 0 0
3925 5 0.0 21.582 7.194 0 0 0
3935 5 0.0 21.582 25.179 0 0 0
3939 5 0.0 21.582 32.373 0 0 0
3943 5 0.0 25.179 3.597 0 0 0
3944 5 0.0 26.9775 5.3955 0 0 0
3945 5 0.0 25.179 7.194 0 0 0
3947 5 0.0 25.179 10.791 0 0 0
3948 5 0.0 26.9775 12.5895 0 0 0
3950 5 0.0 26.9775 16.1865 0 0 0
3955 5 0.0 25.179 25.179 0 0 0
3957 5 0.0 25.179 28.776 0 0 0
3964 5 0.0 30.5745 5.3955 0 0 0
3979 5 0.0 28.776 32.373 0 0 0
3982 5 0.0 34.1715 1.7985 0 0 0
3983 5 0.0 32.373 3.597 0 0 0
3987 5 0.0 32.373 10.791 0 0 0
3989 5 0.0 32.373 14.388 0 0 0
3991 5 0.0 32.373 17.985 0 0 0
3997 5 0.0 32.373 28.776 0 0 0
3998 5 0.0 34.1715 30.5745 0 0 0
4000 5 0.0 34.1715 34.1715 0 0 0
