LAMMPS data file via write_data version 30 Jul 2021 timestep = 0
4000 atoms
5 atom types
0 35.97 xlo xhi
0 35.97 ylo yhi
0 35.97 zlo zhi
0.0 0.0 0.0 xy xz yz
 
Masses
 
1 1.0
2 2.0
3 3.0
4 4.0
5 5.0
 
Atoms  # atomic
 
1878 1 17.985 5.3955 34.1715 0 0 0
1111 1 23.3805 7.194 26.9775 0 0 0
1214 1 25.179 19.7835 12.5895 0 0 0
159 1 34.1715 25.179 34.1715 0 0 0
3450 1 3.597 5.3955 8.9925 0 0 0
3791 1 1.7985 32.373 26.9775 0 0 0
1465 1 21.582 3.597 21.582 0 0 0
223 1 30.5745 0.0 19.7835 0 0 0
1562 1 21.582 16.1865 1.7985 0 0 0
3636 1 1.7985 19.7835 28.776 0 0 0
2920 1 8.9925 26.9775 32.373 0 0 0
2202 1 14.388 1.7985 1.7985 0 0 0
1450 1 21.582 5.3955 8.9925 0 0 0
990 1 28.776 34.1715 26.9775 0 0 0
3175 1 5.3955 14.388 12.5895 0 0 0
2726 1 10.791 12.5895 5.3955 0 0 0
1348 1 23.3805 30.5745 21.582 0 0 0
937 1 28.776 28.776 14.388 0 0 0
3939 1 0.0 21.582 32.373 0 0 0
3312 1 5.3955 26.9775 25.179 0 0 0
37 1 34.1715 3.597 30.5745 0 0 0
1001 1 25.179 0.0 0.0 0 0 0
1683 1 19.7835 25.179 1.7985 0 0 0
3583 1 1.7985 14.388 19.7835 0 0 0
640 1 26.9775 1.7985 32.373 0 0 0
1943 1 16.1865 10.791 19.7835 0 0 0
1250 1 25.179 23.3805 8.9925 0 0 0
2159 1 16.1865 28.776 34.1715 0 0 0
3921 1 0.0 21.582 0.0 0 0 0
754 1 28.776 12.5895 30.5745 0 0 0
1390 1 25.179 34.1715 26.9775 0 0 0
1720 1 19.7835 26.9775 32.373 0 0 0
51 1 34.1715 7.194 19.7835 0 0 0
3186 1 7.194 16.1865 23.3805 0 0 0
1174 1 25.179 16.1865 12.5895 0 0 0
1671 1 19.7835 21.582 26.9775 0 0 0
467 1 30.5745 21.582 23.3805 0 0 0
106 1 34.1715 19.7835 7.194 0 0 0
1678 1 21.582 23.3805 34.1715 0 0 0
3577 1 3.597 14.388 14.388 0 0 0
2264 1 12.5895 5.3955 17.985 0 0 0
3171 1 5.3955 14.388 8.9925 0 0 0
3291 1 5.3955 25.179 8.9925 0 0 0
2258 1 14.388 5.3955 16.1865 0 0 0
2109 1 17.985 25.179 25.179 0 0 0
1877 1 17.985 3.597 32.373 0 0 0
1941 1 17.985 10.791 17.985 0 0 0
1251 1 23.3805 21.582 8.9925 0 0 0
1136 1 23.3805 12.5895 10.791 0 0 0
3580 1 1.7985 16.1865 14.388 0 0 0
112 1 34.1715 19.7835 17.985 0 0 0
2514 1 14.388 26.9775 30.5745 0 0 0
85 1 34.1715 14.388 8.9925 0 0 0
1920 1 16.1865 8.9925 32.373 0 0 0
1477 1 21.582 3.597 32.373 0 0 0
2031 1 16.1865 17.985 26.9775 0 0 0
1176 1 23.3805 16.1865 10.791 0 0 0
3200 1 5.3955 16.1865 32.373 0 0 0
3716 1 1.7985 26.9775 28.776 0 0 0
351 1 30.5745 10.791 26.9775 0 0 0
3367 1 5.3955 32.373 5.3955 0 0 0
367 1 30.5745 14.388 5.3955 0 0 0
2353 1 14.388 10.791 28.776 0 0 0
2196 1 16.1865 34.1715 28.776 0 0 0
2637 1 10.791 0.0 32.373 0 0 0
1723 1 19.7835 28.776 1.7985 0 0 0
430 1 32.373 19.7835 26.9775 0 0 0
434 1 32.373 19.7835 30.5745 0 0 0
913 1 28.776 25.179 28.776 0 0 0
1610 1 21.582 19.7835 8.9925 0 0 0
3728 1 1.7985 30.5745 3.597 0 0 0
3103 1 5.3955 7.194 19.7835 0 0 0
2960 1 8.9925 30.5745 32.373 0 0 0
1058 1 25.179 5.3955 16.1865 0 0 0
1367 1 23.3805 32.373 5.3955 0 0 0
314 1 32.373 8.9925 30.5745 0 0 0
649 1 28.776 3.597 7.194 0 0 0
925 1 28.776 28.776 3.597 0 0 0
1494 1 21.582 8.9925 12.5895 0 0 0
2995 1 8.9925 32.373 30.5745 0 0 0
1711 1 19.7835 25.179 26.9775 0 0 0
3251 1 5.3955 21.582 8.9925 0 0 0
3724 1 1.7985 30.5745 0.0 0 0 0
1372 1 23.3805 34.1715 7.194 0 0 0
3539 1 1.7985 10.791 16.1865 0 0 0
698 1 28.776 8.9925 16.1865 0 0 0
2711 1 8.9925 7.194 26.9775 0 0 0
3068 1 5.3955 5.3955 21.582 0 0 0
2177 1 17.985 32.373 14.388 0 0 0
377 1 32.373 14.388 14.388 0 0 0
2101 1 17.985 25.179 17.985 0 0 0
3455 1 1.7985 3.597 12.5895 0 0 0
3079 1 5.3955 3.597 34.1715 0 0 0
3170 1 7.194 16.1865 8.9925 0 0 0
923 1 26.9775 28.776 1.7985 0 0 0
2661 1 10.791 3.597 17.985 0 0 0
3945 1 0.0 25.179 7.194 0 0 0
3852 1 0.0 8.9925 19.7835 0 0 0
1869 1 17.985 3.597 25.179 0 0 0
2347 1 12.5895 10.791 23.3805 0 0 0
794 1 28.776 16.1865 30.5745 0 0 0
1265 1 25.179 21.582 21.582 0 0 0
1096 1 23.3805 8.9925 10.791 0 0 0
2761 1 10.791 14.388 0.0 0 0 0
3815 1 0.0 0.0 25.179 0 0 0
781 1 28.776 14.388 17.985 0 0 0
450 1 32.373 23.3805 8.9925 0 0 0
2459 1 12.5895 21.582 16.1865 0 0 0
1634 1 21.582 19.7835 30.5745 0 0 0
1087 1 23.3805 7.194 5.3955 0 0 0
2805 1 10.791 17.985 3.597 0 0 0
3970 1 0.0 30.5745 16.1865 0 0 0
999 1 26.9775 32.373 34.1715 0 0 0
832 1 26.9775 19.7835 25.179 0 0 0
43 1 34.1715 7.194 5.3955 0 0 0
2912 1 8.9925 26.9775 25.179 0 0 0
1378 1 25.179 34.1715 16.1865 0 0 0
315 1 30.5745 7.194 30.5745 0 0 0
3789 1 3.597 32.373 25.179 0 0 0
2086 1 17.985 26.9775 5.3955 0 0 0
3006 1 7.194 1.7985 5.3955 0 0 0
3233 1 7.194 17.985 28.776 0 0 0
1668 1 19.7835 23.3805 21.582 0 0 0
275 1 30.5745 3.597 30.5745 0 0 0
747 1 26.9775 10.791 23.3805 0 0 0
2653 1 10.791 3.597 10.791 0 0 0
1459 1 19.7835 3.597 16.1865 0 0 0
2714 1 10.791 8.9925 30.5745 0 0 0
3855 1 0.0 7.194 25.179 0 0 0
2557 1 14.388 28.776 32.373 0 0 0
3955 1 0.0 25.179 25.179 0 0 0
340 1 30.5745 12.5895 14.388 0 0 0
2439 1 12.5895 17.985 34.1715 0 0 0
3496 1 1.7985 8.9925 10.791 0 0 0
1354 1 25.179 30.5745 30.5745 0 0 0
2017 1 17.985 17.985 14.388 0 0 0
1833 1 17.985 0.0 28.776 0 0 0
258 1 32.373 5.3955 16.1865 0 0 0
1317 1 25.179 25.179 32.373 0 0 0
1411 1 19.7835 0.0 8.9925 0 0 0
608 1 26.9775 1.7985 3.597 0 0 0
479 1 30.5745 21.582 34.1715 0 0 0
3129 1 7.194 10.791 7.194 0 0 0
2279 1 12.5895 3.597 34.1715 0 0 0
3575 1 1.7985 14.388 12.5895 0 0 0
1181 1 25.179 14.388 17.985 0 0 0
1124 1 23.3805 12.5895 0.0 0 0 0
1742 1 21.582 30.5745 19.7835 0 0 0
3340 1 5.3955 30.5745 14.388 0 0 0
1051 1 23.3805 3.597 8.9925 0 0 0
3295 1 5.3955 25.179 12.5895 0 0 0
3922 1 0.0 23.3805 1.7985 0 0 0
2528 1 12.5895 30.5745 3.597 0 0 0
1114 1 25.179 8.9925 30.5745 0 0 0
1079 1 23.3805 3.597 34.1715 0 0 0
2499 1 12.5895 25.179 16.1865 0 0 0
3768 1 1.7985 34.1715 3.597 0 0 0
3284 1 5.3955 26.9775 0.0 0 0 0
906 1 28.776 26.9775 23.3805 0 0 0
1773 1 21.582 32.373 10.791 0 0 0
2178 1 17.985 34.1715 16.1865 0 0 0
1422 1 21.582 1.7985 19.7835 0 0 0
1262 1 25.179 23.3805 19.7835 0 0 0
18 1 34.1715 1.7985 28.776 0 0 0
2832 1 8.9925 19.7835 25.179 0 0 0
2110 1 17.985 26.9775 26.9775 0 0 0
2057 1 17.985 21.582 14.388 0 0 0
1971 1 16.1865 14.388 8.9925 0 0 0
2004 1 16.1865 19.7835 0.0 0 0 0
2911 1 8.9925 25.179 26.9775 0 0 0
3607 1 1.7985 17.985 5.3955 0 0 0
3875 1 0.0 10.791 25.179 0 0 0
2027 1 16.1865 17.985 23.3805 0 0 0
2781 1 10.791 14.388 17.985 0 0 0
1453 1 21.582 3.597 10.791 0 0 0
3347 1 5.3955 28.776 23.3805 0 0 0
2846 1 10.791 23.3805 5.3955 0 0 0
1714 1 21.582 26.9775 30.5745 0 0 0
3744 1 1.7985 30.5745 17.985 0 0 0
3889 1 0.0 14.388 14.388 0 0 0
1741 1 21.582 28.776 17.985 0 0 0
245 1 32.373 3.597 3.597 0 0 0
2630 1 10.791 1.7985 26.9775 0 0 0
3479 1 1.7985 3.597 34.1715 0 0 0
1774 1 21.582 34.1715 12.5895 0 0 0
3838 1 0.0 5.3955 30.5745 0 0 0
287 1 30.5745 7.194 5.3955 0 0 0
3657 1 3.597 21.582 14.388 0 0 0
3826 1 0.0 5.3955 8.9925 0 0 0
3720 1 1.7985 26.9775 32.373 0 0 0
3326 1 7.194 30.5745 5.3955 0 0 0
1239 1 23.3805 17.985 34.1715 0 0 0
1138 1 25.179 12.5895 16.1865 0 0 0
2774 1 10.791 16.1865 12.5895 0 0 0
2120 1 16.1865 26.9775 32.373 0 0 0
2218 1 14.388 1.7985 16.1865 0 0 0
3595 1 1.7985 14.388 30.5745 0 0 0
221 1 32.373 0.0 17.985 0 0 0
3836 1 0.0 5.3955 26.9775 0 0 0
3624 1 1.7985 19.7835 17.985 0 0 0
2690 1 10.791 8.9925 8.9925 0 0 0
2130 1 17.985 30.5745 8.9925 0 0 0
3246 1 7.194 23.3805 5.3955 0 0 0
263 1 30.5745 3.597 19.7835 0 0 0
1597 1 21.582 14.388 32.373 0 0 0
1947 1 16.1865 10.791 23.3805 0 0 0
2398 1 14.388 16.1865 34.1715 0 0 0
2454 1 14.388 23.3805 12.5895 0 0 0
1113 1 25.179 7.194 28.776 0 0 0
1135 1 23.3805 10.791 12.5895 0 0 0
409 1 32.373 17.985 7.194 0 0 0
1401 1 21.582 0.0 0.0 0 0 0
2042 1 17.985 23.3805 1.7985 0 0 0
3236 1 5.3955 19.7835 28.776 0 0 0
2116 1 16.1865 26.9775 28.776 0 0 0
3494 1 3.597 8.9925 12.5895 0 0 0
3565 1 3.597 14.388 3.597 0 0 0
502 1 32.373 26.9775 19.7835 0 0 0
1379 1 23.3805 32.373 16.1865 0 0 0
503 1 30.5745 25.179 19.7835 0 0 0
2991 1 8.9925 32.373 26.9775 0 0 0
469 1 32.373 21.582 25.179 0 0 0
1855 1 16.1865 3.597 12.5895 0 0 0
3433 1 3.597 0.0 28.776 0 0 0
278 1 32.373 5.3955 34.1715 0 0 0
260 1 30.5745 5.3955 14.388 0 0 0
1260 1 23.3805 23.3805 14.388 0 0 0
3105 1 7.194 7.194 21.582 0 0 0
2488 1 12.5895 26.9775 3.597 0 0 0
1519 1 19.7835 7.194 34.1715 0 0 0
3005 1 7.194 0.0 3.597 0 0 0
1518 1 21.582 8.9925 34.1715 0 0 0
3805 1 0.0 0.0 7.194 0 0 0
3013 1 7.194 0.0 10.791 0 0 0
891 1 26.9775 25.179 8.9925 0 0 0
2236 1 12.5895 1.7985 28.776 0 0 0
321 1 32.373 10.791 0.0 0 0 0
1520 1 19.7835 8.9925 32.373 0 0 0
2530 1 14.388 30.5745 8.9925 0 0 0
2785 1 10.791 14.388 21.582 0 0 0
2612 1 8.9925 1.7985 7.194 0 0 0
1790 1 21.582 34.1715 26.9775 0 0 0
178 1 34.1715 30.5745 28.776 0 0 0
3884 1 0.0 16.1865 5.3955 0 0 0
3628 1 1.7985 19.7835 21.582 0 0 0
2028 1 16.1865 19.7835 21.582 0 0 0
1579 1 19.7835 14.388 16.1865 0 0 0
3532 1 1.7985 12.5895 7.194 0 0 0
3613 1 3.597 17.985 10.791 0 0 0
3917 1 0.0 17.985 28.776 0 0 0
1029 1 25.179 0.0 25.179 0 0 0
872 1 26.9775 23.3805 25.179 0 0 0
3625 1 3.597 17.985 21.582 0 0 0
2634 1 10.791 1.7985 30.5745 0 0 0
3713 1 3.597 25.179 28.776 0 0 0
2940 1 8.9925 30.5745 14.388 0 0 0
2134 1 17.985 30.5745 12.5895 0 0 0
2640 1 8.9925 1.7985 32.373 0 0 0
1853 1 17.985 3.597 10.791 0 0 0
2494 1 14.388 26.9775 12.5895 0 0 0
1304 1 23.3805 26.9775 17.985 0 0 0
2059 1 16.1865 21.582 16.1865 0 0 0
59 1 34.1715 7.194 34.1715 0 0 0
3915 1 0.0 17.985 25.179 0 0 0
3012 1 5.3955 1.7985 7.194 0 0 0
1309 1 25.179 25.179 25.179 0 0 0
776 1 26.9775 16.1865 10.791 0 0 0
2102 1 17.985 26.9775 19.7835 0 0 0
2890 1 10.791 26.9775 8.9925 0 0 0
1768 1 19.7835 34.1715 3.597 0 0 0
2203 1 12.5895 0.0 1.7985 0 0 0
1819 1 16.1865 0.0 16.1865 0 0 0
2138 1 17.985 30.5745 16.1865 0 0 0
1776 1 19.7835 34.1715 10.791 0 0 0
778 1 28.776 16.1865 16.1865 0 0 0
2249 1 14.388 3.597 7.194 0 0 0
1173 1 25.179 14.388 10.791 0 0 0
1492 1 19.7835 8.9925 7.194 0 0 0
2554 1 14.388 30.5745 30.5745 0 0 0
393 1 32.373 14.388 28.776 0 0 0
2997 1 10.791 32.373 32.373 0 0 0
3754 1 3.597 30.5745 30.5745 0 0 0
3142 1 7.194 12.5895 19.7835 0 0 0
1632 1 19.7835 19.7835 25.179 0 0 0
3573 1 3.597 14.388 10.791 0 0 0
3203 1 5.3955 17.985 1.7985 0 0 0
1676 1 19.7835 23.3805 28.776 0 0 0
2704 1 8.9925 8.9925 17.985 0 0 0
2172 1 16.1865 34.1715 7.194 0 0 0
1766 1 21.582 34.1715 5.3955 0 0 0
3790 1 3.597 34.1715 26.9775 0 0 0
2471 1 12.5895 21.582 26.9775 0 0 0
2049 1 17.985 21.582 7.194 0 0 0
2816 1 8.9925 19.7835 10.791 0 0 0
711 1 26.9775 7.194 26.9775 0 0 0
2913 1 10.791 25.179 28.776 0 0 0
2817 1 10.791 17.985 14.388 0 0 0
1703 1 19.7835 25.179 19.7835 0 0 0
3678 1 3.597 23.3805 34.1715 0 0 0
1336 1 23.3805 30.5745 10.791 0 0 0
829 1 28.776 17.985 25.179 0 0 0
2434 1 14.388 19.7835 30.5745 0 0 0
2055 1 16.1865 21.582 12.5895 0 0 0
402 1 32.373 19.7835 1.7985 0 0 0
1098 1 25.179 8.9925 16.1865 0 0 0
176 1 34.1715 30.5745 25.179 0 0 0
966 1 28.776 34.1715 5.3955 0 0 0
2412 1 12.5895 19.7835 7.194 0 0 0
2829 1 10.791 17.985 25.179 0 0 0
1101 1 25.179 7.194 17.985 0 0 0
3417 1 3.597 0.0 14.388 0 0 0
1564 1 19.7835 16.1865 0.0 0 0 0
2989 1 10.791 32.373 25.179 0 0 0
1894 1 17.985 8.9925 12.5895 0 0 0
2713 1 10.791 7.194 28.776 0 0 0
1258 1 25.179 23.3805 16.1865 0 0 0
2657 1 10.791 3.597 14.388 0 0 0
848 1 26.9775 23.3805 3.597 0 0 0
1805 1 17.985 0.0 3.597 0 0 0
1366 1 25.179 34.1715 5.3955 0 0 0
3059 1 5.3955 3.597 16.1865 0 0 0
2521 1 14.388 28.776 0.0 0 0 0
52 1 34.1715 8.9925 17.985 0 0 0
3587 1 1.7985 14.388 23.3805 0 0 0
3867 1 0.0 10.791 10.791 0 0 0
1793 1 21.582 32.373 28.776 0 0 0
3578 1 3.597 16.1865 16.1865 0 0 0
1194 1 25.179 16.1865 30.5745 0 0 0
932 1 26.9775 30.5745 7.194 0 0 0
2005 1 17.985 17.985 3.597 0 0 0
3381 1 7.194 32.373 17.985 0 0 0
2224 1 12.5895 1.7985 17.985 0 0 0
2933 1 10.791 28.776 10.791 0 0 0
2929 1 10.791 28.776 7.194 0 0 0
2403 1 12.5895 17.985 1.7985 0 0 0
2965 1 10.791 32.373 3.597 0 0 0
2373 1 14.388 14.388 10.791 0 0 0
1927 1 16.1865 10.791 5.3955 0 0 0
967 1 26.9775 32.373 5.3955 0 0 0
3518 1 3.597 8.9925 34.1715 0 0 0
416 1 30.5745 19.7835 10.791 0 0 0
658 1 28.776 5.3955 16.1865 0 0 0
1988 1 16.1865 16.1865 21.582 0 0 0
2926 1 10.791 30.5745 5.3955 0 0 0
422 1 32.373 19.7835 19.7835 0 0 0
2688 1 8.9925 8.9925 3.597 0 0 0
2659 1 8.9925 3.597 16.1865 0 0 0
2310 1 14.388 8.9925 26.9775 0 0 0
2902 1 10.791 26.9775 19.7835 0 0 0
643 1 26.9775 3.597 1.7985 0 0 0
457 1 32.373 21.582 14.388 0 0 0
3402 1 3.597 1.7985 1.7985 0 0 0
2559 1 12.5895 28.776 34.1715 0 0 0
482 1 32.373 26.9775 1.7985 0 0 0
2200 1 16.1865 34.1715 32.373 0 0 0
2259 1 12.5895 3.597 16.1865 0 0 0
8 1 34.1715 1.7985 10.791 0 0 0
1617 1 21.582 17.985 14.388 0 0 0
1961 1 17.985 14.388 0.0 0 0 0
515 1 30.5745 25.179 30.5745 0 0 0
259 1 30.5745 3.597 16.1865 0 0 0
651 1 26.9775 3.597 8.9925 0 0 0
1620 1 19.7835 19.7835 14.388 0 0 0
152 1 34.1715 26.9775 17.985 0 0 0
2339 1 12.5895 10.791 16.1865 0 0 0
938 1 28.776 30.5745 16.1865 0 0 0
727 1 26.9775 10.791 5.3955 0 0 0
723 1 26.9775 10.791 1.7985 0 0 0
2712 1 8.9925 8.9925 25.179 0 0 0
153 1 34.1715 25.179 23.3805 0 0 0
3060 1 5.3955 5.3955 14.388 0 0 0
2169 1 17.985 32.373 7.194 0 0 0
3904 1 0.0 19.7835 5.3955 0 0 0
732 1 26.9775 12.5895 7.194 0 0 0
1349 1 25.179 28.776 25.179 0 0 0
1784 1 19.7835 34.1715 17.985 0 0 0
1682 1 21.582 26.9775 1.7985 0 0 0
3000 1 8.9925 34.1715 32.373 0 0 0
2874 1 10.791 23.3805 30.5745 0 0 0
1070 1 25.179 5.3955 26.9775 0 0 0
896 1 26.9775 26.9775 10.791 0 0 0
1727 1 19.7835 28.776 5.3955 0 0 0
1933 1 17.985 10.791 10.791 0 0 0
3020 1 5.3955 1.7985 14.388 0 0 0
3854 1 0.0 8.9925 23.3805 0 0 0
2681 1 10.791 7.194 0.0 0 0 0
1576 1 19.7835 16.1865 10.791 0 0 0
148 1 34.1715 26.9775 10.791 0 0 0
3424 1 1.7985 1.7985 17.985 0 0 0
1491 1 19.7835 7.194 8.9925 0 0 0
1017 1 25.179 0.0 14.388 0 0 0
890 1 28.776 26.9775 8.9925 0 0 0
2555 1 12.5895 28.776 30.5745 0 0 0
3671 1 1.7985 21.582 26.9775 0 0 0
307 1 30.5745 7.194 23.3805 0 0 0
3081 1 7.194 7.194 0.0 0 0 0
1066 1 25.179 5.3955 23.3805 0 0 0
1183 1 23.3805 14.388 19.7835 0 0 0
2050 1 17.985 23.3805 8.9925 0 0 0
2695 1 8.9925 7.194 12.5895 0 0 0
714 1 28.776 8.9925 30.5745 0 0 0
3165 1 7.194 14.388 3.597 0 0 0
1957 1 17.985 10.791 32.373 0 0 0
3759 1 1.7985 28.776 34.1715 0 0 0
2386 1 14.388 16.1865 23.3805 0 0 0
2170 1 17.985 34.1715 8.9925 0 0 0
672 1 26.9775 5.3955 25.179 0 0 0
2973 1 10.791 32.373 10.791 0 0 0
104 1 34.1715 19.7835 3.597 0 0 0
724 1 26.9775 12.5895 0.0 0 0 0
3387 1 5.3955 32.373 23.3805 0 0 0
1172 1 23.3805 16.1865 7.194 0 0 0
459 1 30.5745 21.582 16.1865 0 0 0
2576 1 12.5895 34.1715 10.791 0 0 0
2968 1 8.9925 34.1715 3.597 0 0 0
2852 1 8.9925 23.3805 7.194 0 0 0
3336 1 5.3955 30.5745 10.791 0 0 0
942 1 28.776 30.5745 19.7835 0 0 0
2565 1 14.388 32.373 3.597 0 0 0
1778 1 21.582 34.1715 16.1865 0 0 0
1860 1 16.1865 5.3955 14.388 0 0 0
3895 1 0.0 14.388 25.179 0 0 0
2390 1 14.388 16.1865 26.9775 0 0 0
3742 1 3.597 30.5745 19.7835 0 0 0
1982 1 17.985 16.1865 19.7835 0 0 0
3194 1 7.194 16.1865 30.5745 0 0 0
534 1 32.373 30.5745 12.5895 0 0 0
1153 1 25.179 10.791 28.776 0 0 0
1590 1 21.582 16.1865 26.9775 0 0 0
2295 1 12.5895 7.194 12.5895 0 0 0
2501 1 14.388 25.179 17.985 0 0 0
945 1 28.776 28.776 21.582 0 0 0
1303 1 23.3805 25.179 19.7835 0 0 0
511 1 30.5745 25.179 26.9775 0 0 0
1205 1 25.179 17.985 3.597 0 0 0
979 1 26.9775 32.373 16.1865 0 0 0
2564 1 12.5895 34.1715 0.0 0 0 0
1397 1 25.179 32.373 32.373 0 0 0
557 1 32.373 28.776 32.373 0 0 0
1532 1 19.7835 12.5895 7.194 0 0 0
3206 1 7.194 19.7835 5.3955 0 0 0
2895 1 8.9925 25.179 12.5895 0 0 0
2420 1 12.5895 19.7835 14.388 0 0 0
2783 1 8.9925 14.388 19.7835 0 0 0
3727 1 1.7985 28.776 5.3955 0 0 0
2985 1 10.791 32.373 21.582 0 0 0
944 1 26.9775 30.5745 17.985 0 0 0
3075 1 5.3955 3.597 30.5745 0 0 0
2256 1 12.5895 5.3955 10.791 0 0 0
1612 1 19.7835 19.7835 7.194 0 0 0
3002 1 7.194 1.7985 1.7985 0 0 0
2087 1 16.1865 25.179 5.3955 0 0 0
3166 1 7.194 16.1865 5.3955 0 0 0
3208 1 5.3955 19.7835 3.597 0 0 0
2779 1 8.9925 14.388 16.1865 0 0 0
145 1 34.1715 25.179 8.9925 0 0 0
3495 1 1.7985 7.194 12.5895 0 0 0
2045 1 17.985 21.582 3.597 0 0 0
3542 1 3.597 12.5895 19.7835 0 0 0
2213 1 14.388 0.0 10.791 0 0 0
247 1 30.5745 3.597 5.3955 0 0 0
331 1 30.5745 10.791 8.9925 0 0 0
1249 1 25.179 21.582 7.194 0 0 0
988 1 26.9775 34.1715 21.582 0 0 0
603 1 26.9775 0.0 1.7985 0 0 0
3564 1 1.7985 16.1865 0.0 0 0 0
722 1 28.776 12.5895 1.7985 0 0 0
2622 1 10.791 1.7985 19.7835 0 0 0
3420 1 1.7985 1.7985 14.388 0 0 0
2369 1 14.388 14.388 7.194 0 0 0
1830 1 17.985 1.7985 26.9775 0 0 0
3363 1 5.3955 32.373 1.7985 0 0 0
2322 1 14.388 12.5895 1.7985 0 0 0
634 1 28.776 1.7985 30.5745 0 0 0
842 1 28.776 23.3805 1.7985 0 0 0
955 1 26.9775 28.776 30.5745 0 0 0
309 1 32.373 7.194 25.179 0 0 0
3798 1 3.597 34.1715 34.1715 0 0 0
2219 1 12.5895 0.0 16.1865 0 0 0
3738 1 3.597 30.5745 16.1865 0 0 0
922 1 28.776 30.5745 1.7985 0 0 0
1323 1 23.3805 28.776 1.7985 0 0 0
3483 1 1.7985 7.194 1.7985 0 0 0
3733 1 3.597 28.776 10.791 0 0 0
329 1 32.373 10.791 7.194 0 0 0
3474 1 3.597 5.3955 30.5745 0 0 0
226 1 32.373 1.7985 23.3805 0 0 0
1151 1 23.3805 10.791 26.9775 0 0 0
817 1 28.776 17.985 14.388 0 0 0
3235 1 5.3955 17.985 30.5745 0 0 0
3091 1 5.3955 7.194 8.9925 0 0 0
1362 1 25.179 34.1715 1.7985 0 0 0
563 1 30.5745 32.373 1.7985 0 0 0
3466 1 3.597 5.3955 23.3805 0 0 0
439 1 30.5745 17.985 34.1715 0 0 0
555 1 30.5745 28.776 30.5745 0 0 0
769 1 28.776 14.388 7.194 0 0 0
216 1 30.5745 1.7985 10.791 0 0 0
1899 1 16.1865 7.194 16.1865 0 0 0
3242 1 7.194 23.3805 1.7985 0 0 0
2142 1 17.985 30.5745 19.7835 0 0 0
149 1 34.1715 25.179 16.1865 0 0 0
2047 1 16.1865 21.582 5.3955 0 0 0
3375 1 5.3955 32.373 12.5895 0 0 0
3698 1 3.597 26.9775 16.1865 0 0 0
1190 1 25.179 16.1865 26.9775 0 0 0
461 1 32.373 21.582 17.985 0 0 0
521 1 32.373 28.776 0.0 0 0 0
2486 1 14.388 26.9775 5.3955 0 0 0
84 1 34.1715 16.1865 3.597 0 0 0
3649 1 3.597 21.582 7.194 0 0 0
2755 1 8.9925 10.791 30.5745 0 0 0
3748 1 1.7985 30.5745 21.582 0 0 0
629 1 28.776 0.0 25.179 0 0 0
3679 1 1.7985 21.582 34.1715 0 0 0
130 1 34.1715 23.3805 14.388 0 0 0
1352 1 23.3805 30.5745 25.179 0 0 0
3184 1 5.3955 16.1865 17.985 0 0 0
3253 1 7.194 21.582 10.791 0 0 0
1523 1 19.7835 10.791 1.7985 0 0 0
3978 1 0.0 30.5745 30.5745 0 0 0
630 1 28.776 1.7985 26.9775 0 0 0
3219 1 5.3955 17.985 16.1865 0 0 0
1515 1 19.7835 7.194 30.5745 0 0 0
3718 1 3.597 26.9775 34.1715 0 0 0
2629 1 10.791 0.0 25.179 0 0 0
105 1 34.1715 17.985 8.9925 0 0 0
585 1 32.373 32.373 21.582 0 0 0
3408 1 1.7985 1.7985 3.597 0 0 0
1207 1 23.3805 17.985 5.3955 0 0 0
1925 1 17.985 10.791 3.597 0 0 0
2495 1 12.5895 25.179 12.5895 0 0 0
3803 1 0.0 0.0 3.597 0 0 0
2936 1 8.9925 30.5745 10.791 0 0 0
2034 1 17.985 19.7835 30.5745 0 0 0
3365 1 7.194 32.373 3.597 0 0 0
1106 1 25.179 8.9925 23.3805 0 0 0
420 1 30.5745 19.7835 14.388 0 0 0
1914 1 17.985 8.9925 30.5745 0 0 0
2072 1 16.1865 23.3805 25.179 0 0 0
1109 1 25.179 7.194 25.179 0 0 0
3675 1 1.7985 21.582 30.5745 0 0 0
1480 1 19.7835 5.3955 32.373 0 0 0
3637 1 3.597 17.985 32.373 0 0 0
898 1 28.776 26.9775 16.1865 0 0 0
3552 1 1.7985 12.5895 25.179 0 0 0
88 1 34.1715 16.1865 10.791 0 0 0
2381 1 14.388 14.388 17.985 0 0 0
352 1 30.5745 12.5895 25.179 0 0 0
3345 1 7.194 28.776 21.582 0 0 0
2810 1 10.791 19.7835 8.9925 0 0 0
3097 1 7.194 7.194 14.388 0 0 0
2337 1 14.388 10.791 14.388 0 0 0
3437 1 3.597 0.0 32.373 0 0 0
1312 1 23.3805 26.9775 25.179 0 0 0
3207 1 5.3955 17.985 5.3955 0 0 0
27 1 34.1715 3.597 12.5895 0 0 0
1806 1 17.985 1.7985 5.3955 0 0 0
506 1 32.373 26.9775 23.3805 0 0 0
734 1 28.776 12.5895 12.5895 0 0 0
2061 1 17.985 21.582 17.985 0 0 0
1340 1 23.3805 30.5745 14.388 0 0 0
2679 1 8.9925 3.597 34.1715 0 0 0
1000 1 26.9775 34.1715 32.373 0 0 0
1666 1 21.582 23.3805 23.3805 0 0 0
371 1 30.5745 14.388 8.9925 0 0 0
1548 1 19.7835 12.5895 21.582 0 0 0
40 1 34.1715 5.3955 32.373 0 0 0
1594 1 21.582 16.1865 30.5745 0 0 0
1406 1 21.582 1.7985 5.3955 0 0 0
3227 1 5.3955 17.985 23.3805 0 0 0
3500 1 1.7985 8.9925 14.388 0 0 0
1963 1 16.1865 14.388 1.7985 0 0 0
1654 1 21.582 23.3805 12.5895 0 0 0
505 1 32.373 25.179 21.582 0 0 0
3185 1 7.194 14.388 21.582 0 0 0
2284 1 12.5895 8.9925 0.0 0 0 0
766 1 28.776 16.1865 5.3955 0 0 0
549 1 32.373 28.776 25.179 0 0 0
3833 1 0.0 3.597 21.582 0 0 0
2947 1 8.9925 28.776 23.3805 0 0 0
1950 1 17.985 12.5895 26.9775 0 0 0
2705 1 10.791 7.194 21.582 0 0 0
2649 1 10.791 3.597 7.194 0 0 0
56 1 34.1715 8.9925 25.179 0 0 0
3440 1 1.7985 1.7985 32.373 0 0 0
1699 1 19.7835 25.179 16.1865 0 0 0
2496 1 12.5895 26.9775 10.791 0 0 0
1691 1 19.7835 25.179 8.9925 0 0 0
304 1 30.5745 8.9925 17.985 0 0 0
2453 1 14.388 21.582 10.791 0 0 0
597 1 32.373 32.373 32.373 0 0 0
3605 1 3.597 17.985 3.597 0 0 0
2765 1 10.791 14.388 3.597 0 0 0
589 1 32.373 32.373 25.179 0 0 0
696 1 26.9775 8.9925 10.791 0 0 0
2962 1 10.791 34.1715 1.7985 0 0 0
3163 1 5.3955 14.388 1.7985 0 0 0
790 1 28.776 16.1865 26.9775 0 0 0
2343 1 12.5895 10.791 19.7835 0 0 0
222 1 32.373 1.7985 19.7835 0 0 0
3058 1 7.194 5.3955 16.1865 0 0 0
3514 1 3.597 8.9925 30.5745 0 0 0
2274 1 14.388 5.3955 30.5745 0 0 0
3860 1 0.0 8.9925 34.1715 0 0 0
1782 1 21.582 34.1715 19.7835 0 0 0
3645 1 3.597 21.582 3.597 0 0 0
2909 1 10.791 25.179 25.179 0 0 0
866 1 28.776 23.3805 23.3805 0 0 0
1160 1 23.3805 12.5895 32.373 0 0 0
614 1 28.776 1.7985 12.5895 0 0 0
3054 1 7.194 5.3955 12.5895 0 0 0
2064 1 16.1865 23.3805 17.985 0 0 0
725 1 28.776 10.791 3.597 0 0 0
3926 1 0.0 23.3805 8.9925 0 0 0
3038 1 7.194 1.7985 34.1715 0 0 0
3626 1 3.597 19.7835 23.3805 0 0 0
3287 1 5.3955 25.179 5.3955 0 0 0
3073 1 7.194 3.597 28.776 0 0 0
530 1 32.373 30.5745 8.9925 0 0 0
3976 1 0.0 30.5745 26.9775 0 0 0
246 1 32.373 5.3955 5.3955 0 0 0
1271 1 23.3805 21.582 26.9775 0 0 0
138 1 34.1715 23.3805 28.776 0 0 0
1283 1 23.3805 25.179 1.7985 0 0 0
117 1 34.1715 17.985 30.5745 0 0 0
277 1 32.373 3.597 32.373 0 0 0
2562 1 14.388 34.1715 1.7985 0 0 0
2582 1 14.388 34.1715 19.7835 0 0 0
3391 1 5.3955 32.373 26.9775 0 0 0
1466 1 21.582 5.3955 23.3805 0 0 0
292 1 30.5745 8.9925 7.194 0 0 0
1592 1 19.7835 16.1865 25.179 0 0 0
1997 1 17.985 14.388 32.373 0 0 0
1936 1 16.1865 12.5895 10.791 0 0 0
1364 1 23.3805 34.1715 0.0 0 0 0
1052 1 23.3805 5.3955 7.194 0 0 0
3570 1 3.597 16.1865 8.9925 0 0 0
1799 1 19.7835 32.373 34.1715 0 0 0
3632 1 1.7985 19.7835 25.179 0 0 0
2951 1 8.9925 28.776 26.9775 0 0 0
238 1 32.373 1.7985 34.1715 0 0 0
2896 1 8.9925 26.9775 10.791 0 0 0
468 1 30.5745 23.3805 21.582 0 0 0
501 1 32.373 25.179 17.985 0 0 0
885 1 28.776 25.179 3.597 0 0 0
3193 1 7.194 14.388 28.776 0 0 0
1389 1 25.179 32.373 25.179 0 0 0
3178 1 7.194 16.1865 16.1865 0 0 0
2693 1 10.791 7.194 10.791 0 0 0
3016 1 5.3955 1.7985 10.791 0 0 0
2108 1 16.1865 26.9775 21.582 0 0 0
3282 1 7.194 26.9775 1.7985 0 0 0
1470 1 21.582 5.3955 26.9775 0 0 0
2854 1 10.791 23.3805 12.5895 0 0 0
3026 1 7.194 1.7985 23.3805 0 0 0
3089 1 7.194 7.194 7.194 0 0 0
1223 1 23.3805 17.985 19.7835 0 0 0
285 1 32.373 7.194 3.597 0 0 0
1540 1 19.7835 12.5895 14.388 0 0 0
3824 1 0.0 5.3955 5.3955 0 0 0
2216 1 12.5895 1.7985 10.791 0 0 0
1456 1 19.7835 5.3955 10.791 0 0 0
3268 1 5.3955 23.3805 21.582 0 0 0
1517 1 21.582 7.194 32.373 0 0 0
763 1 26.9775 14.388 1.7985 0 0 0
1813 1 17.985 0.0 10.791 0 0 0
3245 1 7.194 21.582 3.597 0 0 0
1886 1 17.985 8.9925 5.3955 0 0 0
528 1 30.5745 30.5745 3.597 0 0 0
1357 1 25.179 28.776 32.373 0 0 0
219 1 30.5745 0.0 16.1865 0 0 0
3202 1 7.194 19.7835 1.7985 0 0 0
185 1 34.1715 32.373 8.9925 0 0 0
2789 1 10.791 14.388 25.179 0 0 0
2748 1 8.9925 12.5895 21.582 0 0 0
308 1 30.5745 8.9925 21.582 0 0 0
2160 1 16.1865 30.5745 32.373 0 0 0
220 1 30.5745 1.7985 14.388 0 0 0
3667 1 1.7985 21.582 23.3805 0 0 0
1804 1 16.1865 1.7985 0.0 0 0 0
1279 1 23.3805 21.582 34.1715 0 0 0
2189 1 17.985 32.373 25.179 0 0 0
665 1 28.776 3.597 21.582 0 0 0
1030 1 25.179 1.7985 26.9775 0 0 0
2068 1 16.1865 23.3805 21.582 0 0 0
2062 1 17.985 23.3805 19.7835 0 0 0
615 1 26.9775 0.0 12.5895 0 0 0
3328 1 5.3955 30.5745 3.597 0 0 0
3080 1 5.3955 5.3955 32.373 0 0 0
3212 1 5.3955 19.7835 7.194 0 0 0
1243 1 23.3805 21.582 1.7985 0 0 0
660 1 26.9775 5.3955 14.388 0 0 0
1060 1 23.3805 5.3955 14.388 0 0 0
2490 1 14.388 26.9775 8.9925 0 0 0
3662 1 3.597 23.3805 19.7835 0 0 0
2498 1 14.388 26.9775 16.1865 0 0 0
2971 1 8.9925 32.373 8.9925 0 0 0
3651 1 1.7985 21.582 8.9925 0 0 0
419 1 30.5745 17.985 16.1865 0 0 0
2125 1 17.985 28.776 3.597 0 0 0
3609 1 3.597 17.985 7.194 0 0 0
692 1 26.9775 8.9925 7.194 0 0 0
2387 1 12.5895 14.388 23.3805 0 0 0
2406 1 14.388 19.7835 5.3955 0 0 0
2665 1 10.791 3.597 21.582 0 0 0
788 1 26.9775 16.1865 21.582 0 0 0
1013 1 25.179 0.0 10.791 0 0 0
2778 1 10.791 16.1865 16.1865 0 0 0
1443 1 19.7835 3.597 1.7985 0 0 0
3337 1 7.194 28.776 14.388 0 0 0
3197 1 7.194 14.388 32.373 0 0 0
1021 1 25.179 0.0 17.985 0 0 0
855 1 26.9775 21.582 12.5895 0 0 0
3173 1 7.194 14.388 10.791 0 0 0
3423 1 1.7985 0.0 19.7835 0 0 0
3685 1 3.597 25.179 3.597 0 0 0
2212 1 12.5895 1.7985 7.194 0 0 0
638 1 28.776 1.7985 34.1715 0 0 0
2550 1 14.388 30.5745 26.9775 0 0 0
3576 1 1.7985 16.1865 10.791 0 0 0
3795 1 1.7985 32.373 30.5745 0 0 0
1219 1 23.3805 17.985 16.1865 0 0 0
1823 1 16.1865 0.0 19.7835 0 0 0
3622 1 3.597 19.7835 19.7835 0 0 0
1382 1 25.179 34.1715 19.7835 0 0 0
2876 1 8.9925 23.3805 28.776 0 0 0
2964 1 8.9925 34.1715 0.0 0 0 0
852 1 26.9775 23.3805 7.194 0 0 0
1041 1 25.179 3.597 0.0 0 0 0
3421 1 3.597 0.0 17.985 0 0 0
516 1 30.5745 26.9775 28.776 0 0 0
255 1 30.5745 3.597 12.5895 0 0 0
3974 1 0.0 30.5745 23.3805 0 0 0
2119 1 16.1865 25.179 34.1715 0 0 0
3878 1 0.0 12.5895 30.5745 0 0 0
2899 1 8.9925 25.179 16.1865 0 0 0
1209 1 25.179 17.985 7.194 0 0 0
1179 1 23.3805 14.388 16.1865 0 0 0
3493 1 3.597 7.194 10.791 0 0 0
3925 1 0.0 21.582 7.194 0 0 0
353 1 32.373 10.791 28.776 0 0 0
2807 1 8.9925 17.985 5.3955 0 0 0
1171 1 23.3805 14.388 8.9925 0 0 0
205 1 32.373 0.0 3.597 0 0 0
3189 1 7.194 14.388 25.179 0 0 0
2186 1 17.985 34.1715 23.3805 0 0 0
3329 1 7.194 28.776 7.194 0 0 0
2193 1 17.985 32.373 28.776 0 0 0
2682 1 10.791 8.9925 1.7985 0 0 0
1003 1 23.3805 0.0 1.7985 0 0 0
1866 1 17.985 5.3955 23.3805 0 0 0
739 1 26.9775 10.791 16.1865 0 0 0
650 1 28.776 5.3955 8.9925 0 0 0
3574 1 3.597 16.1865 12.5895 0 0 0
2680 1 8.9925 5.3955 32.373 0 0 0
236 1 30.5745 1.7985 28.776 0 0 0
3901 1 0.0 17.985 0.0 0 0 0
3371 1 5.3955 32.373 8.9925 0 0 0
2959 1 8.9925 28.776 34.1715 0 0 0
3150 1 7.194 12.5895 26.9775 0 0 0
1339 1 23.3805 28.776 16.1865 0 0 0
1981 1 17.985 14.388 17.985 0 0 0
1236 1 23.3805 19.7835 28.776 0 0 0
3957 1 0.0 25.179 28.776 0 0 0
911 1 26.9775 25.179 26.9775 0 0 0
2447 1 12.5895 21.582 5.3955 0 0 0
730 1 28.776 12.5895 8.9925 0 0 0
876 1 26.9775 23.3805 28.776 0 0 0
492 1 30.5745 26.9775 7.194 0 0 0
2827 1 8.9925 17.985 23.3805 0 0 0
897 1 28.776 25.179 14.388 0 0 0
811 1 26.9775 17.985 8.9925 0 0 0
3958 1 0.0 26.9775 30.5745 0 0 0
1647 1 19.7835 21.582 5.3955 0 0 0
2764 1 8.9925 16.1865 0.0 0 0 0
736 1 26.9775 12.5895 10.791 0 0 0
1008 1 23.3805 1.7985 3.597 0 0 0
1684 1 19.7835 26.9775 0.0 0 0 0
201 1 32.373 0.0 0.0 0 0 0
2815 1 8.9925 17.985 12.5895 0 0 0
1623 1 19.7835 17.985 19.7835 0 0 0
1163 1 23.3805 14.388 1.7985 0 0 0
3764 1 1.7985 34.1715 0.0 0 0 0
2884 1 8.9925 26.9775 0.0 0 0 0
2988 1 8.9925 34.1715 21.582 0 0 0
1266 1 25.179 23.3805 23.3805 0 0 0
3911 1 0.0 17.985 17.985 0 0 0
1451 1 19.7835 3.597 8.9925 0 0 0
1834 1 17.985 1.7985 30.5745 0 0 0
921 1 28.776 28.776 0.0 0 0 0
884 1 26.9775 26.9775 0.0 0 0 0
235 1 30.5745 0.0 30.5745 0 0 0
2715 1 8.9925 7.194 30.5745 0 0 0
1930 1 17.985 12.5895 8.9925 0 0 0
632 1 26.9775 1.7985 25.179 0 0 0
3918 1 0.0 19.7835 30.5745 0 0 0
2935 1 8.9925 28.776 12.5895 0 0 0
3057 1 7.194 3.597 14.388 0 0 0
806 1 28.776 19.7835 5.3955 0 0 0
864 1 26.9775 23.3805 17.985 0 0 0
3608 1 1.7985 19.7835 3.597 0 0 0
1321 1 25.179 28.776 0.0 0 0 0
160 1 34.1715 26.9775 32.373 0 0 0
2056 1 16.1865 23.3805 10.791 0 0 0
2223 1 12.5895 0.0 19.7835 0 0 0
2210 1 14.388 1.7985 8.9925 0 0 0
1858 1 17.985 5.3955 16.1865 0 0 0
2658 1 10.791 5.3955 16.1865 0 0 0
3378 1 7.194 34.1715 16.1865 0 0 0
444 1 30.5745 23.3805 0.0 0 0 0
748 1 26.9775 12.5895 21.582 0 0 0
3944 1 0.0 26.9775 5.3955 0 0 0
1445 1 21.582 3.597 3.597 0 0 0
1295 1 23.3805 25.179 12.5895 0 0 0
957 1 28.776 28.776 32.373 0 0 0
2301 1 14.388 7.194 17.985 0 0 0
1841 1 17.985 3.597 0.0 0 0 0
3234 1 7.194 19.7835 30.5745 0 0 0
1278 1 25.179 23.3805 34.1715 0 0 0
2584 1 12.5895 34.1715 17.985 0 0 0
1526 1 21.582 12.5895 5.3955 0 0 0
2289 1 14.388 7.194 7.194 0 0 0
3395 1 5.3955 32.373 30.5745 0 0 0
2267 1 12.5895 3.597 23.3805 0 0 0
3842 1 0.0 8.9925 1.7985 0 0 0
669 1 28.776 3.597 25.179 0 0 0
3140 1 5.3955 12.5895 14.388 0 0 0
3318 1 7.194 26.9775 34.1715 0 0 0
2689 1 10.791 7.194 7.194 0 0 0
971 1 26.9775 32.373 8.9925 0 0 0
2923 1 8.9925 28.776 1.7985 0 0 0
845 1 28.776 21.582 3.597 0 0 0
3762 1 3.597 34.1715 1.7985 0 0 0
3323 1 5.3955 28.776 1.7985 0 0 0
2150 1 17.985 30.5745 26.9775 0 0 0
3263 1 5.3955 21.582 19.7835 0 0 0
343 1 30.5745 10.791 19.7835 0 0 0
2539 1 12.5895 28.776 16.1865 0 0 0
271 1 30.5745 3.597 26.9775 0 0 0
1885 1 17.985 7.194 3.597 0 0 0
1700 1 19.7835 26.9775 14.388 0 0 0
3985 1 0.0 32.373 7.194 0 0 0
3646 1 3.597 23.3805 5.3955 0 0 0
1133 1 25.179 10.791 10.791 0 0 0
964 1 26.9775 34.1715 0.0 0 0 0
2243 1 12.5895 3.597 1.7985 0 0 0
3316 1 5.3955 26.9775 28.776 0 0 0
288 1 30.5745 8.9925 3.597 0 0 0
3369 1 7.194 32.373 7.194 0 0 0
588 1 30.5745 34.1715 21.582 0 0 0
1948 1 16.1865 12.5895 21.582 0 0 0
3029 1 7.194 0.0 25.179 0 0 0
816 1 26.9775 19.7835 10.791 0 0 0
1787 1 19.7835 32.373 23.3805 0 0 0
3087 1 5.3955 7.194 5.3955 0 0 0
3315 1 5.3955 25.179 30.5745 0 0 0
570 1 32.373 34.1715 8.9925 0 0 0
397 1 32.373 14.388 32.373 0 0 0
2154 1 17.985 30.5745 30.5745 0 0 0
3050 1 7.194 5.3955 8.9925 0 0 0
1063 1 23.3805 3.597 19.7835 0 0 0
3076 1 5.3955 5.3955 28.776 0 0 0
2100 1 16.1865 26.9775 14.388 0 0 0
151 1 34.1715 25.179 19.7835 0 0 0
1015 1 23.3805 0.0 12.5895 0 0 0
333 1 32.373 10.791 10.791 0 0 0
46 1 34.1715 8.9925 7.194 0 0 0
54 1 34.1715 8.9925 21.582 0 0 0
975 1 26.9775 32.373 12.5895 0 0 0
1170 1 25.179 16.1865 8.9925 0 0 0
1206 1 25.179 19.7835 5.3955 0 0 0
114 1 34.1715 19.7835 21.582 0 0 0
1228 1 23.3805 19.7835 21.582 0 0 0
693 1 28.776 7.194 10.791 0 0 0
3644 1 1.7985 23.3805 0.0 0 0 0
611 1 26.9775 0.0 8.9925 0 0 0
523 2 30.5745 28.776 1.7985 0 0 0
3638 2 3.597 19.7835 34.1715 0 0 0
3061 2 7.194 3.597 17.985 0 0 0
1639 2 19.7835 17.985 34.1715 0 0 0
379 2 30.5745 14.388 16.1865 0 0 0
2977 2 10.791 32.373 14.388 0 0 0
2718 2 10.791 8.9925 34.1715 0 0 0
3247 2 5.3955 21.582 5.3955 0 0 0
3979 2 0.0 28.776 32.373 0 0 0
2098 2 17.985 26.9775 16.1865 0 0 0
1704 2 19.7835 26.9775 17.985 0 0 0
1783 2 19.7835 32.373 19.7835 0 0 0
1980 2 16.1865 16.1865 14.388 0 0 0
2958 2 10.791 30.5745 34.1715 0 0 0
3394 2 7.194 34.1715 30.5745 0 0 0
2623 2 8.9925 0.0 19.7835 0 0 0
760 2 26.9775 12.5895 32.373 0 0 0
2466 2 14.388 23.3805 23.3805 0 0 0
2754 2 10.791 12.5895 30.5745 0 0 0
1871 2 16.1865 3.597 26.9775 0 0 0
905 2 28.776 25.179 21.582 0 0 0
3509 2 3.597 7.194 25.179 0 0 0
900 2 26.9775 26.9775 14.388 0 0 0
3527 2 1.7985 10.791 5.3955 0 0 0
181 2 34.1715 32.373 1.7985 0 0 0
3823 2 0.0 3.597 3.597 0 0 0
1280 2 23.3805 23.3805 32.373 0 0 0
3356 2 5.3955 30.5745 28.776 0 0 0
3819 2 0.0 0.0 32.373 0 0 0
2540 2 12.5895 30.5745 14.388 0 0 0
1285 2 25.179 25.179 3.597 0 0 0
3948 2 0.0 26.9775 12.5895 0 0 0
785 2 28.776 14.388 21.582 0 0 0
910 2 28.776 26.9775 26.9775 0 0 0
3899 2 0.0 14.388 32.373 0 0 0
3225 2 7.194 17.985 21.582 0 0 0
3971 2 0.0 28.776 17.985 0 0 0
3729 2 3.597 28.776 7.194 0 0 0
610 2 28.776 1.7985 8.9925 0 0 0
3996 2 0.0 34.1715 26.9775 0 0 0
2833 2 10.791 17.985 28.776 0 0 0
2906 2 10.791 26.9775 23.3805 0 0 0
344 2 30.5745 12.5895 17.985 0 0 0
164 2 34.1715 30.5745 3.597 0 0 0
1706 2 21.582 26.9775 23.3805 0 0 0
2650 2 10.791 5.3955 8.9925 0 0 0
2538 2 14.388 30.5745 16.1865 0 0 0
470 2 32.373 23.3805 26.9775 0 0 0
2939 2 8.9925 28.776 16.1865 0 0 0
3886 2 0.0 16.1865 8.9925 0 0 0
284 2 30.5745 8.9925 0.0 0 0 0
2617 2 10.791 0.0 14.388 0 0 0
683 2 26.9775 7.194 1.7985 0 0 0
2587 2 12.5895 32.373 23.3805 0 0 0
158 2 34.1715 26.9775 28.776 0 0 0
593 2 32.373 32.373 28.776 0 0 0
3550 2 3.597 12.5895 26.9775 0 0 0
2000 2 16.1865 16.1865 32.373 0 0 0
3196 2 5.3955 16.1865 28.776 0 0 0
1681 2 21.582 25.179 0.0 0 0 0
1227 2 23.3805 17.985 23.3805 0 0 0
3787 2 1.7985 32.373 23.3805 0 0 0
1926 2 17.985 12.5895 5.3955 0 0 0
2441 2 14.388 21.582 0.0 0 0 0
1852 2 16.1865 5.3955 7.194 0 0 0
2111 2 16.1865 25.179 26.9775 0 0 0
1884 2 16.1865 8.9925 0.0 0 0 0
95 2 34.1715 14.388 26.9775 0 0 0
2248 2 12.5895 5.3955 3.597 0 0 0
3144 2 5.3955 12.5895 17.985 0 0 0
2621 2 10.791 0.0 17.985 0 0 0
1728 2 19.7835 30.5745 3.597 0 0 0
1230 2 25.179 19.7835 26.9775 0 0 0
2033 2 17.985 17.985 28.776 0 0 0
1222 2 25.179 19.7835 19.7835 0 0 0
3159 2 5.3955 10.791 34.1715 0 0 0
418 2 32.373 19.7835 16.1865 0 0 0
792 2 26.9775 16.1865 25.179 0 0 0
3436 2 1.7985 1.7985 28.776 0 0 0
425 2 32.373 17.985 21.582 0 0 0
3015 2 5.3955 0.0 12.5895 0 0 0
3238 2 7.194 19.7835 34.1715 0 0 0
1538 2 21.582 12.5895 16.1865 0 0 0
49 2 34.1715 7.194 16.1865 0 0 0
2069 2 17.985 21.582 25.179 0 0 0
2871 2 8.9925 21.582 26.9775 0 0 0
2366 2 14.388 16.1865 5.3955 0 0 0
1803 2 16.1865 0.0 1.7985 0 0 0
2235 2 12.5895 0.0 30.5745 0 0 0
363 2 30.5745 14.388 1.7985 0 0 0
2044 2 16.1865 23.3805 0.0 0 0 0
2628 2 8.9925 1.7985 21.582 0 0 0
378 2 32.373 16.1865 16.1865 0 0 0
1231 2 23.3805 17.985 26.9775 0 0 0
2845 2 10.791 21.582 3.597 0 0 0
1656 2 19.7835 23.3805 10.791 0 0 0
1284 2 23.3805 26.9775 0.0 0 0 0
1724 2 19.7835 30.5745 0.0 0 0 0
1438 2 21.582 1.7985 34.1715 0 0 0
120 2 34.1715 19.7835 32.373 0 0 0
3179 2 5.3955 14.388 16.1865 0 0 0
2456 2 12.5895 23.3805 10.791 0 0 0
2563 2 12.5895 32.373 1.7985 0 0 0
2513 2 14.388 25.179 28.776 0 0 0
3992 2 0.0 34.1715 19.7835 0 0 0
1090 2 25.179 8.9925 8.9925 0 0 0
3191 2 5.3955 14.388 26.9775 0 0 0
987 2 26.9775 32.373 23.3805 0 0 0
3639 2 1.7985 17.985 34.1715 0 0 0
908 2 26.9775 26.9775 21.582 0 0 0
102 2 34.1715 19.7835 0.0 0 0 0
3776 2 1.7985 34.1715 10.791 0 0 0
3056 2 5.3955 5.3955 10.791 0 0 0
3571 2 1.7985 14.388 8.9925 0 0 0
735 2 26.9775 10.791 12.5895 0 0 0
744 2 26.9775 12.5895 17.985 0 0 0
617 2 28.776 0.0 14.388 0 0 0
2205 2 14.388 0.0 3.597 0 0 0
3244 2 5.3955 23.3805 0.0 0 0 0
624 2 26.9775 1.7985 17.985 0 0 0
536 2 30.5745 30.5745 10.791 0 0 0
2309 2 14.388 7.194 25.179 0 0 0
2819 2 8.9925 17.985 16.1865 0 0 0
3567 2 1.7985 14.388 5.3955 0 0 0
1772 2 19.7835 34.1715 7.194 0 0 0
2921 2 10.791 28.776 0.0 0 0 0
3448 2 1.7985 5.3955 3.597 0 0 0
1454 2 21.582 5.3955 12.5895 0 0 0
1966 2 17.985 16.1865 5.3955 0 0 0
3174 2 7.194 16.1865 12.5895 0 0 0
1786 2 21.582 34.1715 23.3805 0 0 0
2019 2 16.1865 17.985 16.1865 0 0 0
620 2 26.9775 1.7985 14.388 0 0 0
3368 2 5.3955 34.1715 3.597 0 0 0
1651 2 19.7835 21.582 8.9925 0 0 0
3923 2 0.0 21.582 3.597 0 0 0
1913 2 17.985 7.194 28.776 0 0 0
1566 2 21.582 16.1865 5.3955 0 0 0
1798 2 21.582 34.1715 34.1715 0 0 0
291 2 30.5745 7.194 8.9925 0 0 0
3213 2 7.194 17.985 10.791 0 0 0
3610 2 3.597 19.7835 8.9925 0 0 0
2934 2 10.791 30.5745 12.5895 0 0 0
97 2 34.1715 14.388 30.5745 0 0 0
3237 2 7.194 17.985 32.373 0 0 0
1374 2 25.179 34.1715 12.5895 0 0 0
3614 2 3.597 19.7835 12.5895 0 0 0
677 2 28.776 3.597 32.373 0 0 0
3990 2 0.0 34.1715 16.1865 0 0 0
2776 2 8.9925 16.1865 10.791 0 0 0
1883 2 16.1865 7.194 1.7985 0 0 0
1952 2 16.1865 12.5895 25.179 0 0 0
2643 2 8.9925 3.597 1.7985 0 0 0
2046 2 17.985 23.3805 5.3955 0 0 0
3603 2 1.7985 17.985 1.7985 0 0 0
82 2 34.1715 16.1865 0.0 0 0 0
3786 2 3.597 34.1715 23.3805 0 0 0
507 2 30.5745 25.179 23.3805 0 0 0
3146 2 7.194 12.5895 23.3805 0 0 0
1649 2 21.582 21.582 7.194 0 0 0
2012 2 16.1865 19.7835 7.194 0 0 0
2843 2 8.9925 21.582 1.7985 0 0 0
3043 2 5.3955 3.597 1.7985 0 0 0
1189 2 25.179 14.388 25.179 0 0 0
1985 2 17.985 14.388 21.582 0 0 0
77 2 34.1715 10.791 30.5745 0 0 0
2861 2 10.791 21.582 17.985 0 0 0
719 2 26.9775 7.194 34.1715 0 0 0
2728 2 8.9925 12.5895 3.597 0 0 0
456 2 30.5745 23.3805 10.791 0 0 0
2131 2 16.1865 28.776 8.9925 0 0 0
2707 2 8.9925 7.194 23.3805 0 0 0
1297 2 25.179 25.179 14.388 0 0 0
2575 2 12.5895 32.373 12.5895 0 0 0
2669 2 10.791 3.597 25.179 0 0 0
1394 2 25.179 34.1715 30.5745 0 0 0
1509 2 21.582 7.194 25.179 0 0 0
3276 2 5.3955 23.3805 28.776 0 0 0
2551 2 12.5895 28.776 26.9775 0 0 0
1414 2 21.582 1.7985 12.5895 0 0 0
3866 2 0.0 12.5895 8.9925 0 0 0
318 2 32.373 8.9925 34.1715 0 0 0
268 2 30.5745 5.3955 21.582 0 0 0
2029 2 17.985 17.985 25.179 0 0 0
3133 2 7.194 10.791 10.791 0 0 0
3040 2 5.3955 1.7985 32.373 0 0 0
1081 2 25.179 7.194 0.0 0 0 0
214 2 32.373 1.7985 12.5895 0 0 0
1164 2 23.3805 16.1865 0.0 0 0 0
2317 2 14.388 7.194 32.373 0 0 0
2473 2 14.388 21.582 28.776 0 0 0
887 2 26.9775 25.179 5.3955 0 0 0
1392 2 23.3805 34.1715 25.179 0 0 0
289 2 32.373 7.194 7.194 0 0 0
2697 2 10.791 7.194 14.388 0 0 0
4 2 34.1715 1.7985 3.597 0 0 0
1645 2 21.582 21.582 3.597 0 0 0
1710 2 21.582 26.9775 26.9775 0 0 0
551 2 30.5745 28.776 26.9775 0 0 0
3954 2 0.0 26.9775 23.3805 0 0 0
1301 2 25.179 25.179 17.985 0 0 0
3797 2 3.597 32.373 32.373 0 0 0
1054 2 25.179 5.3955 12.5895 0 0 0
3997 2 0.0 32.373 28.776 0 0 0
780 2 26.9775 16.1865 14.388 0 0 0
2504 2 12.5895 26.9775 17.985 0 0 0
1446 2 21.582 5.3955 5.3955 0 0 0
3277 2 7.194 21.582 32.373 0 0 0
3705 2 3.597 25.179 21.582 0 0 0
1821 2 17.985 0.0 17.985 0 0 0
3259 2 5.3955 21.582 16.1865 0 0 0
604 2 26.9775 1.7985 0.0 0 0 0
3357 2 7.194 28.776 32.373 0 0 0
408 2 30.5745 19.7835 3.597 0 0 0
2209 2 14.388 0.0 7.194 0 0 0
2254 2 14.388 5.3955 12.5895 0 0 0
986 2 28.776 34.1715 23.3805 0 0 0
2180 2 16.1865 34.1715 14.388 0 0 0
3665 2 3.597 21.582 21.582 0 0 0
41 2 34.1715 7.194 1.7985 0 0 0
3209 2 7.194 17.985 7.194 0 0 0
1541 2 21.582 10.791 17.985 0 0 0
3461 2 3.597 3.597 17.985 0 0 0
3028 2 5.3955 1.7985 21.582 0 0 0
3453 2 3.597 3.597 10.791 0 0 0
1264 2 23.3805 23.3805 17.985 0 0 0
341 2 32.373 10.791 17.985 0 0 0
1870 2 17.985 5.3955 26.9775 0 0 0
360 2 30.5745 12.5895 32.373 0 0 0
1935 2 16.1865 10.791 12.5895 0 0 0
1166 2 25.179 16.1865 5.3955 0 0 0
447 2 30.5745 21.582 5.3955 0 0 0
3321 2 7.194 28.776 0.0 0 0 0
2428 2 12.5895 19.7835 21.582 0 0 0
2775 2 8.9925 14.388 12.5895 0 0 0
2081 2 17.985 25.179 0.0 0 0 0
183 2 34.1715 32.373 5.3955 0 0 0
119 2 34.1715 17.985 34.1715 0 0 0
1022 2 25.179 1.7985 19.7835 0 0 0
2739 2 8.9925 10.791 16.1865 0 0 0
3682 2 3.597 26.9775 1.7985 0 0 0
3534 2 3.597 12.5895 12.5895 0 0 0
582 2 32.373 34.1715 19.7835 0 0 0
2820 2 8.9925 19.7835 14.388 0 0 0
1967 2 16.1865 14.388 5.3955 0 0 0
3892 2 0.0 16.1865 19.7835 0 0 0
3459 2 1.7985 3.597 16.1865 0 0 0
2655 2 8.9925 3.597 12.5895 0 0 0
3115 2 5.3955 7.194 30.5745 0 0 0
1142 2 25.179 12.5895 19.7835 0 0 0
960 2 26.9775 30.5745 32.373 0 0 0
1543 2 19.7835 10.791 19.7835 0 0 0
1837 2 17.985 0.0 32.373 0 0 0
791 2 26.9775 14.388 26.9775 0 0 0
3262 2 7.194 23.3805 19.7835 0 0 0
3994 2 0.0 34.1715 23.3805 0 0 0
2083 2 16.1865 25.179 1.7985 0 0 0
3119 2 5.3955 7.194 34.1715 0 0 0
2135 2 16.1865 28.776 12.5895 0 0 0
3218 2 7.194 19.7835 16.1865 0 0 0
1137 2 25.179 10.791 14.388 0 0 0
2058 2 17.985 23.3805 16.1865 0 0 0
2316 2 12.5895 8.9925 28.776 0 0 0
835 2 26.9775 17.985 30.5745 0 0 0
1318 2 25.179 26.9775 34.1715 0 0 0
904 2 26.9775 26.9775 17.985 0 0 0
2408 2 12.5895 19.7835 3.597 0 0 0
3802 2 0.0 1.7985 1.7985 0 0 0
1599 2 19.7835 14.388 34.1715 0 0 0
1237 2 25.179 17.985 32.373 0 0 0
3280 2 5.3955 23.3805 32.373 0 0 0
3155 2 5.3955 10.791 30.5745 0 0 0
612 2 26.9775 1.7985 7.194 0 0 0
213 2 32.373 0.0 10.791 0 0 0
431 2 30.5745 17.985 26.9775 0 0 0
110 2 34.1715 19.7835 14.388 0 0 0
2460 2 12.5895 23.3805 14.388 0 0 0
1875 2 16.1865 3.597 30.5745 0 0 0
324 2 30.5745 12.5895 0.0 0 0 0
3422 2 3.597 1.7985 19.7835 0 0 0
2741 2 10.791 10.791 17.985 0 0 0
3975 2 0.0 28.776 25.179 0 0 0
2457 2 14.388 21.582 14.388 0 0 0
2515 2 12.5895 25.179 30.5745 0 0 0
1078 2 25.179 5.3955 34.1715 0 0 0
3063 2 5.3955 3.597 19.7835 0 0 0
1616 2 19.7835 19.7835 10.791 0 0 0
956 2 26.9775 30.5745 28.776 0 0 0
743 2 26.9775 10.791 19.7835 0 0 0
529 2 32.373 28.776 7.194 0 0 0
3252 2 5.3955 23.3805 7.194 0 0 0
757 2 28.776 10.791 32.373 0 0 0
1552 2 19.7835 12.5895 25.179 0 0 0
1946 2 17.985 12.5895 23.3805 0 0 0
2671 2 8.9925 3.597 26.9775 0 0 0
994 2 28.776 34.1715 30.5745 0 0 0
3265 2 7.194 21.582 21.582 0 0 0
1342 2 25.179 30.5745 19.7835 0 0 0
1305 2 25.179 25.179 21.582 0 0 0
3773 2 3.597 32.373 10.791 0 0 0
1286 2 25.179 26.9775 5.3955 0 0 0
553 2 32.373 28.776 28.776 0 0 0
203 2 30.5745 0.0 1.7985 0 0 0
1672 2 19.7835 23.3805 25.179 0 0 0
1369 2 25.179 32.373 7.194 0 0 0
1694 2 21.582 26.9775 12.5895 0 0 0
2112 2 16.1865 26.9775 25.179 0 0 0
1667 2 19.7835 21.582 23.3805 0 0 0
197 2 34.1715 32.373 30.5745 0 0 0
3962 2 0.0 30.5745 1.7985 0 0 0
2185 2 17.985 32.373 21.582 0 0 0
2915 2 8.9925 25.179 30.5745 0 0 0
3536 2 1.7985 12.5895 10.791 0 0 0
3538 2 3.597 12.5895 16.1865 0 0 0
3557 2 3.597 10.791 32.373 0 0 0
3004 2 5.3955 1.7985 0.0 0 0 0
21 2 34.1715 3.597 1.7985 0 0 0
1499 2 19.7835 7.194 16.1865 0 0 0
3052 2 5.3955 5.3955 7.194 0 0 0
2673 2 10.791 3.597 28.776 0 0 0
1498 2 21.582 8.9925 16.1865 0 0 0
2396 2 12.5895 16.1865 28.776 0 0 0
2070 2 17.985 23.3805 26.9775 0 0 0
1687 2 19.7835 25.179 5.3955 0 0 0
1 2 34.1715 0.0 1.7985 0 0 0
3963 2 0.0 28.776 3.597 0 0 0
3373 2 7.194 32.373 10.791 0 0 0
2667 2 8.9925 3.597 23.3805 0 0 0
2103 2 16.1865 25.179 19.7835 0 0 0
3804 2 0.0 1.7985 5.3955 0 0 0
1796 2 19.7835 34.1715 28.776 0 0 0
1413 2 21.582 0.0 10.791 0 0 0
1050 2 25.179 5.3955 8.9925 0 0 0
2073 2 17.985 21.582 28.776 0 0 0
1996 2 16.1865 16.1865 28.776 0 0 0
2257 2 14.388 3.597 14.388 0 0 0
452 2 30.5745 23.3805 7.194 0 0 0
1951 2 16.1865 10.791 26.9775 0 0 0
3468 2 1.7985 5.3955 21.582 0 0 0
249 2 32.373 3.597 7.194 0 0 0
484 2 30.5745 26.9775 0.0 0 0 0
2772 2 8.9925 16.1865 7.194 0 0 0
2782 2 10.791 16.1865 19.7835 0 0 0
3927 2 0.0 21.582 10.791 0 0 0
3302 2 7.194 26.9775 19.7835 0 0 0
1395 2 23.3805 32.373 30.5745 0 0 0
74 2 34.1715 12.5895 21.582 0 0 0
2165 2 17.985 32.373 3.597 0 0 0
2356 2 12.5895 12.5895 28.776 0 0 0
1358 2 25.179 30.5745 34.1715 0 0 0
2372 2 12.5895 16.1865 7.194 0 0 0
1555 2 19.7835 10.791 30.5745 0 0 0
871 2 26.9775 21.582 26.9775 0 0 0
1405 2 21.582 0.0 3.597 0 0 0
1964 2 16.1865 16.1865 0.0 0 0 0
1383 2 23.3805 32.373 19.7835 0 0 0
1432 2 19.7835 1.7985 25.179 0 0 0
542 2 32.373 30.5745 19.7835 0 0 0
194 2 34.1715 34.1715 21.582 0 0 0
1333 2 25.179 28.776 10.791 0 0 0
929 2 28.776 28.776 7.194 0 0 0
619 2 26.9775 0.0 16.1865 0 0 0
1327 2 23.3805 28.776 5.3955 0 0 0
2837 2 10.791 17.985 32.373 0 0 0
155 2 34.1715 25.179 26.9775 0 0 0
1918 2 17.985 8.9925 34.1715 0 0 0
1975 2 16.1865 14.388 12.5895 0 0 0
982 2 28.776 34.1715 19.7835 0 0 0
1004 2 23.3805 1.7985 0.0 0 0 0
202 2 32.373 1.7985 1.7985 0 0 0
1442 2 21.582 5.3955 1.7985 0 0 0
2692 2 8.9925 8.9925 7.194 0 0 0
1942 2 17.985 12.5895 19.7835 0 0 0
2176 2 16.1865 34.1715 10.791 0 0 0
1815 2 16.1865 0.0 12.5895 0 0 0
121 2 34.1715 21.582 1.7985 0 0 0
684 2 26.9775 8.9925 0.0 0 0 0
787 2 26.9775 14.388 23.3805 0 0 0
2993 2 10.791 32.373 28.776 0 0 0
2429 2 14.388 17.985 25.179 0 0 0
3286 2 7.194 26.9775 5.3955 0 0 0
3893 2 0.0 14.388 21.582 0 0 0
996 2 26.9775 34.1715 28.776 0 0 0
1949 2 17.985 10.791 25.179 0 0 0
2297 2 14.388 7.194 14.388 0 0 0
3951 2 0.0 25.179 17.985 0 0 0
2025 2 17.985 17.985 21.582 0 0 0
1091 2 23.3805 7.194 8.9925 0 0 0
2192 2 16.1865 34.1715 25.179 0 0 0
1603 2 19.7835 17.985 1.7985 0 0 0
3104 2 5.3955 8.9925 17.985 0 0 0
2744 2 8.9925 12.5895 17.985 0 0 0
373 2 32.373 14.388 10.791 0 0 0
1216 2 23.3805 19.7835 10.791 0 0 0
1586 2 21.582 16.1865 23.3805 0 0 0
2543 2 12.5895 28.776 19.7835 0 0 0
3785 2 3.597 32.373 21.582 0 0 0
2826 2 10.791 19.7835 23.3805 0 0 0
3862 2 0.0 12.5895 1.7985 0 0 0
936 2 26.9775 30.5745 10.791 0 0 0
3396 2 5.3955 34.1715 28.776 0 0 0
3485 2 3.597 7.194 3.597 0 0 0
1993 2 17.985 14.388 28.776 0 0 0
2015 2 16.1865 17.985 12.5895 0 0 0
1862 2 17.985 5.3955 19.7835 0 0 0
997 2 28.776 32.373 32.373 0 0 0
2143 2 16.1865 28.776 19.7835 0 0 0
2220 2 12.5895 1.7985 14.388 0 0 0
1199 2 23.3805 14.388 34.1715 0 0 0
3182 2 7.194 16.1865 19.7835 0 0 0
2500 2 12.5895 26.9775 14.388 0 0 0
1713 2 21.582 25.179 28.776 0 0 0
1729 2 21.582 28.776 7.194 0 0 0
1292 2 23.3805 26.9775 7.194 0 0 0
2851 2 8.9925 21.582 8.9925 0 0 0
1881 2 17.985 7.194 0.0 0 0 0
2978 2 10.791 34.1715 16.1865 0 0 0
2133 2 17.985 28.776 10.791 0 0 0
366 2 32.373 16.1865 5.3955 0 0 0
1652 2 19.7835 23.3805 7.194 0 0 0
691 2 26.9775 7.194 8.9925 0 0 0
1175 2 23.3805 14.388 12.5895 0 0 0
3931 2 0.0 21.582 17.985 0 0 0
3332 2 5.3955 30.5745 7.194 0 0 0
2898 2 10.791 26.9775 16.1865 0 0 0
2018 2 17.985 19.7835 16.1865 0 0 0
1208 2 23.3805 19.7835 3.597 0 0 0
135 2 34.1715 21.582 26.9775 0 0 0
2880 2 8.9925 23.3805 32.373 0 0 0
699 2 26.9775 7.194 16.1865 0 0 0
2402 2 14.388 19.7835 1.7985 0 0 0
777 2 28.776 14.388 14.388 0 0 0
3499 2 1.7985 7.194 16.1865 0 0 0
3078 2 7.194 5.3955 34.1715 0 0 0
1055 2 23.3805 3.597 12.5895 0 0 0
2908 2 8.9925 26.9775 21.582 0 0 0
2593 2 14.388 32.373 28.776 0 0 0
3011 2 5.3955 0.0 8.9925 0 0 0
2450 2 14.388 23.3805 8.9925 0 0 0
524 2 30.5745 30.5745 0.0 0 0 0
3111 2 5.3955 7.194 26.9775 0 0 0
1458 2 21.582 5.3955 16.1865 0 0 0
2618 2 10.791 1.7985 16.1865 0 0 0
2448 2 12.5895 23.3805 3.597 0 0 0
2266 3 14.388 5.3955 23.3805 0 0 0
1567 3 19.7835 14.388 5.3955 0 0 0
972 3 26.9775 34.1715 7.194 0 0 0
3814 3 0.0 1.7985 23.3805 0 0 0
2552 3 12.5895 30.5745 25.179 0 0 0
2605 3 10.791 0.0 3.597 0 0 0
3216 3 5.3955 19.7835 10.791 0 0 0
880 3 26.9775 23.3805 32.373 0 0 0
1897 3 17.985 7.194 14.388 0 0 0
45 3 34.1715 7.194 8.9925 0 0 0
2188 3 16.1865 34.1715 21.582 0 0 0
400 3 30.5745 16.1865 32.373 0 0 0
3181 3 7.194 14.388 17.985 0 0 0
3449 3 3.597 3.597 7.194 0 0 0
1245 3 25.179 21.582 3.597 0 0 0
458 3 32.373 23.3805 16.1865 0 0 0
1745 3 21.582 28.776 21.582 0 0 0
3897 3 0.0 14.388 28.776 0 0 0
2341 3 14.388 10.791 17.985 0 0 0
435 3 30.5745 17.985 30.5745 0 0 0
2281 3 14.388 7.194 0.0 0 0 0
3845 3 0.0 7.194 7.194 0 0 0
1890 3 17.985 8.9925 8.9925 0 0 0
1474 3 21.582 5.3955 30.5745 0 0 0
2759 3 8.9925 10.791 34.1715 0 0 0
847 3 26.9775 21.582 5.3955 0 0 0
55 3 34.1715 7.194 26.9775 0 0 0
3591 3 1.7985 14.388 26.9775 0 0 0
2400 3 12.5895 16.1865 32.373 0 0 0
35 3 34.1715 3.597 26.9775 0 0 0
1625 3 21.582 17.985 21.582 0 0 0
2795 3 8.9925 14.388 30.5745 0 0 0
989 3 28.776 32.373 25.179 0 0 0
398 3 32.373 16.1865 34.1715 0 0 0
2287 3 12.5895 7.194 5.3955 0 0 0
602 3 28.776 1.7985 1.7985 0 0 0
2787 3 8.9925 14.388 23.3805 0 0 0
2215 3 12.5895 0.0 12.5895 0 0 0
372 3 30.5745 16.1865 7.194 0 0 0
1909 3 17.985 7.194 25.179 0 0 0
3650 3 3.597 23.3805 8.9925 0 0 0
2032 3 16.1865 19.7835 25.179 0 0 0
2941 3 10.791 28.776 17.985 0 0 0
671 3 26.9775 3.597 26.9775 0 0 0
2887 3 8.9925 25.179 5.3955 0 0 0
1516 3 19.7835 8.9925 28.776 0 0 0
381 3 32.373 14.388 17.985 0 0 0
48 3 34.1715 8.9925 10.791 0 0 0
2234 3 14.388 1.7985 30.5745 0 0 0
1385 3 25.179 32.373 21.582 0 0 0
607 3 26.9775 0.0 5.3955 0 0 0
2482 3 14.388 26.9775 1.7985 0 0 0
814 3 28.776 19.7835 12.5895 0 0 0
2532 3 12.5895 30.5745 7.194 0 0 0
3834 3 0.0 5.3955 23.3805 0 0 0
3360 3 5.3955 30.5745 32.373 0 0 0
850 3 28.776 23.3805 8.9925 0 0 0
2809 3 10.791 17.985 7.194 0 0 0
1764 3 19.7835 34.1715 0.0 0 0 0
1356 3 23.3805 30.5745 28.776 0 0 0
1673 3 21.582 21.582 28.776 0 0 0
80 3 34.1715 12.5895 32.373 0 0 0
115 3 34.1715 17.985 26.9775 0 0 0
3686 3 3.597 26.9775 5.3955 0 0 0
330 3 32.373 12.5895 8.9925 0 0 0
3062 3 7.194 5.3955 19.7835 0 0 0
14 3 34.1715 1.7985 21.582 0 0 0
579 3 30.5745 32.373 16.1865 0 0 0
3358 3 7.194 30.5745 34.1715 0 0 0
335 3 30.5745 10.791 12.5895 0 0 0
1578 3 21.582 16.1865 16.1865 0 0 0
1844 3 16.1865 5.3955 0.0 0 0 0
2591 3 12.5895 32.373 26.9775 0 0 0
2250 3 14.388 5.3955 8.9925 0 0 0
2509 3 14.388 25.179 25.179 0 0 0
3907 3 0.0 17.985 10.791 0 0 0
1048 3 23.3805 5.3955 3.597 0 0 0
1263 3 23.3805 21.582 19.7835 0 0 0
1115 3 23.3805 7.194 30.5745 0 0 0
3463 3 1.7985 3.597 19.7835 0 0 0
1229 3 25.179 17.985 25.179 0 0 0
2293 3 14.388 7.194 10.791 0 0 0
939 3 26.9775 28.776 16.1865 0 0 0
1370 3 25.179 34.1715 8.9925 0 0 0
474 3 32.373 23.3805 30.5745 0 0 0
65 3 34.1715 10.791 8.9925 0 0 0
1580 3 19.7835 16.1865 14.388 0 0 0
2230 3 14.388 1.7985 26.9775 0 0 0
1715 3 19.7835 25.179 30.5745 0 0 0
1571 3 19.7835 14.388 8.9925 0 0 0
1838 3 17.985 1.7985 34.1715 0 0 0
2211 3 12.5895 0.0 8.9925 0 0 0
2770 3 10.791 16.1865 8.9925 0 0 0
6 3 34.1715 1.7985 7.194 0 0 0
79 3 34.1715 10.791 34.1715 0 0 0
1626 3 21.582 19.7835 23.3805 0 0 0
295 3 30.5745 7.194 12.5895 0 0 0
3025 3 7.194 0.0 21.582 0 0 0
1979 3 16.1865 14.388 16.1865 0 0 0
2523 3 12.5895 28.776 1.7985 0 0 0
2432 3 12.5895 19.7835 25.179 0 0 0
38 3 34.1715 5.3955 28.776 0 0 0
729 3 28.776 10.791 7.194 0 0 0
1218 3 25.179 19.7835 16.1865 0 0 0
264 3 30.5745 5.3955 17.985 0 0 0
1365 3 25.179 32.373 3.597 0 0 0
1940 3 16.1865 12.5895 14.388 0 0 0
1843 3 16.1865 3.597 1.7985 0 0 0
1781 3 21.582 32.373 17.985 0 0 0
2194 3 17.985 34.1715 30.5745 0 0 0
3829 3 0.0 3.597 14.388 0 0 0
572 3 30.5745 34.1715 7.194 0 0 0
3180 3 5.3955 16.1865 14.388 0 0 0
1587 3 19.7835 14.388 23.3805 0 0 0
1557 3 21.582 10.791 32.373 0 0 0
15 3 34.1715 0.0 26.9775 0 0 0
963 3 26.9775 32.373 1.7985 0 0 0
2226 3 14.388 1.7985 23.3805 0 0 0
728 3 26.9775 12.5895 3.597 0 0 0
2983 3 8.9925 32.373 19.7835 0 0 0
1469 3 21.582 3.597 25.179 0 0 0
1483 3 19.7835 7.194 1.7985 0 0 0
1012 3 23.3805 1.7985 7.194 0 0 0
297 3 32.373 7.194 14.388 0 0 0
3077 3 7.194 3.597 32.373 0 0 0
2190 3 17.985 34.1715 26.9775 0 0 0
1071 3 23.3805 3.597 26.9775 0 0 0
2881 3 10.791 25.179 0.0 0 0 0
2956 3 8.9925 30.5745 28.776 0 0 0
136 3 34.1715 23.3805 25.179 0 0 0
1801 3 17.985 0.0 0.0 0 0 0
1846 3 17.985 5.3955 5.3955 0 0 0
2533 3 14.388 28.776 10.791 0 0 0
384 3 30.5745 16.1865 17.985 0 0 0
2542 3 14.388 30.5745 19.7835 0 0 0
2706 3 10.791 8.9925 23.3805 0 0 0
1513 3 21.582 7.194 28.776 0 0 0
1335 3 23.3805 28.776 12.5895 0 0 0
1619 3 19.7835 17.985 16.1865 0 0 0
2268 3 12.5895 5.3955 21.582 0 0 0
1314 3 25.179 26.9775 30.5745 0 0 0
869 3 28.776 21.582 25.179 0 0 0
3362 3 7.194 34.1715 1.7985 0 0 0
1147 3 23.3805 10.791 23.3805 0 0 0
1353 3 25.179 28.776 28.776 0 0 0
2345 3 14.388 10.791 21.582 0 0 0
2269 3 14.388 3.597 25.179 0 0 0
3109 3 7.194 7.194 25.179 0 0 0
1611 3 19.7835 17.985 8.9925 0 0 0
231 3 30.5745 0.0 26.9775 0 0 0
1650 3 21.582 23.3805 8.9925 0 0 0
527 3 30.5745 28.776 5.3955 0 0 0
2478 3 14.388 23.3805 34.1715 0 0 0
1575 3 19.7835 14.388 12.5895 0 0 0
92 3 34.1715 16.1865 17.985 0 0 0
3451 3 1.7985 3.597 8.9925 0 0 0
2079 3 16.1865 21.582 34.1715 0 0 0
2878 3 10.791 23.3805 34.1715 0 0 0
3739 3 1.7985 28.776 16.1865 0 0 0
1775 3 19.7835 32.373 12.5895 0 0 0
1889 3 17.985 7.194 7.194 0 0 0
2474 3 14.388 23.3805 30.5745 0 0 0
26 3 34.1715 5.3955 7.194 0 0 0
865 3 28.776 21.582 21.582 0 0 0
403 3 30.5745 17.985 1.7985 0 0 0
2847 3 8.9925 21.582 5.3955 0 0 0
1958 3 17.985 12.5895 34.1715 0 0 0
91 3 34.1715 14.388 19.7835 0 0 0
3863 3 0.0 10.791 3.597 0 0 0
2683 3 8.9925 7.194 1.7985 0 0 0
3351 3 5.3955 28.776 26.9775 0 0 0
3106 3 7.194 8.9925 23.3805 0 0 0
573 3 32.373 32.373 10.791 0 0 0
1033 3 25.179 0.0 28.776 0 0 0
3232 3 5.3955 19.7835 25.179 0 0 0
3158 3 7.194 12.5895 34.1715 0 0 0
708 3 26.9775 8.9925 21.582 0 0 0
2922 3 10.791 30.5745 1.7985 0 0 0
702 3 28.776 8.9925 19.7835 0 0 0
2036 3 16.1865 19.7835 28.776 0 0 0
261 3 32.373 3.597 17.985 0 0 0
3969 3 0.0 28.776 14.388 0 0 0
1310 3 25.179 26.9775 26.9775 0 0 0
874 3 28.776 23.3805 30.5745 0 0 0
1896 3 16.1865 8.9925 10.791 0 0 0
1845 3 17.985 3.597 3.597 0 0 0
242 3 32.373 5.3955 1.7985 0 0 0
991 3 26.9775 32.373 26.9775 0 0 0
1591 3 19.7835 14.388 26.9775 0 0 0
436 3 30.5745 19.7835 28.776 0 0 0
1018 3 25.179 1.7985 16.1865 0 0 0
841 3 28.776 21.582 0.0 0 0 0
3009 3 7.194 0.0 7.194 0 0 0
388 3 30.5745 16.1865 21.582 0 0 0
1629 3 21.582 17.985 25.179 0 0 0
2982 3 10.791 34.1715 19.7835 0 0 0
267 3 30.5745 3.597 23.3805 0 0 0
481 3 32.373 25.179 0.0 0 0 0
1777 3 21.582 32.373 14.388 0 0 0
3812 3 0.0 1.7985 19.7835 0 0 0
2599 3 12.5895 32.373 34.1715 0 0 0
2430 3 14.388 19.7835 26.9775 0 0 0
1108 3 23.3805 8.9925 21.582 0 0 0
1915 3 16.1865 7.194 30.5745 0 0 0
1461 3 21.582 3.597 17.985 0 0 0
2885 3 10.791 25.179 3.597 0 0 0
1817 3 17.985 0.0 14.388 0 0 0
224 3 30.5745 1.7985 17.985 0 0 0
301 3 32.373 7.194 17.985 0 0 0
3618 3 3.597 19.7835 16.1865 0 0 0
3809 3 0.0 0.0 14.388 0 0 0
2006 3 17.985 19.7835 5.3955 0 0 0
3594 3 3.597 16.1865 30.5745 0 0 0
535 3 30.5745 28.776 12.5895 0 0 0
1754 3 21.582 30.5745 30.5745 0 0 0
3377 3 7.194 32.373 14.388 0 0 0
509 3 32.373 25.179 25.179 0 0 0
1910 3 17.985 8.9925 26.9775 0 0 0
3891 3 0.0 14.388 17.985 0 0 0
2113 3 17.985 25.179 28.776 0 0 0
1785 3 21.582 32.373 21.582 0 0 0
300 3 30.5745 8.9925 14.388 0 0 0
3431 3 1.7985 0.0 26.9775 0 0 0
303 3 30.5745 7.194 19.7835 0 0 0
1267 3 23.3805 21.582 23.3805 0 0 0
89 3 34.1715 14.388 16.1865 0 0 0
1643 3 19.7835 21.582 1.7985 0 0 0
3680 3 1.7985 23.3805 32.373 0 0 0
3796 3 1.7985 34.1715 28.776 0 0 0
3428 3 1.7985 1.7985 21.582 0 0 0
3582 3 3.597 16.1865 19.7835 0 0 0
1615 3 19.7835 17.985 12.5895 0 0 0
1686 3 21.582 26.9775 5.3955 0 0 0
526 3 32.373 30.5745 5.3955 0 0 0
3510 3 3.597 8.9925 26.9775 0 0 0
3807 3 0.0 0.0 10.791 0 0 0
282 3 32.373 8.9925 1.7985 0 0 0
1874 3 17.985 5.3955 30.5745 0 0 0
128 3 34.1715 23.3805 10.791 0 0 0
886 3 28.776 26.9775 5.3955 0 0 0
784 3 26.9775 16.1865 17.985 0 0 0
2700 3 8.9925 8.9925 14.388 0 0 0
1750 3 21.582 30.5745 26.9775 0 0 0
1393 3 25.179 32.373 28.776 0 0 0
3579 3 1.7985 14.388 16.1865 0 0 0
480 3 30.5745 23.3805 32.373 0 0 0
126 3 34.1715 23.3805 7.194 0 0 0
1257 3 25.179 21.582 14.388 0 0 0
490 3 32.373 26.9775 8.9925 0 0 0
700 3 26.9775 8.9925 14.388 0 0 0
1973 3 17.985 14.388 10.791 0 0 0
2635 3 8.9925 0.0 30.5745 0 0 0
3480 3 1.7985 5.3955 32.373 0 0 0
2423 3 12.5895 17.985 19.7835 0 0 0
1705 3 21.582 25.179 21.582 0 0 0
786 3 28.776 16.1865 23.3805 0 0 0
1664 3 19.7835 23.3805 17.985 0 0 0
3910 3 0.0 19.7835 16.1865 0 0 0
1420 3 19.7835 1.7985 14.388 0 0 0
3301 3 7.194 25.179 17.985 0 0 0
3260 3 5.3955 23.3805 14.388 0 0 0
475 3 30.5745 21.582 30.5745 0 0 0
3547 3 1.7985 10.791 23.3805 0 0 0
973 3 28.776 32.373 10.791 0 0 0
1631 3 19.7835 17.985 26.9775 0 0 0
1493 3 21.582 7.194 10.791 0 0 0
2106 3 17.985 26.9775 23.3805 0 0 0
3152 3 5.3955 12.5895 25.179 0 0 0
98 3 34.1715 16.1865 28.776 0 0 0
2468 3 12.5895 23.3805 21.582 0 0 0
3905 3 0.0 17.985 7.194 0 0 0
2082 3 17.985 26.9775 1.7985 0 0 0
1464 3 19.7835 5.3955 17.985 0 0 0
131 3 34.1715 21.582 19.7835 0 0 0
2088 3 16.1865 26.9775 3.597 0 0 0
1361 3 25.179 32.373 0.0 0 0 0
1490 3 21.582 8.9925 8.9925 0 0 0
3472 3 1.7985 5.3955 25.179 0 0 0
2505 3 14.388 25.179 21.582 0 0 0
3837 3 0.0 3.597 28.776 0 0 0
2600 3 12.5895 34.1715 32.373 0 0 0
1290 3 25.179 26.9775 8.9925 0 0 0
3941 3 0.0 25.179 0.0 0 0 0
1165 3 25.179 14.388 3.597 0 0 0
2733 3 10.791 10.791 10.791 0 0 0
1861 3 17.985 3.597 17.985 0 0 0
740 3 26.9775 12.5895 14.388 0 0 0
1660 3 19.7835 23.3805 14.388 0 0 0
883 3 26.9775 25.179 1.7985 0 0 0
184 3 34.1715 34.1715 3.597 0 0 0
3127 3 5.3955 10.791 5.3955 0 0 0
2560 3 12.5895 30.5745 32.373 0 0 0
2437 3 14.388 17.985 32.373 0 0 0
1514 3 21.582 8.9925 30.5745 0 0 0
3530 3 3.597 12.5895 8.9925 0 0 0
232 3 30.5745 1.7985 25.179 0 0 0
429 3 32.373 17.985 25.179 0 0 0
186 3 34.1715 34.1715 7.194 0 0 0
3416 3 1.7985 1.7985 10.791 0 0 0
3224 3 5.3955 19.7835 17.985 0 0 0
3122 3 7.194 12.5895 1.7985 0 0 0
569 3 32.373 32.373 7.194 0 0 0
1638 3 21.582 19.7835 34.1715 0 0 0
3806 3 0.0 1.7985 8.9925 0 0 0
3635 3 1.7985 17.985 30.5745 0 0 0
3906 3 0.0 19.7835 8.9925 0 0 0
1167 3 23.3805 14.388 5.3955 0 0 0
870 3 28.776 23.3805 26.9775 0 0 0
2198 3 17.985 34.1715 34.1715 0 0 0
3876 3 0.0 12.5895 26.9775 0 0 0
2291 3 12.5895 7.194 8.9925 0 0 0
2395 3 12.5895 14.388 30.5745 0 0 0
3844 3 0.0 8.9925 5.3955 0 0 0
3505 3 3.597 7.194 21.582 0 0 0
1827 3 16.1865 0.0 23.3805 0 0 0
3880 3 0.0 12.5895 34.1715 0 0 0
451 3 30.5745 21.582 8.9925 0 0 0
2405 3 14.388 17.985 3.597 0 0 0
3488 3 1.7985 8.9925 3.597 0 0 0
1177 3 25.179 14.388 14.388 0 0 0
2319 3 12.5895 7.194 34.1715 0 0 0
1944 3 16.1865 12.5895 17.985 0 0 0
805 3 28.776 17.985 3.597 0 0 0
173 3 34.1715 28.776 23.3805 0 0 0
2522 3 14.388 30.5745 1.7985 0 0 0
254 3 32.373 5.3955 12.5895 0 0 0
39 3 34.1715 3.597 34.1715 0 0 0
2285 3 14.388 7.194 3.597 0 0 0
3890 3 0.0 16.1865 16.1865 0 0 0
2253 3 14.388 3.597 10.791 0 0 0
2907 3 8.9925 25.179 23.3805 0 0 0
2624 3 8.9925 1.7985 17.985 0 0 0
2948 3 8.9925 30.5745 21.582 0 0 0
2030 3 17.985 19.7835 26.9775 0 0 0
3820 3 0.0 1.7985 34.1715 0 0 0
2137 3 17.985 28.776 14.388 0 0 0
2891 3 8.9925 25.179 8.9925 0 0 0
2952 3 8.9925 30.5745 25.179 0 0 0
1868 3 16.1865 5.3955 21.582 0 0 0
2197 3 17.985 32.373 32.373 0 0 0
3515 3 1.7985 7.194 30.5745 0 0 0
1252 3 23.3805 23.3805 7.194 0 0 0
1076 3 23.3805 5.3955 28.776 0 0 0
2014 3 17.985 19.7835 12.5895 0 0 0
1467 3 19.7835 3.597 23.3805 0 0 0
3597 3 3.597 14.388 32.373 0 0 0
3765 3 3.597 32.373 3.597 0 0 0
1072 3 23.3805 5.3955 25.179 0 0 0
877 3 28.776 21.582 32.373 0 0 0
192 3 34.1715 34.1715 17.985 0 0 0
628 3 26.9775 1.7985 21.582 0 0 0
2719 3 8.9925 7.194 34.1715 0 0 0
1403 3 19.7835 0.0 1.7985 0 0 0
1238 3 25.179 19.7835 34.1715 0 0 0
1624 3 19.7835 19.7835 17.985 0 0 0
2758 3 10.791 12.5895 34.1715 0 0 0
3117 3 7.194 7.194 32.373 0 0 0
3132 3 5.3955 12.5895 7.194 0 0 0
1155 3 23.3805 10.791 30.5745 0 0 0
3414 3 3.597 1.7985 12.5895 0 0 0
713 3 28.776 7.194 28.776 0 0 0
1770 3 21.582 34.1715 8.9925 0 0 0
3709 3 3.597 25.179 25.179 0 0 0
578 3 32.373 34.1715 16.1865 0 0 0
1722 3 21.582 30.5745 1.7985 0 0 0
2351 3 12.5895 10.791 26.9775 0 0 0
3699 3 1.7985 25.179 16.1865 0 0 0
157 3 34.1715 25.179 30.5745 0 0 0
486 3 32.373 26.9775 5.3955 0 0 0
3130 3 7.194 12.5895 8.9925 0 0 0
3769 3 3.597 32.373 7.194 0 0 0
2990 3 10.791 34.1715 26.9775 0 0 0
3932 3 0.0 23.3805 19.7835 0 0 0
2342 3 14.388 12.5895 19.7835 0 0 0
383 3 30.5745 14.388 19.7835 0 0 0
276 3 30.5745 5.3955 28.776 0 0 0
3898 3 0.0 16.1865 30.5745 0 0 0
1226 3 25.179 19.7835 23.3805 0 0 0
1644 3 19.7835 23.3805 0.0 0 0 0
3870 3 0.0 12.5895 16.1865 0 0 0
2928 3 8.9925 30.5745 3.597 0 0 0
3592 3 1.7985 16.1865 25.179 0 0 0
3535 3 1.7985 10.791 12.5895 0 0 0
3092 3 5.3955 8.9925 7.194 0 0 0
687 3 26.9775 7.194 5.3955 0 0 0
256 3 30.5745 5.3955 10.791 0 0 0
3325 3 7.194 28.776 3.597 0 0 0
3743 3 1.7985 28.776 19.7835 0 0 0
3064 3 5.3955 5.3955 17.985 0 0 0
992 3 26.9775 34.1715 25.179 0 0 0
995 3 26.9775 32.373 30.5745 0 0 0
2608 3 8.9925 1.7985 3.597 0 0 0
1630 3 21.582 19.7835 26.9775 0 0 0
1232 3 23.3805 19.7835 25.179 0 0 0
1755 3 19.7835 28.776 30.5745 0 0 0
3612 3 1.7985 19.7835 7.194 0 0 0
3998 3 0.0 34.1715 30.5745 0 0 0
78 3 34.1715 12.5895 28.776 0 0 0
3160 3 5.3955 12.5895 32.373 0 0 0
1582 3 21.582 16.1865 19.7835 0 0 0
3689 3 3.597 25.179 7.194 0 0 0
2981 3 10.791 32.373 17.985 0 0 0
417 3 32.373 17.985 14.388 0 0 0
2161 3 17.985 32.373 0.0 0 0 0
3621 3 3.597 17.985 17.985 0 0 0
834 3 28.776 19.7835 30.5745 0 0 0
1408 3 19.7835 1.7985 3.597 0 0 0
1213 3 25.179 17.985 10.791 0 0 0
3725 3 3.597 28.776 3.597 0 0 0
3383 3 5.3955 32.373 19.7835 0 0 0
1689 3 21.582 25.179 7.194 0 0 0
1455 3 19.7835 3.597 12.5895 0 0 0
2753 3 10.791 10.791 28.776 0 0 0
396 3 30.5745 16.1865 28.776 0 0 0
2458 3 14.388 23.3805 16.1865 0 0 0
1268 3 23.3805 23.3805 21.582 0 0 0
251 3 30.5745 3.597 8.9925 0 0 0
2443 3 12.5895 21.582 1.7985 0 0 0
1433 3 21.582 0.0 28.776 0 0 0
2835 3 8.9925 17.985 30.5745 0 0 0
269 3 32.373 3.597 25.179 0 0 0
3083 3 5.3955 7.194 1.7985 0 0 0
2206 3 14.388 1.7985 5.3955 0 0 0
3792 3 1.7985 34.1715 25.179 0 0 0
464 3 30.5745 23.3805 17.985 0 0 0
2687 3 8.9925 7.194 5.3955 0 0 0
2410 3 14.388 19.7835 8.9925 0 0 0
3154 3 7.194 12.5895 30.5745 0 0 0
2348 3 12.5895 12.5895 21.582 0 0 0
2237 3 14.388 0.0 32.373 0 0 0
1371 3 23.3805 32.373 8.9925 0 0 0
1974 3 17.985 16.1865 12.5895 0 0 0
1507 3 19.7835 7.194 23.3805 0 0 0
1131 3 23.3805 10.791 8.9925 0 0 0
2016 3 16.1865 19.7835 10.791 0 0 0
489 3 32.373 25.179 7.194 0 0 0
2419 3 12.5895 17.985 16.1865 0 0 0
2037 3 17.985 17.985 32.373 0 0 0
1069 3 25.179 3.597 25.179 0 0 0
1019 3 23.3805 0.0 16.1865 0 0 0
2594 3 14.388 34.1715 30.5745 0 0 0
703 3 26.9775 7.194 19.7835 0 0 0
2152 3 16.1865 30.5745 25.179 0 0 0
3053 3 7.194 3.597 10.791 0 0 0
310 3 32.373 8.9925 26.9775 0 0 0
2241 3 14.388 3.597 0.0 0 0 0
3672 3 1.7985 23.3805 25.179 0 0 0
265 3 32.373 3.597 21.582 0 0 0
3732 3 1.7985 30.5745 7.194 0 0 0
2092 3 16.1865 26.9775 7.194 0 0 0
1418 3 21.582 1.7985 16.1865 0 0 0
3731 3 1.7985 28.776 8.9925 0 0 0
2961 3 10.791 32.373 0.0 0 0 0
3343 3 5.3955 28.776 19.7835 0 0 0
902 3 28.776 26.9775 19.7835 0 0 0
1191 3 23.3805 14.388 26.9775 0 0 0
857 3 28.776 21.582 14.388 0 0 0
1696 3 19.7835 26.9775 10.791 0 0 0
2663 3 8.9925 3.597 19.7835 0 0 0
3143 3 5.3955 10.791 19.7835 0 0 0
1275 3 23.3805 21.582 30.5745 0 0 0
3021 3 7.194 0.0 17.985 0 0 0
1759 3 19.7835 28.776 34.1715 0 0 0
1256 3 23.3805 23.3805 10.791 0 0 0
3735 3 1.7985 28.776 12.5895 0 0 0
1924 3 16.1865 12.5895 0.0 0 0 0
1828 3 16.1865 1.7985 21.582 0 0 0
53 3 34.1715 7.194 23.3805 0 0 0
645 3 28.776 3.597 3.597 0 0 0
3192 3 5.3955 16.1865 25.179 0 0 0
2524 3 12.5895 30.5745 0.0 0 0 0
3934 3 0.0 23.3805 23.3805 0 0 0
3778 3 3.597 34.1715 16.1865 0 0 0
772 3 26.9775 16.1865 7.194 0 0 0
2355 3 12.5895 10.791 30.5745 0 0 0
2598 3 14.388 34.1715 34.1715 0 0 0
3094 3 7.194 8.9925 12.5895 0 0 0
3929 3 0.0 21.582 14.388 0 0 0
950 3 28.776 30.5745 26.9775 0 0 0
1185 3 25.179 14.388 21.582 0 0 0
3084 3 5.3955 8.9925 0.0 0 0 0
3047 3 5.3955 3.597 5.3955 0 0 0
1036 3 23.3805 1.7985 28.776 0 0 0
3825 3 0.0 3.597 7.194 0 0 0
2917 3 10.791 25.179 32.373 0 0 0
1447 3 19.7835 3.597 5.3955 0 0 0
1577 3 21.582 14.388 14.388 0 0 0
3303 3 5.3955 25.179 19.7835 0 0 0
3101 3 7.194 7.194 17.985 0 0 0
941 3 28.776 28.776 17.985 0 0 0
437 3 32.373 17.985 32.373 0 0 0
1922 3 17.985 12.5895 1.7985 0 0 0
1825 3 17.985 0.0 21.582 0 0 0
2944 3 8.9925 30.5745 17.985 0 0 0
828 3 26.9775 19.7835 21.582 0 0 0
3169 3 7.194 14.388 7.194 0 0 0
1047 3 23.3805 3.597 5.3955 0 0 0
2648 3 8.9925 5.3955 3.597 0 0 0
2506 3 14.388 26.9775 23.3805 0 0 0
24 3 34.1715 5.3955 3.597 0 0 0
3782 3 3.597 34.1715 19.7835 0 0 0
3750 3 3.597 30.5745 26.9775 0 0 0
465 3 32.373 21.582 21.582 0 0 0
57 3 34.1715 7.194 30.5745 0 0 0
2290 3 14.388 8.9925 8.9925 0 0 0
3930 3 0.0 23.3805 16.1865 0 0 0
1831 3 16.1865 0.0 26.9775 0 0 0
2304 3 12.5895 8.9925 17.985 0 0 0
1637 3 21.582 17.985 32.373 0 0 0
924 3 26.9775 30.5745 0.0 0 0 0
3046 3 7.194 5.3955 5.3955 0 0 0
1640 3 19.7835 19.7835 32.373 0 0 0
2905 3 10.791 25.179 21.582 0 0 0
101 3 34.1715 17.985 1.7985 0 0 0
2654 3 10.791 5.3955 12.5895 0 0 0
3900 3 0.0 16.1865 34.1715 0 0 0
2734 3 10.791 12.5895 12.5895 0 0 0
3470 3 3.597 5.3955 26.9775 0 0 0
2672 3 8.9925 5.3955 25.179 0 0 0
322 3 32.373 12.5895 1.7985 0 0 0
3491 3 1.7985 7.194 8.9925 0 0 0
1698 3 21.582 26.9775 16.1865 0 0 0
833 3 28.776 17.985 28.776 0 0 0
1807 3 16.1865 0.0 5.3955 0 0 0
2946 3 10.791 30.5745 23.3805 0 0 0
3359 3 5.3955 28.776 34.1715 0 0 0
3871 3 0.0 10.791 17.985 0 0 0
3248 3 5.3955 23.3805 3.597 0 0 0
2824 3 8.9925 19.7835 17.985 0 0 0
767 3 26.9775 14.388 5.3955 0 0 0
2930 3 10.791 30.5745 8.9925 0 0 0
859 3 26.9775 21.582 16.1865 0 0 0
801 3 28.776 17.985 0.0 0 0 0
531 3 30.5745 28.776 8.9925 0 0 0
2076 3 16.1865 23.3805 28.776 0 0 0
3099 3 5.3955 7.194 16.1865 0 0 0
3988 3 0.0 34.1715 12.5895 0 0 0
2314 3 14.388 8.9925 30.5745 0 0 0
1302 3 25.179 26.9775 19.7835 0 0 0
1780 3 19.7835 34.1715 14.388 0 0 0
1187 3 23.3805 14.388 23.3805 0 0 0
525 3 32.373 28.776 3.597 0 0 0
3942 3 0.0 26.9775 1.7985 0 0 0
1045 3 25.179 3.597 3.597 0 0 0
3586 3 3.597 16.1865 23.3805 0 0 0
2139 3 16.1865 28.776 16.1865 0 0 0
789 3 28.776 14.388 25.179 0 0 0
3701 3 3.597 25.179 17.985 0 0 0
3991 3 0.0 32.373 17.985 0 0 0
993 3 28.776 32.373 28.776 0 0 0
1402 3 21.582 1.7985 1.7985 0 0 0
765 3 28.776 14.388 3.597 0 0 0
2242 3 14.388 5.3955 1.7985 0 0 0
495 3 30.5745 25.179 12.5895 0 0 0
2308 3 12.5895 8.9925 21.582 0 0 0
1254 3 25.179 23.3805 12.5895 0 0 0
1563 3 19.7835 14.388 1.7985 0 0 0
3400 3 5.3955 34.1715 32.373 0 0 0
3167 3 5.3955 14.388 5.3955 0 0 0
3537 3 3.597 10.791 14.388 0 0 0
401 3 32.373 17.985 0.0 0 0 0
81 3 34.1715 14.388 1.7985 0 0 0
3937 3 0.0 21.582 28.776 0 0 0
3039 3 5.3955 0.0 34.1715 0 0 0
3987 3 0.0 32.373 10.791 0 0 0
3523 3 1.7985 10.791 1.7985 0 0 0
2187 3 16.1865 32.373 23.3805 0 0 0
2255 3 12.5895 3.597 12.5895 0 0 0
1148 3 23.3805 12.5895 21.582 0 0 0
2436 3 12.5895 19.7835 28.776 0 0 0
2969 3 10.791 32.373 7.194 0 0 0
508 3 30.5745 26.9775 21.582 0 0 0
1363 3 23.3805 32.373 1.7985 0 0 0
1220 3 23.3805 19.7835 14.388 0 0 0
3757 3 3.597 28.776 32.373 0 0 0
2790 3 10.791 16.1865 26.9775 0 0 0
2489 3 14.388 25.179 7.194 0 0 0
3065 3 7.194 3.597 21.582 0 0 0
2334 3 14.388 12.5895 12.5895 0 0 0
1434 3 21.582 1.7985 30.5745 0 0 0
3843 3 0.0 7.194 3.597 0 0 0
3696 3 1.7985 26.9775 10.791 0 0 0
3071 3 5.3955 3.597 26.9775 0 0 0
165 3 34.1715 28.776 8.9925 0 0 0
2545 3 14.388 28.776 21.582 0 0 0
1938 3 17.985 12.5895 16.1865 0 0 0
2346 3 14.388 12.5895 23.3805 0 0 0
946 3 28.776 30.5745 23.3805 0 0 0
954 3 28.776 30.5745 30.5745 0 0 0
1901 3 17.985 7.194 17.985 0 0 0
1788 3 19.7835 34.1715 21.582 0 0 0
1188 3 23.3805 16.1865 21.582 0 0 0
545 3 32.373 28.776 21.582 0 0 0
23 3 34.1715 3.597 5.3955 0 0 0
1062 3 25.179 5.3955 19.7835 0 0 0
30 3 34.1715 5.3955 14.388 0 0 0
670 3 28.776 5.3955 26.9775 0 0 0
1549 3 21.582 10.791 25.179 0 0 0
2927 3 8.9925 28.776 5.3955 0 0 0
3344 3 5.3955 30.5745 17.985 0 0 0
3545 3 3.597 10.791 21.582 0 0 0
2326 3 14.388 12.5895 5.3955 0 0 0
1521 3 21.582 10.791 0.0 0 0 0
1440 3 19.7835 1.7985 32.373 0 0 0
1604 3 19.7835 19.7835 0.0 0 0 0
359 3 30.5745 10.791 34.1715 0 0 0
358 3 32.373 12.5895 34.1715 0 0 0
2616 3 8.9925 1.7985 10.791 0 0 0
2710 3 10.791 8.9925 26.9775 0 0 0
3392 3 5.3955 34.1715 25.179 0 0 0
3896 3 0.0 16.1865 26.9775 0 0 0
3868 3 0.0 12.5895 12.5895 0 0 0
3432 3 1.7985 1.7985 25.179 0 0 0
2262 3 14.388 5.3955 19.7835 0 0 0
3544 3 1.7985 12.5895 17.985 0 0 0
1570 3 21.582 16.1865 8.9925 0 0 0
380 3 30.5745 16.1865 14.388 0 0 0
2485 3 14.388 25.179 3.597 0 0 0
1984 3 16.1865 16.1865 17.985 0 0 0
2520 3 12.5895 26.9775 32.373 0 0 0
407 3 30.5745 17.985 5.3955 0 0 0
3783 3 1.7985 32.373 19.7835 0 0 0
3938 3 0.0 23.3805 30.5745 0 0 0
167 3 34.1715 28.776 12.5895 0 0 0
3722 3 3.597 30.5745 1.7985 0 0 0
3308 3 5.3955 26.9775 21.582 0 0 0
3669 3 3.597 21.582 25.179 0 0 0
3555 3 1.7985 10.791 30.5745 0 0 0
2363 3 12.5895 14.388 1.7985 0 0 0
64 3 34.1715 12.5895 3.597 0 0 0
3288 3 5.3955 26.9775 3.597 0 0 0
1628 3 19.7835 19.7835 21.582 0 0 0
2684 3 8.9925 8.9925 0.0 0 0 0
2547 3 12.5895 28.776 23.3805 0 0 0
3659 3 1.7985 21.582 16.1865 0 0 0
2614 3 10.791 1.7985 12.5895 0 0 0
2825 3 10.791 17.985 21.582 0 0 0
36 3 34.1715 5.3955 25.179 0 0 0
2477 3 14.388 21.582 32.373 0 0 0
1011 3 23.3805 0.0 8.9925 0 0 0
1962 3 17.985 16.1865 1.7985 0 0 0
2233 3 14.388 0.0 28.776 0 0 0
406 3 32.373 19.7835 5.3955 0 0 0
1558 3 21.582 12.5895 34.1715 0 0 0
293 3 32.373 7.194 10.791 0 0 0
2167 3 16.1865 32.373 5.3955 0 0 0
2303 3 12.5895 7.194 19.7835 0 0 0
2613 3 10.791 0.0 10.791 0 0 0
3524 3 1.7985 12.5895 0.0 0 0 0
2535 3 12.5895 28.776 12.5895 0 0 0
3137 3 7.194 10.791 14.388 0 0 0
2384 3 12.5895 16.1865 17.985 0 0 0
454 3 32.373 23.3805 12.5895 0 0 0
141 3 34.1715 25.179 1.7985 0 0 0
2449 3 14.388 21.582 7.194 0 0 0
783 3 26.9775 14.388 19.7835 0 0 0
1481 3 21.582 7.194 0.0 0 0 0
2009 3 17.985 17.985 7.194 0 0 0
1376 3 23.3805 34.1715 10.791 0 0 0
3940 3 0.0 23.3805 34.1715 0 0 0
58 3 34.1715 8.9925 28.776 0 0 0
2768 3 8.9925 16.1865 3.597 0 0 0
2870 3 10.791 23.3805 26.9775 0 0 0
3098 3 7.194 8.9925 16.1865 0 0 0
599 3 30.5745 32.373 34.1715 0 0 0
3384 3 5.3955 34.1715 17.985 0 0 0
3730 3 3.597 30.5745 8.9925 0 0 0
3125 3 7.194 10.791 3.597 0 0 0
172 3 34.1715 30.5745 17.985 0 0 0
1156 3 23.3805 12.5895 28.776 0 0 0
3835 3 0.0 3.597 25.179 0 0 0
1506 3 21.582 8.9925 23.3805 0 0 0
3517 3 3.597 7.194 32.373 0 0 0
981 3 28.776 32.373 17.985 0 0 0
1242 3 25.179 23.3805 1.7985 0 0 0
837 3 28.776 17.985 32.373 0 0 0
3882 3 0.0 16.1865 1.7985 0 0 0
1298 3 25.179 26.9775 16.1865 0 0 0
2595 3 12.5895 32.373 30.5745 0 0 0
302 3 32.373 8.9925 19.7835 0 0 0
2417 3 14.388 17.985 14.388 0 0 0
3604 3 1.7985 19.7835 0.0 0 0 0
1200 3 23.3805 16.1865 32.373 0 0 0
1732 3 19.7835 30.5745 7.194 0 0 0
391 3 30.5745 14.388 26.9775 0 0 0
1404 3 19.7835 1.7985 0.0 0 0 0
2638 3 10.791 1.7985 34.1715 0 0 0
2848 3 8.9925 23.3805 3.597 0 0 0
1826 3 17.985 1.7985 23.3805 0 0 0
2799 3 8.9925 14.388 34.1715 0 0 0
810 3 28.776 19.7835 8.9925 0 0 0
2374 3 14.388 16.1865 12.5895 0 0 0
2994 3 10.791 34.1715 30.5745 0 0 0
965 3 28.776 32.373 3.597 0 0 0
2766 3 10.791 16.1865 5.3955 0 0 0
2195 3 16.1865 32.373 30.5745 0 0 0
539 3 30.5745 28.776 16.1865 0 0 0
3324 3 5.3955 30.5745 0.0 0 0 0
2541 3 14.388 28.776 17.985 0 0 0
3426 3 3.597 1.7985 23.3805 0 0 0
3830 3 0.0 5.3955 16.1865 0 0 0
1528 3 19.7835 12.5895 3.597 0 0 0
3037 3 7.194 0.0 32.373 0 0 0
2144 3 16.1865 30.5745 17.985 0 0 0
1186 3 25.179 16.1865 23.3805 0 0 0
984 3 26.9775 34.1715 17.985 0 0 0
2838 3 10.791 19.7835 34.1715 0 0 0
2312 3 12.5895 8.9925 25.179 0 0 0
737 3 28.776 10.791 14.388 0 0 0
1708 3 19.7835 26.9775 21.582 0 0 0
1005 3 25.179 0.0 3.597 0 0 0
1291 3 23.3805 25.179 8.9925 0 0 0
2472 3 12.5895 23.3805 25.179 0 0 0
3226 3 7.194 19.7835 23.3805 0 0 0
552 3 30.5745 30.5745 25.179 0 0 0
3606 3 3.597 19.7835 5.3955 0 0 0
808 3 26.9775 19.7835 3.597 0 0 0
3546 3 3.597 12.5895 23.3805 0 0 0
3131 3 5.3955 10.791 8.9925 0 0 0
1965 3 17.985 14.388 3.597 0 0 0
1119 3 23.3805 7.194 34.1715 0 0 0
1293 3 25.179 25.179 10.791 0 0 0
2656 3 8.9925 5.3955 10.791 0 0 0
3198 3 7.194 16.1865 34.1715 0 0 0
498 3 32.373 26.9775 16.1865 0 0 0
1697 3 21.582 25.179 14.388 0 0 0
1746 3 21.582 30.5745 23.3805 0 0 0
3981 3 0.0 32.373 0.0 0 0 0
1097 3 25.179 7.194 14.388 0 0 0
770 3 28.776 16.1865 8.9925 0 0 0
1762 3 21.582 34.1715 1.7985 0 0 0
29 3 34.1715 3.597 16.1865 0 0 0
1346 3 25.179 30.5745 23.3805 0 0 0
2738 3 10.791 12.5895 16.1865 0 0 0
762 3 28.776 16.1865 1.7985 0 0 0
2332 3 12.5895 12.5895 7.194 0 0 0
3799 3 1.7985 32.373 34.1715 0 0 0
3361 3 7.194 32.373 0.0 0 0 0
566 3 32.373 34.1715 5.3955 0 0 0
1791 3 19.7835 32.373 26.9775 0 0 0
16 3 34.1715 1.7985 25.179 0 0 0
3774 3 3.597 34.1715 12.5895 0 0 0
2767 3 8.9925 14.388 5.3955 0 0 0
2694 3 10.791 8.9925 12.5895 0 0 0
2382 3 14.388 16.1865 19.7835 0 0 0
1337 3 25.179 28.776 14.388 0 0 0
3668 3 1.7985 23.3805 21.582 0 0 0
653 3 28.776 3.597 10.791 0 0 0
2191 3 16.1865 32.373 26.9775 0 0 0
1747 3 19.7835 28.776 23.3805 0 0 0
3113 3 7.194 7.194 28.776 0 0 0
3856 3 0.0 8.9925 26.9775 0 0 0
2751 3 8.9925 10.791 26.9775 0 0 0
163 3 34.1715 28.776 5.3955 0 0 0
2007 3 16.1865 17.985 5.3955 0 0 0
590 3 32.373 34.1715 26.9775 0 0 0
1429 3 21.582 0.0 25.179 0 0 0
2497 3 14.388 25.179 14.388 0 0 0
1882 3 17.985 8.9925 1.7985 0 0 0
3887 3 0.0 14.388 10.791 0 0 0
3681 3 3.597 25.179 0.0 0 0 0
3711 3 1.7985 25.179 26.9775 0 0 0
2610 3 10.791 1.7985 8.9925 0 0 0
68 3 34.1715 12.5895 10.791 0 0 0
111 3 34.1715 17.985 19.7835 0 0 0
1221 3 25.179 17.985 17.985 0 0 0
2424 3 12.5895 19.7835 17.985 0 0 0
2566 3 14.388 34.1715 5.3955 0 0 0
1082 3 25.179 8.9925 1.7985 0 0 0
355 3 30.5745 10.791 30.5745 0 0 0
2568 3 12.5895 34.1715 3.597 0 0 0
2296 3 12.5895 8.9925 10.791 0 0 0
1134 3 25.179 12.5895 12.5895 0 0 0
1867 3 16.1865 3.597 23.3805 0 0 0
1056 3 23.3805 5.3955 10.791 0 0 0
3445 3 3.597 3.597 3.597 0 0 0
143 3 34.1715 25.179 5.3955 0 0 0
558 3 32.373 30.5745 34.1715 0 0 0
676 3 26.9775 5.3955 28.776 0 0 0
2632 3 8.9925 1.7985 25.179 0 0 0
2020 3 16.1865 19.7835 14.388 0 0 0
3460 3 1.7985 5.3955 14.388 0 0 0
1709 3 21.582 25.179 25.179 0 0 0
248 3 30.5745 5.3955 3.597 0 0 0
3593 3 3.597 14.388 28.776 0 0 0
3640 3 1.7985 19.7835 32.373 0 0 0
3654 3 3.597 23.3805 12.5895 0 0 0
463 3 30.5745 21.582 19.7835 0 0 0
1814 3 17.985 1.7985 12.5895 0 0 0
2910 3 10.791 26.9775 26.9775 0 0 0
1832 3 16.1865 1.7985 25.179 0 0 0
3620 3 1.7985 19.7835 14.388 0 0 0
3912 3 0.0 19.7835 19.7835 0 0 0
1436 3 19.7835 1.7985 28.776 0 0 0
1046 3 25.179 5.3955 5.3955 0 0 0
174 3 34.1715 30.5745 21.582 0 0 0
488 3 30.5745 26.9775 3.597 0 0 0
3700 3 1.7985 26.9775 14.388 0 0 0
1730 3 21.582 30.5745 8.9925 0 0 0
2696 3 8.9925 8.9925 10.791 0 0 0
3034 3 7.194 1.7985 30.5745 0 0 0
2821 3 10.791 17.985 17.985 0 0 0
2746 3 10.791 12.5895 23.3805 0 0 0
1960 3 16.1865 12.5895 32.373 0 0 0
771 3 26.9775 14.388 8.9925 0 0 0
663 3 26.9775 3.597 19.7835 0 0 0
3376 3 5.3955 34.1715 10.791 0 0 0
1169 3 25.179 14.388 7.194 0 0 0
868 3 26.9775 23.3805 21.582 0 0 0
3503 3 1.7985 7.194 19.7835 0 0 0
3596 3 1.7985 16.1865 28.776 0 0 0
2668 3 8.9925 5.3955 21.582 0 0 0
328 3 30.5745 12.5895 3.597 0 0 0
3294 3 7.194 26.9775 12.5895 0 0 0
445 3 32.373 21.582 3.597 0 0 0
2717 3 10.791 7.194 32.373 0 0 0
2609 3 10.791 0.0 7.194 0 0 0
3001 3 7.194 0.0 0.0 0 0 0
3697 3 3.597 25.179 14.388 0 0 0
3397 3 7.194 32.373 32.373 0 0 0
1522 3 21.582 12.5895 1.7985 0 0 0
2359 3 12.5895 10.791 34.1715 0 0 0
2307 3 12.5895 7.194 23.3805 0 0 0
983 3 26.9775 32.373 19.7835 0 0 0
3441 3 3.597 3.597 0.0 0 0 0
2462 3 14.388 23.3805 19.7835 0 0 0
3008 3 5.3955 1.7985 3.597 0 0 0
1904 3 16.1865 8.9925 17.985 0 0 0
741 3 28.776 10.791 17.985 0 0 0
3831 3 0.0 3.597 17.985 0 0 0
1039 3 23.3805 0.0 34.1715 0 0 0
520 3 30.5745 26.9775 32.373 0 0 0
338 3 32.373 12.5895 16.1865 0 0 0
3024 3 5.3955 1.7985 17.985 0 0 0
826 3 28.776 19.7835 23.3805 0 0 0
1462 3 21.582 5.3955 19.7835 0 0 0
540 3 30.5745 30.5745 14.388 0 0 0
3973 3 0.0 28.776 21.582 0 0 0
2003 3 16.1865 17.985 1.7985 0 0 0
2344 3 12.5895 12.5895 17.985 0 0 0
2063 3 16.1865 21.582 19.7835 0 0 0
2512 3 12.5895 26.9775 25.179 0 0 0
2199 3 16.1865 32.373 34.1715 0 0 0
3619 3 1.7985 17.985 16.1865 0 0 0
3590 3 3.597 16.1865 26.9775 0 0 0
3348 3 5.3955 30.5745 21.582 0 0 0
712 3 26.9775 8.9925 25.179 0 0 0
2325 3 14.388 10.791 3.597 0 0 0
3134 3 7.194 12.5895 12.5895 0 0 0
1287 3 23.3805 25.179 5.3955 0 0 0
3706 3 3.597 26.9775 23.3805 0 0 0
1307 3 23.3805 25.179 23.3805 0 0 0
3135 3 5.3955 10.791 12.5895 0 0 0
2182 3 17.985 34.1715 19.7835 0 0 0
688 3 26.9775 8.9925 3.597 0 0 0
3600 3 1.7985 16.1865 32.373 0 0 0
1143 3 23.3805 10.791 19.7835 0 0 0
2022 3 17.985 19.7835 19.7835 0 0 0
2283 3 12.5895 7.194 1.7985 0 0 0
2572 3 12.5895 34.1715 7.194 0 0 0
2357 3 14.388 10.791 32.373 0 0 0
3673 3 3.597 21.582 28.776 0 0 0
1987 3 16.1865 14.388 23.3805 0 0 0
2866 3 10.791 23.3805 23.3805 0 0 0
137 3 34.1715 21.582 30.5745 0 0 0
139 3 34.1715 21.582 34.1715 0 0 0
3036 3 5.3955 1.7985 28.776 0 0 0
1489 3 21.582 7.194 7.194 0 0 0
1322 3 25.179 30.5745 1.7985 0 0 0
952 3 26.9775 30.5745 25.179 0 0 0
253 3 32.373 3.597 10.791 0 0 0
1752 3 19.7835 30.5745 25.179 0 0 0
895 3 26.9775 25.179 12.5895 0 0 0
934 3 28.776 30.5745 12.5895 0 0 0
1282 3 25.179 26.9775 1.7985 0 0 0
3353 3 7.194 28.776 28.776 0 0 0
1607 3 19.7835 17.985 5.3955 0 0 0
1435 3 19.7835 0.0 30.5745 0 0 0
3126 4 7.194 12.5895 5.3955 0 0 0
3430 4 3.597 1.7985 26.9775 0 0 0
1740 4 19.7835 30.5745 14.388 0 0 0
2327 4 12.5895 10.791 5.3955 0 0 0
3014 4 7.194 1.7985 12.5895 0 0 0
3566 4 3.597 16.1865 5.3955 0 0 0
44 4 34.1715 8.9925 3.597 0 0 0
3617 4 3.597 17.985 14.388 0 0 0
1396 4 23.3805 34.1715 28.776 0 0 0
710 4 28.776 8.9925 26.9775 0 0 0
1409 4 21.582 0.0 7.194 0 0 0
2703 4 8.9925 7.194 19.7835 0 0 0
1427 4 19.7835 0.0 23.3805 0 0 0
3055 4 5.3955 3.597 12.5895 0 0 0
707 4 26.9775 7.194 23.3805 0 0 0
1031 4 23.3805 0.0 26.9775 0 0 0
3553 4 3.597 10.791 28.776 0 0 0
1247 4 23.3805 21.582 5.3955 0 0 0
3157 4 7.194 10.791 32.373 0 0 0
1769 4 21.582 32.373 7.194 0 0 0
1448 4 19.7835 5.3955 3.597 0 0 0
1425 4 21.582 0.0 21.582 0 0 0
1917 4 17.985 7.194 32.373 0 0 0
2842 4 10.791 23.3805 1.7985 0 0 0
3108 4 5.3955 8.9925 21.582 0 0 0
1986 4 17.985 16.1865 23.3805 0 0 0
2777 4 10.791 14.388 14.388 0 0 0
1873 4 17.985 3.597 28.776 0 0 0
799 4 26.9775 14.388 34.1715 0 0 0
432 4 30.5745 19.7835 25.179 0 0 0
648 4 26.9775 5.3955 3.597 0 0 0
742 4 28.776 12.5895 19.7835 0 0 0
2364 4 12.5895 16.1865 0.0 0 0 0
1341 4 25.179 28.776 17.985 0 0 0
311 4 30.5745 7.194 26.9775 0 0 0
1921 4 17.985 10.791 0.0 0 0 0
3374 4 7.194 34.1715 12.5895 0 0 0
2445 4 14.388 21.582 3.597 0 0 0
3254 4 7.194 23.3805 12.5895 0 0 0
3398 4 7.194 34.1715 34.1715 0 0 0
637 4 28.776 0.0 32.373 0 0 0
210 4 32.373 1.7985 8.9925 0 0 0
1007 4 23.3805 0.0 5.3955 0 0 0
2925 4 10.791 28.776 3.597 0 0 0
299 4 30.5745 7.194 16.1865 0 0 0
2801 4 10.791 17.985 0.0 0 0 0
118 4 34.1715 19.7835 28.776 0 0 0
483 4 30.5745 25.179 1.7985 0 0 0
42 4 34.1715 8.9925 0.0 0 0 0
3627 4 1.7985 17.985 23.3805 0 0 0
2446 4 14.388 23.3805 5.3955 0 0 0
122 4 34.1715 23.3805 0.0 0 0 0
1064 4 23.3805 5.3955 17.985 0 0 0
1800 4 19.7835 34.1715 32.373 0 0 0
3737 4 3.597 28.776 14.388 0 0 0
3032 4 5.3955 1.7985 25.179 0 0 0
389 4 32.373 14.388 25.179 0 0 0
1669 4 21.582 21.582 25.179 0 0 0
609 4 28.776 0.0 7.194 0 0 0
565 4 32.373 32.373 3.597 0 0 0
681 4 28.776 7.194 0.0 0 0 0
633 4 28.776 0.0 28.776 0 0 0
1712 4 19.7835 26.9775 25.179 0 0 0
2151 4 16.1865 28.776 26.9775 0 0 0
2115 4 16.1865 25.179 30.5745 0 0 0
2724 4 8.9925 12.5895 0.0 0 0 0
751 4 26.9775 10.791 26.9775 0 0 0
2662 4 10.791 5.3955 19.7835 0 0 0
3100 4 5.3955 8.9925 14.388 0 0 0
1842 4 17.985 5.3955 1.7985 0 0 0
1201 4 25.179 17.985 0.0 0 0 0
1504 4 19.7835 8.9925 17.985 0 0 0
3293 4 7.194 25.179 10.791 0 0 0
2674 4 10.791 5.3955 30.5745 0 0 0
3341 4 7.194 28.776 17.985 0 0 0
3761 4 3.597 32.373 0.0 0 0 0
1360 4 23.3805 30.5745 32.373 0 0 0
1329 4 25.179 28.776 7.194 0 0 0
2483 4 12.5895 25.179 1.7985 0 0 0
3660 4 1.7985 23.3805 14.388 0 0 0
3217 4 7.194 17.985 14.388 0 0 0
2976 4 8.9925 34.1715 10.791 0 0 0
217 4 32.373 0.0 14.388 0 0 0
3411 4 1.7985 0.0 8.9925 0 0 0
3467 4 1.7985 3.597 23.3805 0 0 0
959 4 26.9775 28.776 34.1715 0 0 0
807 4 26.9775 17.985 5.3955 0 0 0
2171 4 16.1865 32.373 8.9925 0 0 0
3230 4 7.194 19.7835 26.9775 0 0 0
1701 4 21.582 25.179 17.985 0 0 0
627 4 26.9775 0.0 23.3805 0 0 0
1152 4 23.3805 12.5895 25.179 0 0 0
2573 4 14.388 32.373 10.791 0 0 0
2561 4 14.388 32.373 0.0 0 0 0
2368 4 12.5895 16.1865 3.597 0 0 0
2261 4 14.388 3.597 17.985 0 0 0
830 4 28.776 19.7835 26.9775 0 0 0
2756 4 8.9925 12.5895 28.776 0 0 0
943 4 26.9775 28.776 19.7835 0 0 0
3386 4 7.194 34.1715 23.3805 0 0 0
2586 4 14.388 34.1715 23.3805 0 0 0
804 4 26.9775 19.7835 0.0 0 0 0
537 4 32.373 28.776 14.388 0 0 0
2362 4 14.388 16.1865 1.7985 0 0 0
2813 4 10.791 17.985 10.791 0 0 0
199 4 34.1715 32.373 34.1715 0 0 0
3156 4 5.3955 12.5895 28.776 0 0 0
3339 4 5.3955 28.776 16.1865 0 0 0
3102 4 7.194 8.9925 19.7835 0 0 0
1141 4 25.179 10.791 17.985 0 0 0
3919 4 0.0 17.985 32.373 0 0 0
821 4 28.776 17.985 17.985 0 0 0
70 4 34.1715 12.5895 14.388 0 0 0
2942 4 10.791 30.5745 19.7835 0 0 0
2340 4 12.5895 12.5895 14.388 0 0 0
587 4 30.5745 32.373 23.3805 0 0 0
2349 4 14.388 10.791 25.179 0 0 0
290 4 32.373 8.9925 8.9925 0 0 0
150 4 34.1715 26.9775 14.388 0 0 0
3734 4 3.597 30.5745 12.5895 0 0 0
161 4 34.1715 28.776 1.7985 0 0 0
2041 4 17.985 21.582 0.0 0 0 0
2479 4 12.5895 21.582 34.1715 0 0 0
3272 4 5.3955 23.3805 25.179 0 0 0
815 4 26.9775 17.985 12.5895 0 0 0
60 4 34.1715 8.9925 32.373 0 0 0
3647 4 1.7985 21.582 5.3955 0 0 0
1195 4 23.3805 14.388 30.5745 0 0 0
177 4 34.1715 28.776 30.5745 0 0 0
3588 4 1.7985 16.1865 21.582 0 0 0
1009 4 25.179 0.0 7.194 0 0 0
1865 4 17.985 3.597 21.582 0 0 0
1978 4 17.985 16.1865 16.1865 0 0 0
3281 4 7.194 25.179 0.0 0 0 0
1968 4 16.1865 16.1865 3.597 0 0 0
2503 4 12.5895 25.179 19.7835 0 0 0
749 4 28.776 10.791 25.179 0 0 0
1835 4 16.1865 0.0 30.5745 0 0 0
86 4 34.1715 16.1865 7.194 0 0 0
803 4 26.9775 17.985 1.7985 0 0 0
3946 4 0.0 26.9775 8.9925 0 0 0
3070 4 7.194 5.3955 26.9775 0 0 0
3692 4 1.7985 26.9775 7.194 0 0 0
1659 4 19.7835 21.582 16.1865 0 0 0
99 4 34.1715 14.388 34.1715 0 0 0
3314 4 7.194 26.9775 30.5745 0 0 0
666 4 28.776 5.3955 23.3805 0 0 0
1734 4 21.582 30.5745 12.5895 0 0 0
2388 4 12.5895 16.1865 21.582 0 0 0
2352 4 12.5895 12.5895 25.179 0 0 0
1482 4 21.582 8.9925 1.7985 0 0 0
3051 4 5.3955 3.597 8.9925 0 0 0
1810 4 17.985 1.7985 8.9925 0 0 0
2350 4 14.388 12.5895 26.9775 0 0 0
2376 4 12.5895 16.1865 10.791 0 0 0
541 4 32.373 28.776 17.985 0 0 0
1554 4 21.582 12.5895 30.5745 0 0 0
1074 4 25.179 5.3955 30.5745 0 0 0
679 4 26.9775 3.597 34.1715 0 0 0
1400 4 23.3805 34.1715 32.373 0 0 0
3629 4 3.597 17.985 25.179 0 0 0
191 4 34.1715 32.373 19.7835 0 0 0
2491 4 12.5895 25.179 8.9925 0 0 0
1593 4 21.582 14.388 28.776 0 0 0
3093 4 7.194 7.194 10.791 0 0 0
3017 4 7.194 0.0 14.388 0 0 0
958 4 28.776 30.5745 34.1715 0 0 0
2338 4 14.388 12.5895 16.1865 0 0 0
2831 4 8.9925 17.985 26.9775 0 0 0
2252 4 12.5895 5.3955 7.194 0 0 0
2546 4 14.388 30.5745 23.3805 0 0 0
1931 4 16.1865 10.791 8.9925 0 0 0
3873 4 0.0 10.791 21.582 0 0 0
3 4 34.1715 0.0 5.3955 0 0 0
782 4 28.776 16.1865 19.7835 0 0 0
3305 4 7.194 25.179 21.582 0 0 0
2812 4 8.9925 19.7835 7.194 0 0 0
3656 4 1.7985 23.3805 10.791 0 0 0
1110 4 25.179 8.9925 26.9775 0 0 0
2278 4 14.388 5.3955 34.1715 0 0 0
1204 4 23.3805 19.7835 0.0 0 0 0
3756 4 1.7985 30.5745 28.776 0 0 0
31 4 34.1715 3.597 19.7835 0 0 0
1530 4 21.582 12.5895 8.9925 0 0 0
3412 4 1.7985 1.7985 7.194 0 0 0
1991 4 16.1865 14.388 26.9775 0 0 0
3688 4 1.7985 26.9775 3.597 0 0 0
3631 4 1.7985 17.985 26.9775 0 0 0
1162 4 25.179 16.1865 1.7985 0 0 0
1330 4 25.179 30.5745 8.9925 0 0 0
1240 4 23.3805 19.7835 32.373 0 0 0
17 4 34.1715 0.0 30.5745 0 0 0
1956 4 16.1865 12.5895 28.776 0 0 0
1244 4 23.3805 23.3805 0.0 0 0 0
1812 4 16.1865 1.7985 7.194 0 0 0
175 4 34.1715 28.776 26.9775 0 0 0
336 4 30.5745 12.5895 10.791 0 0 0
2394 4 14.388 16.1865 30.5745 0 0 0
949 4 28.776 28.776 25.179 0 0 0
1721 4 21.582 28.776 0.0 0 0 0
3800 4 1.7985 34.1715 32.373 0 0 0
3784 4 1.7985 34.1715 17.985 0 0 0
2409 4 14.388 17.985 7.194 0 0 0
3010 4 7.194 1.7985 8.9925 0 0 0
1658 4 21.582 23.3805 16.1865 0 0 0
1851 4 16.1865 3.597 8.9925 0 0 0
2954 4 10.791 30.5745 30.5745 0 0 0
3663 4 1.7985 21.582 19.7835 0 0 0
3085 4 7.194 7.194 3.597 0 0 0
2918 4 10.791 26.9775 34.1715 0 0 0
1572 4 19.7835 16.1865 7.194 0 0 0
234 4 32.373 1.7985 30.5745 0 0 0
1049 4 25.179 3.597 7.194 0 0 0
2011 4 16.1865 17.985 8.9925 0 0 0
3928 4 0.0 23.3805 12.5895 0 0 0
2792 4 8.9925 16.1865 25.179 0 0 0
2588 4 12.5895 34.1715 21.582 0 0 0
2492 4 12.5895 26.9775 7.194 0 0 0
2040 4 16.1865 19.7835 32.373 0 0 0
1024 4 23.3805 1.7985 17.985 0 0 0
2336 4 12.5895 12.5895 10.791 0 0 0
1598 4 21.582 16.1865 34.1715 0 0 0
1928 4 16.1865 12.5895 3.597 0 0 0
1665 4 21.582 21.582 21.582 0 0 0
3840 4 0.0 5.3955 34.1715 0 0 0
3342 4 7.194 30.5745 19.7835 0 0 0
622 4 28.776 1.7985 19.7835 0 0 0
2889 4 10.791 25.179 7.194 0 0 0
2451 4 12.5895 21.582 8.9925 0 0 0
3967 4 0.0 28.776 10.791 0 0 0
1929 4 17.985 10.791 7.194 0 0 0
1145 4 25.179 10.791 21.582 0 0 0
73 4 34.1715 10.791 23.3805 0 0 0
1908 4 16.1865 8.9925 21.582 0 0 0
369 4 32.373 14.388 7.194 0 0 0
3913 4 0.0 17.985 21.582 0 0 0
496 4 30.5745 26.9775 10.791 0 0 0
3508 4 1.7985 8.9925 21.582 0 0 0
3558 4 3.597 12.5895 34.1715 0 0 0
1653 4 21.582 21.582 10.791 0 0 0
3289 4 7.194 25.179 7.194 0 0 0
22 4 34.1715 5.3955 0.0 0 0 0
3933 4 0.0 21.582 21.582 0 0 0
1546 4 21.582 12.5895 23.3805 0 0 0
2886 4 10.791 26.9775 5.3955 0 0 0
3478 4 3.597 5.3955 34.1715 0 0 0
3172 4 5.3955 16.1865 7.194 0 0 0
3506 4 3.597 8.9925 23.3805 0 0 0
1763 4 19.7835 32.373 1.7985 0 0 0
1954 4 17.985 12.5895 30.5745 0 0 0
144 4 34.1715 26.9775 3.597 0 0 0
1407 4 19.7835 0.0 5.3955 0 0 0
626 4 28.776 1.7985 23.3805 0 0 0
2132 4 16.1865 30.5745 7.194 0 0 0
3319 4 5.3955 25.179 34.1715 0 0 0
1316 4 23.3805 26.9775 28.776 0 0 0
2263 4 12.5895 3.597 19.7835 0 0 0
72 4 34.1715 12.5895 17.985 0 0 0
2872 4 8.9925 23.3805 25.179 0 0 0
3429 4 3.597 0.0 25.179 0 0 0
2085 4 17.985 25.179 3.597 0 0 0
3908 4 0.0 19.7835 12.5895 0 0 0
3147 4 5.3955 10.791 23.3805 0 0 0
1428 4 19.7835 1.7985 21.582 0 0 0
3454 4 3.597 5.3955 12.5895 0 0 0
2321 4 14.388 10.791 0.0 0 0 0
1269 4 25.179 21.582 25.179 0 0 0
1344 4 23.3805 30.5745 17.985 0 0 0
1939 4 16.1865 10.791 16.1865 0 0 0
2901 4 10.791 25.179 17.985 0 0 0
1471 4 19.7835 3.597 26.9775 0 0 0
2480 4 12.5895 23.3805 32.373 0 0 0
3049 4 7.194 3.597 7.194 0 0 0
3418 4 3.597 1.7985 16.1865 0 0 0
636 4 26.9775 1.7985 28.776 0 0 0
410 4 32.373 19.7835 8.9925 0 0 0
1086 4 25.179 8.9925 5.3955 0 0 0
3520 4 1.7985 8.9925 32.373 0 0 0
2963 4 8.9925 32.373 1.7985 0 0 0
755 4 26.9775 10.791 30.5745 0 0 0
3683 4 1.7985 25.179 1.7985 0 0 0
1900 4 16.1865 8.9925 14.388 0 0 0
3292 4 5.3955 26.9775 7.194 0 0 0
1430 4 21.582 1.7985 26.9775 0 0 0
2581 4 14.388 32.373 17.985 0 0 0
1539 4 19.7835 10.791 16.1865 0 0 0
2413 4 14.388 17.985 10.791 0 0 0
928 4 26.9775 30.5745 3.597 0 0 0
1122 4 25.179 12.5895 1.7985 0 0 0
1662 4 21.582 23.3805 19.7835 0 0 0
427 4 30.5745 17.985 23.3805 0 0 0
3082 4 7.194 8.9925 1.7985 0 0 0
843 4 26.9775 21.582 1.7985 0 0 0
1415 4 19.7835 0.0 12.5895 0 0 0
721 4 28.776 10.791 0.0 0 0 0
3066 4 7.194 5.3955 23.3805 0 0 0
3999 4 0.0 32.373 32.373 0 0 0
1674 4 21.582 23.3805 30.5745 0 0 0
3164 4 5.3955 16.1865 0.0 0 0 0
3231 4 5.3955 17.985 26.9775 0 0 0
1468 4 19.7835 5.3955 21.582 0 0 0
2517 4 14.388 25.179 32.373 0 0 0
969 4 28.776 32.373 7.194 0 0 0
1261 4 25.179 21.582 17.985 0 0 0
3204 4 5.3955 19.7835 0.0 0 0 0
2945 4 10.791 28.776 21.582 0 0 0
3883 4 0.0 14.388 3.597 0 0 0
2393 4 14.388 14.388 28.776 0 0 0
2611 4 8.9925 0.0 8.9925 0 0 0
2174 4 17.985 34.1715 12.5895 0 0 0
1457 4 21.582 3.597 14.388 0 0 0
2227 4 12.5895 0.0 23.3805 0 0 0
1685 4 21.582 25.179 3.597 0 0 0
3366 4 7.194 34.1715 5.3955 0 0 0
1829 4 17.985 0.0 25.179 0 0 0
428 4 30.5745 19.7835 21.582 0 0 0
443 4 30.5745 21.582 1.7985 0 0 0
1061 4 25.179 3.597 17.985 0 0 0
1259 4 23.3805 21.582 16.1865 0 0 0
3874 4 0.0 12.5895 23.3805 0 0 0
686 4 28.776 8.9925 5.3955 0 0 0
758 4 28.776 12.5895 34.1715 0 0 0
731 4 26.9775 10.791 8.9925 0 0 0
2043 4 16.1865 21.582 1.7985 0 0 0
11 4 34.1715 0.0 19.7835 0 0 0
1600 4 19.7835 16.1865 32.373 0 0 0
1895 4 16.1865 7.194 12.5895 0 0 0
2476 4 12.5895 23.3805 28.776 0 0 0
3779 4 1.7985 32.373 16.1865 0 0 0
3559 4 1.7985 10.791 34.1715 0 0 0
839 4 26.9775 17.985 34.1715 0 0 0
3188 4 5.3955 16.1865 21.582 0 0 0
1331 4 23.3805 28.776 8.9925 0 0 0
243 4 30.5745 3.597 1.7985 0 0 0
3746 4 3.597 30.5745 23.3805 0 0 0
2900 4 8.9925 26.9775 14.388 0 0 0
3240 4 5.3955 19.7835 32.373 0 0 0
673 4 28.776 3.597 28.776 0 0 0
1551 4 19.7835 10.791 26.9775 0 0 0
1767 4 19.7835 32.373 5.3955 0 0 0
1524 4 19.7835 12.5895 0.0 0 0 0
497 4 32.373 25.179 14.388 0 0 0
2464 4 12.5895 23.3805 17.985 0 0 0
1277 4 25.179 21.582 32.373 0 0 0
33 4 34.1715 3.597 23.3805 0 0 0
917 4 28.776 25.179 32.373 0 0 0
1306 4 25.179 26.9775 23.3805 0 0 0
2549 4 14.388 28.776 25.179 0 0 0
3767 4 1.7985 32.373 5.3955 0 0 0
519 4 30.5745 25.179 34.1715 0 0 0
2735 4 8.9925 10.791 12.5895 0 0 0
2371 4 12.5895 14.388 8.9925 0 0 0
657 4 28.776 3.597 14.388 0 0 0
1196 4 23.3805 16.1865 28.776 0 0 0
7 4 34.1715 0.0 12.5895 0 0 0
3279 4 5.3955 21.582 34.1715 0 0 0
209 4 32.373 0.0 7.194 0 0 0
1387 4 23.3805 32.373 23.3805 0 0 0
1544 4 19.7835 12.5895 17.985 0 0 0
3116 4 5.3955 8.9925 28.776 0 0 0
3501 4 3.597 7.194 17.985 0 0 0
2729 4 10.791 10.791 7.194 0 0 0
2001 4 17.985 17.985 0.0 0 0 0
2425 4 14.388 17.985 21.582 0 0 0
2797 4 10.791 14.388 32.373 0 0 0
1648 4 19.7835 23.3805 3.597 0 0 0
2324 4 12.5895 12.5895 0.0 0 0 0
3407 4 1.7985 0.0 5.3955 0 0 0
2589 4 14.388 32.373 25.179 0 0 0
3775 4 1.7985 32.373 12.5895 0 0 0
2856 4 8.9925 23.3805 10.791 0 0 0
3980 4 0.0 30.5745 34.1715 0 0 0
3148 4 5.3955 12.5895 21.582 0 0 0
1627 4 19.7835 17.985 23.3805 0 0 0
3486 4 3.597 8.9925 5.3955 0 0 0
2238 4 14.388 1.7985 34.1715 0 0 0
3338 4 7.194 30.5745 16.1865 0 0 0
3199 4 5.3955 14.388 34.1715 0 0 0
3390 4 7.194 34.1715 26.9775 0 0 0
1636 4 19.7835 19.7835 28.776 0 0 0
442 4 32.373 23.3805 1.7985 0 0 0
3777 4 3.597 32.373 14.388 0 0 0
3642 4 3.597 23.3805 1.7985 0 0 0
2320 4 12.5895 8.9925 32.373 0 0 0
477 4 32.373 21.582 32.373 0 0 0
3469 4 3.597 3.597 25.179 0 0 0
83 4 34.1715 14.388 5.3955 0 0 0
323 4 30.5745 10.791 1.7985 0 0 0
3307 4 5.3955 25.179 23.3805 0 0 0
3525 4 3.597 10.791 3.597 0 0 0
3403 4 1.7985 0.0 1.7985 0 0 0
1212 4 23.3805 19.7835 7.194 0 0 0
2465 4 14.388 21.582 21.582 0 0 0
888 4 26.9775 26.9775 3.597 0 0 0
390 4 32.373 16.1865 26.9775 0 0 0
2686 4 10.791 8.9925 5.3955 0 0 0
796 4 26.9775 16.1865 28.776 0 0 0
1241 4 25.179 21.582 0.0 0 0 0
313 4 32.373 7.194 28.776 0 0 0
903 4 26.9775 25.179 19.7835 0 0 0
3331 4 5.3955 28.776 8.9925 0 0 0
831 4 26.9775 17.985 26.9775 0 0 0
594 4 32.373 34.1715 30.5745 0 0 0
395 4 30.5745 14.388 30.5745 0 0 0
392 4 30.5745 16.1865 25.179 0 0 0
3949 4 0.0 25.179 14.388 0 0 0
478 4 32.373 23.3805 34.1715 0 0 0
2421 4 14.388 17.985 17.985 0 0 0
1670 4 21.582 23.3805 26.9775 0 0 0
2808 4 8.9925 19.7835 3.597 0 0 0
2698 4 10.791 8.9925 16.1865 0 0 0
1601 4 21.582 17.985 0.0 0 0 0
1441 4 21.582 3.597 0.0 0 0 0
659 4 26.9775 3.597 16.1865 0 0 0
1089 4 25.179 7.194 7.194 0 0 0
472 4 30.5745 23.3805 25.179 0 0 0
415 4 30.5745 17.985 12.5895 0 0 0
1503 4 19.7835 7.194 19.7835 0 0 0
2828 4 8.9925 19.7835 21.582 0 0 0
1621 4 21.582 17.985 17.985 0 0 0
2140 4 16.1865 30.5745 14.388 0 0 0
3183 4 5.3955 14.388 19.7835 0 0 0
156 4 34.1715 26.9775 25.179 0 0 0
1377 4 25.179 32.373 14.388 0 0 0
3223 4 5.3955 17.985 19.7835 0 0 0
3177 4 7.194 14.388 14.388 0 0 0
3850 4 0.0 8.9925 16.1865 0 0 0
2590 4 14.388 34.1715 26.9775 0 0 0
3788 4 1.7985 34.1715 21.582 0 0 0
3269 4 7.194 21.582 25.179 0 0 0
3770 4 3.597 34.1715 8.9925 0 0 0
3484 4 1.7985 8.9925 0.0 0 0 0
2804 4 8.9925 19.7835 0.0 0 0 0
846 4 28.776 23.3805 5.3955 0 0 0
554 4 32.373 30.5745 30.5745 0 0 0
1144 4 23.3805 12.5895 17.985 0 0 0
1225 4 25.179 17.985 21.582 0 0 0
3035 4 5.3955 0.0 30.5745 0 0 0
3816 4 0.0 1.7985 26.9775 0 0 0
1088 4 23.3805 8.9925 3.597 0 0 0
2592 4 12.5895 34.1715 25.179 0 0 0
1719 4 19.7835 25.179 34.1715 0 0 0
2121 4 17.985 28.776 0.0 0 0 0
1315 4 23.3805 25.179 30.5745 0 0 0
1808 4 16.1865 1.7985 3.597 0 0 0
241 4 32.373 3.597 0.0 0 0 0
2168 4 16.1865 34.1715 3.597 0 0 0
3702 4 3.597 26.9775 19.7835 0 0 0
2510 4 14.388 26.9775 26.9775 0 0 0
1583 4 19.7835 14.388 19.7835 0 0 0
3435 4 1.7985 0.0 30.5745 0 0 0
2904 4 8.9925 26.9775 17.985 0 0 0
2529 4 14.388 28.776 7.194 0 0 0
116 4 34.1715 19.7835 25.179 0 0 0
198 4 34.1715 34.1715 28.776 0 0 0
2507 4 12.5895 25.179 23.3805 0 0 0
3817 4 0.0 0.0 28.776 0 0 0
926 4 28.776 30.5745 5.3955 0 0 0
654 4 28.776 5.3955 12.5895 0 0 0
3526 4 3.597 12.5895 5.3955 0 0 0
1725 4 21.582 28.776 3.597 0 0 0
3865 4 0.0 10.791 7.194 0 0 0
107 4 34.1715 17.985 12.5895 0 0 0
3299 4 5.3955 25.179 16.1865 0 0 0
440 4 30.5745 19.7835 32.373 0 0 0
3674 4 3.597 23.3805 30.5745 0 0 0
2333 4 14.388 10.791 10.791 0 0 0
3885 4 0.0 14.388 7.194 0 0 0
875 4 26.9775 21.582 30.5745 0 0 0
1475 4 19.7835 3.597 30.5745 0 0 0
2745 4 10.791 10.791 21.582 0 0 0
2730 4 10.791 12.5895 8.9925 0 0 0
3330 4 7.194 30.5745 8.9925 0 0 0
448 4 30.5745 23.3805 3.597 0 0 0
858 4 28.776 23.3805 16.1865 0 0 0
1320 4 23.3805 26.9775 32.373 0 0 0
720 4 26.9775 8.9925 32.373 0 0 0
2723 4 8.9925 10.791 1.7985 0 0 0
2002 4 17.985 19.7835 1.7985 0 0 0
441 4 32.373 21.582 0.0 0 0 0
2943 4 8.9925 28.776 19.7835 0 0 0
1168 4 23.3805 16.1865 3.597 0 0 0
3273 4 7.194 21.582 28.776 0 0 0
822 4 28.776 19.7835 19.7835 0 0 0
1417 4 21.582 0.0 14.388 0 0 0
2853 4 10.791 21.582 10.791 0 0 0
3959 4 0.0 25.179 32.373 0 0 0
262 4 32.373 5.3955 19.7835 0 0 0
2644 4 8.9925 5.3955 0.0 0 0 0
2691 4 8.9925 7.194 8.9925 0 0 0
1484 4 19.7835 8.9925 0.0 0 0 0
3851 4 0.0 7.194 17.985 0 0 0
2798 4 10.791 16.1865 34.1715 0 0 0
3677 4 3.597 21.582 32.373 0 0 0
3599 4 1.7985 14.388 34.1715 0 0 0
1596 4 19.7835 16.1865 28.776 0 0 0
1994 4 17.985 16.1865 30.5745 0 0 0
140 4 34.1715 23.3805 32.373 0 0 0
2850 4 10.791 23.3805 8.9925 0 0 0
3086 4 7.194 8.9925 5.3955 0 0 0
1127 4 23.3805 10.791 5.3955 0 0 0
1622 4 21.582 19.7835 19.7835 0 0 0
3413 4 3.597 0.0 10.791 0 0 0
3434 4 3.597 1.7985 30.5745 0 0 0
2313 4 14.388 7.194 28.776 0 0 0
2793 4 10.791 14.388 28.776 0 0 0
2639 4 8.9925 0.0 34.1715 0 0 0
2378 4 14.388 16.1865 16.1865 0 0 0
3691 4 1.7985 25.179 8.9925 0 0 0
2208 4 12.5895 1.7985 3.597 0 0 0
3382 4 7.194 34.1715 19.7835 0 0 0
1412 4 19.7835 1.7985 7.194 0 0 0
2053 4 17.985 21.582 10.791 0 0 0
2023 4 16.1865 17.985 19.7835 0 0 0
2627 4 8.9925 0.0 23.3805 0 0 0
1006 4 25.179 1.7985 5.3955 0 0 0
1761 4 21.582 32.373 0.0 0 0 0
1911 4 16.1865 7.194 26.9775 0 0 0
1953 4 17.985 10.791 28.776 0 0 0
3027 4 5.3955 0.0 23.3805 0 0 0
3255 4 5.3955 21.582 12.5895 0 0 0
577 4 32.373 32.373 14.388 0 0 0
250 4 32.373 5.3955 8.9925 0 0 0
2526 4 14.388 30.5745 5.3955 0 0 0
3187 4 5.3955 14.388 23.3805 0 0 0
5 4 34.1715 0.0 8.9925 0 0 0
239 4 30.5745 0.0 34.1715 0 0 0
3661 4 3.597 21.582 17.985 0 0 0
3813 4 0.0 0.0 21.582 0 0 0
281 4 32.373 7.194 0.0 0 0 0
2873 4 10.791 21.582 28.776 0 0 0
1675 4 19.7835 21.582 30.5745 0 0 0
2311 4 12.5895 7.194 26.9775 0 0 0
421 4 32.373 17.985 17.985 0 0 0
2737 4 10.791 10.791 14.388 0 0 0
3839 4 0.0 3.597 32.373 0 0 0
113 4 34.1715 17.985 23.3805 0 0 0
3512 4 1.7985 8.9925 25.179 0 0 0
1002 4 25.179 1.7985 1.7985 0 0 0
3215 4 5.3955 17.985 12.5895 0 0 0
1103 4 23.3805 7.194 19.7835 0 0 0
635 4 26.9775 0.0 30.5745 0 0 0
3760 4 1.7985 30.5745 32.373 0 0 0
927 4 26.9775 28.776 5.3955 0 0 0
1032 4 23.3805 1.7985 25.179 0 0 0
819 4 26.9775 17.985 16.1865 0 0 0
733 4 28.776 10.791 10.791 0 0 0
2294 4 14.388 8.9925 12.5895 0 0 0
134 4 34.1715 23.3805 21.582 0 0 0
3676 4 1.7985 23.3805 28.776 0 0 0
272 4 30.5745 5.3955 25.179 0 0 0
3311 4 5.3955 25.179 26.9775 0 0 0
3210 4 7.194 19.7835 8.9925 0 0 0
2678 4 10.791 5.3955 34.1715 0 0 0
827 4 26.9775 17.985 23.3805 0 0 0
2240 4 12.5895 1.7985 32.373 0 0 0
2155 4 16.1865 28.776 30.5745 0 0 0
3306 4 7.194 26.9775 23.3805 0 0 0
556 4 30.5745 30.5745 28.776 0 0 0
2229 4 14.388 0.0 25.179 0 0 0
3124 4 5.3955 12.5895 0.0 0 0 0
1707 4 19.7835 25.179 23.3805 0 0 0
1748 4 19.7835 30.5745 21.582 0 0 0
426 4 32.373 19.7835 23.3805 0 0 0
3956 4 0.0 26.9775 26.9775 0 0 0
32 4 34.1715 5.3955 17.985 0 0 0
1308 4 23.3805 26.9775 21.582 0 0 0
2670 4 10.791 5.3955 26.9775 0 0 0
592 4 30.5745 34.1715 25.179 0 0 0
3385 4 7.194 32.373 21.582 0 0 0
2840 4 8.9925 19.7835 32.373 0 0 0
2708 4 8.9925 8.9925 21.582 0 0 0
1410 4 21.582 1.7985 8.9925 0 0 0
2675 4 8.9925 3.597 30.5745 0 0 0
2397 4 14.388 14.388 32.373 0 0 0
2998 4 10.791 34.1715 34.1715 0 0 0
3703 4 1.7985 25.179 19.7835 0 0 0
3810 4 0.0 1.7985 16.1865 0 0 0
2166 4 17.985 34.1715 5.3955 0 0 0
3666 4 3.597 23.3805 23.3805 0 0 0
2818 4 10.791 19.7835 16.1865 0 0 0
3415 4 1.7985 0.0 12.5895 0 0 0
2239 4 12.5895 0.0 34.1715 0 0 0
206 4 32.373 1.7985 5.3955 0 0 0
1547 4 19.7835 10.791 23.3805 0 0 0
1848 4 16.1865 5.3955 3.597 0 0 0
3584 4 1.7985 16.1865 17.985 0 0 0
1779 4 19.7835 32.373 16.1865 0 0 0
3641 4 3.597 21.582 0.0 0 0 0
1892 4 16.1865 8.9925 7.194 0 0 0
1751 4 19.7835 28.776 26.9775 0 0 0
560 4 30.5745 30.5745 32.373 0 0 0
1972 4 16.1865 16.1865 7.194 0 0 0
3717 4 3.597 25.179 32.373 0 0 0
2953 4 10.791 28.776 28.776 0 0 0
2822 4 10.791 19.7835 19.7835 0 0 0
3794 4 3.597 34.1715 30.5745 0 0 0
773 4 28.776 14.388 10.791 0 0 0
1026 4 25.179 1.7985 23.3805 0 0 0
1128 4 23.3805 12.5895 3.597 0 0 0
3018 4 7.194 1.7985 16.1865 0 0 0
1999 4 16.1865 14.388 34.1715 0 0 0
3972 4 0.0 30.5745 19.7835 0 0 0
2740 4 8.9925 12.5895 14.388 0 0 0
2323 4 12.5895 10.791 1.7985 0 0 0
706 4 28.776 8.9925 23.3805 0 0 0
3355 4 5.3955 28.776 30.5745 0 0 0
2970 4 10.791 34.1715 8.9925 0 0 0
1270 4 25.179 23.3805 26.9775 0 0 0
2645 4 10.791 3.597 3.597 0 0 0
1472 4 19.7835 5.3955 25.179 0 0 0
3296 4 5.3955 26.9775 10.791 0 0 0
1116 4 23.3805 8.9925 28.776 0 0 0
3947 4 0.0 25.179 10.791 0 0 0
3763 4 1.7985 32.373 1.7985 0 0 0
919 4 26.9775 25.179 34.1715 0 0 0
2802 4 10.791 19.7835 1.7985 0 0 0
3475 4 1.7985 3.597 30.5745 0 0 0
3482 4 3.597 8.9925 1.7985 0 0 0
2857 4 10.791 21.582 14.388 0 0 0
667 4 26.9775 3.597 23.3805 0 0 0
3983 4 0.0 32.373 3.597 0 0 0
2604 4 8.9925 1.7985 0.0 0 0 0
2882 4 10.791 26.9775 1.7985 0 0 0
305 4 32.373 7.194 21.582 0 0 0
3723 4 1.7985 28.776 1.7985 0 0 0
375 4 30.5745 14.388 12.5895 0 0 0
2615 4 8.9925 0.0 12.5895 0 0 0
1642 4 21.582 23.3805 1.7985 0 0 0
980 4 26.9775 34.1715 14.388 0 0 0
374 4 32.373 16.1865 12.5895 0 0 0
2860 4 8.9925 23.3805 14.388 0 0 0
824 4 26.9775 19.7835 17.985 0 0 0
3511 4 1.7985 7.194 26.9775 0 0 0
2422 4 14.388 19.7835 19.7835 0 0 0
1095 4 23.3805 7.194 12.5895 0 0 0
596 4 30.5745 34.1715 28.776 0 0 0
3982 4 0.0 34.1715 1.7985 0 0 0
2370 4 14.388 16.1865 8.9925 0 0 0
189 4 34.1715 32.373 16.1865 0 0 0
3707 4 1.7985 25.179 23.3805 0 0 0
685 4 28.776 7.194 3.597 0 0 0
3443 4 1.7985 3.597 1.7985 0 0 0
1923 4 16.1865 10.791 1.7985 0 0 0
325 4 32.373 10.791 3.597 0 0 0
237 4 32.373 0.0 32.373 0 0 0
1140 4 23.3805 12.5895 14.388 0 0 0
3832 4 0.0 5.3955 19.7835 0 0 0
682 4 28.776 8.9925 1.7985 0 0 0
3531 4 1.7985 10.791 8.9925 0 0 0
279 4 30.5745 3.597 34.1715 0 0 0
2924 4 8.9925 30.5745 0.0 0 0 0
1028 4 23.3805 1.7985 21.582 0 0 0
2601 4 10.791 0.0 0.0 0 0 0
1246 4 25.179 23.3805 5.3955 0 0 0
2389 4 14.388 14.388 25.179 0 0 0
2518 4 14.388 26.9775 34.1715 0 0 0
3045 4 7.194 3.597 3.597 0 0 0
2 4 34.1715 1.7985 0.0 0 0 0
1702 4 21.582 26.9775 19.7835 0 0 0
3521 4 3.597 10.791 0.0 0 0 0
2300 4 12.5895 8.9925 14.388 0 0 0
2511 4 12.5895 25.179 26.9775 0 0 0
3634 4 3.597 19.7835 30.5745 0 0 0
3853 4 0.0 7.194 21.582 0 0 0
3195 4 5.3955 14.388 30.5745 0 0 0
2811 4 8.9925 17.985 8.9925 0 0 0
76 4 34.1715 12.5895 25.179 0 0 0
1149 4 25.179 10.791 25.179 0 0 0
1525 4 21.582 10.791 3.597 0 0 0
2955 4 8.9925 28.776 30.5745 0 0 0
2834 4 10.791 19.7835 30.5745 0 0 0
695 4 26.9775 7.194 12.5895 0 0 0
1496 4 19.7835 8.9925 10.791 0 0 0
1749 4 21.582 28.776 25.179 0 0 0
1887 4 16.1865 7.194 5.3955 0 0 0
1760 4 19.7835 30.5745 32.373 0 0 0
2894 4 10.791 26.9775 12.5895 0 0 0
2183 4 16.1865 32.373 19.7835 0 0 0
2089 4 17.985 25.179 7.194 0 0 0
2377 4 14.388 14.388 14.388 0 0 0
1542 4 21.582 12.5895 19.7835 0 0 0
1099 4 23.3805 7.194 16.1865 0 0 0
813 4 28.776 17.985 10.791 0 0 0
2431 4 12.5895 17.985 26.9775 0 0 0
3864 4 0.0 12.5895 5.3955 0 0 0
3261 4 7.194 21.582 17.985 0 0 0
948 4 26.9775 30.5745 21.582 0 0 0
1121 4 25.179 10.791 0.0 0 0 0
2536 4 12.5895 30.5745 10.791 0 0 0
718 4 28.776 8.9925 34.1715 0 0 0
3389 4 7.194 32.373 25.179 0 0 0
193 4 34.1715 32.373 23.3805 0 0 0
2328 4 12.5895 12.5895 3.597 0 0 0
3346 4 7.194 30.5745 23.3805 0 0 0
2992 4 8.9925 34.1715 25.179 0 0 0
2361 4 14.388 14.388 0.0 0 0 0
3846 4 0.0 8.9925 8.9925 0 0 0
1633 4 21.582 17.985 28.776 0 0 0
3872 4 0.0 12.5895 19.7835 0 0 0
2039 4 16.1865 17.985 34.1715 0 0 0
797 4 28.776 14.388 32.373 0 0 0
3753 4 3.597 28.776 28.776 0 0 0
2265 4 14.388 3.597 21.582 0 0 0
1718 4 21.582 26.9775 34.1715 0 0 0
200 4 34.1715 34.1715 32.373 0 0 0
3995 4 0.0 32.373 25.179 0 0 0
3120 4 5.3955 8.9925 32.373 0 0 0
3419 4 1.7985 0.0 16.1865 0 0 0
3444 4 1.7985 5.3955 0.0 0 0 0
1391 4 23.3805 32.373 26.9775 0 0 0
364 4 30.5745 16.1865 0.0 0 0 0
345 4 32.373 10.791 21.582 0 0 0
3442 4 3.597 5.3955 1.7985 0 0 0
3452 4 1.7985 5.3955 7.194 0 0 0
1202 4 25.179 19.7835 1.7985 0 0 0
1248 4 23.3805 23.3805 3.597 0 0 0
2244 4 12.5895 5.3955 0.0 0 0 0
1107 4 23.3805 7.194 23.3805 0 0 0
1343 4 23.3805 28.776 19.7835 0 0 0
3710 4 3.597 26.9775 26.9775 0 0 0
1460 4 19.7835 5.3955 14.388 0 0 0
2676 4 8.9925 5.3955 28.776 0 0 0
2975 4 8.9925 32.373 12.5895 0 0 0
2360 4 12.5895 12.5895 32.373 0 0 0
3751 4 1.7985 28.776 26.9775 0 0 0
2984 4 8.9925 34.1715 17.985 0 0 0
1488 4 19.7835 8.9925 3.597 0 0 0
1359 4 23.3805 28.776 34.1715 0 0 0
538 4 32.373 30.5745 16.1865 0 0 0
2996 4 8.9925 34.1715 28.776 0 0 0
616 4 26.9775 1.7985 10.791 0 0 0
951 4 26.9775 28.776 26.9775 0 0 0
2288 4 12.5895 8.9925 3.597 0 0 0
625 4 28.776 0.0 21.582 0 0 0
386 4 32.373 16.1865 23.3805 0 0 0
3549 4 3.597 10.791 25.179 0 0 0
892 4 26.9775 26.9775 7.194 0 0 0
2126 4 17.985 30.5745 5.3955 0 0 0
860 4 26.9775 23.3805 14.388 0 0 0
1545 4 21.582 10.791 21.582 0 0 0
2556 4 12.5895 30.5745 28.776 0 0 0
2481 4 14.388 25.179 0.0 0 0 0
3278 4 7.194 23.3805 34.1715 0 0 0
1180 4 23.3805 16.1865 14.388 0 0 0
3902 4 0.0 19.7835 1.7985 0 0 0
2469 4 14.388 21.582 25.179 0 0 0
1802 4 17.985 1.7985 1.7985 0 0 0
2099 4 16.1865 25.179 16.1865 0 0 0
2932 4 8.9925 30.5745 7.194 0 0 0
1863 4 16.1865 3.597 19.7835 0 0 0
3364 4 5.3955 34.1715 0.0 0 0 0
2788 4 8.9925 16.1865 21.582 0 0 0
3849 4 0.0 7.194 14.388 0 0 0
1444 4 19.7835 5.3955 0.0 0 0 0
2286 4 14.388 8.9925 5.3955 0 0 0
3290 4 7.194 26.9775 8.9925 0 0 0
187 4 34.1715 32.373 12.5895 0 0 0
3664 4 1.7985 23.3805 17.985 0 0 0
2096 4 16.1865 26.9775 10.791 0 0 0
473 4 32.373 21.582 28.776 0 0 0
1368 4 23.3805 34.1715 3.597 0 0 0
1818 4 17.985 1.7985 16.1865 0 0 0
169 4 34.1715 28.776 16.1865 0 0 0
947 4 26.9775 28.776 23.3805 0 0 0
168 4 34.1715 30.5745 10.791 0 0 0
274 4 32.373 5.3955 30.5745 0 0 0
882 4 28.776 26.9775 1.7985 0 0 0
2664 4 8.9925 5.3955 17.985 0 0 0
2619 4 8.9925 0.0 16.1865 0 0 0
3687 4 1.7985 25.179 5.3955 0 0 0
598 4 32.373 34.1715 34.1715 0 0 0
1511 4 19.7835 7.194 26.9775 0 0 0
854 4 28.776 23.3805 12.5895 0 0 0
3736 4 1.7985 30.5745 10.791 0 0 0
2508 4 12.5895 26.9775 21.582 0 0 0
862 4 28.776 23.3805 19.7835 0 0 0
1373 4 25.179 32.373 10.791 0 0 0
901 4 28.776 25.179 17.985 0 0 0
3966 4 0.0 30.5745 8.9925 0 0 0
2117 4 17.985 25.179 32.373 0 0 0
1313 4 25.179 25.179 28.776 0 0 0
87 4 34.1715 14.388 12.5895 0 0 0
2260 4 12.5895 5.3955 14.388 0 0 0
3993 4 0.0 32.373 21.582 0 0 0
2292 4 12.5895 8.9925 7.194 0 0 0
2305 4 14.388 7.194 21.582 0 0 0
675 4 26.9775 3.597 30.5745 0 0 0
753 4 28.776 10.791 28.776 0 0 0
1983 4 16.1865 14.388 19.7835 0 0 0
2701 4 10.791 7.194 17.985 0 0 0
2597 4 14.388 32.373 32.373 0 0 0
562 4 32.373 34.1715 1.7985 0 0 0
3141 4 7.194 10.791 17.985 0 0 0
3953 4 0.0 25.179 21.582 0 0 0
2773 4 10.791 14.388 10.791 0 0 0
652 4 26.9775 5.3955 7.194 0 0 0
154 4 34.1715 26.9775 21.582 0 0 0
3249 4 7.194 21.582 7.194 0 0 0
2631 4 8.9925 0.0 26.9775 0 0 0
1932 4 16.1865 12.5895 7.194 0 0 0
849 4 28.776 21.582 7.194 0 0 0
1735 4 19.7835 28.776 12.5895 0 0 0
2493 4 14.388 25.179 10.791 0 0 0
1857 4 17.985 3.597 14.388 0 0 0
3504 4 1.7985 8.9925 17.985 0 0 0
2527 4 12.5895 28.776 5.3955 0 0 0
1350 4 25.179 30.5745 26.9775 0 0 0
3747 4 1.7985 28.776 23.3805 0 0 0
3877 4 0.0 10.791 28.776 0 0 0
3749 4 3.597 28.776 25.179 0 0 0
3283 4 5.3955 25.179 1.7985 0 0 0
2038 4 17.985 19.7835 34.1715 0 0 0
211 4 30.5745 0.0 8.9925 0 0 0
2075 4 16.1865 21.582 30.5745 0 0 0
2010 4 17.985 19.7835 8.9925 0 0 0
3847 4 0.0 7.194 10.791 0 0 0
3602 4 3.597 19.7835 1.7985 0 0 0
1027 4 23.3805 0.0 23.3805 0 0 0
2531 4 12.5895 28.776 8.9925 0 0 0
1573 4 21.582 14.388 10.791 0 0 0
2633 4 10.791 0.0 28.776 0 0 0
3719 4 1.7985 25.179 34.1715 0 0 0
1296 4 23.3805 26.9775 10.791 0 0 0
1688 4 19.7835 26.9775 3.597 0 0 0
878 4 28.776 23.3805 34.1715 0 0 0
1495 4 19.7835 7.194 12.5895 0 0 0
818 4 28.776 19.7835 16.1865 0 0 0
2732 4 8.9925 12.5895 7.194 0 0 0
1905 4 17.985 7.194 21.582 0 0 0
2225 4 14.388 0.0 21.582 0 0 0
1876 4 16.1865 5.3955 28.776 0 0 0
1646 4 21.582 23.3805 5.3955 0 0 0
3072 4 5.3955 5.3955 25.179 0 0 0
3229 4 7.194 17.985 25.179 0 0 0
270 4 32.373 5.3955 26.9775 0 0 0
1635 4 19.7835 17.985 30.5745 0 0 0
3313 4 7.194 25.179 28.776 0 0 0
2620 4 8.9925 1.7985 14.388 0 0 0
2747 4 8.9925 10.791 23.3805 0 0 0
580 4 30.5745 34.1715 14.388 0 0 0
47 4 34.1715 7.194 12.5895 0 0 0
2752 4 8.9925 12.5895 25.179 0 0 0
1850 4 17.985 5.3955 8.9925 0 0 0
2570 4 14.388 34.1715 8.9925 0 0 0
370 4 32.373 16.1865 8.9925 0 0 0
2335 4 12.5895 10.791 12.5895 0 0 0
2862 4 10.791 23.3805 19.7835 0 0 0
3042 4 7.194 5.3955 1.7985 0 0 0
2153 4 17.985 28.776 28.776 0 0 0
1695 4 19.7835 25.179 12.5895 0 0 0
1037 4 25.179 0.0 32.373 0 0 0
3568 4 1.7985 16.1865 3.597 0 0 0
3916 4 0.0 19.7835 26.9775 0 0 0
1794 4 21.582 34.1715 30.5745 0 0 0
774 4 28.776 16.1865 12.5895 0 0 0
3300 4 5.3955 26.9775 14.388 0 0 0
1077 4 25.179 3.597 32.373 0 0 0
2354 4 14.388 12.5895 30.5745 0 0 0
1351 4 23.3805 28.776 26.9775 0 0 0
3695 4 1.7985 25.179 12.5895 0 0 0
108 4 34.1715 19.7835 10.791 0 0 0
3894 4 0.0 16.1865 23.3805 0 0 0
697 4 28.776 7.194 14.388 0 0 0
2411 4 12.5895 17.985 8.9925 0 0 0
3048 4 5.3955 5.3955 3.597 0 0 0
548 4 30.5745 30.5745 21.582 0 0 0
1328 4 23.3805 30.5745 3.597 0 0 0
3477 4 3.597 3.597 32.373 0 0 0
3780 4 1.7985 34.1715 14.388 0 0 0
759 4 26.9775 10.791 34.1715 0 0 0
970 4 28.776 34.1715 8.9925 0 0 0
2502 4 14.388 26.9775 19.7835 0 0 0
1797 4 21.582 32.373 32.373 0 0 0
3458 4 3.597 5.3955 16.1865 0 0 0
2484 4 12.5895 26.9775 0.0 0 0 0
1692 4 19.7835 26.9775 7.194 0 0 0
2105 4 17.985 25.179 21.582 0 0 0
365 4 32.373 14.388 3.597 0 0 0
2567 4 12.5895 32.373 5.3955 0 0 0
1757 4 21.582 28.776 32.373 0 0 0
998 4 28.776 34.1715 34.1715 0 0 0
1531 4 19.7835 10.791 8.9925 0 0 0
2865 4 10.791 21.582 21.582 0 0 0
3221 4 7.194 17.985 17.985 0 0 0
3335 4 5.3955 28.776 12.5895 0 0 0
1388 4 23.3805 34.1715 21.582 0 0 0
3497 4 3.597 7.194 14.388 0 0 0
67 4 34.1715 10.791 12.5895 0 0 0
879 4 26.9775 21.582 34.1715 0 0 0
738 4 28.776 12.5895 16.1865 0 0 0
3715 4 1.7985 25.179 30.5745 0 0 0
34 4 34.1715 5.3955 21.582 0 0 0
2435 4 12.5895 17.985 30.5745 0 0 0
2035 4 16.1865 17.985 30.5745 0 0 0
132 4 34.1715 23.3805 17.985 0 0 0
2245 4 14.388 3.597 3.597 0 0 0
1534 4 21.582 12.5895 12.5895 0 0 0
3471 4 1.7985 3.597 26.9775 0 0 0
2580 4 12.5895 34.1715 14.388 0 0 0
915 4 26.9775 25.179 30.5745 0 0 0
500 4 30.5745 26.9775 14.388 0 0 0
3861 4 0.0 10.791 0.0 0 0 0
339 4 30.5745 10.791 16.1865 0 0 0
812 4 26.9775 19.7835 7.194 0 0 0
218 4 32.373 1.7985 16.1865 0 0 0
316 4 30.5745 8.9925 28.776 0 0 0
1595 4 19.7835 14.388 30.5745 0 0 0
761 4 28.776 14.388 0.0 0 0 0
337 4 32.373 10.791 14.388 0 0 0
809 4 28.776 17.985 7.194 0 0 0
2720 4 8.9925 8.9925 32.373 0 0 0
2222 4 14.388 1.7985 19.7835 0 0 0
3828 4 0.0 5.3955 12.5895 0 0 0
1300 4 23.3805 26.9775 14.388 0 0 0
3320 4 5.3955 26.9775 32.373 0 0 0
2721 4 10.791 10.791 0.0 0 0 0
576 4 30.5745 34.1715 10.791 0 0 0
2516 4 12.5895 26.9775 28.776 0 0 0
2869 4 10.791 21.582 25.179 0 0 0
3752 4 1.7985 30.5745 25.179 0 0 0
974 4 28.776 34.1715 12.5895 0 0 0
889 4 28.776 25.179 7.194 0 0 0
518 4 32.373 26.9775 34.1715 0 0 0
2148 4 16.1865 30.5745 21.582 0 0 0
1085 4 25.179 7.194 3.597 0 0 0
240 4 30.5745 1.7985 32.373 0 0 0
2467 4 12.5895 21.582 23.3805 0 0 0
2957 4 10.791 28.776 32.373 0 0 0
3250 4 7.194 23.3805 8.9925 0 0 0
2938 4 10.791 30.5745 16.1865 0 0 0
2750 4 10.791 12.5895 26.9775 0 0 0
1995 4 16.1865 14.388 30.5745 0 0 0
3372 4 5.3955 34.1715 7.194 0 0 0
354 4 32.373 12.5895 30.5745 0 0 0
2438 4 14.388 19.7835 34.1715 0 0 0
1324 4 23.3805 30.5745 0.0 0 0 0
1537 4 21.582 10.791 14.388 0 0 0
3914 4 0.0 19.7835 23.3805 0 0 0
512 4 30.5745 26.9775 25.179 0 0 0
2883 4 8.9925 25.179 1.7985 0 0 0
1424 4 19.7835 1.7985 17.985 0 0 0
1332 4 23.3805 30.5745 7.194 0 0 0
3257 4 7.194 21.582 14.388 0 0 0
2578 4 14.388 34.1715 16.1865 0 0 0
1193 4 25.179 14.388 28.776 0 0 0
3176 4 5.3955 16.1865 10.791 0 0 0
2024 4 16.1865 19.7835 17.985 0 0 0
1898 4 17.985 8.9925 16.1865 0 0 0
296 4 30.5745 8.9925 10.791 0 0 0
129 4 34.1715 21.582 16.1865 0 0 0
655 4 26.9775 3.597 12.5895 0 0 0
2071 4 16.1865 21.582 26.9775 0 0 0
2814 4 10.791 19.7835 12.5895 0 0 0
752 4 26.9775 12.5895 25.179 0 0 0
3427 4 1.7985 0.0 23.3805 0 0 0
3271 4 5.3955 21.582 26.9775 0 0 0
3439 4 1.7985 0.0 34.1715 0 0 0
3658 4 3.597 23.3805 16.1865 0 0 0
2736 4 8.9925 12.5895 10.791 0 0 0
2646 4 10.791 5.3955 5.3955 0 0 0
1184 4 23.3805 16.1865 17.985 0 0 0
775 4 26.9775 14.388 12.5895 0 0 0
704 4 26.9775 8.9925 17.985 0 0 0
399 4 30.5745 14.388 34.1715 0 0 0
9 5 34.1715 0.0 16.1865 0 0 0
10 5 34.1715 1.7985 14.388 0 0 0
12 5 34.1715 1.7985 17.985 0 0 0
13 5 34.1715 0.0 23.3805 0 0 0
19 5 34.1715 0.0 34.1715 0 0 0
20 5 34.1715 1.7985 32.373 0 0 0
25 5 34.1715 3.597 8.9925 0 0 0
28 5 34.1715 5.3955 10.791 0 0 0
50 5 34.1715 8.9925 14.388 0 0 0
61 5 34.1715 10.791 1.7985 0 0 0
62 5 34.1715 12.5895 0.0 0 0 0
63 5 34.1715 10.791 5.3955 0 0 0
66 5 34.1715 12.5895 7.194 0 0 0
69 5 34.1715 10.791 16.1865 0 0 0
71 5 34.1715 10.791 19.7835 0 0 0
75 5 34.1715 10.791 26.9775 0 0 0
90 5 34.1715 16.1865 14.388 0 0 0
93 5 34.1715 14.388 23.3805 0 0 0
94 5 34.1715 16.1865 21.582 0 0 0
96 5 34.1715 16.1865 25.179 0 0 0
100 5 34.1715 16.1865 32.373 0 0 0
103 5 34.1715 17.985 5.3955 0 0 0
109 5 34.1715 17.985 16.1865 0 0 0
123 5 34.1715 21.582 5.3955 0 0 0
124 5 34.1715 23.3805 3.597 0 0 0
125 5 34.1715 21.582 8.9925 0 0 0
127 5 34.1715 21.582 12.5895 0 0 0
133 5 34.1715 21.582 23.3805 0 0 0
142 5 34.1715 26.9775 0.0 0 0 0
146 5 34.1715 26.9775 7.194 0 0 0
147 5 34.1715 25.179 12.5895 0 0 0
162 5 34.1715 30.5745 0.0 0 0 0
166 5 34.1715 30.5745 7.194 0 0 0
170 5 34.1715 30.5745 14.388 0 0 0
171 5 34.1715 28.776 19.7835 0 0 0
179 5 34.1715 28.776 34.1715 0 0 0
180 5 34.1715 30.5745 32.373 0 0 0
182 5 34.1715 34.1715 0.0 0 0 0
188 5 34.1715 34.1715 10.791 0 0 0
190 5 34.1715 34.1715 14.388 0 0 0
195 5 34.1715 32.373 26.9775 0 0 0
196 5 34.1715 34.1715 25.179 0 0 0
204 5 30.5745 1.7985 0.0 0 0 0
207 5 30.5745 0.0 5.3955 0 0 0
208 5 30.5745 1.7985 3.597 0 0 0
212 5 30.5745 1.7985 7.194 0 0 0
215 5 30.5745 0.0 12.5895 0 0 0
225 5 32.373 0.0 21.582 0 0 0
227 5 30.5745 0.0 23.3805 0 0 0
228 5 30.5745 1.7985 21.582 0 0 0
229 5 32.373 0.0 25.179 0 0 0
230 5 32.373 1.7985 26.9775 0 0 0
233 5 32.373 0.0 28.776 0 0 0
244 5 30.5745 5.3955 0.0 0 0 0
252 5 30.5745 5.3955 7.194 0 0 0
257 5 32.373 3.597 14.388 0 0 0
266 5 32.373 5.3955 23.3805 0 0 0
273 5 32.373 3.597 28.776 0 0 0
280 5 30.5745 5.3955 32.373 0 0 0
283 5 30.5745 7.194 1.7985 0 0 0
286 5 32.373 8.9925 5.3955 0 0 0
294 5 32.373 8.9925 12.5895 0 0 0
298 5 32.373 8.9925 16.1865 0 0 0
306 5 32.373 8.9925 23.3805 0 0 0
312 5 30.5745 8.9925 25.179 0 0 0
317 5 32.373 7.194 32.373 0 0 0
319 5 30.5745 7.194 34.1715 0 0 0
320 5 30.5745 8.9925 32.373 0 0 0
326 5 32.373 12.5895 5.3955 0 0 0
327 5 30.5745 10.791 5.3955 0 0 0
332 5 30.5745 12.5895 7.194 0 0 0
334 5 32.373 12.5895 12.5895 0 0 0
342 5 32.373 12.5895 19.7835 0 0 0
346 5 32.373 12.5895 23.3805 0 0 0
347 5 30.5745 10.791 23.3805 0 0 0
348 5 30.5745 12.5895 21.582 0 0 0
349 5 32.373 10.791 25.179 0 0 0
350 5 32.373 12.5895 26.9775 0 0 0
356 5 30.5745 12.5895 28.776 0 0 0
357 5 32.373 10.791 32.373 0 0 0
361 5 32.373 14.388 0.0 0 0 0
362 5 32.373 16.1865 1.7985 0 0 0
368 5 30.5745 16.1865 3.597 0 0 0
376 5 30.5745 16.1865 10.791 0 0 0
382 5 32.373 16.1865 19.7835 0 0 0
385 5 32.373 14.388 21.582 0 0 0
387 5 30.5745 14.388 23.3805 0 0 0
394 5 32.373 16.1865 30.5745 0 0 0
404 5 30.5745 19.7835 0.0 0 0 0
405 5 32.373 17.985 3.597 0 0 0
411 5 30.5745 17.985 8.9925 0 0 0
412 5 30.5745 19.7835 7.194 0 0 0
413 5 32.373 17.985 10.791 0 0 0
414 5 32.373 19.7835 12.5895 0 0 0
423 5 30.5745 17.985 19.7835 0 0 0
424 5 30.5745 19.7835 17.985 0 0 0
433 5 32.373 17.985 28.776 0 0 0
438 5 32.373 19.7835 34.1715 0 0 0
446 5 32.373 23.3805 5.3955 0 0 0
449 5 32.373 21.582 7.194 0 0 0
453 5 32.373 21.582 10.791 0 0 0
455 5 30.5745 21.582 12.5895 0 0 0
460 5 30.5745 23.3805 14.388 0 0 0
462 5 32.373 23.3805 19.7835 0 0 0
466 5 32.373 23.3805 23.3805 0 0 0
471 5 30.5745 21.582 26.9775 0 0 0
476 5 30.5745 23.3805 28.776 0 0 0
485 5 32.373 25.179 3.597 0 0 0
487 5 30.5745 25.179 5.3955 0 0 0
491 5 30.5745 25.179 8.9925 0 0 0
493 5 32.373 25.179 10.791 0 0 0
494 5 32.373 26.9775 12.5895 0 0 0
499 5 30.5745 25.179 16.1865 0 0 0
504 5 30.5745 26.9775 17.985 0 0 0
510 5 32.373 26.9775 26.9775 0 0 0
513 5 32.373 25.179 28.776 0 0 0
514 5 32.373 26.9775 30.5745 0 0 0
517 5 32.373 25.179 32.373 0 0 0
522 5 32.373 30.5745 1.7985 0 0 0
532 5 30.5745 30.5745 7.194 0 0 0
533 5 32.373 28.776 10.791 0 0 0
543 5 30.5745 28.776 19.7835 0 0 0
544 5 30.5745 30.5745 17.985 0 0 0
546 5 32.373 30.5745 23.3805 0 0 0
547 5 30.5745 28.776 23.3805 0 0 0
550 5 32.373 30.5745 26.9775 0 0 0
559 5 30.5745 28.776 34.1715 0 0 0
561 5 32.373 32.373 0.0 0 0 0
564 5 30.5745 34.1715 0.0 0 0 0
567 5 30.5745 32.373 5.3955 0 0 0
568 5 30.5745 34.1715 3.597 0 0 0
571 5 30.5745 32.373 8.9925 0 0 0
574 5 32.373 34.1715 12.5895 0 0 0
575 5 30.5745 32.373 12.5895 0 0 0
581 5 32.373 32.373 17.985 0 0 0
583 5 30.5745 32.373 19.7835 0 0 0
584 5 30.5745 34.1715 17.985 0 0 0
586 5 32.373 34.1715 23.3805 0 0 0
591 5 30.5745 32.373 26.9775 0 0 0
595 5 30.5745 32.373 30.5745 0 0 0
600 5 30.5745 34.1715 32.373 0 0 0
601 5 28.776 0.0 0.0 0 0 0
605 5 28.776 0.0 3.597 0 0 0
606 5 28.776 1.7985 5.3955 0 0 0
613 5 28.776 0.0 10.791 0 0 0
618 5 28.776 1.7985 16.1865 0 0 0
621 5 28.776 0.0 17.985 0 0 0
623 5 26.9775 0.0 19.7835 0 0 0
631 5 26.9775 0.0 26.9775 0 0 0
639 5 26.9775 0.0 34.1715 0 0 0
641 5 28.776 3.597 0.0 0 0 0
642 5 28.776 5.3955 1.7985 0 0 0
644 5 26.9775 5.3955 0.0 0 0 0
646 5 28.776 5.3955 5.3955 0 0 0
647 5 26.9775 3.597 5.3955 0 0 0
656 5 26.9775 5.3955 10.791 0 0 0
661 5 28.776 3.597 17.985 0 0 0
662 5 28.776 5.3955 19.7835 0 0 0
664 5 26.9775 5.3955 17.985 0 0 0
668 5 26.9775 5.3955 21.582 0 0 0
674 5 28.776 5.3955 30.5745 0 0 0
678 5 28.776 5.3955 34.1715 0 0 0
680 5 26.9775 5.3955 32.373 0 0 0
689 5 28.776 7.194 7.194 0 0 0
690 5 28.776 8.9925 8.9925 0 0 0
694 5 28.776 8.9925 12.5895 0 0 0
701 5 28.776 7.194 17.985 0 0 0
705 5 28.776 7.194 21.582 0 0 0
709 5 28.776 7.194 25.179 0 0 0
715 5 26.9775 7.194 30.5745 0 0 0
716 5 26.9775 8.9925 28.776 0 0 0
717 5 28.776 7.194 32.373 0 0 0
726 5 28.776 12.5895 5.3955 0 0 0
745 5 28.776 10.791 21.582 0 0 0
746 5 28.776 12.5895 23.3805 0 0 0
750 5 28.776 12.5895 26.9775 0 0 0
756 5 26.9775 12.5895 28.776 0 0 0
764 5 26.9775 16.1865 0.0 0 0 0
768 5 26.9775 16.1865 3.597 0 0 0
779 5 26.9775 14.388 16.1865 0 0 0
793 5 28.776 14.388 28.776 0 0 0
795 5 26.9775 14.388 30.5745 0 0 0
798 5 28.776 16.1865 34.1715 0 0 0
800 5 26.9775 16.1865 32.373 0 0 0
802 5 28.776 19.7835 1.7985 0 0 0
820 5 26.9775 19.7835 14.388 0 0 0
823 5 26.9775 17.985 19.7835 0 0 0
825 5 28.776 17.985 21.582 0 0 0
836 5 26.9775 19.7835 28.776 0 0 0
838 5 28.776 19.7835 34.1715 0 0 0
840 5 26.9775 19.7835 32.373 0 0 0
844 5 26.9775 23.3805 0.0 0 0 0
851 5 26.9775 21.582 8.9925 0 0 0
853 5 28.776 21.582 10.791 0 0 0
856 5 26.9775 23.3805 10.791 0 0 0
861 5 28.776 21.582 17.985 0 0 0
863 5 26.9775 21.582 19.7835 0 0 0
867 5 26.9775 21.582 23.3805 0 0 0
873 5 28.776 21.582 28.776 0 0 0
881 5 28.776 25.179 0.0 0 0 0
893 5 28.776 25.179 10.791 0 0 0
894 5 28.776 26.9775 12.5895 0 0 0
899 5 26.9775 25.179 16.1865 0 0 0
907 5 26.9775 25.179 23.3805 0 0 0
909 5 28.776 25.179 25.179 0 0 0
912 5 26.9775 26.9775 25.179 0 0 0
914 5 28.776 26.9775 30.5745 0 0 0
916 5 26.9775 26.9775 28.776 0 0 0
918 5 28.776 26.9775 34.1715 0 0 0
920 5 26.9775 26.9775 32.373 0 0 0
930 5 28.776 30.5745 8.9925 0 0 0
931 5 26.9775 28.776 8.9925 0 0 0
933 5 28.776 28.776 10.791 0 0 0
935 5 26.9775 28.776 12.5895 0 0 0
940 5 26.9775 30.5745 14.388 0 0 0
953 5 28.776 28.776 28.776 0 0 0
961 5 28.776 32.373 0.0 0 0 0
962 5 28.776 34.1715 1.7985 0 0 0
968 5 26.9775 34.1715 3.597 0 0 0
976 5 26.9775 34.1715 10.791 0 0 0
977 5 28.776 32.373 14.388 0 0 0
978 5 28.776 34.1715 16.1865 0 0 0
985 5 28.776 32.373 21.582 0 0 0
1010 5 25.179 1.7985 8.9925 0 0 0
1014 5 25.179 1.7985 12.5895 0 0 0
1016 5 23.3805 1.7985 10.791 0 0 0
1020 5 23.3805 1.7985 14.388 0 0 0
1023 5 23.3805 0.0 19.7835 0 0 0
1025 5 25.179 0.0 21.582 0 0 0
1034 5 25.179 1.7985 30.5745 0 0 0
1035 5 23.3805 0.0 30.5745 0 0 0
1038 5 25.179 1.7985 34.1715 0 0 0
1040 5 23.3805 1.7985 32.373 0 0 0
1042 5 25.179 5.3955 1.7985 0 0 0
1043 5 23.3805 3.597 1.7985 0 0 0
1044 5 23.3805 5.3955 0.0 0 0 0
1053 5 25.179 3.597 10.791 0 0 0
1057 5 25.179 3.597 14.388 0 0 0
1059 5 23.3805 3.597 16.1865 0 0 0
1065 5 25.179 3.597 21.582 0 0 0
1067 5 23.3805 3.597 23.3805 0 0 0
1068 5 23.3805 5.3955 21.582 0 0 0
1073 5 25.179 3.597 28.776 0 0 0
1075 5 23.3805 3.597 30.5745 0 0 0
1080 5 23.3805 5.3955 32.373 0 0 0
1083 5 23.3805 7.194 1.7985 0 0 0
1084 5 23.3805 8.9925 0.0 0 0 0
1092 5 23.3805 8.9925 7.194 0 0 0
1093 5 25.179 7.194 10.791 0 0 0
1094 5 25.179 8.9925 12.5895 0 0 0
1100 5 23.3805 8.9925 14.388 0 0 0
1102 5 25.179 8.9925 19.7835 0 0 0
1104 5 23.3805 8.9925 17.985 0 0 0
1105 5 25.179 7.194 21.582 0 0 0
1112 5 23.3805 8.9925 25.179 0 0 0
1117 5 25.179 7.194 32.373 0 0 0
1118 5 25.179 8.9925 34.1715 0 0 0
1120 5 23.3805 8.9925 32.373 0 0 0
1123 5 23.3805 10.791 1.7985 0 0 0
1125 5 25.179 10.791 3.597 0 0 0
1126 5 25.179 12.5895 5.3955 0 0 0
1129 5 25.179 10.791 7.194 0 0 0
1130 5 25.179 12.5895 8.9925 0 0 0
1132 5 23.3805 12.5895 7.194 0 0 0
1139 5 23.3805 10.791 16.1865 0 0 0
1146 5 25.179 12.5895 23.3805 0 0 0
1150 5 25.179 12.5895 26.9775 0 0 0
1154 5 25.179 12.5895 30.5745 0 0 0
1157 5 25.179 10.791 32.373 0 0 0
1158 5 25.179 12.5895 34.1715 0 0 0
1159 5 23.3805 10.791 34.1715 0 0 0
1161 5 25.179 14.388 0.0 0 0 0
1178 5 25.179 16.1865 16.1865 0 0 0
1182 5 25.179 16.1865 19.7835 0 0 0
1192 5 23.3805 16.1865 25.179 0 0 0
1197 5 25.179 14.388 32.373 0 0 0
1198 5 25.179 16.1865 34.1715 0 0 0
1203 5 23.3805 17.985 1.7985 0 0 0
1210 5 25.179 19.7835 8.9925 0 0 0
1211 5 23.3805 17.985 8.9925 0 0 0
1215 5 23.3805 17.985 12.5895 0 0 0
1217 5 25.179 17.985 14.388 0 0 0
1224 5 23.3805 19.7835 17.985 0 0 0
1233 5 25.179 17.985 28.776 0 0 0
1234 5 25.179 19.7835 30.5745 0 0 0
1235 5 23.3805 17.985 30.5745 0 0 0
1253 5 25.179 21.582 10.791 0 0 0
1255 5 23.3805 21.582 12.5895 0 0 0
1272 5 23.3805 23.3805 25.179 0 0 0
1273 5 25.179 21.582 28.776 0 0 0
1274 5 25.179 23.3805 30.5745 0 0 0
1276 5 23.3805 23.3805 28.776 0 0 0
1281 5 25.179 25.179 0.0 0 0 0
1288 5 23.3805 26.9775 3.597 0 0 0
1289 5 25.179 25.179 7.194 0 0 0
1294 5 25.179 26.9775 12.5895 0 0 0
1299 5 23.3805 25.179 16.1865 0 0 0
1311 5 23.3805 25.179 26.9775 0 0 0
1319 5 23.3805 25.179 34.1715 0 0 0
1325 5 25.179 28.776 3.597 0 0 0
1326 5 25.179 30.5745 5.3955 0 0 0
1334 5 25.179 30.5745 12.5895 0 0 0
1338 5 25.179 30.5745 16.1865 0 0 0
1345 5 25.179 28.776 21.582 0 0 0
1347 5 23.3805 28.776 23.3805 0 0 0
1355 5 23.3805 28.776 30.5745 0 0 0
1375 5 23.3805 32.373 12.5895 0 0 0
1380 5 23.3805 34.1715 14.388 0 0 0
1381 5 25.179 32.373 17.985 0 0 0
1384 5 23.3805 34.1715 17.985 0 0 0
1386 5 25.179 34.1715 23.3805 0 0 0
1398 5 25.179 34.1715 34.1715 0 0 0
1399 5 23.3805 32.373 34.1715 0 0 0
1416 5 19.7835 1.7985 10.791 0 0 0
1419 5 19.7835 0.0 16.1865 0 0 0
1421 5 21.582 0.0 17.985 0 0 0
1423 5 19.7835 0.0 19.7835 0 0 0
1426 5 21.582 1.7985 23.3805 0 0 0
1431 5 19.7835 0.0 26.9775 0 0 0
1437 5 21.582 0.0 32.373 0 0 0
1439 5 19.7835 0.0 34.1715 0 0 0
1449 5 21.582 3.597 7.194 0 0 0
1452 5 19.7835 5.3955 7.194 0 0 0
1463 5 19.7835 3.597 19.7835 0 0 0
1473 5 21.582 3.597 28.776 0 0 0
1476 5 19.7835 5.3955 28.776 0 0 0
1478 5 21.582 5.3955 34.1715 0 0 0
1479 5 19.7835 3.597 34.1715 0 0 0
1485 5 21.582 7.194 3.597 0 0 0
1486 5 21.582 8.9925 5.3955 0 0 0
1487 5 19.7835 7.194 5.3955 0 0 0
1497 5 21.582 7.194 14.388 0 0 0
1500 5 19.7835 8.9925 14.388 0 0 0
1501 5 21.582 7.194 17.985 0 0 0
1502 5 21.582 8.9925 19.7835 0 0 0
1505 5 21.582 7.194 21.582 0 0 0
1508 5 19.7835 8.9925 21.582 0 0 0
1510 5 21.582 8.9925 26.9775 0 0 0
1512 5 19.7835 8.9925 25.179 0 0 0
1527 5 19.7835 10.791 5.3955 0 0 0
1529 5 21.582 10.791 7.194 0 0 0
1533 5 21.582 10.791 10.791 0 0 0
1535 5 19.7835 10.791 12.5895 0 0 0
1536 5 19.7835 12.5895 10.791 0 0 0
1550 5 21.582 12.5895 26.9775 0 0 0
1553 5 21.582 10.791 28.776 0 0 0
1556 5 19.7835 12.5895 28.776 0 0 0
1559 5 19.7835 10.791 34.1715 0 0 0
1560 5 19.7835 12.5895 32.373 0 0 0
1561 5 21.582 14.388 0.0 0 0 0
1565 5 21.582 14.388 3.597 0 0 0
1568 5 19.7835 16.1865 3.597 0 0 0
1569 5 21.582 14.388 7.194 0 0 0
1574 5 21.582 16.1865 12.5895 0 0 0
1581 5 21.582 14.388 17.985 0 0 0
1584 5 19.7835 16.1865 17.985 0 0 0
1585 5 21.582 14.388 21.582 0 0 0
1588 5 19.7835 16.1865 21.582 0 0 0
1589 5 21.582 14.388 25.179 0 0 0
1602 5 21.582 19.7835 1.7985 0 0 0
1605 5 21.582 17.985 3.597 0 0 0
1606 5 21.582 19.7835 5.3955 0 0 0
1608 5 19.7835 19.7835 3.597 0 0 0
1609 5 21.582 17.985 7.194 0 0 0
1613 5 21.582 17.985 10.791 0 0 0
1614 5 21.582 19.7835 12.5895 0 0 0
1618 5 21.582 19.7835 16.1865 0 0 0
1641 5 21.582 21.582 0.0 0 0 0
1655 5 19.7835 21.582 12.5895 0 0 0
1657 5 21.582 21.582 14.388 0 0 0
1661 5 21.582 21.582 17.985 0 0 0
1663 5 19.7835 21.582 19.7835 0 0 0
1677 5 21.582 21.582 32.373 0 0 0
1679 5 19.7835 21.582 34.1715 0 0 0
1680 5 19.7835 23.3805 32.373 0 0 0
1690 5 21.582 26.9775 8.9925 0 0 0
1693 5 21.582 25.179 10.791 0 0 0
1716 5 19.7835 26.9775 28.776 0 0 0
1717 5 21.582 25.179 32.373 0 0 0
1726 5 21.582 30.5745 5.3955 0 0 0
1731 5 19.7835 28.776 8.9925 0 0 0
1733 5 21.582 28.776 10.791 0 0 0
1736 5 19.7835 30.5745 10.791 0 0 0
1737 5 21.582 28.776 14.388 0 0 0
1738 5 21.582 30.5745 16.1865 0 0 0
1739 5 19.7835 28.776 16.1865 0 0 0
1743 5 19.7835 28.776 19.7835 0 0 0
1744 5 19.7835 30.5745 17.985 0 0 0
1753 5 21.582 28.776 28.776 0 0 0
1756 5 19.7835 30.5745 28.776 0 0 0
1758 5 21.582 30.5745 34.1715 0 0 0
1765 5 21.582 32.373 3.597 0 0 0
1771 5 19.7835 32.373 8.9925 0 0 0
1789 5 21.582 32.373 25.179 0 0 0
1792 5 19.7835 34.1715 25.179 0 0 0
1795 5 19.7835 32.373 30.5745 0 0 0
1809 5 17.985 0.0 7.194 0 0 0
1811 5 16.1865 0.0 8.9925 0 0 0
1816 5 16.1865 1.7985 10.791 0 0 0
1820 5 16.1865 1.7985 14.388 0 0 0
1822 5 17.985 1.7985 19.7835 0 0 0
1824 5 16.1865 1.7985 17.985 0 0 0
1836 5 16.1865 1.7985 28.776 0 0 0
1839 5 16.1865 0.0 34.1715 0 0 0
1840 5 16.1865 1.7985 32.373 0 0 0
1847 5 16.1865 3.597 5.3955 0 0 0
1849 5 17.985 3.597 7.194 0 0 0
1854 5 17.985 5.3955 12.5895 0 0 0
1856 5 16.1865 5.3955 10.791 0 0 0
1859 5 16.1865 3.597 16.1865 0 0 0
1864 5 16.1865 5.3955 17.985 0 0 0
1872 5 16.1865 5.3955 25.179 0 0 0
1879 5 16.1865 3.597 34.1715 0 0 0
1880 5 16.1865 5.3955 32.373 0 0 0
1888 5 16.1865 8.9925 3.597 0 0 0
1891 5 16.1865 7.194 8.9925 0 0 0
1893 5 17.985 7.194 10.791 0 0 0
1902 5 17.985 8.9925 19.7835 0 0 0
1903 5 16.1865 7.194 19.7835 0 0 0
1906 5 17.985 8.9925 23.3805 0 0 0
1907 5 16.1865 7.194 23.3805 0 0 0
1912 5 16.1865 8.9925 25.179 0 0 0
1916 5 16.1865 8.9925 28.776 0 0 0
1919 5 16.1865 7.194 34.1715 0 0 0
1934 5 17.985 12.5895 12.5895 0 0 0
1937 5 17.985 10.791 14.388 0 0 0
1945 5 17.985 10.791 21.582 0 0 0
1955 5 16.1865 10.791 30.5745 0 0 0
1959 5 16.1865 10.791 34.1715 0 0 0
1969 5 17.985 14.388 7.194 0 0 0
1970 5 17.985 16.1865 8.9925 0 0 0
1976 5 16.1865 16.1865 10.791 0 0 0
1977 5 17.985 14.388 14.388 0 0 0
1989 5 17.985 14.388 25.179 0 0 0
1990 5 17.985 16.1865 26.9775 0 0 0
1992 5 16.1865 16.1865 25.179 0 0 0
1998 5 17.985 16.1865 34.1715 0 0 0
2008 5 16.1865 19.7835 3.597 0 0 0
2013 5 17.985 17.985 10.791 0 0 0
2021 5 17.985 17.985 17.985 0 0 0
2026 5 17.985 19.7835 23.3805 0 0 0
2048 5 16.1865 23.3805 3.597 0 0 0
2051 5 16.1865 21.582 8.9925 0 0 0
2052 5 16.1865 23.3805 7.194 0 0 0
2054 5 17.985 23.3805 12.5895 0 0 0
2060 5 16.1865 23.3805 14.388 0 0 0
2065 5 17.985 21.582 21.582 0 0 0
2066 5 17.985 23.3805 23.3805 0 0 0
2067 5 16.1865 21.582 23.3805 0 0 0
2074 5 17.985 23.3805 30.5745 0 0 0
2077 5 17.985 21.582 32.373 0 0 0
2078 5 17.985 23.3805 34.1715 0 0 0
2080 5 16.1865 23.3805 32.373 0 0 0
2084 5 16.1865 26.9775 0.0 0 0 0
2090 5 17.985 26.9775 8.9925 0 0 0
2091 5 16.1865 25.179 8.9925 0 0 0
2093 5 17.985 25.179 10.791 0 0 0
2094 5 17.985 26.9775 12.5895 0 0 0
2095 5 16.1865 25.179 12.5895 0 0 0
2097 5 17.985 25.179 14.388 0 0 0
2104 5 16.1865 26.9775 17.985 0 0 0
2107 5 16.1865 25.179 23.3805 0 0 0
2114 5 17.985 26.9775 30.5745 0 0 0
2118 5 17.985 26.9775 34.1715 0 0 0
2122 5 17.985 30.5745 1.7985 0 0 0
2123 5 16.1865 28.776 1.7985 0 0 0
2124 5 16.1865 30.5745 0.0 0 0 0
2127 5 16.1865 28.776 5.3955 0 0 0
2128 5 16.1865 30.5745 3.597 0 0 0
2129 5 17.985 28.776 7.194 0 0 0
2136 5 16.1865 30.5745 10.791 0 0 0
2141 5 17.985 28.776 17.985 0 0 0
2145 5 17.985 28.776 21.582 0 0 0
2146 5 17.985 30.5745 23.3805 0 0 0
2147 5 16.1865 28.776 23.3805 0 0 0
2149 5 17.985 28.776 25.179 0 0 0
2156 5 16.1865 30.5745 28.776 0 0 0
2157 5 17.985 28.776 32.373 0 0 0
2158 5 17.985 30.5745 34.1715 0 0 0
2162 5 17.985 34.1715 1.7985 0 0 0
2163 5 16.1865 32.373 1.7985 0 0 0
2164 5 16.1865 34.1715 0.0 0 0 0
2173 5 17.985 32.373 10.791 0 0 0
2175 5 16.1865 32.373 12.5895 0 0 0
2179 5 16.1865 32.373 16.1865 0 0 0
2181 5 17.985 32.373 17.985 0 0 0
2184 5 16.1865 34.1715 17.985 0 0 0
2201 5 14.388 0.0 0.0 0 0 0
2204 5 12.5895 1.7985 0.0 0 0 0
2207 5 12.5895 0.0 5.3955 0 0 0
2214 5 14.388 1.7985 12.5895 0 0 0
2217 5 14.388 0.0 14.388 0 0 0
2221 5 14.388 0.0 17.985 0 0 0
2228 5 12.5895 1.7985 21.582 0 0 0
2231 5 12.5895 0.0 26.9775 0 0 0
2232 5 12.5895 1.7985 25.179 0 0 0
2246 5 14.388 5.3955 5.3955 0 0 0
2247 5 12.5895 3.597 5.3955 0 0 0
2251 5 12.5895 3.597 8.9925 0 0 0
2270 5 14.388 5.3955 26.9775 0 0 0
2271 5 12.5895 3.597 26.9775 0 0 0
2272 5 12.5895 5.3955 25.179 0 0 0
2273 5 14.388 3.597 28.776 0 0 0
2275 5 12.5895 3.597 30.5745 0 0 0
2276 5 12.5895 5.3955 28.776 0 0 0
2277 5 14.388 3.597 32.373 0 0 0
2280 5 12.5895 5.3955 32.373 0 0 0
2282 5 14.388 8.9925 1.7985 0 0 0
2298 5 14.388 8.9925 16.1865 0 0 0
2299 5 12.5895 7.194 16.1865 0 0 0
2302 5 14.388 8.9925 19.7835 0 0 0
2306 5 14.388 8.9925 23.3805 0 0 0
2315 5 12.5895 7.194 30.5745 0 0 0
2318 5 14.388 8.9925 34.1715 0 0 0
2329 5 14.388 10.791 7.194 0 0 0
2330 5 14.388 12.5895 8.9925 0 0 0
2331 5 12.5895 10.791 8.9925 0 0 0
2358 5 14.388 12.5895 34.1715 0 0 0
2365 5 14.388 14.388 3.597 0 0 0
2367 5 12.5895 14.388 5.3955 0 0 0
2375 5 12.5895 14.388 12.5895 0 0 0
2379 5 12.5895 14.388 16.1865 0 0 0
2380 5 12.5895 16.1865 14.388 0 0 0
2383 5 12.5895 14.388 19.7835 0 0 0
2385 5 14.388 14.388 21.582 0 0 0
2391 5 12.5895 14.388 26.9775 0 0 0
2392 5 12.5895 16.1865 25.179 0 0 0
2399 5 12.5895 14.388 34.1715 0 0 0
2401 5 14.388 17.985 0.0 0 0 0
2404 5 12.5895 19.7835 0.0 0 0 0
2407 5 12.5895 17.985 5.3955 0 0 0
2414 5 14.388 19.7835 12.5895 0 0 0
2415 5 12.5895 17.985 12.5895 0 0 0
2416 5 12.5895 19.7835 10.791 0 0 0
2418 5 14.388 19.7835 16.1865 0 0 0
2426 5 14.388 19.7835 23.3805 0 0 0
2427 5 12.5895 17.985 23.3805 0 0 0
2433 5 14.388 17.985 28.776 0 0 0
2440 5 12.5895 19.7835 32.373 0 0 0
2442 5 14.388 23.3805 1.7985 0 0 0
2444 5 12.5895 23.3805 0.0 0 0 0
2452 5 12.5895 23.3805 7.194 0 0 0
2455 5 12.5895 21.582 12.5895 0 0 0
2461 5 14.388 21.582 17.985 0 0 0
2463 5 12.5895 21.582 19.7835 0 0 0
2470 5 14.388 23.3805 26.9775 0 0 0
2475 5 12.5895 21.582 30.5745 0 0 0
2487 5 12.5895 25.179 5.3955 0 0 0
2519 5 12.5895 25.179 34.1715 0 0 0
2525 5 14.388 28.776 3.597 0 0 0
2534 5 14.388 30.5745 12.5895 0 0 0
2537 5 14.388 28.776 14.388 0 0 0
2544 5 12.5895 30.5745 17.985 0 0 0
2548 5 12.5895 30.5745 21.582 0 0 0
2553 5 14.388 28.776 28.776 0 0 0
2558 5 14.388 30.5745 34.1715 0 0 0
2569 5 14.388 32.373 7.194 0 0 0
2571 5 12.5895 32.373 8.9925 0 0 0
2574 5 14.388 34.1715 12.5895 0 0 0
2577 5 14.388 32.373 14.388 0 0 0
2579 5 12.5895 32.373 16.1865 0 0 0
2583 5 12.5895 32.373 19.7835 0 0 0
2585 5 14.388 32.373 21.582 0 0 0
2596 5 12.5895 34.1715 28.776 0 0 0
2602 5 10.791 1.7985 1.7985 0 0 0
2603 5 8.9925 0.0 1.7985 0 0 0
2606 5 10.791 1.7985 5.3955 0 0 0
2607 5 8.9925 0.0 5.3955 0 0 0
2625 5 10.791 0.0 21.582 0 0 0
2626 5 10.791 1.7985 23.3805 0 0 0
2636 5 8.9925 1.7985 28.776 0 0 0
2641 5 10.791 3.597 0.0 0 0 0
2642 5 10.791 5.3955 1.7985 0 0 0
2647 5 8.9925 3.597 5.3955 0 0 0
2651 5 8.9925 3.597 8.9925 0 0 0
2652 5 8.9925 5.3955 7.194 0 0 0
2660 5 8.9925 5.3955 14.388 0 0 0
2666 5 10.791 5.3955 23.3805 0 0 0
2677 5 10.791 3.597 32.373 0 0 0
2685 5 10.791 7.194 3.597 0 0 0
2699 5 8.9925 7.194 16.1865 0 0 0
2702 5 10.791 8.9925 19.7835 0 0 0
2709 5 10.791 7.194 25.179 0 0 0
2716 5 8.9925 8.9925 28.776 0 0 0
2722 5 10.791 12.5895 1.7985 0 0 0
2725 5 10.791 10.791 3.597 0 0 0
2727 5 8.9925 10.791 5.3955 0 0 0
2731 5 8.9925 10.791 8.9925 0 0 0
2742 5 10.791 12.5895 19.7835 0 0 0
2743 5 8.9925 10.791 19.7835 0 0 0
2749 5 10.791 10.791 25.179 0 0 0
2757 5 10.791 10.791 32.373 0 0 0
2760 5 8.9925 12.5895 32.373 0 0 0
2762 5 10.791 16.1865 1.7985 0 0 0
2763 5 8.9925 14.388 1.7985 0 0 0
2769 5 10.791 14.388 7.194 0 0 0
2771 5 8.9925 14.388 8.9925 0 0 0
2780 5 8.9925 16.1865 14.388 0 0 0
2784 5 8.9925 16.1865 17.985 0 0 0
2786 5 10.791 16.1865 23.3805 0 0 0
2791 5 8.9925 14.388 26.9775 0 0 0
2794 5 10.791 16.1865 30.5745 0 0 0
2796 5 8.9925 16.1865 28.776 0 0 0
2800 5 8.9925 16.1865 32.373 0 0 0
2803 5 8.9925 17.985 1.7985 0 0 0
2806 5 10.791 19.7835 5.3955 0 0 0
2823 5 8.9925 17.985 19.7835 0 0 0
2830 5 10.791 19.7835 26.9775 0 0 0
2836 5 8.9925 19.7835 28.776 0 0 0
2839 5 8.9925 17.985 34.1715 0 0 0
2841 5 10.791 21.582 0.0 0 0 0
2844 5 8.9925 23.3805 0.0 0 0 0
2849 5 10.791 21.582 7.194 0 0 0
2855 5 8.9925 21.582 12.5895 0 0 0
2858 5 10.791 23.3805 16.1865 0 0 0
2859 5 8.9925 21.582 16.1865 0 0 0
2863 5 8.9925 21.582 19.7835 0 0 0
2864 5 8.9925 23.3805 17.985 0 0 0
2867 5 8.9925 21.582 23.3805 0 0 0
2868 5 8.9925 23.3805 21.582 0 0 0
2875 5 8.9925 21.582 30.5745 0 0 0
2877 5 10.791 21.582 32.373 0 0 0
2879 5 8.9925 21.582 34.1715 0 0 0
2888 5 8.9925 26.9775 3.597 0 0 0
2892 5 8.9925 26.9775 7.194 0 0 0
2893 5 10.791 25.179 10.791 0 0 0
2897 5 10.791 25.179 14.388 0 0 0
2903 5 8.9925 25.179 19.7835 0 0 0
2914 5 10.791 26.9775 30.5745 0 0 0
2916 5 8.9925 26.9775 28.776 0 0 0
2919 5 8.9925 25.179 34.1715 0 0 0
2931 5 8.9925 28.776 8.9925 0 0 0
2937 5 10.791 28.776 14.388 0 0 0
2949 5 10.791 28.776 25.179 0 0 0
2950 5 10.791 30.5745 26.9775 0 0 0
2966 5 10.791 34.1715 5.3955 0 0 0
2967 5 8.9925 32.373 5.3955 0 0 0
2972 5 8.9925 34.1715 7.194 0 0 0
2974 5 10.791 34.1715 12.5895 0 0 0
2979 5 8.9925 32.373 16.1865 0 0 0
2980 5 8.9925 34.1715 14.388 0 0 0
2986 5 10.791 34.1715 23.3805 0 0 0
2987 5 8.9925 32.373 23.3805 0 0 0
2999 5 8.9925 32.373 34.1715 0 0 0
3003 5 5.3955 0.0 1.7985 0 0 0
3007 5 5.3955 0.0 5.3955 0 0 0
3019 5 5.3955 0.0 16.1865 0 0 0
3022 5 7.194 1.7985 19.7835 0 0 0
3023 5 5.3955 0.0 19.7835 0 0 0
3030 5 7.194 1.7985 26.9775 0 0 0
3031 5 5.3955 0.0 26.9775 0 0 0
3033 5 7.194 0.0 28.776 0 0 0
3041 5 7.194 3.597 0.0 0 0 0
3044 5 5.3955 5.3955 0.0 0 0 0
3067 5 5.3955 3.597 23.3805 0 0 0
3069 5 7.194 3.597 25.179 0 0 0
3074 5 7.194 5.3955 30.5745 0 0 0
3088 5 5.3955 8.9925 3.597 0 0 0
3090 5 7.194 8.9925 8.9925 0 0 0
3095 5 5.3955 7.194 12.5895 0 0 0
3096 5 5.3955 8.9925 10.791 0 0 0
3107 5 5.3955 7.194 23.3805 0 0 0
3110 5 7.194 8.9925 26.9775 0 0 0
3112 5 5.3955 8.9925 25.179 0 0 0
3114 5 7.194 8.9925 30.5745 0 0 0
3118 5 7.194 8.9925 34.1715 0 0 0
3121 5 7.194 10.791 0.0 0 0 0
3123 5 5.3955 10.791 1.7985 0 0 0
3128 5 5.3955 12.5895 3.597 0 0 0
3136 5 5.3955 12.5895 10.791 0 0 0
3138 5 7.194 12.5895 16.1865 0 0 0
3139 5 5.3955 10.791 16.1865 0 0 0
3145 5 7.194 10.791 21.582 0 0 0
3149 5 7.194 10.791 25.179 0 0 0
3151 5 5.3955 10.791 26.9775 0 0 0
3153 5 7.194 10.791 28.776 0 0 0
3161 5 7.194 14.388 0.0 0 0 0
3162 5 7.194 16.1865 1.7985 0 0 0
3168 5 5.3955 16.1865 3.597 0 0 0
3190 5 7.194 16.1865 26.9775 0 0 0
3201 5 7.194 17.985 0.0 0 0 0
3205 5 7.194 17.985 3.597 0 0 0
3211 5 5.3955 17.985 8.9925 0 0 0
3214 5 7.194 19.7835 12.5895 0 0 0
3220 5 5.3955 19.7835 14.388 0 0 0
3222 5 7.194 19.7835 19.7835 0 0 0
3228 5 5.3955 19.7835 21.582 0 0 0
3239 5 5.3955 17.985 34.1715 0 0 0
3241 5 7.194 21.582 0.0 0 0 0
3243 5 5.3955 21.582 1.7985 0 0 0
3256 5 5.3955 23.3805 10.791 0 0 0
3258 5 7.194 23.3805 16.1865 0 0 0
3264 5 5.3955 23.3805 17.985 0 0 0
3266 5 7.194 23.3805 23.3805 0 0 0
3267 5 5.3955 21.582 23.3805 0 0 0
3270 5 7.194 23.3805 26.9775 0 0 0
3274 5 7.194 23.3805 30.5745 0 0 0
3275 5 5.3955 21.582 30.5745 0 0 0
3285 5 7.194 25.179 3.597 0 0 0
3297 5 7.194 25.179 14.388 0 0 0
3298 5 7.194 26.9775 16.1865 0 0 0
3304 5 5.3955 26.9775 17.985 0 0 0
3309 5 7.194 25.179 25.179 0 0 0
3310 5 7.194 26.9775 26.9775 0 0 0
3317 5 7.194 25.179 32.373 0 0 0
3322 5 7.194 30.5745 1.7985 0 0 0
3327 5 5.3955 28.776 5.3955 0 0 0
3333 5 7.194 28.776 10.791 0 0 0
3334 5 7.194 30.5745 12.5895 0 0 0
3349 5 7.194 28.776 25.179 0 0 0
3350 5 7.194 30.5745 26.9775 0 0 0
3352 5 5.3955 30.5745 25.179 0 0 0
3354 5 7.194 30.5745 30.5745 0 0 0
3370 5 7.194 34.1715 8.9925 0 0 0
3379 5 5.3955 32.373 16.1865 0 0 0
3380 5 5.3955 34.1715 14.388 0 0 0
3388 5 5.3955 34.1715 21.582 0 0 0
3393 5 7.194 32.373 28.776 0 0 0
3399 5 5.3955 32.373 34.1715 0 0 0
3401 5 3.597 0.0 0.0 0 0 0
3404 5 1.7985 1.7985 0.0 0 0 0
3405 5 3.597 0.0 3.597 0 0 0
3406 5 3.597 1.7985 5.3955 0 0 0
3409 5 3.597 0.0 7.194 0 0 0
3410 5 3.597 1.7985 8.9925 0 0 0
3425 5 3.597 0.0 21.582 0 0 0
3438 5 3.597 1.7985 34.1715 0 0 0
3446 5 3.597 5.3955 5.3955 0 0 0
3447 5 1.7985 3.597 5.3955 0 0 0
3456 5 1.7985 5.3955 10.791 0 0 0
3457 5 3.597 3.597 14.388 0 0 0
3462 5 3.597 5.3955 19.7835 0 0 0
3464 5 1.7985 5.3955 17.985 0 0 0
3465 5 3.597 3.597 21.582 0 0 0
3473 5 3.597 3.597 28.776 0 0 0
3476 5 1.7985 5.3955 28.776 0 0 0
3481 5 3.597 7.194 0.0 0 0 0
3487 5 1.7985 7.194 5.3955 0 0 0
3489 5 3.597 7.194 7.194 0 0 0
3490 5 3.597 8.9925 8.9925 0 0 0
3492 5 1.7985 8.9925 7.194 0 0 0
3498 5 3.597 8.9925 16.1865 0 0 0
3502 5 3.597 8.9925 19.7835 0 0 0
3507 5 1.7985 7.194 23.3805 0 0 0
3513 5 3.597 7.194 28.776 0 0 0
3516 5 1.7985 8.9925 28.776 0 0 0
3519 5 1.7985 7.194 34.1715 0 0 0
3522 5 3.597 12.5895 1.7985 0 0 0
3528 5 1.7985 12.5895 3.597 0 0 0
3529 5 3.597 10.791 7.194 0 0 0
3533 5 3.597 10.791 10.791 0 0 0
3540 5 1.7985 12.5895 14.388 0 0 0
3541 5 3.597 10.791 17.985 0 0 0
3543 5 1.7985 10.791 19.7835 0 0 0
3548 5 1.7985 12.5895 21.582 0 0 0
3551 5 1.7985 10.791 26.9775 0 0 0
3554 5 3.597 12.5895 30.5745 0 0 0
3556 5 1.7985 12.5895 28.776 0 0 0
3560 5 1.7985 12.5895 32.373 0 0 0
3561 5 3.597 14.388 0.0 0 0 0
3562 5 3.597 16.1865 1.7985 0 0 0
3563 5 1.7985 14.388 1.7985 0 0 0
3569 5 3.597 14.388 7.194 0 0 0
3572 5 1.7985 16.1865 7.194 0 0 0
3581 5 3.597 14.388 17.985 0 0 0
3585 5 3.597 14.388 21.582 0 0 0
3589 5 3.597 14.388 25.179 0 0 0
3598 5 3.597 16.1865 34.1715 0 0 0
3601 5 3.597 17.985 0.0 0 0 0
3611 5 1.7985 17.985 8.9925 0 0 0
3615 5 1.7985 17.985 12.5895 0 0 0
3616 5 1.7985 19.7835 10.791 0 0 0
3623 5 1.7985 17.985 19.7835 0 0 0
3630 5 3.597 19.7835 26.9775 0 0 0
3633 5 3.597 17.985 28.776 0 0 0
3643 5 1.7985 21.582 1.7985 0 0 0
3648 5 1.7985 23.3805 3.597 0 0 0
3652 5 1.7985 23.3805 7.194 0 0 0
3653 5 3.597 21.582 10.791 0 0 0
3655 5 1.7985 21.582 12.5895 0 0 0
3670 5 3.597 23.3805 26.9775 0 0 0
3684 5 1.7985 26.9775 0.0 0 0 0
3690 5 3.597 26.9775 8.9925 0 0 0
3693 5 3.597 25.179 10.791 0 0 0
3694 5 3.597 26.9775 12.5895 0 0 0
3704 5 1.7985 26.9775 17.985 0 0 0
3708 5 1.7985 26.9775 21.582 0 0 0
3712 5 1.7985 26.9775 25.179 0 0 0
3714 5 3.597 26.9775 30.5745 0 0 0
3721 5 3.597 28.776 0.0 0 0 0
3726 5 3.597 30.5745 5.3955 0 0 0
3740 5 1.7985 30.5745 14.388 0 0 0
3741 5 3.597 28.776 17.985 0 0 0
3745 5 3.597 28.776 21.582 0 0 0
3755 5 1.7985 28.776 30.5745 0 0 0
3758 5 3.597 30.5745 34.1715 0 0 0
3766 5 3.597 34.1715 5.3955 0 0 0
3771 5 1.7985 32.373 8.9925 0 0 0
3772 5 1.7985 34.1715 7.194 0 0 0
3781 5 3.597 32.373 17.985 0 0 0
3793 5 3.597 32.373 28.776 0 0 0
3801 5 0.0 0.0 0.0 0 0 0
3808 5 0.0 1.7985 12.5895 0 0 0
3811 5 0.0 0.0 17.985 0 0 0
3818 5 0.0 1.7985 30.5745 0 0 0
3821 5 0.0 3.597 0.0 0 0 0
3822 5 0.0 5.3955 1.7985 0 0 0
3827 5 0.0 3.597 10.791 0 0 0
3841 5 0.0 7.194 0.0 0 0 0
3848 5 0.0 8.9925 12.5895 0 0 0
3857 5 0.0 7.194 28.776 0 0 0
3858 5 0.0 8.9925 30.5745 0 0 0
3859 5 0.0 7.194 32.373 0 0 0
3869 5 0.0 10.791 14.388 0 0 0
3879 5 0.0 10.791 32.373 0 0 0
3881 5 0.0 14.388 0.0 0 0 0
3888 5 0.0 16.1865 12.5895 0 0 0
3903 5 0.0 17.985 3.597 0 0 0
3909 5 0.0 17.985 14.388 0 0 0
3920 5 0.0 19.7835 34.1715 0 0 0
3924 5 0.0 23.3805 5.3955 0 0 0
3935 5 0.0 21.582 25.179 0 0 0
3936 5 0.0 23.3805 26.9775 0 0 0
3943 5 0.0 25.179 3.597 0 0 0
3950 5 0.0 26.9775 16.1865 0 0 0
3952 5 0.0 26.9775 19.7835 0 0 0
3960 5 0.0 26.9775 34.1715 0 0 0
3961 5 0.0 28.776 0.0 0 0 0
3964 5 0.0 30.5745 5.3955 0 0 0
3965 5 0.0 28.776 7.194 0 0 0
3968 5 0.0 30.5745 12.5895 0 0 0
3977 5 0.0 28.776 28.776 0 0 0
3984 5 0.0 34.1715 5.3955 0 0 0
3986 5 0.0 34.1715 8.9925 0 0 0
3989 5 0.0 32.373 14.388 0 0 0
4000 5 0.0 34.1715 34.1715 0 0 0
