LAMMPS data file via write_data version 30 Jul 2021 timestep = 0
4000 atoms
5 atom types
0 35.97 xlo xhi
0 35.97 ylo yhi
0 35.97 zlo zhi
0.0 0.0 0.0 xy xz yz
 
Masses
 
1 1.0
2 2.0
3 3.0
4 4.0
5 5.0
 
Atoms  # atomic
 
3779 1 1.7985 32.373 16.1865 0 0 0
545 1 32.373 28.776 21.582 0 0 0
2404 1 12.5895 19.7835 0.0 0 0 0
1211 1 23.3805 17.985 8.9925 0 0 0
190 1 34.1715 34.1715 14.388 0 0 0
2008 1 16.1865 19.7835 3.597 0 0 0
1813 1 17.985 0.0 10.791 0 0 0
1782 1 21.582 34.1715 19.7835 0 0 0
1701 1 21.582 25.179 17.985 0 0 0
3018 1 7.194 1.7985 16.1865 0 0 0
3918 1 0.0 19.7835 30.5745 0 0 0
311 1 30.5745 7.194 26.9775 0 0 0
1121 1 25.179 10.791 0.0 0 0 0
3106 1 7.194 8.9925 23.3805 0 0 0
779 1 26.9775 14.388 16.1865 0 0 0
829 1 28.776 17.985 25.179 0 0 0
2701 1 10.791 7.194 17.985 0 0 0
2576 1 12.5895 34.1715 10.791 0 0 0
2328 1 12.5895 12.5895 3.597 0 0 0
229 1 32.373 0.0 25.179 0 0 0
3153 1 7.194 10.791 28.776 0 0 0
1282 1 25.179 26.9775 1.7985 0 0 0
1856 1 16.1865 5.3955 10.791 0 0 0
1355 1 23.3805 28.776 30.5745 0 0 0
3012 1 5.3955 1.7985 7.194 0 0 0
3320 1 5.3955 26.9775 32.373 0 0 0
1870 1 17.985 5.3955 26.9775 0 0 0
2626 1 10.791 1.7985 23.3805 0 0 0
2622 1 10.791 1.7985 19.7835 0 0 0
3262 1 7.194 23.3805 19.7835 0 0 0
1999 1 16.1865 14.388 34.1715 0 0 0
234 1 32.373 1.7985 30.5745 0 0 0
520 1 30.5745 26.9775 32.373 0 0 0
3448 1 1.7985 5.3955 3.597 0 0 0
1318 1 25.179 26.9775 34.1715 0 0 0
3304 1 5.3955 26.9775 17.985 0 0 0
2058 1 17.985 23.3805 16.1865 0 0 0
1446 1 21.582 5.3955 5.3955 0 0 0
846 1 28.776 23.3805 5.3955 0 0 0
2798 1 10.791 16.1865 34.1715 0 0 0
2423 1 12.5895 17.985 19.7835 0 0 0
3480 1 1.7985 5.3955 32.373 0 0 0
1892 1 16.1865 8.9925 7.194 0 0 0
1828 1 16.1865 1.7985 21.582 0 0 0
96 1 34.1715 16.1865 25.179 0 0 0
3166 1 7.194 16.1865 5.3955 0 0 0
2424 1 12.5895 19.7835 17.985 0 0 0
3727 1 1.7985 28.776 5.3955 0 0 0
906 1 28.776 26.9775 23.3805 0 0 0
514 1 32.373 26.9775 30.5745 0 0 0
2913 1 10.791 25.179 28.776 0 0 0
1572 1 19.7835 16.1865 7.194 0 0 0
2172 1 16.1865 34.1715 7.194 0 0 0
984 1 26.9775 34.1715 17.985 0 0 0
2145 1 17.985 28.776 21.582 0 0 0
78 1 34.1715 12.5895 28.776 0 0 0
1562 1 21.582 16.1865 1.7985 0 0 0
2314 1 14.388 8.9925 30.5745 0 0 0
1109 1 25.179 7.194 25.179 0 0 0
751 1 26.9775 10.791 26.9775 0 0 0
1639 1 19.7835 17.985 34.1715 0 0 0
2934 1 10.791 30.5745 12.5895 0 0 0
258 1 32.373 5.3955 16.1865 0 0 0
3412 1 1.7985 1.7985 7.194 0 0 0
1078 1 25.179 5.3955 34.1715 0 0 0
1868 1 16.1865 5.3955 21.582 0 0 0
874 1 28.776 23.3805 30.5745 0 0 0
431 1 30.5745 17.985 26.9775 0 0 0
2563 1 12.5895 32.373 1.7985 0 0 0
2549 1 14.388 28.776 25.179 0 0 0
1342 1 25.179 30.5745 19.7835 0 0 0
3750 1 3.597 30.5745 26.9775 0 0 0
708 1 26.9775 8.9925 21.582 0 0 0
1152 1 23.3805 12.5895 25.179 0 0 0
3411 1 1.7985 0.0 8.9925 0 0 0
3397 1 7.194 32.373 32.373 0 0 0
2616 1 8.9925 1.7985 10.791 0 0 0
921 1 28.776 28.776 0.0 0 0 0
2043 1 16.1865 21.582 1.7985 0 0 0
1075 1 23.3805 3.597 30.5745 0 0 0
3841 1 0.0 7.194 0.0 0 0 0
2206 1 14.388 1.7985 5.3955 0 0 0
1364 1 23.3805 34.1715 0.0 0 0 0
447 1 30.5745 21.582 5.3955 0 0 0
404 1 30.5745 19.7835 0.0 0 0 0
3885 1 0.0 14.388 7.194 0 0 0
525 1 32.373 28.776 3.597 0 0 0
640 1 26.9775 1.7985 32.373 0 0 0
3743 1 1.7985 28.776 19.7835 0 0 0
1548 1 19.7835 12.5895 21.582 0 0 0
2832 1 8.9925 19.7835 25.179 0 0 0
167 1 34.1715 28.776 12.5895 0 0 0
1184 1 23.3805 16.1865 17.985 0 0 0
2807 1 8.9925 17.985 5.3955 0 0 0
3345 1 7.194 28.776 21.582 0 0 0
44 1 34.1715 8.9925 3.597 0 0 0
1642 1 21.582 23.3805 1.7985 0 0 0
3490 1 3.597 8.9925 8.9925 0 0 0
1127 1 23.3805 10.791 5.3955 0 0 0
695 1 26.9775 7.194 12.5895 0 0 0
3022 1 7.194 1.7985 19.7835 0 0 0
3825 1 0.0 3.597 7.194 0 0 0
953 1 28.776 28.776 28.776 0 0 0
761 1 28.776 14.388 0.0 0 0 0
2153 1 17.985 28.776 28.776 0 0 0
3247 1 5.3955 21.582 5.3955 0 0 0
1011 1 23.3805 0.0 8.9925 0 0 0
2398 1 14.388 16.1865 34.1715 0 0 0
3287 1 5.3955 25.179 5.3955 0 0 0
3997 1 0.0 32.373 28.776 0 0 0
3570 1 3.597 16.1865 8.9925 0 0 0
2620 1 8.9925 1.7985 14.388 0 0 0
2412 1 12.5895 19.7835 7.194 0 0 0
3912 1 0.0 19.7835 19.7835 0 0 0
3514 1 3.597 8.9925 30.5745 0 0 0
1428 1 19.7835 1.7985 21.582 0 0 0
664 1 26.9775 5.3955 17.985 0 0 0
2944 1 8.9925 30.5745 17.985 0 0 0
3013 1 7.194 0.0 10.791 0 0 0
2252 1 12.5895 5.3955 7.194 0 0 0
3317 1 7.194 25.179 32.373 0 0 0
2788 1 8.9925 16.1865 21.582 0 0 0
3642 1 3.597 23.3805 1.7985 0 0 0
2707 1 8.9925 7.194 23.3805 0 0 0
1383 1 23.3805 32.373 19.7835 0 0 0
1284 1 23.3805 26.9775 0.0 0 0 0
2972 1 8.9925 34.1715 7.194 0 0 0
1816 1 16.1865 1.7985 10.791 0 0 0
1048 1 23.3805 5.3955 3.597 0 0 0
320 1 30.5745 8.9925 32.373 0 0 0
2094 1 17.985 26.9775 12.5895 0 0 0
340 1 30.5745 12.5895 14.388 0 0 0
1956 1 16.1865 12.5895 28.776 0 0 0
2203 1 12.5895 0.0 1.7985 0 0 0
3819 1 0.0 0.0 32.373 0 0 0
725 1 28.776 10.791 3.597 0 0 0
140 1 34.1715 23.3805 32.373 0 0 0
1908 1 16.1865 8.9925 21.582 0 0 0
2949 1 10.791 28.776 25.179 0 0 0
1575 1 19.7835 14.388 12.5895 0 0 0
1265 1 25.179 21.582 21.582 0 0 0
1968 1 16.1865 16.1865 3.597 0 0 0
1715 1 19.7835 25.179 30.5745 0 0 0
2561 1 14.388 32.373 0.0 0 0 0
2330 1 14.388 12.5895 8.9925 0 0 0
1559 1 19.7835 10.791 34.1715 0 0 0
3936 1 0.0 23.3805 26.9775 0 0 0
2095 1 16.1865 25.179 12.5895 0 0 0
1497 1 21.582 7.194 14.388 0 0 0
2547 1 12.5895 28.776 23.3805 0 0 0
1934 1 17.985 12.5895 12.5895 0 0 0
2099 1 16.1865 25.179 16.1865 0 0 0
150 1 34.1715 26.9775 14.388 0 0 0
886 1 28.776 26.9775 5.3955 0 0 0
3188 1 5.3955 16.1865 21.582 0 0 0
1411 1 19.7835 0.0 8.9925 0 0 0
3494 1 3.597 8.9925 12.5895 0 0 0
3790 1 3.597 34.1715 26.9775 0 0 0
1778 1 21.582 34.1715 16.1865 0 0 0
3269 1 7.194 21.582 25.179 0 0 0
3873 1 0.0 10.791 21.582 0 0 0
3735 1 1.7985 28.776 12.5895 0 0 0
196 1 34.1715 34.1715 25.179 0 0 0
2838 1 10.791 19.7835 34.1715 0 0 0
1398 1 25.179 34.1715 34.1715 0 0 0
1137 1 25.179 10.791 14.388 0 0 0
215 1 30.5745 0.0 12.5895 0 0 0
2242 1 14.388 5.3955 1.7985 0 0 0
1275 1 23.3805 21.582 30.5745 0 0 0
3380 1 5.3955 34.1715 14.388 0 0 0
486 1 32.373 26.9775 5.3955 0 0 0
2641 1 10.791 3.597 0.0 0 0 0
555 1 30.5745 28.776 30.5745 0 0 0
3164 1 5.3955 16.1865 0.0 0 0 0
2080 1 16.1865 23.3805 32.373 0 0 0
3107 1 5.3955 7.194 23.3805 0 0 0
2926 1 10.791 30.5745 5.3955 0 0 0
2803 1 8.9925 17.985 1.7985 0 0 0
1495 1 19.7835 7.194 12.5895 0 0 0
1084 1 23.3805 8.9925 0.0 0 0 0
1151 1 23.3805 10.791 26.9775 0 0 0
973 1 28.776 32.373 10.791 0 0 0
138 1 34.1715 23.3805 28.776 0 0 0
2825 1 10.791 17.985 21.582 0 0 0
3982 1 0.0 34.1715 1.7985 0 0 0
1162 1 25.179 16.1865 1.7985 0 0 0
2012 1 16.1865 19.7835 7.194 0 0 0
2166 1 17.985 34.1715 5.3955 0 0 0
855 1 26.9775 21.582 12.5895 0 0 0
1753 1 21.582 28.776 28.776 0 0 0
3044 1 5.3955 5.3955 0.0 0 0 0
3916 1 0.0 19.7835 26.9775 0 0 0
19 1 34.1715 0.0 34.1715 0 0 0
741 1 28.776 10.791 17.985 0 0 0
1040 1 23.3805 1.7985 32.373 0 0 0
2418 1 14.388 19.7835 16.1865 0 0 0
2552 1 12.5895 30.5745 25.179 0 0 0
690 1 28.776 8.9925 8.9925 0 0 0
406 1 32.373 19.7835 5.3955 0 0 0
93 1 34.1715 14.388 23.3805 0 0 0
507 1 30.5745 25.179 23.3805 0 0 0
689 1 28.776 7.194 7.194 0 0 0
3375 1 5.3955 32.373 12.5895 0 0 0
2710 1 10.791 8.9925 26.9775 0 0 0
3615 1 1.7985 17.985 12.5895 0 0 0
270 1 32.373 5.3955 26.9775 0 0 0
1623 1 19.7835 17.985 19.7835 0 0 0
3053 1 7.194 3.597 10.791 0 0 0
60 1 34.1715 8.9925 32.373 0 0 0
3904 1 0.0 19.7835 5.3955 0 0 0
2846 1 10.791 23.3805 5.3955 0 0 0
3518 1 3.597 8.9925 34.1715 0 0 0
2657 1 10.791 3.597 14.388 0 0 0
3798 1 3.597 34.1715 34.1715 0 0 0
333 1 32.373 10.791 10.791 0 0 0
2186 1 17.985 34.1715 23.3805 0 0 0
462 1 32.373 23.3805 19.7835 0 0 0
3617 1 3.597 17.985 14.388 0 0 0
423 1 30.5745 17.985 19.7835 0 0 0
2090 1 17.985 26.9775 8.9925 0 0 0
205 1 32.373 0.0 3.597 0 0 0
3341 1 7.194 28.776 17.985 0 0 0
2483 1 12.5895 25.179 1.7985 0 0 0
1391 1 23.3805 32.373 26.9775 0 0 0
1994 1 17.985 16.1865 30.5745 0 0 0
2116 1 16.1865 26.9775 28.776 0 0 0
3043 1 5.3955 3.597 1.7985 0 0 0
3316 1 5.3955 26.9775 28.776 0 0 0
3554 1 3.597 12.5895 30.5745 0 0 0
186 1 34.1715 34.1715 7.194 0 0 0
498 1 32.373 26.9775 16.1865 0 0 0
3368 1 5.3955 34.1715 3.597 0 0 0
541 1 32.373 28.776 17.985 0 0 0
1991 1 16.1865 14.388 26.9775 0 0 0
1344 1 23.3805 30.5745 17.985 0 0 0
1258 1 25.179 23.3805 16.1865 0 0 0
291 1 30.5745 7.194 8.9925 0 0 0
2999 1 8.9925 32.373 34.1715 0 0 0
257 1 32.373 3.597 14.388 0 0 0
701 1 28.776 7.194 17.985 0 0 0
1279 1 23.3805 21.582 34.1715 0 0 0
2663 1 8.9925 3.597 19.7835 0 0 0
3571 1 1.7985 14.388 8.9925 0 0 0
1986 1 17.985 16.1865 23.3805 0 0 0
883 1 26.9775 25.179 1.7985 0 0 0
823 1 26.9775 17.985 19.7835 0 0 0
1960 1 16.1865 12.5895 32.373 0 0 0
1464 1 19.7835 5.3955 17.985 0 0 0
3032 1 5.3955 1.7985 25.179 0 0 0
3078 1 7.194 5.3955 34.1715 0 0 0
3230 1 7.194 19.7835 26.9775 0 0 0
2543 1 12.5895 28.776 19.7835 0 0 0
3770 1 3.597 34.1715 8.9925 0 0 0
1640 1 19.7835 19.7835 32.373 0 0 0
1739 1 19.7835 28.776 16.1865 0 0 0
754 1 28.776 12.5895 30.5745 0 0 0
3824 1 0.0 5.3955 5.3955 0 0 0
1526 1 21.582 12.5895 5.3955 0 0 0
3561 1 3.597 14.388 0.0 0 0 0
784 1 26.9775 16.1865 17.985 0 0 0
2554 1 14.388 30.5745 30.5745 0 0 0
2974 1 10.791 34.1715 12.5895 0 0 0
726 1 28.776 12.5895 5.3955 0 0 0
27 1 34.1715 3.597 12.5895 0 0 0
207 1 30.5745 0.0 5.3955 0 0 0
2286 1 14.388 8.9925 5.3955 0 0 0
3914 1 0.0 19.7835 23.3805 0 0 0
79 1 34.1715 10.791 34.1715 0 0 0
2168 1 16.1865 34.1715 3.597 0 0 0
89 1 34.1715 14.388 16.1865 0 0 0
450 1 32.373 23.3805 8.9925 0 0 0
1179 1 23.3805 14.388 16.1865 0 0 0
1267 1 23.3805 21.582 23.3805 0 0 0
336 1 30.5745 12.5895 10.791 0 0 0
2305 1 14.388 7.194 21.582 0 0 0
3052 1 5.3955 5.3955 7.194 0 0 0
2545 1 14.388 28.776 21.582 0 0 0
710 1 28.776 8.9925 26.9775 0 0 0
2655 1 8.9925 3.597 12.5895 0 0 0
218 1 32.373 1.7985 16.1865 0 0 0
3672 1 1.7985 23.3805 25.179 0 0 0
616 1 26.9775 1.7985 10.791 0 0 0
3755 1 1.7985 28.776 30.5745 0 0 0
2010 1 17.985 19.7835 8.9925 0 0 0
636 1 26.9775 1.7985 28.776 0 0 0
3445 1 3.597 3.597 3.597 0 0 0
612 1 26.9775 1.7985 7.194 0 0 0
3048 1 5.3955 5.3955 3.597 0 0 0
715 1 26.9775 7.194 30.5745 0 0 0
1054 1 25.179 5.3955 12.5895 0 0 0
3218 1 7.194 19.7835 16.1865 0 0 0
3538 1 3.597 12.5895 16.1865 0 0 0
108 1 34.1715 19.7835 10.791 0 0 0
1019 1 23.3805 0.0 16.1865 0 0 0
377 1 32.373 14.388 14.388 0 0 0
2439 1 12.5895 17.985 34.1715 0 0 0
1877 1 17.985 3.597 32.373 0 0 0
951 1 26.9775 28.776 26.9775 0 0 0
2231 1 12.5895 0.0 26.9775 0 0 0
679 1 26.9775 3.597 34.1715 0 0 0
28 1 34.1715 5.3955 10.791 0 0 0
3759 1 1.7985 28.776 34.1715 0 0 0
2700 1 8.9925 8.9925 14.388 0 0 0
3361 1 7.194 32.373 0.0 0 0 0
2551 1 12.5895 28.776 26.9775 0 0 0
524 1 30.5745 30.5745 0.0 0 0 0
1692 1 19.7835 26.9775 7.194 0 0 0
1651 1 19.7835 21.582 8.9925 0 0 0
1187 1 23.3805 14.388 23.3805 0 0 0
208 1 30.5745 1.7985 3.597 0 0 0
3950 1 0.0 26.9775 16.1865 0 0 0
1577 1 21.582 14.388 14.388 0 0 0
2728 1 8.9925 12.5895 3.597 0 0 0
202 1 32.373 1.7985 1.7985 0 0 0
2464 1 12.5895 23.3805 17.985 0 0 0
331 1 30.5745 10.791 8.9925 0 0 0
577 1 32.373 32.373 14.388 0 0 0
2149 1 17.985 28.776 25.179 0 0 0
1272 1 23.3805 23.3805 25.179 0 0 0
3668 1 1.7985 23.3805 21.582 0 0 0
2497 1 14.388 25.179 14.388 0 0 0
755 1 26.9775 10.791 30.5745 0 0 0
38 1 34.1715 5.3955 28.776 0 0 0
3797 1 3.597 32.373 32.373 0 0 0
3669 1 3.597 21.582 25.179 0 0 0
409 1 32.373 17.985 7.194 0 0 0
1744 1 19.7835 30.5745 17.985 0 0 0
3989 1 0.0 32.373 14.388 0 0 0
1294 1 25.179 26.9775 12.5895 0 0 0
3260 1 5.3955 23.3805 14.388 0 0 0
957 1 28.776 28.776 32.373 0 0 0
2814 1 10.791 19.7835 12.5895 0 0 0
2607 1 8.9925 0.0 5.3955 0 0 0
249 1 32.373 3.597 7.194 0 0 0
3619 1 1.7985 17.985 16.1865 0 0 0
195 1 34.1715 32.373 26.9775 0 0 0
1771 1 19.7835 32.373 8.9925 0 0 0
673 1 28.776 3.597 28.776 0 0 0
3861 1 0.0 10.791 0.0 0 0 0
1496 1 19.7835 8.9925 10.791 0 0 0
3277 1 7.194 21.582 32.373 0 0 0
1510 1 21.582 8.9925 26.9775 0 0 0
2670 1 10.791 5.3955 26.9775 0 0 0
3660 1 1.7985 23.3805 14.388 0 0 0
464 1 30.5745 23.3805 17.985 0 0 0
102 1 34.1715 19.7835 0.0 0 0 0
440 1 30.5745 19.7835 32.373 0 0 0
923 1 26.9775 28.776 1.7985 0 0 0
26 1 34.1715 5.3955 7.194 0 0 0
1076 1 23.3805 5.3955 28.776 0 0 0
1141 1 25.179 10.791 17.985 0 0 0
851 1 26.9775 21.582 8.9925 0 0 0
1286 1 25.179 26.9775 5.3955 0 0 0
3484 1 1.7985 8.9925 0.0 0 0 0
705 1 28.776 7.194 21.582 0 0 0
2883 1 8.9925 25.179 1.7985 0 0 0
2402 1 14.388 19.7835 1.7985 0 0 0
3605 1 3.597 17.985 3.597 0 0 0
2732 1 8.9925 12.5895 7.194 0 0 0
2313 1 14.388 7.194 28.776 0 0 0
2146 1 17.985 30.5745 23.3805 0 0 0
2273 1 14.388 3.597 28.776 0 0 0
1224 1 23.3805 19.7835 17.985 0 0 0
956 1 26.9775 30.5745 28.776 0 0 0
189 1 34.1715 32.373 16.1865 0 0 0
3530 1 3.597 12.5895 8.9925 0 0 0
2731 1 8.9925 10.791 8.9925 0 0 0
2082 1 17.985 26.9775 1.7985 0 0 0
936 1 26.9775 30.5745 10.791 0 0 0
1919 1 16.1865 7.194 34.1715 0 0 0
3733 1 3.597 28.776 10.791 0 0 0
3781 1 3.597 32.373 17.985 0 0 0
1467 1 19.7835 3.597 23.3805 0 0 0
753 1 28.776 10.791 28.776 0 0 0
1593 1 21.582 14.388 28.776 0 0 0
1823 1 16.1865 0.0 19.7835 0 0 0
3760 1 1.7985 30.5745 32.373 0 0 0
1643 1 19.7835 21.582 1.7985 0 0 0
3905 1 0.0 17.985 7.194 0 0 0
1768 1 19.7835 34.1715 3.597 0 0 0
356 1 30.5745 12.5895 28.776 0 0 0
3739 1 1.7985 28.776 16.1865 0 0 0
245 1 32.373 3.597 3.597 0 0 0
480 1 30.5745 23.3805 32.373 0 0 0
2124 1 16.1865 30.5745 0.0 0 0 0
2560 1 12.5895 30.5745 32.373 0 0 0
733 1 28.776 10.791 10.791 0 0 0
2920 1 8.9925 26.9775 32.373 0 0 0
2578 1 14.388 34.1715 16.1865 0 0 0
1882 1 17.985 8.9925 1.7985 0 0 0
2199 1 16.1865 32.373 34.1715 0 0 0
3295 1 5.3955 25.179 12.5895 0 0 0
2027 1 16.1865 17.985 23.3805 0 0 0
3019 1 5.3955 0.0 16.1865 0 0 0
1759 1 19.7835 28.776 34.1715 0 0 0
1970 1 17.985 16.1865 8.9925 0 0 0
2248 1 12.5895 5.3955 3.597 0 0 0
3651 1 1.7985 21.582 8.9925 0 0 0
1566 1 21.582 16.1865 5.3955 0 0 0
696 1 26.9775 8.9925 10.791 0 0 0
3563 1 1.7985 14.388 1.7985 0 0 0
412 1 30.5745 19.7835 7.194 0 0 0
3876 1 0.0 12.5895 26.9775 0 0 0
3456 1 1.7985 5.3955 10.791 0 0 0
3806 1 0.0 1.7985 8.9925 0 0 0
3432 1 1.7985 1.7985 25.179 0 0 0
2143 1 16.1865 28.776 19.7835 0 0 0
2591 1 12.5895 32.373 26.9775 0 0 0
2603 1 8.9925 0.0 1.7985 0 0 0
41 1 34.1715 7.194 1.7985 0 0 0
3749 1 3.597 28.776 25.179 0 0 0
1555 1 19.7835 10.791 30.5745 0 0 0
3329 1 7.194 28.776 7.194 0 0 0
3346 1 7.194 30.5745 23.3805 0 0 0
222 1 32.373 1.7985 19.7835 0 0 0
2767 1 8.9925 14.388 5.3955 0 0 0
2059 1 16.1865 21.582 16.1865 0 0 0
3168 1 5.3955 16.1865 3.597 0 0 0
2521 1 14.388 28.776 0.0 0 0 0
1722 1 21.582 30.5745 1.7985 0 0 0
1443 1 19.7835 3.597 1.7985 0 0 0
1444 1 19.7835 5.3955 0.0 0 0 0
3259 1 5.3955 21.582 16.1865 0 0 0
3270 1 7.194 23.3805 26.9775 0 0 0
658 1 28.776 5.3955 16.1865 0 0 0
3095 1 5.3955 7.194 12.5895 0 0 0
3286 1 7.194 26.9775 5.3955 0 0 0
762 1 28.776 16.1865 1.7985 0 0 0
3832 1 0.0 5.3955 19.7835 0 0 0
533 1 32.373 28.776 10.791 0 0 0
1427 1 19.7835 0.0 23.3805 0 0 0
2291 1 12.5895 7.194 8.9925 0 0 0
3481 1 3.597 7.194 0.0 0 0 0
1068 1 23.3805 5.3955 21.582 0 0 0
2508 1 12.5895 26.9775 21.582 0 0 0
2072 1 16.1865 23.3805 25.179 0 0 0
3827 1 0.0 3.597 10.791 0 0 0
2680 1 8.9925 5.3955 32.373 0 0 0
3911 1 0.0 17.985 17.985 0 0 0
1542 1 21.582 12.5895 19.7835 0 0 0
543 1 30.5745 28.776 19.7835 0 0 0
3224 1 5.3955 19.7835 17.985 0 0 0
2244 1 12.5895 5.3955 0.0 0 0 0
3083 1 5.3955 7.194 1.7985 0 0 0
69 1 34.1715 10.791 16.1865 0 0 0
1525 1 21.582 10.791 3.597 0 0 0
2036 1 16.1865 19.7835 28.776 0 0 0
1573 1 21.582 14.388 10.791 0 0 0
3130 1 7.194 12.5895 8.9925 0 0 0
3520 1 1.7985 8.9925 32.373 0 0 0
169 1 34.1715 28.776 16.1865 0 0 0
682 1 28.776 8.9925 1.7985 0 0 0
1012 1 23.3805 1.7985 7.194 0 0 0
3136 1 5.3955 12.5895 10.791 0 0 0
1431 1 19.7835 0.0 26.9775 0 0 0
2725 1 10.791 10.791 3.597 0 0 0
3482 1 3.597 8.9925 1.7985 0 0 0
3035 1 5.3955 0.0 30.5745 0 0 0
2943 1 8.9925 28.776 19.7835 0 0 0
1537 1 21.582 10.791 14.388 0 0 0
1130 1 25.179 12.5895 8.9925 0 0 0
703 1 26.9775 7.194 19.7835 0 0 0
2251 1 12.5895 3.597 8.9925 0 0 0
3502 1 3.597 8.9925 19.7835 0 0 0
2035 1 16.1865 17.985 30.5745 0 0 0
1290 1 25.179 26.9775 8.9925 0 0 0
1260 1 23.3805 23.3805 14.388 0 0 0
1527 1 19.7835 10.791 5.3955 0 0 0
3274 1 7.194 23.3805 30.5745 0 0 0
452 1 30.5745 23.3805 7.194 0 0 0
1589 1 21.582 14.388 25.179 0 0 0
3641 1 3.597 21.582 0.0 0 0 0
236 1 30.5745 1.7985 28.776 0 0 0
11 1 34.1715 0.0 19.7835 0 0 0
3217 1 7.194 17.985 14.388 0 0 0
573 1 32.373 32.373 10.791 0 0 0
3171 1 5.3955 14.388 8.9925 0 0 0
3201 1 7.194 17.985 0.0 0 0 0
1955 1 16.1865 10.791 30.5745 0 0 0
2258 1 14.388 5.3955 16.1865 0 0 0
2737 1 10.791 10.791 14.388 0 0 0
3203 1 5.3955 17.985 1.7985 0 0 0
3110 1 7.194 8.9925 26.9775 0 0 0
1034 1 25.179 1.7985 30.5745 0 0 0
3730 1 3.597 30.5745 8.9925 0 0 0
818 1 28.776 19.7835 16.1865 0 0 0
2792 1 8.9925 16.1865 25.179 0 0 0
999 1 26.9775 32.373 34.1715 0 0 0
2816 1 8.9925 19.7835 10.791 0 0 0
1169 1 25.179 14.388 7.194 0 0 0
1774 1 21.582 34.1715 12.5895 0 0 0
1351 1 23.3805 28.776 26.9775 0 0 0
2904 1 8.9925 26.9775 17.985 0 0 0
3324 1 5.3955 30.5745 0.0 0 0 0
1346 1 25.179 30.5745 23.3805 0 0 0
3667 1 1.7985 21.582 23.3805 0 0 0
3945 1 0.0 25.179 7.194 0 0 0
1451 1 19.7835 3.597 8.9925 0 0 0
3039 1 5.3955 0.0 34.1715 0 0 0
1973 1 17.985 14.388 10.791 0 0 0
3948 1 0.0 26.9775 12.5895 0 0 0
295 1 30.5745 7.194 12.5895 0 0 0
1135 1 23.3805 10.791 12.5895 0 0 0
2130 1 17.985 30.5745 8.9925 0 0 0
3041 1 7.194 3.597 0.0 0 0 0
1821 1 17.985 0.0 17.985 0 0 0
1915 1 16.1865 7.194 30.5745 0 0 0
2403 1 12.5895 17.985 1.7985 0 0 0
3513 1 3.597 7.194 28.776 0 0 0
527 1 30.5745 28.776 5.3955 0 0 0
2019 1 16.1865 17.985 16.1865 0 0 0
1544 1 19.7835 12.5895 17.985 0 0 0
2190 1 17.985 34.1715 26.9775 0 0 0
2371 1 12.5895 14.388 8.9925 0 0 0
1884 1 16.1865 8.9925 0.0 0 0 0
30 1 34.1715 5.3955 14.388 0 0 0
3250 1 7.194 23.3805 8.9925 0 0 0
2708 1 8.9925 8.9925 21.582 0 0 0
1582 1 21.582 16.1865 19.7835 0 0 0
2686 1 10.791 8.9925 5.3955 0 0 0
359 1 30.5745 10.791 34.1715 0 0 0
3691 1 1.7985 25.179 8.9925 0 0 0
1561 1 21.582 14.388 0.0 0 0 0
2786 1 10.791 16.1865 23.3805 0 0 0
2161 1 17.985 32.373 0.0 0 0 0
1147 1 23.3805 10.791 23.3805 0 0 0
3143 1 5.3955 10.791 19.7835 0 0 0
23 1 34.1715 3.597 5.3955 0 0 0
1909 1 17.985 7.194 25.179 0 0 0
2744 1 8.9925 12.5895 17.985 0 0 0
3378 1 7.194 34.1715 16.1865 0 0 0
1553 1 21.582 10.791 28.776 0 0 0
1837 1 17.985 0.0 32.373 0 0 0
2908 1 8.9925 26.9775 21.582 0 0 0
3337 1 7.194 28.776 14.388 0 0 0
3150 1 7.194 12.5895 26.9775 0 0 0
1916 1 16.1865 8.9925 28.776 0 0 0
434 1 32.373 19.7835 30.5745 0 0 0
2173 1 17.985 32.373 10.791 0 0 0
3596 1 1.7985 16.1865 28.776 0 0 0
3454 1 3.597 5.3955 12.5895 0 0 0
2323 1 12.5895 10.791 1.7985 0 0 0
670 1 28.776 5.3955 26.9775 0 0 0
2138 1 17.985 30.5745 16.1865 0 0 0
1663 1 19.7835 21.582 19.7835 0 0 0
2531 1 12.5895 28.776 8.9925 0 0 0
135 1 34.1715 21.582 26.9775 0 0 0
3857 1 0.0 7.194 28.776 0 0 0
1654 1 21.582 23.3805 12.5895 0 0 0
2693 1 10.791 7.194 10.791 0 0 0
1996 1 16.1865 16.1865 28.776 0 0 0
1241 1 25.179 21.582 0.0 0 0 0
774 1 28.776 16.1865 12.5895 0 0 0
2773 1 10.791 14.388 10.791 0 0 0
3592 1 1.7985 16.1865 25.179 0 0 0
1030 1 25.179 1.7985 26.9775 0 0 0
3772 1 1.7985 34.1715 7.194 0 0 0
1249 1 25.179 21.582 7.194 0 0 0
2970 1 10.791 34.1715 8.9925 0 0 0
2933 1 10.791 28.776 10.791 0 0 0
120 1 34.1715 19.7835 32.373 0 0 0
2875 1 8.9925 21.582 30.5745 0 0 0
303 1 30.5745 7.194 19.7835 0 0 0
1814 1 17.985 1.7985 12.5895 0 0 0
3718 1 3.597 26.9775 34.1715 0 0 0
2684 1 8.9925 8.9925 0.0 0 0 0
3303 1 5.3955 25.179 19.7835 0 0 0
2118 1 17.985 26.9775 34.1715 0 0 0
121 1 34.1715 21.582 1.7985 0 0 0
3047 1 5.3955 3.597 5.3955 0 0 0
2523 1 12.5895 28.776 1.7985 0 0 0
2060 1 16.1865 23.3805 14.388 0 0 0
3670 1 3.597 23.3805 26.9775 0 0 0
2422 1 14.388 19.7835 19.7835 0 0 0
3995 1 0.0 32.373 25.179 0 0 0
3703 1 1.7985 25.179 19.7835 0 0 0
3846 1 0.0 8.9925 8.9925 0 0 0
3079 1 5.3955 3.597 34.1715 0 0 0
1276 1 23.3805 23.3805 28.776 0 0 0
2217 1 14.388 0.0 14.388 0 0 0
3557 1 3.597 10.791 32.373 0 0 0
707 1 26.9775 7.194 23.3805 0 0 0
3526 1 3.597 12.5895 5.3955 0 0 0
651 1 26.9775 3.597 8.9925 0 0 0
2218 1 14.388 1.7985 16.1865 0 0 0
744 1 26.9775 12.5895 17.985 0 0 0
201 1 32.373 0.0 0.0 0 0 0
2503 1 12.5895 25.179 19.7835 0 0 0
2957 1 10.791 28.776 32.373 0 0 0
877 1 28.776 21.582 32.373 0 0 0
1983 1 16.1865 14.388 19.7835 0 0 0
2420 1 12.5895 19.7835 14.388 0 0 0
1560 1 19.7835 12.5895 32.373 0 0 0
1500 1 19.7835 8.9925 14.388 0 0 0
1841 1 17.985 3.597 0.0 0 0 0
1435 1 19.7835 0.0 30.5745 0 0 0
1893 1 17.985 7.194 10.791 0 0 0
881 1 28.776 25.179 0.0 0 0 0
1972 1 16.1865 16.1865 7.194 0 0 0
3659 1 1.7985 21.582 16.1865 0 0 0
2776 1 8.9925 16.1865 10.791 0 0 0
1957 1 17.985 10.791 32.373 0 0 0
381 1 32.373 14.388 17.985 0 0 0
2759 1 8.9925 10.791 34.1715 0 0 0
2136 1 16.1865 30.5745 10.791 0 0 0
1855 1 16.1865 3.597 12.5895 0 0 0
3609 1 3.597 17.985 7.194 0 0 0
68 1 34.1715 12.5895 10.791 0 0 0
1819 1 16.1865 0.0 16.1865 0 0 0
2733 1 10.791 10.791 10.791 0 0 0
2157 1 17.985 28.776 32.373 0 0 0
2590 1 14.388 34.1715 26.9775 0 0 0
3869 1 0.0 10.791 14.388 0 0 0
289 1 32.373 7.194 7.194 0 0 0
1676 1 19.7835 23.3805 28.776 0 0 0
3794 1 3.597 34.1715 30.5745 0 0 0
170 1 34.1715 30.5745 14.388 0 0 0
3631 1 1.7985 17.985 26.9775 0 0 0
1879 1 16.1865 3.597 34.1715 0 0 0
767 1 26.9775 14.388 5.3955 0 0 0
2400 1 12.5895 16.1865 32.373 0 0 0
1796 1 19.7835 34.1715 28.776 0 0 0
2653 1 10.791 3.597 10.791 0 0 0
382 1 32.373 16.1865 19.7835 0 0 0
2539 1 12.5895 28.776 16.1865 0 0 0
2249 1 14.388 3.597 7.194 0 0 0
3845 1 0.0 7.194 7.194 0 0 0
2069 1 17.985 21.582 25.179 0 0 0
2068 1 16.1865 23.3805 21.582 0 0 0
472 1 30.5745 23.3805 25.179 0 0 0
1356 1 23.3805 30.5745 28.776 0 0 0
177 1 34.1715 28.776 30.5745 0 0 0
3498 1 3.597 8.9925 16.1865 0 0 0
3839 1 0.0 3.597 32.373 0 0 0
35 1 34.1715 3.597 26.9775 0 0 0
1591 1 19.7835 14.388 26.9775 0 0 0
1498 1 21.582 8.9925 16.1865 0 0 0
778 1 28.776 16.1865 16.1865 0 0 0
1531 1 19.7835 10.791 8.9925 0 0 0
1798 1 21.582 34.1715 34.1715 0 0 0
1195 1 23.3805 14.388 30.5745 0 0 0
3261 1 7.194 21.582 17.985 0 0 0
129 1 34.1715 21.582 16.1865 0 0 0
3057 1 7.194 3.597 14.388 0 0 0
3720 1 1.7985 26.9775 32.373 0 0 0
3470 1 3.597 5.3955 26.9775 0 0 0
3793 1 3.597 32.373 28.776 0 0 0
70 1 34.1715 12.5895 14.388 0 0 0
977 1 28.776 32.373 14.388 0 0 0
2281 1 14.388 7.194 0.0 0 0 0
3785 1 3.597 32.373 21.582 0 0 0
3300 1 5.3955 26.9775 14.388 0 0 0
2441 1 14.388 21.582 0.0 0 0 0
2147 1 16.1865 28.776 23.3805 0 0 0
3463 1 1.7985 3.597 19.7835 0 0 0
1125 1 25.179 10.791 3.597 0 0 0
2536 1 12.5895 30.5745 10.791 0 0 0
2959 1 8.9925 28.776 34.1715 0 0 0
348 1 30.5745 12.5895 21.582 0 0 0
3289 1 7.194 25.179 7.194 0 0 0
3475 1 1.7985 3.597 30.5745 0 0 0
1504 1 19.7835 8.9925 17.985 0 0 0
2862 1 10.791 23.3805 19.7835 0 0 0
3455 1 1.7985 3.597 12.5895 0 0 0
1502 1 21.582 8.9925 19.7835 0 0 0
1237 1 25.179 17.985 32.373 0 0 0
1007 1 23.3805 0.0 5.3955 0 0 0
3206 1 7.194 19.7835 5.3955 0 0 0
1878 1 17.985 5.3955 34.1715 0 0 0
3708 1 1.7985 26.9775 21.582 0 0 0
549 1 32.373 28.776 25.179 0 0 0
2530 1 14.388 30.5745 8.9925 0 0 0
2966 1 10.791 34.1715 5.3955 0 0 0
3020 1 5.3955 1.7985 14.388 0 0 0
1932 1 16.1865 12.5895 7.194 0 0 0
347 1 30.5745 10.791 23.3805 0 0 0
598 1 32.373 34.1715 34.1715 0 0 0
903 1 26.9775 25.179 19.7835 0 0 0
1585 1 21.582 14.388 21.582 0 0 0
3338 1 7.194 30.5745 16.1865 0 0 0
3202 1 7.194 19.7835 1.7985 0 0 0
2293 1 14.388 7.194 10.791 0 0 0
1327 1 23.3805 28.776 5.3955 0 0 0
2097 1 17.985 25.179 14.388 0 0 0
1088 1 23.3805 8.9925 3.597 0 0 0
2298 1 14.388 8.9925 16.1865 0 0 0
1540 1 19.7835 12.5895 14.388 0 0 0
3572 1 1.7985 16.1865 7.194 0 0 0
988 1 26.9775 34.1715 21.582 0 0 0
3821 1 0.0 3.597 0.0 0 0 0
3683 1 1.7985 25.179 1.7985 0 0 0
2753 1 10.791 10.791 28.776 0 0 0
1975 1 16.1865 14.388 12.5895 0 0 0
1110 1 25.179 8.9925 26.9775 0 0 0
132 1 34.1715 23.3805 17.985 0 0 0
3630 1 3.597 19.7835 26.9775 0 0 0
3996 1 0.0 34.1715 26.9775 0 0 0
938 1 28.776 30.5745 16.1865 0 0 0
3403 1 1.7985 0.0 1.7985 0 0 0
2695 1 8.9925 7.194 12.5895 0 0 0
3549 1 3.597 10.791 25.179 0 0 0
3855 1 0.0 7.194 25.179 0 0 0
2669 1 10.791 3.597 25.179 0 0 0
378 1 32.373 16.1865 16.1865 0 0 0
1696 1 19.7835 26.9775 10.791 0 0 0
2263 1 12.5895 3.597 19.7835 0 0 0
3351 1 5.3955 28.776 26.9775 0 0 0
671 1 26.9775 3.597 26.9775 0 0 0
2797 1 10.791 14.388 32.373 0 0 0
927 1 26.9775 28.776 5.3955 0 0 0
814 1 28.776 19.7835 12.5895 0 0 0
2214 1 14.388 1.7985 12.5895 0 0 0
939 1 26.9775 28.776 16.1865 0 0 0
748 1 26.9775 12.5895 21.582 0 0 0
1432 1 19.7835 1.7985 25.179 0 0 0
1441 1 21.582 3.597 0.0 0 0 0
2209 1 14.388 0.0 7.194 0 0 0
2617 1 10.791 0.0 14.388 0 0 0
2204 1 12.5895 1.7985 0.0 0 0 0
416 1 30.5745 19.7835 10.791 0 0 0
1490 1 21.582 8.9925 8.9925 0 0 0
769 1 28.776 14.388 7.194 0 0 0
989 1 28.776 32.373 25.179 0 0 0
451 1 30.5745 21.582 8.9925 0 0 0
53 1 34.1715 7.194 23.3805 0 0 0
2042 1 17.985 23.3805 1.7985 0 0 0
1550 1 21.582 12.5895 26.9775 0 0 0
3731 1 1.7985 28.776 8.9925 0 0 0
2235 1 12.5895 0.0 30.5745 0 0 0
1738 1 21.582 30.5745 16.1865 0 0 0
730 1 28.776 12.5895 8.9925 0 0 0
772 1 26.9775 16.1865 7.194 0 0 0
3791 1 1.7985 32.373 26.9775 0 0 0
1767 1 19.7835 32.373 5.3955 0 0 0
3608 1 1.7985 19.7835 3.597 0 0 0
2394 1 14.388 16.1865 30.5745 0 0 0
1806 1 17.985 1.7985 5.3955 0 0 0
2033 1 17.985 17.985 28.776 0 0 0
152 1 34.1715 26.9775 17.985 0 0 0
3761 1 3.597 32.373 0.0 0 0 0
2994 1 10.791 34.1715 30.5745 0 0 0
1439 1 19.7835 0.0 34.1715 0 0 0
2455 1 12.5895 21.582 12.5895 0 0 0
285 1 32.373 7.194 3.597 0 0 0
2194 1 17.985 34.1715 30.5745 0 0 0
3817 1 0.0 0.0 28.776 0 0 0
2496 1 12.5895 26.9775 10.791 0 0 0
1547 1 19.7835 10.791 23.3805 0 0 0
1694 1 21.582 26.9775 12.5895 0 0 0
2711 1 8.9925 7.194 26.9775 0 0 0
3545 1 3.597 10.791 21.582 0 0 0
3011 1 5.3955 0.0 8.9925 0 0 0
367 1 30.5745 14.388 5.3955 0 0 0
2347 1 12.5895 10.791 23.3805 0 0 0
2077 1 17.985 21.582 32.373 0 0 0
1150 1 25.179 12.5895 26.9775 0 0 0
323 1 30.5745 10.791 1.7985 0 0 0
188 1 34.1715 34.1715 10.791 0 0 0
2159 1 16.1865 28.776 34.1715 0 0 0
2559 1 12.5895 28.776 34.1715 0 0 0
3379 1 5.3955 32.373 16.1865 0 0 0
3189 1 7.194 14.388 25.179 0 0 0
248 1 30.5745 5.3955 3.597 0 0 0
1401 1 21.582 0.0 0.0 0 0 0
3399 1 5.3955 32.373 34.1715 0 0 0
2467 1 12.5895 21.582 23.3805 0 0 0
1408 1 19.7835 1.7985 3.597 0 0 0
3569 1 3.597 14.388 7.194 0 0 0
2956 1 8.9925 30.5745 28.776 0 0 0
3251 1 5.3955 21.582 8.9925 0 0 0
182 1 34.1715 34.1715 0.0 0 0 0
115 1 34.1715 17.985 26.9775 0 0 0
900 1 26.9775 26.9775 14.388 0 0 0
3634 1 3.597 19.7835 30.5745 0 0 0
819 1 26.9775 17.985 16.1865 0 0 0
3318 1 7.194 26.9775 34.1715 0 0 0
2390 1 14.388 16.1865 26.9775 0 0 0
2778 1 10.791 16.1865 16.1865 0 0 0
1742 1 21.582 30.5745 19.7835 0 0 0
2935 1 8.9925 28.776 12.5895 0 0 0
2682 1 10.791 8.9925 1.7985 0 0 0
1874 1 17.985 5.3955 30.5745 0 0 0
3928 1 0.0 23.3805 12.5895 0 0 0
95 1 34.1715 14.388 26.9775 0 0 0
3447 1 1.7985 3.597 5.3955 0 0 0
2950 1 10.791 30.5745 26.9775 0 0 0
3528 1 1.7985 12.5895 3.597 0 0 0
1781 1 21.582 32.373 17.985 0 0 0
2808 1 8.9925 19.7835 3.597 0 0 0
611 1 26.9775 0.0 8.9925 0 0 0
1176 1 23.3805 16.1865 10.791 0 0 0
242 1 32.373 5.3955 1.7985 0 0 0
1645 1 21.582 21.582 3.597 0 0 0
131 1 34.1715 21.582 19.7835 0 0 0
1246 1 25.179 23.3805 5.3955 0 0 0
2092 1 16.1865 26.9775 7.194 0 0 0
2295 1 12.5895 7.194 12.5895 0 0 0
2475 1 12.5895 21.582 30.5745 0 0 0
3401 1 3.597 0.0 0.0 0 0 0
3877 1 0.0 10.791 28.776 0 0 0
391 1 30.5745 14.388 26.9775 0 0 0
3491 1 1.7985 7.194 8.9925 0 0 0
292 1 30.5745 8.9925 7.194 0 0 0
461 1 32.373 21.582 17.985 0 0 0
3516 1 1.7985 8.9925 28.776 0 0 0
1624 1 19.7835 19.7835 17.985 0 0 0
3628 1 1.7985 19.7835 21.582 0 0 0
2032 1 16.1865 19.7835 25.179 0 0 0
481 1 32.373 25.179 0.0 0 0 0
1297 1 25.179 25.179 14.388 0 0 0
1099 1 23.3805 7.194 16.1865 0 0 0
1465 1 21.582 3.597 21.582 0 0 0
1316 1 23.3805 26.9775 28.776 0 0 0
1580 1 19.7835 16.1865 14.388 0 0 0
2169 1 17.985 32.373 7.194 0 0 0
3655 1 1.7985 21.582 12.5895 0 0 0
3871 1 0.0 10.791 17.985 0 0 0
793 1 28.776 14.388 28.776 0 0 0
564 1 30.5745 34.1715 0.0 0 0 0
1392 1 23.3805 34.1715 25.179 0 0 0
672 1 26.9775 5.3955 25.179 0 0 0
1098 1 25.179 8.9925 16.1865 0 0 0
3901 1 0.0 17.985 0.0 0 0 0
3751 1 1.7985 28.776 26.9775 0 0 0
2386 1 14.388 16.1865 23.3805 0 0 0
2912 1 8.9925 26.9775 25.179 0 0 0
3922 1 0.0 23.3805 1.7985 0 0 0
3216 1 5.3955 19.7835 10.791 0 0 0
633 1 28.776 0.0 28.776 0 0 0
2300 1 12.5895 8.9925 14.388 0 0 0
1026 1 25.179 1.7985 23.3805 0 0 0
1836 1 16.1865 1.7985 28.776 0 0 0
2360 1 12.5895 12.5895 32.373 0 0 0
2890 1 10.791 26.9775 8.9925 0 0 0
296 1 30.5745 8.9925 10.791 0 0 0
2568 1 12.5895 34.1715 3.597 0 0 0
1373 1 25.179 32.373 10.791 0 0 0
963 1 26.9775 32.373 1.7985 0 0 0
487 1 30.5745 25.179 5.3955 0 0 0
3092 1 5.3955 8.9925 7.194 0 0 0
2573 1 14.388 32.373 10.791 0 0 0
3449 1 3.597 3.597 7.194 0 0 0
3152 1 5.3955 12.5895 25.179 0 0 0
844 1 26.9775 23.3805 0.0 0 0 0
2279 1 12.5895 3.597 34.1715 0 0 0
3461 1 3.597 3.597 17.985 0 0 0
566 1 32.373 34.1715 5.3955 0 0 0
2746 1 10.791 12.5895 23.3805 0 0 0
2610 1 10.791 1.7985 8.9925 0 0 0
3425 1 3.597 0.0 21.582 0 0 0
1962 1 17.985 16.1865 1.7985 0 0 0
3086 1 7.194 8.9925 5.3955 0 0 0
3068 1 5.3955 5.3955 21.582 0 0 0
517 1 32.373 25.179 32.373 0 0 0
3640 1 1.7985 19.7835 32.373 0 0 0
834 1 28.776 19.7835 30.5745 0 0 0
2310 1 14.388 8.9925 26.9775 0 0 0
3305 1 7.194 25.179 21.582 0 0 0
2255 1 12.5895 3.597 12.5895 0 0 0
1419 1 19.7835 0.0 16.1865 0 0 0
3758 1 3.597 30.5745 34.1715 0 0 0
1737 1 21.582 28.776 14.388 0 0 0
1689 1 21.582 25.179 7.194 0 0 0
1134 1 25.179 12.5895 12.5895 0 0 0
2389 1 14.388 14.388 25.179 0 0 0
370 1 32.373 16.1865 8.9925 0 0 0
2668 1 8.9925 5.3955 21.582 0 0 0
1387 1 23.3805 32.373 23.3805 0 0 0
1629 1 21.582 17.985 25.179 0 0 0
2582 1 14.388 34.1715 19.7835 0 0 0
2719 1 8.9925 7.194 34.1715 0 0 0
3701 1 3.597 25.179 17.985 0 0 0
3252 1 5.3955 23.3805 7.194 0 0 0
1587 1 19.7835 14.388 23.3805 0 0 0
3326 1 7.194 30.5745 5.3955 0 0 0
3581 1 3.597 14.388 17.985 0 0 0
3938 1 0.0 23.3805 30.5745 0 0 0
842 1 28.776 23.3805 1.7985 0 0 0
978 1 28.776 34.1715 16.1865 0 0 0
2888 1 8.9925 26.9775 3.597 0 0 0
449 1 32.373 21.582 7.194 0 0 0
3880 1 0.0 12.5895 34.1715 0 0 0
2902 1 10.791 26.9775 19.7835 0 0 0
2835 1 8.9925 17.985 30.5745 0 0 0
3707 1 1.7985 25.179 23.3805 0 0 0
2914 1 10.791 26.9775 30.5745 0 0 0
1974 1 17.985 16.1865 12.5895 0 0 0
3979 1 0.0 28.776 32.373 0 0 0
3705 1 3.597 25.179 21.582 0 0 0
1281 1 25.179 25.179 0.0 0 0 0
3133 1 7.194 10.791 10.791 0 0 0
3587 1 1.7985 14.388 23.3805 0 0 0
2107 1 16.1865 25.179 23.3805 0 0 0
3809 1 0.0 0.0 14.388 0 0 0
1377 1 25.179 32.373 14.388 0 0 0
920 1 26.9775 26.9775 32.373 0 0 0
3784 1 1.7985 34.1715 17.985 0 0 0
232 1 30.5745 1.7985 25.179 0 0 0
3321 1 7.194 28.776 0.0 0 0 0
3225 1 7.194 17.985 21.582 0 0 0
351 1 30.5745 10.791 26.9775 0 0 0
1606 1 21.582 19.7835 5.3955 0 0 0
3466 1 3.597 5.3955 23.3805 0 0 0
98 1 34.1715 16.1865 28.776 0 0 0
1268 1 23.3805 23.3805 21.582 0 0 0
82 1 34.1715 16.1865 0.0 0 0 0
2316 1 12.5895 8.9925 28.776 0 0 0
2853 1 10.791 21.582 10.791 0 0 0
2348 1 12.5895 12.5895 21.582 0 0 0
604 1 26.9775 1.7985 0.0 0 0 0
3931 1 0.0 21.582 17.985 0 0 0
3674 1 3.597 23.3805 30.5745 0 0 0
2265 1 14.388 3.597 21.582 0 0 0
2595 1 12.5895 32.373 30.5745 0 0 0
308 1 30.5745 8.9925 21.582 0 0 0
2916 1 8.9925 26.9775 28.776 0 0 0
2184 1 16.1865 34.1715 17.985 0 0 0
1989 1 17.985 14.388 25.179 0 0 0
928 1 26.9775 30.5745 3.597 0 0 0
3637 1 3.597 17.985 32.373 0 0 0
3942 1 0.0 26.9775 1.7985 0 0 0
3639 1 1.7985 17.985 34.1715 0 0 0
3478 1 3.597 5.3955 34.1715 0 0 0
2558 1 14.388 30.5745 34.1715 0 0 0
1420 1 19.7835 1.7985 14.388 0 0 0
3786 1 3.597 34.1715 23.3805 0 0 0
1389 1 25.179 32.373 25.179 0 0 0
277 1 32.373 3.597 32.373 0 0 0
379 1 30.5745 14.388 16.1865 0 0 0
2479 1 12.5895 21.582 34.1715 0 0 0
2405 1 14.388 17.985 3.597 0 0 0
2870 1 10.791 23.3805 26.9775 0 0 0
1186 1 25.179 16.1865 23.3805 0 0 0
1466 1 21.582 5.3955 23.3805 0 0 0
2951 1 8.9925 28.776 26.9775 0 0 0
2443 1 12.5895 21.582 1.7985 0 0 0
3008 1 5.3955 1.7985 3.597 0 0 0
2338 1 14.388 12.5895 16.1865 0 0 0
1096 1 23.3805 8.9925 10.791 0 0 0
837 1 28.776 17.985 32.373 0 0 0
2150 1 17.985 30.5745 26.9775 0 0 0
3826 1 0.0 5.3955 8.9925 0 0 0
3306 1 7.194 26.9775 23.3805 0 0 0
1160 1 23.3805 12.5895 32.373 0 0 0
2376 1 12.5895 16.1865 10.791 0 0 0
71 1 34.1715 10.791 19.7835 0 0 0
223 1 30.5745 0.0 19.7835 0 0 0
2383 1 12.5895 14.388 19.7835 0 0 0
2449 1 14.388 21.582 7.194 0 0 0
237 1 32.373 0.0 32.373 0 0 0
1368 1 23.3805 34.1715 3.597 0 0 0
1291 1 23.3805 25.179 8.9925 0 0 0
3547 1 1.7985 10.791 23.3805 0 0 0
3768 1 1.7985 34.1715 3.597 0 0 0
3663 1 1.7985 21.582 19.7835 0 0 0
717 1 28.776 7.194 32.373 0 0 0
2509 1 14.388 25.179 25.179 0 0 0
2866 1 10.791 23.3805 23.3805 0 0 0
2918 1 10.791 26.9775 34.1715 0 0 0
272 1 30.5745 5.3955 25.179 0 0 0
3957 1 0.0 25.179 28.776 0 0 0
1416 1 19.7835 1.7985 10.791 0 0 0
2676 1 8.9925 5.3955 28.776 0 0 0
1740 1 19.7835 30.5745 14.388 0 0 0
179 1 34.1715 28.776 34.1715 0 0 0
3711 2 1.7985 25.179 26.9775 0 0 0
1891 2 16.1865 7.194 8.9925 0 0 0
3024 2 5.3955 1.7985 17.985 0 0 0
2979 2 8.9925 32.373 16.1865 0 0 0
3109 2 7.194 7.194 25.179 0 0 0
2654 2 10.791 5.3955 12.5895 0 0 0
2796 2 8.9925 16.1865 28.776 0 0 0
3163 2 5.3955 14.388 1.7985 0 0 0
816 2 26.9775 19.7835 10.791 0 0 0
2928 2 8.9925 30.5745 3.597 0 0 0
1115 2 23.3805 7.194 30.5745 0 0 0
3851 2 0.0 7.194 17.985 0 0 0
962 2 28.776 34.1715 1.7985 0 0 0
2225 2 14.388 0.0 21.582 0 0 0
2311 2 12.5895 7.194 26.9775 0 0 0
515 2 30.5745 25.179 30.5745 0 0 0
1369 2 25.179 32.373 7.194 0 0 0
2671 2 8.9925 3.597 26.9775 0 0 0
3815 2 0.0 0.0 25.179 0 0 0
7 2 34.1715 0.0 12.5895 0 0 0
912 2 26.9775 26.9775 25.179 0 0 0
940 2 26.9775 30.5745 14.388 0 0 0
1745 2 21.582 28.776 21.582 0 0 0
3243 2 5.3955 21.582 1.7985 0 0 0
1505 2 21.582 7.194 21.582 0 0 0
667 2 26.9775 3.597 23.3805 0 0 0
477 2 32.373 21.582 32.373 0 0 0
1567 2 19.7835 14.388 5.3955 0 0 0
2367 2 12.5895 14.388 5.3955 0 0 0
812 2 26.9775 19.7835 7.194 0 0 0
1803 2 16.1865 0.0 1.7985 0 0 0
327 2 30.5745 10.791 5.3955 0 0 0
453 2 32.373 21.582 10.791 0 0 0
1352 2 23.3805 30.5745 25.179 0 0 0
1840 2 16.1865 1.7985 32.373 0 0 0
3968 2 0.0 30.5745 12.5895 0 0 0
3566 2 3.597 16.1865 5.3955 0 0 0
3147 2 5.3955 10.791 23.3805 0 0 0
594 2 32.373 34.1715 30.5745 0 0 0
2285 2 14.388 7.194 3.597 0 0 0
582 2 32.373 34.1715 19.7835 0 0 0
3483 2 1.7985 7.194 1.7985 0 0 0
321 2 32.373 10.791 0.0 0 0 0
3029 2 7.194 0.0 25.179 0 0 0
771 2 26.9775 14.388 8.9925 0 0 0
1433 2 21.582 0.0 28.776 0 0 0
1192 2 23.3805 16.1865 25.179 0 0 0
1610 2 21.582 19.7835 8.9925 0 0 0
3529 2 3.597 10.791 7.194 0 0 0
304 2 30.5745 8.9925 17.985 0 0 0
1592 2 19.7835 16.1865 25.179 0 0 0
1499 2 19.7835 7.194 16.1865 0 0 0
3752 2 1.7985 30.5745 25.179 0 0 0
1730 2 21.582 30.5745 8.9925 0 0 0
1691 2 19.7835 25.179 8.9925 0 0 0
2609 2 10.791 0.0 7.194 0 0 0
1191 2 23.3805 14.388 26.9775 0 0 0
1966 2 17.985 16.1865 5.3955 0 0 0
1571 2 19.7835 14.388 8.9925 0 0 0
2125 2 17.985 28.776 3.597 0 0 0
791 2 26.9775 14.388 26.9775 0 0 0
1600 2 19.7835 16.1865 32.373 0 0 0
1145 2 25.179 10.791 21.582 0 0 0
2627 2 8.9925 0.0 23.3805 0 0 0
1838 2 17.985 1.7985 34.1715 0 0 0
858 2 28.776 23.3805 16.1865 0 0 0
3807 2 0.0 0.0 10.791 0 0 0
10 2 34.1715 1.7985 14.388 0 0 0
3970 2 0.0 30.5745 16.1865 0 0 0
1517 2 21.582 7.194 32.373 0 0 0
3199 2 5.3955 14.388 34.1715 0 0 0
2331 2 12.5895 10.791 8.9925 0 0 0
2722 2 10.791 12.5895 1.7985 0 0 0
3115 2 5.3955 7.194 30.5745 0 0 0
2598 2 14.388 34.1715 34.1715 0 0 0
64 2 34.1715 12.5895 3.597 0 0 0
3060 2 5.3955 5.3955 14.388 0 0 0
3366 2 7.194 34.1715 5.3955 0 0 0
943 2 26.9775 28.776 19.7835 0 0 0
3812 2 0.0 1.7985 19.7835 0 0 0
2341 2 14.388 10.791 17.985 0 0 0
134 2 34.1715 23.3805 21.582 0 0 0
1675 2 19.7835 21.582 30.5745 0 0 0
2886 2 10.791 26.9775 5.3955 0 0 0
1062 2 25.179 5.3955 19.7835 0 0 0
796 2 26.9775 16.1865 28.776 0 0 0
2121 2 17.985 28.776 0.0 0 0 0
3737 2 3.597 28.776 14.388 0 0 0
3158 2 7.194 12.5895 34.1715 0 0 0
2516 2 12.5895 26.9775 28.776 0 0 0
174 2 34.1715 30.5745 21.582 0 0 0
3564 2 1.7985 16.1865 0.0 0 0 0
42 2 34.1715 8.9925 0.0 0 0 0
1950 2 17.985 12.5895 26.9775 0 0 0
2100 2 16.1865 26.9775 14.388 0 0 0
1867 2 16.1865 3.597 23.3805 0 0 0
1256 2 23.3805 23.3805 10.791 0 0 0
2356 2 12.5895 12.5895 28.776 0 0 0
2565 2 14.388 32.373 3.597 0 0 0
2993 2 10.791 32.373 28.776 0 0 0
3072 2 5.3955 5.3955 25.179 0 0 0
688 2 26.9775 8.9925 3.597 0 0 0
584 2 30.5745 34.1715 17.985 0 0 0
2947 2 8.9925 28.776 23.3805 0 0 0
2915 2 8.9925 25.179 30.5745 0 0 0
471 2 30.5745 21.582 26.9775 0 0 0
1936 2 16.1865 12.5895 10.791 0 0 0
1656 2 19.7835 23.3805 10.791 0 0 0
1594 2 21.582 16.1865 30.5745 0 0 0
742 2 28.776 12.5895 19.7835 0 0 0
826 2 28.776 19.7835 23.3805 0 0 0
559 2 30.5745 28.776 34.1715 0 0 0
1736 2 19.7835 30.5745 10.791 0 0 0
2584 2 12.5895 34.1715 17.985 0 0 0
3800 2 1.7985 34.1715 32.373 0 0 0
2028 2 16.1865 19.7835 21.582 0 0 0
175 2 34.1715 28.776 26.9775 0 0 0
3990 2 0.0 34.1715 16.1865 0 0 0
1625 2 21.582 17.985 21.582 0 0 0
3486 2 3.597 8.9925 5.3955 0 0 0
586 2 32.373 34.1715 23.3805 0 0 0
3221 2 7.194 17.985 17.985 0 0 0
1997 2 17.985 14.388 32.373 0 0 0
3476 2 1.7985 5.3955 28.776 0 0 0
2791 2 8.9925 14.388 26.9775 0 0 0
314 2 32.373 8.9925 30.5745 0 0 0
3974 2 0.0 30.5745 23.3805 0 0 0
724 2 26.9775 12.5895 0.0 0 0 0
273 2 32.373 3.597 28.776 0 0 0
2660 2 8.9925 5.3955 14.388 0 0 0
911 2 26.9775 25.179 26.9775 0 0 0
1227 2 23.3805 17.985 23.3805 0 0 0
3684 2 1.7985 26.9775 0.0 0 0 0
2873 2 10.791 21.582 28.776 0 0 0
1853 2 17.985 3.597 10.791 0 0 0
2137 2 17.985 28.776 14.388 0 0 0
3082 2 7.194 8.9925 1.7985 0 0 0
1565 2 21.582 14.388 3.597 0 0 0
3186 2 7.194 16.1865 23.3805 0 0 0
362 2 32.373 16.1865 1.7985 0 0 0
1812 2 16.1865 1.7985 7.194 0 0 0
3620 2 1.7985 19.7835 14.388 0 0 0
3679 2 1.7985 21.582 34.1715 0 0 0
615 2 26.9775 0.0 12.5895 0 0 0
3231 2 5.3955 17.985 26.9775 0 0 0
2308 2 12.5895 8.9925 21.582 0 0 0
3433 2 3.597 0.0 28.776 0 0 0
3248 2 5.3955 23.3805 3.597 0 0 0
126 2 34.1715 23.3805 7.194 0 0 0
1395 2 23.3805 32.373 30.5745 0 0 0
2484 2 12.5895 26.9775 0.0 0 0 0
2189 2 17.985 32.373 25.179 0 0 0
50 2 34.1715 8.9925 14.388 0 0 0
3649 2 3.597 21.582 7.194 0 0 0
3774 2 3.597 34.1715 12.5895 0 0 0
1108 2 23.3805 8.9925 21.582 0 0 0
2476 2 12.5895 23.3805 28.776 0 0 0
3007 2 5.3955 0.0 5.3955 0 0 0
2987 2 8.9925 32.373 23.3805 0 0 0
3599 2 1.7985 14.388 34.1715 0 0 0
180 2 34.1715 30.5745 32.373 0 0 0
3393 2 7.194 32.373 28.776 0 0 0
385 2 32.373 14.388 21.582 0 0 0
887 2 26.9775 25.179 5.3955 0 0 0
417 2 32.373 17.985 14.388 0 0 0
268 2 30.5745 5.3955 21.582 0 0 0
2493 2 14.388 25.179 10.791 0 0 0
3137 2 7.194 10.791 14.388 0 0 0
2070 2 17.985 23.3805 26.9775 0 0 0
3753 2 3.597 28.776 28.776 0 0 0
3980 2 0.0 30.5745 34.1715 0 0 0
785 2 28.776 14.388 21.582 0 0 0
1070 2 25.179 5.3955 26.9775 0 0 0
2056 2 16.1865 23.3805 10.791 0 0 0
2894 2 10.791 26.9775 12.5895 0 0 0
3712 2 1.7985 26.9775 25.179 0 0 0
2834 2 10.791 19.7835 30.5745 0 0 0
656 2 26.9775 5.3955 10.791 0 0 0
1208 2 23.3805 19.7835 3.597 0 0 0
3690 2 3.597 26.9775 8.9925 0 0 0
894 2 28.776 26.9775 12.5895 0 0 0
3413 2 3.597 0.0 10.791 0 0 0
1638 2 21.582 19.7835 34.1715 0 0 0
1442 2 21.582 5.3955 1.7985 0 0 0
995 2 26.9775 32.373 30.5745 0 0 0
2787 2 8.9925 14.388 23.3805 0 0 0
3347 2 5.3955 28.776 23.3805 0 0 0
1307 2 23.3805 25.179 23.3805 0 0 0
110 2 34.1715 19.7835 14.388 0 0 0
3972 2 0.0 30.5745 19.7835 0 0 0
3724 2 1.7985 30.5745 0.0 0 0 0
1784 2 19.7835 34.1715 17.985 0 0 0
3334 2 7.194 30.5745 12.5895 0 0 0
2938 2 10.791 30.5745 16.1865 0 0 0
3747 2 1.7985 28.776 23.3805 0 0 0
1873 2 17.985 3.597 28.776 0 0 0
737 2 28.776 10.791 14.388 0 0 0
1864 2 16.1865 5.3955 17.985 0 0 0
3562 2 3.597 16.1865 1.7985 0 0 0
1175 2 23.3805 14.388 12.5895 0 0 0
2133 2 17.985 28.776 10.791 0 0 0
2054 2 17.985 23.3805 12.5895 0 0 0
3264 2 5.3955 23.3805 17.985 0 0 0
1173 2 25.179 14.388 10.791 0 0 0
251 2 30.5745 3.597 8.9925 0 0 0
2720 2 8.9925 8.9925 32.373 0 0 0
2171 2 16.1865 32.373 8.9925 0 0 0
3732 2 1.7985 30.5745 7.194 0 0 0
789 2 28.776 14.388 25.179 0 0 0
3192 2 5.3955 16.1865 25.179 0 0 0
2259 2 12.5895 3.597 16.1865 0 0 0
1876 2 16.1865 5.3955 28.776 0 0 0
2085 2 17.985 25.179 3.597 0 0 0
3955 2 0.0 25.179 25.179 0 0 0
2387 2 12.5895 14.388 23.3805 0 0 0
3142 2 7.194 12.5895 19.7835 0 0 0
581 2 32.373 32.373 17.985 0 0 0
531 2 30.5745 28.776 8.9925 0 0 0
3170 2 7.194 16.1865 8.9925 0 0 0
1404 2 19.7835 1.7985 0.0 0 0 0
2163 2 16.1865 32.373 1.7985 0 0 0
427 2 30.5745 17.985 23.3805 0 0 0
570 2 32.373 34.1715 8.9925 0 0 0
1718 2 21.582 26.9775 34.1715 0 0 0
3333 2 7.194 28.776 10.791 0 0 0
2406 2 14.388 19.7835 5.3955 0 0 0
1332 2 23.3805 30.5745 7.194 0 0 0
2179 2 16.1865 32.373 16.1865 0 0 0
3282 2 7.194 26.9775 1.7985 0 0 0
1225 2 25.179 17.985 21.582 0 0 0
2187 2 16.1865 32.373 23.3805 0 0 0
3280 2 5.3955 23.3805 32.373 0 0 0
997 2 28.776 32.373 32.373 0 0 0
3946 2 0.0 26.9775 8.9925 0 0 0
1844 2 16.1865 5.3955 0.0 0 0 0
776 2 26.9775 16.1865 10.791 0 0 0
3428 2 1.7985 1.7985 21.582 0 0 0
2191 2 16.1865 32.373 26.9775 0 0 0
1066 2 25.179 5.3955 23.3805 0 0 0
2234 2 14.388 1.7985 30.5745 0 0 0
3111 2 5.3955 7.194 26.9775 0 0 0
2271 2 12.5895 3.597 26.9775 0 0 0
1047 2 23.3805 3.597 5.3955 0 0 0
820 2 26.9775 19.7835 14.388 0 0 0
1458 2 21.582 5.3955 16.1865 0 0 0
698 2 28.776 8.9925 16.1865 0 0 0
1637 2 21.582 17.985 32.373 0 0 0
2639 2 8.9925 0.0 34.1715 0 0 0
1259 2 23.3805 21.582 16.1865 0 0 0
2301 2 14.388 7.194 17.985 0 0 0
1512 2 19.7835 8.9925 25.179 0 0 0
1923 2 16.1865 10.791 1.7985 0 0 0
2071 2 16.1865 21.582 26.9775 0 0 0
3976 2 0.0 30.5745 26.9775 0 0 0
885 2 28.776 25.179 3.597 0 0 0
1506 2 21.582 8.9925 23.3805 0 0 0
3369 2 7.194 32.373 7.194 0 0 0
3966 2 0.0 30.5745 8.9925 0 0 0
420 2 30.5745 19.7835 14.388 0 0 0
2015 2 16.1865 17.985 12.5895 0 0 0
3666 2 3.597 23.3805 23.3805 0 0 0
3647 2 1.7985 21.582 5.3955 0 0 0
148 2 34.1715 26.9775 10.791 0 0 0
3438 2 3.597 1.7985 34.1715 0 0 0
2651 2 8.9925 3.597 8.9925 0 0 0
1462 2 21.582 5.3955 19.7835 0 0 0
2980 2 8.9925 34.1715 14.388 0 0 0
2831 2 8.9925 17.985 26.9775 0 0 0
2986 2 10.791 34.1715 23.3805 0 0 0
3729 2 3.597 28.776 7.194 0 0 0
1278 2 25.179 23.3805 34.1715 0 0 0
3271 2 5.3955 21.582 26.9775 0 0 0
1185 2 25.179 14.388 21.582 0 0 0
803 2 26.9775 17.985 1.7985 0 0 0
3085 2 7.194 7.194 3.597 0 0 0
2357 2 14.388 10.791 32.373 0 0 0
3499 2 1.7985 7.194 16.1865 0 0 0
1388 2 23.3805 34.1715 21.582 0 0 0
1221 2 25.179 17.985 17.985 0 0 0
469 2 32.373 21.582 25.179 0 0 0
21 2 34.1715 3.597 1.7985 0 0 0
1073 2 25.179 3.597 28.776 0 0 0
839 2 26.9775 17.985 34.1715 0 0 0
1124 2 23.3805 12.5895 0.0 0 0 0
2703 2 8.9925 7.194 19.7835 0 0 0
2868 2 8.9925 23.3805 21.582 0 0 0
918 2 28.776 26.9775 34.1715 0 0 0
645 2 28.776 3.597 3.597 0 0 0
3648 2 1.7985 23.3805 3.597 0 0 0
1719 2 19.7835 25.179 34.1715 0 0 0
1089 2 25.179 7.194 7.194 0 0 0
394 2 32.373 16.1865 30.5745 0 0 0
3578 2 3.597 16.1865 16.1865 0 0 0
3742 2 3.597 30.5745 19.7835 0 0 0
2696 2 8.9925 8.9925 10.791 0 0 0
1763 2 19.7835 32.373 1.7985 0 0 0
590 2 32.373 34.1715 26.9775 0 0 0
1198 2 25.179 16.1865 34.1715 0 0 0
1590 2 21.582 16.1865 26.9775 0 0 0
1337 2 25.179 28.776 14.388 0 0 0
2714 2 10.791 8.9925 30.5745 0 0 0
3721 2 3.597 28.776 0.0 0 0 0
118 2 34.1715 19.7835 28.776 0 0 0
3256 2 5.3955 23.3805 10.791 0 0 0
3257 2 7.194 21.582 14.388 0 0 0
3076 2 5.3955 5.3955 28.776 0 0 0
596 2 30.5745 34.1715 28.776 0 0 0
492 2 30.5745 26.9775 7.194 0 0 0
3627 2 1.7985 17.985 23.3805 0 0 0
2790 2 10.791 16.1865 26.9775 0 0 0
3420 2 1.7985 1.7985 14.388 0 0 0
2321 2 14.388 10.791 0.0 0 0 0
2939 2 8.9925 28.776 16.1865 0 0 0
1602 2 21.582 19.7835 1.7985 0 0 0
1492 2 19.7835 8.9925 7.194 0 0 0
384 2 30.5745 16.1865 17.985 0 0 0
1953 2 17.985 10.791 28.776 0 0 0
3988 2 0.0 34.1715 12.5895 0 0 0
1091 2 23.3805 7.194 8.9925 0 0 0
3406 2 3.597 1.7985 5.3955 0 0 0
3775 2 1.7985 32.373 12.5895 0 0 0
2881 2 10.791 25.179 0.0 0 0 0
1831 2 16.1865 0.0 26.9775 0 0 0
1340 2 23.3805 30.5745 14.388 0 0 0
2694 2 10.791 8.9925 12.5895 0 0 0
1289 2 25.179 25.179 7.194 0 0 0
1000 2 26.9775 34.1715 32.373 0 0 0
2134 2 17.985 30.5745 12.5895 0 0 0
2646 2 10.791 5.3955 5.3955 0 0 0
2087 2 16.1865 25.179 5.3955 0 0 0
2983 2 8.9925 32.373 19.7835 0 0 0
3 2 34.1715 0.0 5.3955 0 0 0
3340 2 5.3955 30.5745 14.388 0 0 0
1041 2 25.179 3.597 0.0 0 0 0
646 2 28.776 5.3955 5.3955 0 0 0
622 2 28.776 1.7985 19.7835 0 0 0
2899 2 8.9925 25.179 16.1865 0 0 0
3556 2 1.7985 12.5895 28.776 0 0 0
2132 2 16.1865 30.5745 7.194 0 0 0
2064 2 16.1865 23.3805 17.985 0 0 0
2843 2 8.9925 21.582 1.7985 0 0 0
3065 2 7.194 3.597 21.582 0 0 0
2662 2 10.791 5.3955 19.7835 0 0 0
2495 2 12.5895 25.179 12.5895 0 0 0
3913 2 0.0 17.985 21.582 0 0 0
840 2 26.9775 19.7835 32.373 0 0 0
1045 2 25.179 3.597 3.597 0 0 0
3762 2 3.597 34.1715 1.7985 0 0 0
2512 2 12.5895 26.9775 25.179 0 0 0
3067 2 5.3955 3.597 23.3805 0 0 0
22 2 34.1715 5.3955 0.0 0 0 0
2219 2 12.5895 0.0 16.1865 0 0 0
1082 2 25.179 8.9925 1.7985 0 0 0
2529 2 14.388 28.776 7.194 0 0 0
1632 2 19.7835 19.7835 25.179 0 0 0
2780 2 8.9925 16.1865 14.388 0 0 0
2283 2 12.5895 7.194 1.7985 0 0 0
145 2 34.1715 25.179 8.9925 0 0 0
1230 2 25.179 19.7835 26.9775 0 0 0
968 2 26.9775 34.1715 3.597 0 0 0
3404 2 1.7985 1.7985 0.0 0 0 0
1142 2 25.179 12.5895 19.7835 0 0 0
2510 2 14.388 26.9775 26.9775 0 0 0
3598 2 3.597 16.1865 34.1715 0 0 0
164 2 34.1715 30.5745 3.597 0 0 0
1021 2 25.179 0.0 17.985 0 0 0
832 2 26.9775 19.7835 25.179 0 0 0
2635 2 8.9925 0.0 30.5745 0 0 0
547 2 30.5745 28.776 23.3805 0 0 0
3524 2 1.7985 12.5895 0.0 0 0 0
2678 2 10.791 5.3955 34.1715 0 0 0
2288 2 12.5895 8.9925 3.597 0 0 0
1338 2 25.179 30.5745 16.1865 0 0 0
3864 2 0.0 12.5895 5.3955 0 0 0
1984 2 16.1865 16.1865 17.985 0 0 0
1669 2 21.582 21.582 25.179 0 0 0
1724 2 19.7835 30.5745 0.0 0 0 0
1001 2 25.179 0.0 0.0 0 0 0
2971 2 8.9925 32.373 8.9925 0 0 0
1551 2 19.7835 10.791 26.9775 0 0 0
3116 2 5.3955 8.9925 28.776 0 0 0
728 2 26.9775 12.5895 3.597 0 0 0
3589 2 3.597 14.388 25.179 0 0 0
821 2 28.776 17.985 17.985 0 0 0
872 2 26.9775 23.3805 25.179 0 0 0
859 2 26.9775 21.582 16.1865 0 0 0
2345 2 14.388 10.791 21.582 0 0 0
1330 2 25.179 30.5745 8.9925 0 0 0
1213 2 25.179 17.985 10.791 0 0 0
219 2 30.5745 0.0 16.1865 0 0 0
2672 2 8.9925 5.3955 25.179 0 0 0
313 2 32.373 7.194 28.776 0 0 0
342 2 32.373 12.5895 19.7835 0 0 0
794 2 28.776 16.1865 30.5745 0 0 0
765 2 28.776 14.388 3.597 0 0 0
3896 2 0.0 16.1865 26.9775 0 0 0
1987 2 16.1865 14.388 23.3805 0 0 0
2014 2 17.985 19.7835 12.5895 0 0 0
2946 2 10.791 30.5745 23.3805 0 0 0
3364 2 5.3955 34.1715 0.0 0 0 0
2869 2 10.791 21.582 25.179 0 0 0
1321 2 25.179 28.776 0.0 0 0 0
1611 2 19.7835 17.985 8.9925 0 0 0
2127 2 16.1865 28.776 5.3955 0 0 0
838 2 28.776 19.7835 34.1715 0 0 0
910 2 28.776 26.9775 26.9775 0 0 0
898 2 28.776 26.9775 16.1865 0 0 0
127 2 34.1715 21.582 12.5895 0 0 0
3167 2 5.3955 14.388 5.3955 0 0 0
2596 2 12.5895 34.1715 28.776 0 0 0
1430 2 21.582 1.7985 26.9775 0 0 0
3694 2 3.597 26.9775 12.5895 0 0 0
2540 2 12.5895 30.5745 14.388 0 0 0
459 2 30.5745 21.582 16.1865 0 0 0
3624 2 1.7985 19.7835 17.985 0 0 0
2579 2 12.5895 32.373 16.1865 0 0 0
275 2 30.5745 3.597 30.5745 0 0 0
2078 2 17.985 23.3805 34.1715 0 0 0
2666 2 10.791 5.3955 23.3805 0 0 0
907 2 26.9775 25.179 23.3805 0 0 0
2929 2 10.791 28.776 7.194 0 0 0
3859 2 0.0 7.194 32.373 0 0 0
2429 2 14.388 17.985 25.179 0 0 0
871 2 26.9775 21.582 26.9775 0 0 0
181 2 34.1715 32.373 1.7985 0 0 0
1080 2 23.3805 5.3955 32.373 0 0 0
1447 2 19.7835 3.597 5.3955 0 0 0
1667 2 19.7835 21.582 23.3805 0 0 0
3236 2 5.3955 19.7835 28.776 0 0 0
1002 2 25.179 1.7985 1.7985 0 0 0
2413 2 14.388 17.985 10.791 0 0 0
2795 2 8.9925 14.388 30.5745 0 0 0
2735 2 8.9925 10.791 12.5895 0 0 0
3958 2 0.0 26.9775 30.5745 0 0 0
1083 2 23.3805 7.194 1.7985 0 0 0
3293 2 7.194 25.179 10.791 0 0 0
1750 2 21.582 30.5745 26.9775 0 0 0
3728 2 1.7985 30.5745 3.597 0 0 0
3551 2 1.7985 10.791 26.9775 0 0 0
1655 2 19.7835 21.582 12.5895 0 0 0
1174 2 25.179 16.1865 12.5895 0 0 0
3635 2 1.7985 17.985 30.5745 0 0 0
3505 2 3.597 7.194 21.582 0 0 0
37 2 34.1715 3.597 30.5745 0 0 0
1818 2 17.985 1.7985 16.1865 0 0 0
1720 2 19.7835 26.9775 32.373 0 0 0
2889 2 10.791 25.179 7.194 0 0 0
156 2 34.1715 26.9775 25.179 0 0 0
3100 2 5.3955 8.9925 14.388 0 0 0
482 2 32.373 26.9775 1.7985 0 0 0
3795 2 1.7985 32.373 30.5745 0 0 0
2322 2 14.388 12.5895 1.7985 0 0 0
2901 2 10.791 25.179 17.985 0 0 0
1359 2 23.3805 28.776 34.1715 0 0 0
2109 2 17.985 25.179 25.179 0 0 0
1077 2 25.179 3.597 32.373 0 0 0
1402 2 21.582 1.7985 1.7985 0 0 0
1473 2 21.582 3.597 28.776 0 0 0
880 2 26.9775 23.3805 32.373 0 0 0
124 2 34.1715 23.3805 3.597 0 0 0
2677 2 10.791 3.597 32.373 0 0 0
722 2 28.776 12.5895 1.7985 0 0 0
176 2 34.1715 30.5745 25.179 0 0 0
1043 2 23.3805 3.597 1.7985 0 0 0
3823 2 0.0 3.597 3.597 0 0 0
980 2 26.9775 34.1715 14.388 0 0 0
1472 2 19.7835 5.3955 25.179 0 0 0
3834 2 0.0 5.3955 23.3805 0 0 0
2446 2 14.388 23.3805 5.3955 0 0 0
2353 2 14.388 10.791 28.776 0 0 0
706 2 28.776 8.9925 23.3805 0 0 0
1042 2 25.179 5.3955 1.7985 0 0 0
3096 2 5.3955 8.9925 10.791 0 0 0
3597 2 3.597 14.388 32.373 0 0 0
2624 2 8.9925 1.7985 17.985 0 0 0
256 2 30.5745 5.3955 10.791 0 0 0
801 2 28.776 17.985 0.0 0 0 0
502 2 32.373 26.9775 19.7835 0 0 0
3294 2 7.194 26.9775 12.5895 0 0 0
986 2 28.776 34.1715 23.3805 0 0 0
2119 2 16.1865 25.179 34.1715 0 0 0
652 2 26.9775 5.3955 7.194 0 0 0
3276 2 5.3955 23.3805 28.776 0 0 0
193 2 34.1715 32.373 23.3805 0 0 0
3860 2 0.0 8.9925 34.1715 0 0 0
361 2 32.373 14.388 0.0 0 0 0
2723 2 8.9925 10.791 1.7985 0 0 0
3241 2 7.194 21.582 0.0 0 0 0
2207 2 12.5895 0.0 5.3955 0 0 0
1586 2 21.582 16.1865 23.3805 0 0 0
1287 2 23.3805 25.179 5.3955 0 0 0
1093 2 25.179 7.194 10.791 0 0 0
2976 2 8.9925 34.1715 10.791 0 0 0
1595 2 19.7835 14.388 30.5745 0 0 0
2185 2 17.985 32.373 21.582 0 0 0
3763 2 1.7985 32.373 1.7985 0 0 0
3633 2 3.597 17.985 28.776 0 0 0
654 2 28.776 5.3955 12.5895 0 0 0
3268 2 5.3955 23.3805 21.582 0 0 0
1943 2 16.1865 10.791 19.7835 0 0 0
1904 2 16.1865 8.9925 17.985 0 0 0
430 2 32.373 19.7835 26.9775 0 0 0
220 2 30.5745 1.7985 14.388 0 0 0
1017 2 25.179 0.0 14.388 0 0 0
67 2 34.1715 10.791 12.5895 0 0 0
2955 2 8.9925 28.776 30.5745 0 0 0
1773 2 21.582 32.373 10.791 0 0 0
3254 2 7.194 23.3805 12.5895 0 0 0
1951 2 16.1865 10.791 26.9775 0 0 0
1239 2 23.3805 17.985 34.1715 0 0 0
1163 2 23.3805 14.388 1.7985 0 0 0
429 2 32.373 17.985 25.179 0 0 0
3091 2 5.3955 7.194 8.9925 0 0 0
1556 2 19.7835 12.5895 28.776 0 0 0
746 2 28.776 12.5895 23.3805 0 0 0
3355 2 5.3955 28.776 30.5745 0 0 0
2334 2 14.388 12.5895 12.5895 0 0 0
2581 2 14.388 32.373 17.985 0 0 0
2122 2 17.985 30.5745 1.7985 0 0 0
675 2 26.9775 3.597 30.5745 0 0 0
2073 2 17.985 21.582 28.776 0 0 0
254 2 32.373 5.3955 12.5895 0 0 0
781 2 28.776 14.388 17.985 0 0 0
123 2 34.1715 21.582 5.3955 0 0 0
2984 2 8.9925 34.1715 17.985 0 0 0
1167 2 23.3805 14.388 5.3955 0 0 0
2269 2 14.388 3.597 25.179 0 0 0
873 2 28.776 21.582 28.776 0 0 0
454 2 32.373 23.3805 12.5895 0 0 0
97 2 34.1715 14.388 30.5745 0 0 0
954 2 28.776 30.5745 30.5745 0 0 0
565 2 32.373 32.373 3.597 0 0 0
1366 3 25.179 34.1715 5.3955 0 0 0
2605 3 10.791 0.0 3.597 0 0 0
1037 3 25.179 0.0 32.373 0 0 0
3434 3 3.597 1.7985 30.5745 0 0 0
610 3 28.776 1.7985 8.9925 0 0 0
1292 3 23.3805 26.9775 7.194 0 0 0
3657 3 3.597 21.582 14.388 0 0 0
2434 3 14.388 19.7835 30.5745 0 0 0
3602 3 3.597 19.7835 1.7985 0 0 0
792 3 26.9775 16.1865 25.179 0 0 0
1238 3 25.179 19.7835 34.1715 0 0 0
1206 3 25.179 19.7835 5.3955 0 0 0
2688 3 8.9925 8.9925 3.597 0 0 0
3430 3 3.597 1.7985 26.9775 0 0 0
178 3 34.1715 30.5745 28.776 0 0 0
3939 3 0.0 21.582 32.373 0 0 0
509 3 32.373 25.179 25.179 0 0 0
909 3 28.776 25.179 25.179 0 0 0
3954 3 0.0 26.9775 23.3805 0 0 0
2537 3 14.388 28.776 14.388 0 0 0
1846 3 17.985 5.3955 5.3955 0 0 0
944 3 26.9775 30.5745 17.985 0 0 0
3926 3 0.0 23.3805 8.9925 0 0 0
2896 3 8.9925 26.9775 10.791 0 0 0
3359 3 5.3955 28.776 34.1715 0 0 0
3623 3 1.7985 17.985 19.7835 0 0 0
2757 3 10.791 10.791 32.373 0 0 0
2952 3 8.9925 30.5745 25.179 0 0 0
1412 3 19.7835 1.7985 7.194 0 0 0
1976 3 16.1865 16.1865 10.791 0 0 0
867 3 26.9775 21.582 23.3805 0 0 0
227 3 30.5745 0.0 23.3805 0 0 0
1086 3 25.179 8.9925 5.3955 0 0 0
2611 3 8.9925 0.0 8.9925 0 0 0
2055 3 16.1865 21.582 12.5895 0 0 0
2246 3 14.388 5.3955 5.3955 0 0 0
243 3 30.5745 3.597 1.7985 0 0 0
1706 3 21.582 26.9775 23.3805 0 0 0
2850 3 10.791 23.3805 8.9925 0 0 0
857 3 28.776 21.582 14.388 0 0 0
1434 3 21.582 1.7985 30.5745 0 0 0
2882 3 10.791 26.9775 1.7985 0 0 0
3485 3 3.597 7.194 3.597 0 0 0
1558 3 21.582 12.5895 34.1715 0 0 0
495 3 30.5745 25.179 12.5895 0 0 0
2804 3 8.9925 19.7835 0.0 0 0 0
1242 3 25.179 23.3805 1.7985 0 0 0
3610 3 3.597 19.7835 8.9925 0 0 0
1850 3 17.985 5.3955 8.9925 0 0 0
2421 3 14.388 17.985 17.985 0 0 0
2840 3 8.9925 19.7835 32.373 0 0 0
3671 3 1.7985 21.582 26.9775 0 0 0
1460 3 19.7835 5.3955 14.388 0 0 0
1924 3 16.1865 12.5895 0.0 0 0 0
758 3 28.776 12.5895 34.1715 0 0 0
2738 3 10.791 12.5895 16.1865 0 0 0
2615 3 8.9925 0.0 12.5895 0 0 0
250 3 32.373 5.3955 8.9925 0 0 0
3604 3 1.7985 19.7835 0.0 0 0 0
716 3 26.9775 8.9925 28.776 0 0 0
677 3 28.776 3.597 32.373 0 0 0
2490 3 14.388 26.9775 8.9925 0 0 0
1123 3 23.3805 10.791 1.7985 0 0 0
3038 3 7.194 1.7985 34.1715 0 0 0
2600 3 12.5895 34.1715 32.373 0 0 0
960 3 26.9775 30.5745 32.373 0 0 0
3025 3 7.194 0.0 21.582 0 0 0
2243 3 12.5895 3.597 1.7985 0 0 0
1933 3 17.985 10.791 10.791 0 0 0
1248 3 23.3805 23.3805 3.597 0 0 0
2982 3 10.791 34.1715 19.7835 0 0 0
865 3 28.776 21.582 21.582 0 0 0
474 3 32.373 23.3805 30.5745 0 0 0
2911 3 8.9925 25.179 26.9775 0 0 0
2522 3 14.388 30.5745 1.7985 0 0 0
843 3 26.9775 21.582 1.7985 0 0 0
1777 3 21.582 32.373 14.388 0 0 0
3001 3 7.194 0.0 0.0 0 0 0
1928 3 16.1865 12.5895 3.597 0 0 0
3219 3 5.3955 17.985 16.1865 0 0 0
3692 3 1.7985 26.9775 7.194 0 0 0
3757 3 3.597 28.776 32.373 0 0 0
3881 3 0.0 14.388 0.0 0 0 0
3854 3 0.0 8.9925 23.3805 0 0 0
1783 3 19.7835 32.373 19.7835 0 0 0
104 3 34.1715 19.7835 3.597 0 0 0
12 3 34.1715 1.7985 17.985 0 0 0
3580 3 1.7985 16.1865 14.388 0 0 0
2063 3 16.1865 21.582 19.7835 0 0 0
3442 3 3.597 5.3955 1.7985 0 0 0
2004 3 16.1865 19.7835 0.0 0 0 0
2005 3 17.985 17.985 3.597 0 0 0
1310 3 25.179 26.9775 26.9775 0 0 0
3716 3 1.7985 26.9775 28.776 0 0 0
734 3 28.776 12.5895 12.5895 0 0 0
3555 3 1.7985 10.791 30.5745 0 0 0
2377 3 14.388 14.388 14.388 0 0 0
2237 3 14.388 0.0 32.373 0 0 0
1945 3 17.985 10.791 21.582 0 0 0
2502 3 14.388 26.9775 19.7835 0 0 0
2964 3 8.9925 34.1715 0.0 0 0 0
1674 3 21.582 23.3805 30.5745 0 0 0
2958 3 10.791 30.5745 34.1715 0 0 0
3952 3 0.0 26.9775 19.7835 0 0 0
1264 3 23.3805 23.3805 17.985 0 0 0
1811 3 16.1865 0.0 8.9925 0 0 0
3725 3 3.597 28.776 3.597 0 0 0
309 3 32.373 7.194 25.179 0 0 0
160 3 34.1715 26.9775 32.373 0 0 0
217 3 32.373 0.0 14.388 0 0 0
3398 3 7.194 34.1715 34.1715 0 0 0
101 3 34.1715 17.985 1.7985 0 0 0
2123 3 16.1865 28.776 1.7985 0 0 0
3706 3 3.597 26.9775 23.3805 0 0 0
967 3 26.9775 32.373 5.3955 0 0 0
3925 3 0.0 21.582 7.194 0 0 0
2453 3 14.388 21.582 10.791 0 0 0
9 3 34.1715 0.0 16.1865 0 0 0
614 3 28.776 1.7985 12.5895 0 0 0
933 3 28.776 28.776 10.791 0 0 0
809 3 28.776 17.985 7.194 0 0 0
922 3 28.776 30.5745 1.7985 0 0 0
2276 3 12.5895 5.3955 28.776 0 0 0
1576 3 19.7835 16.1865 10.791 0 0 0
421 3 32.373 17.985 17.985 0 0 0
2548 3 12.5895 30.5745 21.582 0 0 0
3358 3 7.194 30.5745 34.1715 0 0 0
2664 3 8.9925 5.3955 17.985 0 0 0
2905 3 10.791 25.179 21.582 0 0 0
1393 3 25.179 32.373 28.776 0 0 0
3175 3 5.3955 14.388 12.5895 0 0 0
1015 3 23.3805 0.0 12.5895 0 0 0
1057 3 25.179 3.597 14.388 0 0 0
3391 3 5.3955 32.373 26.9775 0 0 0
2820 3 8.9925 19.7835 14.388 0 0 0
750 3 28.776 12.5895 26.9775 0 0 0
143 3 34.1715 25.179 5.3955 0 0 0
2037 3 17.985 17.985 32.373 0 0 0
650 3 28.776 5.3955 8.9925 0 0 0
1202 3 25.179 19.7835 1.7985 0 0 0
1770 3 21.582 34.1715 8.9925 0 0 0
2542 3 14.388 30.5745 19.7835 0 0 0
3603 3 1.7985 17.985 1.7985 0 0 0
2799 3 8.9925 14.388 34.1715 0 0 0
1024 3 23.3805 1.7985 17.985 0 0 0
3646 3 3.597 23.3805 5.3955 0 0 0
3290 3 7.194 26.9775 8.9925 0 0 0
3883 3 0.0 14.388 3.597 0 0 0
1072 3 23.3805 5.3955 25.179 0 0 0
1927 3 16.1865 10.791 5.3955 0 0 0
641 3 28.776 3.597 0.0 0 0 0
2044 3 16.1865 23.3805 0.0 0 0 0
2053 3 17.985 21.582 10.791 0 0 0
2065 3 17.985 21.582 21.582 0 0 0
345 3 32.373 10.791 21.582 0 0 0
3172 3 5.3955 16.1865 7.194 0 0 0
1521 3 21.582 10.791 0.0 0 0 0
2126 3 17.985 30.5745 5.3955 0 0 0
3125 3 7.194 10.791 3.597 0 0 0
433 3 32.373 17.985 28.776 0 0 0
324 3 30.5745 12.5895 0.0 0 0 0
3906 3 0.0 19.7835 8.9925 0 0 0
1881 3 17.985 7.194 0.0 0 0 0
240 3 30.5745 1.7985 32.373 0 0 0
3836 3 0.0 5.3955 26.9775 0 0 0
1925 3 17.985 10.791 3.597 0 0 0
3890 3 0.0 16.1865 16.1865 0 0 0
2131 3 16.1865 28.776 8.9925 0 0 0
2391 3 12.5895 14.388 26.9775 0 0 0
2892 3 8.9925 26.9775 7.194 0 0 0
3677 3 3.597 21.582 32.373 0 0 0
1081 3 25.179 7.194 0.0 0 0 0
1357 3 25.179 28.776 32.373 0 0 0
718 3 28.776 8.9925 34.1715 0 0 0
241 3 32.373 3.597 0.0 0 0 0
1541 3 21.582 10.791 17.985 0 0 0
5 3 34.1715 0.0 8.9925 0 0 0
3031 3 5.3955 0.0 26.9775 0 0 0
2001 3 17.985 17.985 0.0 0 0 0
1426 3 21.582 1.7985 23.3805 0 0 0
562 3 32.373 34.1715 1.7985 0 0 0
941 3 28.776 28.776 17.985 0 0 0
552 3 30.5745 30.5745 25.179 0 0 0
424 3 30.5745 19.7835 17.985 0 0 0
2878 3 10.791 23.3805 34.1715 0 0 0
982 3 28.776 34.1715 19.7835 0 0 0
2052 3 16.1865 23.3805 7.194 0 0 0
554 3 32.373 30.5745 30.5745 0 0 0
3960 3 0.0 26.9775 34.1715 0 0 0
3921 3 0.0 21.582 0.0 0 0 0
635 3 26.9775 0.0 30.5745 0 0 0
592 3 30.5745 34.1715 25.179 0 0 0
1218 3 25.179 19.7835 16.1865 0 0 0
265 3 32.373 3.597 21.582 0 0 0
2216 3 12.5895 1.7985 10.791 0 0 0
1752 3 19.7835 30.5745 25.179 0 0 0
465 3 32.373 21.582 21.582 0 0 0
1144 3 23.3805 12.5895 17.985 0 0 0
893 3 28.776 25.179 10.791 0 0 0
2692 3 8.9925 8.9925 7.194 0 0 0
56 3 34.1715 8.9925 25.179 0 0 0
1153 3 25.179 10.791 28.776 0 0 0
2965 3 10.791 32.373 3.597 0 0 0
2013 3 17.985 17.985 10.791 0 0 0
3932 3 0.0 23.3805 19.7835 0 0 0
2000 3 16.1865 16.1865 32.373 0 0 0
47 3 34.1715 7.194 12.5895 0 0 0
3808 3 0.0 1.7985 12.5895 0 0 0
3810 3 0.0 1.7985 16.1865 0 0 0
2818 3 10.791 19.7835 16.1865 0 0 0
2280 3 12.5895 5.3955 32.373 0 0 0
1277 3 25.179 21.582 32.373 0 0 0
935 3 26.9775 28.776 12.5895 0 0 0
209 3 32.373 0.0 7.194 0 0 0
904 3 26.9775 26.9775 17.985 0 0 0
2051 3 16.1865 21.582 8.9925 0 0 0
2208 3 12.5895 1.7985 3.597 0 0 0
2587 3 12.5895 32.373 23.3805 0 0 0
1845 3 17.985 3.597 3.597 0 0 0
3105 3 7.194 7.194 21.582 0 0 0
3698 3 3.597 26.9775 16.1865 0 0 0
1660 3 19.7835 23.3805 14.388 0 0 0
1793 3 21.582 32.373 28.776 0 0 0
2601 3 10.791 0.0 0.0 0 0 0
3119 3 5.3955 7.194 34.1715 0 0 0
828 3 26.9775 19.7835 21.582 0 0 0
1487 3 19.7835 7.194 5.3955 0 0 0
2740 3 8.9925 12.5895 14.388 0 0 0
1910 3 17.985 8.9925 26.9775 0 0 0
2362 3 14.388 16.1865 1.7985 0 0 0
366 3 32.373 16.1865 5.3955 0 0 0
1604 3 19.7835 19.7835 0.0 0 0 0
3525 3 3.597 10.791 3.597 0 0 0
1120 3 23.3805 8.9925 32.373 0 0 0
3138 3 7.194 12.5895 16.1865 0 0 0
3856 3 0.0 8.9925 26.9775 0 0 0
400 3 30.5745 16.1865 32.373 0 0 0
293 3 32.373 7.194 10.791 0 0 0
2317 3 14.388 7.194 32.373 0 0 0
3767 3 1.7985 32.373 5.3955 0 0 0
1348 3 23.3805 30.5745 21.582 0 0 0
1820 3 16.1865 1.7985 14.388 0 0 0
3460 3 1.7985 5.3955 14.388 0 0 0
3868 3 0.0 12.5895 12.5895 0 0 0
1044 3 23.3805 5.3955 0.0 0 0 0
2588 3 12.5895 34.1715 21.582 0 0 0
1808 3 16.1865 1.7985 3.597 0 0 0
2638 3 10.791 1.7985 34.1715 0 0 0
2471 3 12.5895 21.582 26.9775 0 0 0
294 3 32.373 8.9925 12.5895 0 0 0
2324 3 12.5895 12.5895 0.0 0 0 0
2906 3 10.791 26.9775 23.3805 0 0 0
3935 3 0.0 21.582 25.179 0 0 0
1649 3 21.582 21.582 7.194 0 0 0
3665 3 3.597 21.582 21.582 0 0 0
955 3 26.9775 28.776 30.5745 0 0 0
3613 3 3.597 17.985 10.791 0 0 0
3959 3 0.0 25.179 32.373 0 0 0
3263 3 5.3955 21.582 19.7835 0 0 0
1684 3 19.7835 26.9775 0.0 0 0 0
3614 3 3.597 19.7835 12.5895 0 0 0
1732 3 19.7835 30.5745 7.194 0 0 0
1 3 34.1715 0.0 1.7985 0 0 0
2312 3 12.5895 8.9925 25.179 0 0 0
1341 3 25.179 28.776 17.985 0 0 0
88 3 34.1715 16.1865 10.791 0 0 0
3519 3 1.7985 7.194 34.1715 0 0 0
29 3 34.1715 3.597 16.1865 0 0 0
786 3 28.776 16.1865 23.3805 0 0 0
3023 3 5.3955 0.0 19.7835 0 0 0
3422 3 3.597 1.7985 19.7835 0 0 0
114 3 34.1715 19.7835 21.582 0 0 0
3994 3 0.0 34.1715 23.3805 0 0 0
1714 3 21.582 26.9775 30.5745 0 0 0
1461 3 21.582 3.597 17.985 0 0 0
1095 3 23.3805 7.194 12.5895 0 0 0
307 3 30.5745 7.194 23.3805 0 0 0
1779 3 19.7835 32.373 16.1865 0 0 0
1271 3 23.3805 21.582 26.9775 0 0 0
2978 3 10.791 34.1715 16.1865 0 0 0
335 3 30.5745 10.791 12.5895 0 0 0
389 3 32.373 14.388 25.179 0 0 0
2903 3 8.9925 25.179 19.7835 0 0 0
415 3 30.5745 17.985 12.5895 0 0 0
3962 3 0.0 30.5745 1.7985 0 0 0
1583 3 19.7835 14.388 19.7835 0 0 0
1143 3 23.3805 10.791 19.7835 0 0 0
3213 3 7.194 17.985 10.791 0 0 0
2779 3 8.9925 14.388 16.1865 0 0 0
849 3 28.776 21.582 7.194 0 0 0
1470 3 21.582 5.3955 26.9775 0 0 0
2110 3 17.985 26.9775 26.9775 0 0 0
84 3 34.1715 16.1865 3.597 0 0 0
2806 3 10.791 19.7835 5.3955 0 0 0
798 3 28.776 16.1865 34.1715 0 0 0
280 3 30.5745 5.3955 32.373 0 0 0
59 3 34.1715 7.194 34.1715 0 0 0
1599 3 19.7835 14.388 34.1715 0 0 0
2821 3 10.791 17.985 17.985 0 0 0
2486 3 14.388 26.9775 5.3955 0 0 0
1333 3 25.179 28.776 10.791 0 0 0
686 3 28.776 8.9925 5.3955 0 0 0
3459 3 1.7985 3.597 16.1865 0 0 0
1423 3 19.7835 0.0 19.7835 0 0 0
3342 3 7.194 30.5745 19.7835 0 0 0
890 3 28.776 26.9775 8.9925 0 0 0
3099 3 5.3955 7.194 16.1865 0 0 0
435 3 30.5745 17.985 30.5745 0 0 0
2370 3 14.388 16.1865 8.9925 0 0 0
2195 3 16.1865 32.373 30.5745 0 0 0
3296 3 5.3955 26.9775 10.791 0 0 0
3302 3 7.194 26.9775 19.7835 0 0 0
2656 3 8.9925 5.3955 10.791 0 0 0
1299 3 23.3805 25.179 16.1865 0 0 0
3235 3 5.3955 17.985 30.5745 0 0 0
2112 3 16.1865 26.9775 25.179 0 0 0
2931 3 8.9925 28.776 8.9925 0 0 0
1413 3 21.582 0.0 10.791 0 0 0
985 3 28.776 32.373 21.582 0 0 0
3788 3 1.7985 34.1715 21.582 0 0 0
1897 3 17.985 7.194 14.388 0 0 0
942 3 28.776 30.5745 19.7835 0 0 0
2506 3 14.388 26.9775 23.3805 0 0 0
3886 3 0.0 16.1865 8.9925 0 0 0
2108 3 16.1865 26.9775 21.582 0 0 0
3054 3 7.194 5.3955 12.5895 0 0 0
386 3 32.373 16.1865 23.3805 0 0 0
2789 3 10.791 14.388 25.179 0 0 0
3162 3 7.194 16.1865 1.7985 0 0 0
1214 3 25.179 19.7835 12.5895 0 0 0
1515 3 19.7835 7.194 30.5745 0 0 0
3134 3 7.194 12.5895 12.5895 0 0 0
2373 3 14.388 14.388 10.791 0 0 0
15 3 34.1715 0.0 26.9775 0 0 0
3539 3 1.7985 10.791 16.1865 0 0 0
3940 3 0.0 23.3805 34.1715 0 0 0
806 3 28.776 19.7835 5.3955 0 0 0
410 3 32.373 19.7835 8.9925 0 0 0
3148 3 5.3955 12.5895 21.582 0 0 0
1612 3 19.7835 19.7835 7.194 0 0 0
2026 3 17.985 19.7835 23.3805 0 0 0
2857 3 10.791 21.582 14.388 0 0 0
2320 3 12.5895 8.9925 32.373 0 0 0
2762 3 10.791 16.1865 1.7985 0 0 0
602 3 28.776 1.7985 1.7985 0 0 0
702 3 28.776 8.9925 19.7835 0 0 0
1479 3 19.7835 3.597 34.1715 0 0 0
624 3 26.9775 1.7985 17.985 0 0 0
428 3 30.5745 19.7835 21.582 0 0 0
1058 3 25.179 5.3955 16.1865 0 0 0
2505 3 14.388 25.179 21.582 0 0 0
3275 3 5.3955 21.582 30.5745 0 0 0
141 3 34.1715 25.179 1.7985 0 0 0
1666 3 21.582 23.3805 23.3805 0 0 0
3232 3 5.3955 19.7835 25.179 0 0 0
1486 3 21.582 8.9925 5.3955 0 0 0
1865 3 17.985 3.597 21.582 0 0 0
895 3 26.9775 25.179 12.5895 0 0 0
3686 3 3.597 26.9775 5.3955 0 0 0
1581 3 21.582 14.388 17.985 0 0 0
2016 3 16.1865 19.7835 10.791 0 0 0
1031 3 23.3805 0.0 26.9775 0 0 0
2690 3 10.791 8.9925 8.9925 0 0 0
239 3 30.5745 0.0 34.1715 0 0 0
1522 3 21.582 12.5895 1.7985 0 0 0
869 3 28.776 21.582 25.179 0 0 0
1603 3 19.7835 17.985 1.7985 0 0 0
3898 3 0.0 16.1865 30.5745 0 0 0
522 3 32.373 30.5745 1.7985 0 0 0
329 3 32.373 10.791 7.194 0 0 0
1621 3 21.582 17.985 17.985 0 0 0
1438 3 21.582 1.7985 34.1715 0 0 0
1518 3 21.582 8.9925 34.1715 0 0 0
3139 3 5.3955 10.791 16.1865 0 0 0
3363 3 5.3955 32.373 1.7985 0 0 0
203 3 30.5745 0.0 1.7985 0 0 0
3963 3 0.0 28.776 3.597 0 0 0
2761 3 10.791 14.388 0.0 0 0 0
2419 3 12.5895 17.985 16.1865 0 0 0
2649 3 10.791 3.597 7.194 0 0 0
1702 3 21.582 26.9775 19.7835 0 0 0
1776 3 19.7835 34.1715 10.791 0 0 0
2002 3 17.985 19.7835 1.7985 0 0 0
1183 3 23.3805 14.388 19.7835 0 0 0
3319 3 5.3955 25.179 34.1715 0 0 0
2003 3 16.1865 17.985 1.7985 0 0 0
3822 3 0.0 5.3955 1.7985 0 0 0
1790 3 21.582 34.1715 26.9775 0 0 0
882 3 28.776 26.9775 1.7985 0 0 0
3687 3 1.7985 25.179 5.3955 0 0 0
3573 3 3.597 14.388 10.791 0 0 0
1400 3 23.3805 34.1715 32.373 0 0 0
1713 3 21.582 25.179 28.776 0 0 0
1964 3 16.1865 16.1865 0.0 0 0 0
2887 3 8.9925 25.179 5.3955 0 0 0
1190 3 25.179 16.1865 26.9775 0 0 0
3464 3 1.7985 5.3955 17.985 0 0 0
151 3 34.1715 25.179 19.7835 0 0 0
1511 3 19.7835 7.194 26.9775 0 0 0
2155 3 16.1865 28.776 30.5745 0 0 0
419 3 30.5745 17.985 16.1865 0 0 0
643 3 26.9775 3.597 1.7985 0 0 0
2485 3 14.388 25.179 3.597 0 0 0
2589 3 14.388 32.373 25.179 0 0 0
3006 3 7.194 1.7985 5.3955 0 0 0
1647 3 19.7835 21.582 5.3955 0 0 0
149 3 34.1715 25.179 16.1865 0 0 0
2519 3 12.5895 25.179 34.1715 0 0 0
1285 3 25.179 25.179 3.597 0 0 0
2768 3 8.9925 16.1865 3.597 0 0 0
2747 3 8.9925 10.791 23.3805 0 0 0
441 3 32.373 21.582 0.0 0 0 0
3299 3 5.3955 25.179 16.1865 0 0 0
508 3 30.5745 26.9775 21.582 0 0 0
2702 3 10.791 8.9925 19.7835 0 0 0
1833 3 17.985 0.0 28.776 0 0 0
1375 3 23.3805 32.373 12.5895 0 0 0
1671 3 19.7835 21.582 26.9775 0 0 0
1061 3 25.179 3.597 17.985 0 0 0
2277 3 14.388 3.597 32.373 0 0 0
3509 3 3.597 7.194 25.179 0 0 0
783 3 26.9775 14.388 19.7835 0 0 0
2612 3 8.9925 1.7985 7.194 0 0 0
3577 3 3.597 14.388 14.388 0 0 0
2193 3 17.985 32.373 28.776 0 0 0
532 3 30.5745 30.5745 7.194 0 0 0
996 3 26.9775 34.1715 28.776 0 0 0
2135 3 16.1865 28.776 12.5895 0 0 0
3087 3 5.3955 7.194 5.3955 0 0 0
2213 3 14.388 0.0 10.791 0 0 0
2642 3 10.791 5.3955 1.7985 0 0 0
3971 3 0.0 28.776 17.985 0 0 0
1657 3 21.582 21.582 14.388 0 0 0
2876 3 8.9925 23.3805 28.776 0 0 0
1937 3 17.985 10.791 14.388 0 0 0
2844 3 8.9925 23.3805 0.0 0 0 0
2580 3 12.5895 34.1715 14.388 0 0 0
2745 3 10.791 10.791 21.582 0 0 0
3805 3 0.0 0.0 7.194 0 0 0
2007 3 16.1865 17.985 5.3955 0 0 0
2962 3 10.791 34.1715 1.7985 0 0 0
3681 3 3.597 25.179 0.0 0 0 0
411 3 30.5745 17.985 8.9925 0 0 0
3973 3 0.0 28.776 21.582 0 0 0
1270 3 25.179 23.3805 26.9775 0 0 0
2117 3 17.985 25.179 32.373 0 0 0
3967 3 0.0 28.776 10.791 0 0 0
2885 3 10.791 25.179 3.597 0 0 0
1469 3 21.582 3.597 25.179 0 0 0
1353 3 25.179 28.776 28.776 0 0 0
2140 3 16.1865 30.5745 14.388 0 0 0
574 3 32.373 34.1715 12.5895 0 0 0
137 3 34.1715 21.582 30.5745 0 0 0
1240 3 23.3805 19.7835 32.373 0 0 0
567 3 30.5745 32.373 5.3955 0 0 0
2494 3 14.388 26.9775 12.5895 0 0 0
83 3 34.1715 14.388 5.3955 0 0 0
1699 3 19.7835 25.179 16.1865 0 0 0
1361 3 25.179 32.373 0.0 0 0 0
3863 3 0.0 10.791 3.597 0 0 0
2802 3 10.791 19.7835 1.7985 0 0 0
3638 3 3.597 19.7835 34.1715 0 0 0
587 3 30.5745 32.373 23.3805 0 0 0
1929 3 17.985 10.791 7.194 0 0 0
2385 3 14.388 14.388 21.582 0 0 0
221 3 32.373 0.0 17.985 0 0 0
2336 3 12.5895 12.5895 10.791 0 0 0
1390 3 25.179 34.1715 26.9775 0 0 0
1226 3 25.179 19.7835 23.3805 0 0 0
2585 3 14.388 32.373 21.582 0 0 0
3878 3 0.0 12.5895 30.5745 0 0 0
269 3 32.373 3.597 25.179 0 0 0
3081 3 7.194 7.194 0.0 0 0 0
2227 3 12.5895 0.0 23.3805 0 0 0
3180 3 5.3955 16.1865 14.388 0 0 0
3440 3 1.7985 1.7985 32.373 0 0 0
3234 3 7.194 19.7835 30.5745 0 0 0
1832 3 16.1865 1.7985 25.179 0 0 0
1872 3 16.1865 5.3955 25.179 0 0 0
1314 3 25.179 26.9775 30.5745 0 0 0
1177 3 25.179 14.388 14.388 0 0 0
2783 3 8.9925 14.388 19.7835 0 0 0
1257 3 25.179 21.582 14.388 0 0 0
680 3 26.9775 5.3955 32.373 0 0 0
3313 3 7.194 25.179 28.776 0 0 0
817 3 28.776 17.985 14.388 0 0 0
556 3 30.5745 30.5745 28.776 0 0 0
1616 3 19.7835 19.7835 10.791 0 0 0
1046 3 25.179 5.3955 5.3955 0 0 0
2239 3 12.5895 0.0 34.1715 0 0 0
3828 3 0.0 5.3955 12.5895 0 0 0
2023 3 16.1865 17.985 19.7835 0 0 0
3055 3 5.3955 3.597 12.5895 0 0 0
505 3 32.373 25.179 21.582 0 0 0
2658 3 10.791 5.3955 16.1865 0 0 0
3196 3 5.3955 16.1865 28.776 0 0 0
2709 3 10.791 7.194 25.179 0 0 0
1417 3 21.582 0.0 14.388 0 0 0
1829 3 17.985 0.0 25.179 0 0 0
301 3 32.373 7.194 17.985 0 0 0
1834 3 17.985 1.7985 30.5745 0 0 0
3177 3 7.194 14.388 14.388 0 0 0
1617 3 21.582 17.985 14.388 0 0 0
1170 3 25.179 16.1865 8.9925 0 0 0
206 3 32.373 1.7985 5.3955 0 0 0
1312 3 23.3805 26.9775 25.179 0 0 0
2650 3 10.791 5.3955 8.9925 0 0 0
2115 3 16.1865 25.179 30.5745 0 0 0
2091 3 16.1865 25.179 8.9925 0 0 0
1938 3 17.985 12.5895 16.1865 0 0 0
2318 3 14.388 8.9925 34.1715 0 0 0
875 3 26.9775 21.582 30.5745 0 0 0
1196 3 23.3805 16.1865 28.776 0 0 0
3780 3 1.7985 34.1715 14.388 0 0 0
74 3 34.1715 12.5895 21.582 0 0 0
2104 3 16.1865 26.9775 17.985 0 0 0
3005 3 7.194 0.0 3.597 0 0 0
3185 3 7.194 14.388 21.582 0 0 0
1106 3 25.179 8.9925 23.3805 0 0 0
1235 3 23.3805 17.985 30.5745 0 0 0
1672 3 19.7835 23.3805 25.179 0 0 0
3311 3 5.3955 25.179 26.9775 0 0 0
3015 3 5.3955 0.0 12.5895 0 0 0
3073 3 7.194 3.597 28.776 0 0 0
579 3 30.5745 32.373 16.1865 0 0 0
2489 3 14.388 25.179 7.194 0 0 0
200 3 34.1715 34.1715 32.373 0 0 0
2897 3 10.791 25.179 14.388 0 0 0
945 3 28.776 28.776 21.582 0 0 0
841 3 28.776 21.582 0.0 0 0 0
1931 3 16.1865 10.791 8.9925 0 0 0
6 3 34.1715 1.7985 7.194 0 0 0
3503 3 1.7985 7.194 19.7835 0 0 0
3297 3 7.194 25.179 14.388 0 0 0
46 3 34.1715 8.9925 7.194 0 0 0
2619 3 8.9925 0.0 16.1865 0 0 0
358 3 32.373 12.5895 34.1715 0 0 0
3678 3 3.597 23.3805 34.1715 0 0 0
91 3 34.1715 14.388 19.7835 0 0 0
3961 3 0.0 28.776 0.0 0 0 0
2858 3 10.791 23.3805 16.1865 0 0 0
2432 3 12.5895 19.7835 25.179 0 0 0
2570 3 14.388 34.1715 8.9925 0 0 0
3930 3 0.0 23.3805 16.1865 0 0 0
1204 3 23.3805 19.7835 0.0 0 0 0
2066 3 17.985 23.3805 23.3805 0 0 0
697 3 28.776 7.194 14.388 0 0 0
537 3 32.373 28.776 14.388 0 0 0
3477 3 3.597 3.597 32.373 0 0 0
3565 3 3.597 14.388 3.597 0 0 0
2106 3 17.985 26.9775 23.3805 0 0 0
2524 3 12.5895 30.5745 0.0 0 0 0
2504 3 12.5895 26.9775 17.985 0 0 0
3135 3 5.3955 10.791 12.5895 0 0 0
3984 3 0.0 34.1715 5.3955 0 0 0
2444 3 12.5895 23.3805 0.0 0 0 0
244 3 30.5745 5.3955 0.0 0 0 0
2415 3 12.5895 17.985 12.5895 0 0 0
2351 3 12.5895 10.791 26.9775 0 0 0
628 3 26.9775 1.7985 21.582 0 0 0
2327 3 12.5895 10.791 5.3955 0 0 0
77 3 34.1715 10.791 30.5745 0 0 0
2180 3 16.1865 34.1715 14.388 0 0 0
3862 3 0.0 12.5895 1.7985 0 0 0
1424 3 19.7835 1.7985 17.985 0 0 0
346 3 32.373 12.5895 23.3805 0 0 0
1036 3 23.3805 1.7985 28.776 0 0 0
3288 3 5.3955 26.9775 3.597 0 0 0
39 3 34.1715 3.597 34.1715 0 0 0
1641 3 21.582 21.582 0.0 0 0 0
632 3 26.9775 1.7985 25.179 0 0 0
1574 3 21.582 16.1865 12.5895 0 0 0
510 3 32.373 26.9775 26.9775 0 0 0
1437 3 21.582 0.0 32.373 0 0 0
1188 3 23.3805 16.1865 21.582 0 0 0
1755 3 19.7835 28.776 30.5745 0 0 0
897 3 28.776 25.179 14.388 0 0 0
1280 3 23.3805 23.3805 32.373 0 0 0
2750 3 10.791 12.5895 26.9775 0 0 0
2898 3 10.791 26.9775 16.1865 0 0 0
3155 3 5.3955 10.791 30.5745 0 0 0
343 3 30.5745 10.791 19.7835 0 0 0
1129 3 25.179 10.791 7.194 0 0 0
914 3 28.776 26.9775 30.5745 0 0 0
1399 3 23.3805 32.373 34.1715 0 0 0
2114 3 17.985 26.9775 30.5745 0 0 0
3146 3 7.194 12.5895 23.3805 0 0 0
2574 3 14.388 34.1715 12.5895 0 0 0
2303 3 12.5895 7.194 19.7835 0 0 0
1982 3 17.985 16.1865 19.7835 0 0 0
1661 3 21.582 21.582 17.985 0 0 0
626 3 28.776 1.7985 23.3805 0 0 0
2154 3 17.985 30.5745 30.5745 0 0 0
1653 3 21.582 21.582 10.791 0 0 0
1965 3 17.985 14.388 3.597 0 0 0
3889 3 0.0 14.388 14.388 0 0 0
1090 3 25.179 8.9925 8.9925 0 0 0
1028 3 23.3805 1.7985 21.582 0 0 0
1212 3 23.3805 19.7835 7.194 0 0 0
1704 3 19.7835 26.9775 17.985 0 0 0
787 3 26.9775 14.388 23.3805 0 0 0
1673 3 21.582 21.582 28.776 0 0 0
3113 3 7.194 7.194 28.776 0 0 0
2011 3 16.1865 17.985 8.9925 0 0 0
1216 3 23.3805 19.7835 10.791 0 0 0
2440 3 12.5895 19.7835 32.373 0 0 0
2829 3 10.791 17.985 25.179 0 0 0
3472 3 1.7985 5.3955 25.179 0 0 0
1325 3 25.179 28.776 3.597 0 0 0
3408 3 1.7985 1.7985 3.597 0 0 0
1792 3 19.7835 34.1715 25.179 0 0 0
3349 3 7.194 28.776 25.179 0 0 0
1308 3 23.3805 26.9775 21.582 0 0 0
1023 3 23.3805 0.0 19.7835 0 0 0
1347 3 23.3805 28.776 23.3805 0 0 0
1926 3 17.985 12.5895 5.3955 0 0 0
1747 3 19.7835 28.776 23.3805 0 0 0
422 3 32.373 19.7835 19.7835 0 0 0
735 3 26.9775 10.791 12.5895 0 0 0
2447 3 12.5895 21.582 5.3955 0 0 0
211 3 30.5745 0.0 8.9925 0 0 0
1751 3 19.7835 28.776 26.9775 0 0 0
1421 3 21.582 0.0 17.985 0 0 0
620 3 26.9775 1.7985 14.388 0 0 0
2837 3 10.791 17.985 32.373 0 0 0
1488 3 19.7835 8.9925 3.597 0 0 0
3964 3 0.0 30.5745 5.3955 0 0 0
1111 3 23.3805 7.194 26.9775 0 0 0
1165 3 25.179 14.388 3.597 0 0 0
1229 3 25.179 17.985 25.179 0 0 0
663 3 26.9775 3.597 19.7835 0 0 0
1385 3 25.179 32.373 21.582 0 0 0
2151 3 16.1865 28.776 26.9775 0 0 0
3553 3 3.597 10.791 28.776 0 0 0
1607 3 19.7835 17.985 5.3955 0 0 0
864 3 26.9775 23.3805 17.985 0 0 0
1219 3 23.3805 17.985 16.1865 0 0 0
3943 3 0.0 25.179 3.597 0 0 0
3469 3 3.597 3.597 25.179 0 0 0
3616 3 1.7985 19.7835 10.791 0 0 0
617 3 28.776 0.0 14.388 0 0 0
3063 3 5.3955 3.597 19.7835 0 0 0
1407 3 19.7835 0.0 5.3955 0 0 0
1614 3 21.582 19.7835 12.5895 0 0 0
752 3 26.9775 12.5895 25.179 0 0 0
3709 3 3.597 25.179 25.179 0 0 0
3792 3 1.7985 34.1715 25.179 0 0 0
3574 3 3.597 16.1865 12.5895 0 0 0
1263 3 23.3805 21.582 19.7835 0 0 0
2482 3 14.388 26.9775 1.7985 0 0 0
736 3 26.9775 12.5895 10.791 0 0 0
2226 3 14.388 1.7985 23.3805 0 0 0
1104 3 23.3805 8.9925 17.985 0 0 0
2472 3 12.5895 23.3805 25.179 0 0 0
1274 3 25.179 23.3805 30.5745 0 0 0
3661 3 3.597 21.582 17.985 0 0 0
979 3 26.9775 32.373 16.1865 0 0 0
1322 3 25.179 30.5745 1.7985 0 0 0
2517 3 14.388 25.179 32.373 0 0 0
1478 3 21.582 5.3955 34.1715 0 0 0
1913 3 17.985 7.194 28.776 0 0 0
3488 3 1.7985 8.9925 3.597 0 0 0
92 3 34.1715 16.1865 17.985 0 0 0
2845 3 10.791 21.582 3.597 0 0 0
2492 3 12.5895 26.9775 7.194 0 0 0
1947 3 16.1865 10.791 23.3805 0 0 0
1757 3 21.582 28.776 32.373 0 0 0
1231 3 23.3805 17.985 26.9775 0 0 0
476 3 30.5745 23.3805 28.776 0 0 0
1596 3 19.7835 16.1865 28.776 0 0 0
3273 3 7.194 21.582 28.776 0 0 0
822 3 28.776 19.7835 19.7835 0 0 0
3395 3 5.3955 32.373 30.5745 0 0 0
1618 3 21.582 19.7835 16.1865 0 0 0
691 3 26.9775 7.194 8.9925 0 0 0
952 3 26.9775 30.5745 25.179 0 0 0
231 3 30.5745 0.0 26.9775 0 0 0
1097 3 25.179 7.194 14.388 0 0 0
2084 3 16.1865 26.9775 0.0 0 0 0
3865 3 0.0 10.791 7.194 0 0 0
1652 3 19.7835 23.3805 7.194 0 0 0
2050 3 17.985 23.3805 8.9925 0 0 0
1232 3 23.3805 19.7835 25.179 0 0 0
770 3 28.776 16.1865 8.9925 0 0 0
685 3 28.776 7.194 3.597 0 0 0
3626 3 3.597 19.7835 23.3805 0 0 0
2877 3 10.791 21.582 32.373 0 0 0
1079 3 23.3805 3.597 34.1715 0 0 0
969 3 28.776 32.373 7.194 0 0 0
1563 3 19.7835 14.388 1.7985 0 0 0
1707 3 19.7835 25.179 23.3805 0 0 0
3847 3 0.0 7.194 10.791 0 0 0
1748 3 19.7835 30.5745 21.582 0 0 0
3777 3 3.597 32.373 14.388 0 0 0
2712 3 8.9925 8.9925 25.179 0 0 0
1452 3 19.7835 5.3955 7.194 0 0 0
1528 3 19.7835 12.5895 3.597 0 0 0
1631 3 19.7835 17.985 26.9775 0 0 0
2967 3 8.9925 32.373 5.3955 0 0 0
1200 3 23.3805 16.1865 32.373 0 0 0
1843 3 16.1865 3.597 1.7985 0 0 0
2919 3 8.9925 25.179 34.1715 0 0 0
3362 3 7.194 34.1715 1.7985 0 0 0
3266 3 7.194 23.3805 23.3805 0 0 0
3353 3 7.194 28.776 28.776 0 0 0
3239 3 5.3955 17.985 34.1715 0 0 0
194 3 34.1715 34.1715 21.582 0 0 0
3559 3 1.7985 10.791 34.1715 0 0 0
3902 3 0.0 19.7835 1.7985 0 0 0
2661 3 10.791 3.597 17.985 0 0 0
81 3 34.1715 14.388 1.7985 0 0 0
1181 3 25.179 14.388 17.985 0 0 0
3436 3 1.7985 1.7985 28.776 0 0 0
2893 3 10.791 25.179 10.791 0 0 0
1578 3 21.582 16.1865 16.1865 0 0 0
3987 3 0.0 32.373 10.791 0 0 0
1733 3 21.582 28.776 10.791 0 0 0
3330 3 7.194 30.5745 8.9925 0 0 0
2513 3 14.388 25.179 28.776 0 0 0
1907 3 16.1865 7.194 23.3805 0 0 0
246 3 32.373 5.3955 5.3955 0 0 0
2395 3 12.5895 14.388 30.5745 0 0 0
2473 3 14.388 21.582 28.776 0 0 0
2633 3 10.791 0.0 28.776 0 0 0
2927 3 8.9925 28.776 5.3955 0 0 0
2089 3 17.985 25.179 7.194 0 0 0
3339 3 5.3955 28.776 16.1865 0 0 0
1775 3 19.7835 32.373 12.5895 0 0 0
1493 3 21.582 7.194 10.791 0 0 0
3645 3 3.597 21.582 3.597 0 0 0
600 3 30.5745 34.1715 32.373 0 0 0
987 3 26.9775 32.373 23.3805 0 0 0
2667 3 8.9925 3.597 23.3805 0 0 0
3993 3 0.0 32.373 21.582 0 0 0
3601 3 3.597 17.985 0.0 0 0 0
1295 3 23.3805 25.179 12.5895 0 0 0
2465 3 14.388 21.582 21.582 0 0 0
1644 3 19.7835 23.3805 0.0 0 0 0
3437 3 3.597 0.0 32.373 0 0 0
1201 3 25.179 17.985 0.0 0 0 0
638 3 28.776 1.7985 34.1715 0 0 0
863 3 26.9775 21.582 19.7835 0 0 0
712 3 26.9775 8.9925 25.179 0 0 0
799 3 26.9775 14.388 34.1715 0 0 0
1159 3 23.3805 10.791 34.1715 0 0 0
3811 3 0.0 0.0 17.985 0 0 0
3504 3 1.7985 8.9925 17.985 0 0 0
2435 3 12.5895 17.985 30.5745 0 0 0
780 3 26.9775 16.1865 14.388 0 0 0
1734 3 21.582 30.5745 12.5895 0 0 0
2212 3 12.5895 1.7985 7.194 0 0 0
721 3 28.776 10.791 0.0 0 0 0
2266 3 14.388 5.3955 23.3805 0 0 0
2120 3 16.1865 26.9775 32.373 0 0 0
1116 3 23.3805 8.9925 28.776 0 0 0
595 3 30.5745 32.373 30.5745 0 0 0
2527 3 12.5895 28.776 5.3955 0 0 0
1799 3 19.7835 32.373 34.1715 0 0 0
3521 3 3.597 10.791 0.0 0 0 0
1880 3 16.1865 5.3955 32.373 0 0 0
1006 3 25.179 1.7985 5.3955 0 0 0
2534 3 14.388 30.5745 12.5895 0 0 0
2683 3 8.9925 7.194 1.7985 0 0 0
3723 3 1.7985 28.776 1.7985 0 0 0
2480 3 12.5895 23.3805 32.373 0 0 0
3009 3 7.194 0.0 7.194 0 0 0
3315 4 5.3955 25.179 30.5745 0 0 0
2030 4 17.985 19.7835 26.9775 0 0 0
2742 4 10.791 12.5895 19.7835 0 0 0
1705 4 21.582 25.179 21.582 0 0 0
3348 4 5.3955 30.5745 21.582 0 0 0
3325 4 7.194 28.776 3.597 0 0 0
2282 4 14.388 8.9925 1.7985 0 0 0
165 4 34.1715 28.776 8.9925 0 0 0
3829 4 0.0 3.597 14.388 0 0 0
468 4 30.5745 23.3805 21.582 0 0 0
891 4 26.9775 25.179 8.9925 0 0 0
1921 4 17.985 10.791 0.0 0 0 0
1085 4 25.179 7.194 3.597 0 0 0
133 4 34.1715 21.582 23.3805 0 0 0
2849 4 10.791 21.582 7.194 0 0 0
2937 4 10.791 28.776 14.388 0 0 0
3899 4 0.0 14.388 32.373 0 0 0
2809 4 10.791 17.985 7.194 0 0 0
3843 4 0.0 7.194 3.597 0 0 0
3421 4 3.597 0.0 17.985 0 0 0
3128 4 5.3955 12.5895 3.597 0 0 0
929 4 28.776 28.776 7.194 0 0 0
3278 4 7.194 23.3805 34.1715 0 0 0
3941 4 0.0 25.179 0.0 0 0 0
198 4 34.1715 34.1715 28.776 0 0 0
1005 4 25.179 0.0 3.597 0 0 0
344 4 30.5745 12.5895 17.985 0 0 0
61 4 34.1715 10.791 1.7985 0 0 0
3944 4 0.0 26.9775 5.3955 0 0 0
3390 4 7.194 34.1715 26.9775 0 0 0
260 4 30.5745 5.3955 14.388 0 0 0
2361 4 14.388 14.388 0.0 0 0 0
756 4 26.9775 12.5895 28.776 0 0 0
1688 4 19.7835 26.9775 3.597 0 0 0
2392 4 12.5895 16.1865 25.179 0 0 0
2160 4 16.1865 30.5745 32.373 0 0 0
3310 4 7.194 26.9775 26.9775 0 0 0
2388 4 12.5895 16.1865 21.582 0 0 0
1584 4 19.7835 16.1865 17.985 0 0 0
55 4 34.1715 7.194 26.9775 0 0 0
3229 4 7.194 17.985 25.179 0 0 0
1839 4 16.1865 0.0 34.1715 0 0 0
3112 4 5.3955 8.9925 25.179 0 0 0
2772 4 8.9925 16.1865 7.194 0 0 0
3308 4 5.3955 26.9775 21.582 0 0 0
585 4 32.373 32.373 21.582 0 0 0
1331 4 23.3805 28.776 8.9925 0 0 0
512 4 30.5745 26.9775 25.179 0 0 0
1619 4 19.7835 17.985 16.1865 0 0 0
1328 4 23.3805 30.5745 3.597 0 0 0
2029 4 17.985 17.985 25.179 0 0 0
1958 4 17.985 12.5895 34.1715 0 0 0
3818 4 0.0 1.7985 30.5745 0 0 0
1302 4 25.179 26.9775 19.7835 0 0 0
2481 4 14.388 25.179 0.0 0 0 0
3157 4 7.194 10.791 32.373 0 0 0
183 4 34.1715 32.373 5.3955 0 0 0
3089 4 7.194 7.194 7.194 0 0 0
2884 4 8.9925 26.9775 0.0 0 0 0
484 4 30.5745 26.9775 0.0 0 0 0
3451 4 1.7985 3.597 8.9925 0 0 0
924 4 26.9775 30.5745 0.0 0 0 0
2940 4 8.9925 30.5745 14.388 0 0 0
3745 4 3.597 28.776 21.582 0 0 0
568 4 30.5745 34.1715 3.597 0 0 0
25 4 34.1715 3.597 8.9925 0 0 0
3495 4 1.7985 7.194 12.5895 0 0 0
3682 4 3.597 26.9775 1.7985 0 0 0
808 4 26.9775 19.7835 3.597 0 0 0
1746 4 21.582 30.5745 23.3805 0 0 0
2637 4 10.791 0.0 32.373 0 0 0
2864 4 8.9925 23.3805 17.985 0 0 0
3576 4 1.7985 16.1865 10.791 0 0 0
2824 4 8.9925 19.7835 17.985 0 0 0
2713 4 10.791 7.194 28.776 0 0 0
2354 4 14.388 12.5895 30.5745 0 0 0
442 4 32.373 23.3805 1.7985 0 0 0
1481 4 21.582 7.194 0.0 0 0 0
889 4 28.776 25.179 7.194 0 0 0
1858 4 17.985 5.3955 16.1865 0 0 0
3910 4 0.0 19.7835 16.1865 0 0 0
2211 4 12.5895 0.0 8.9925 0 0 0
1103 4 23.3805 7.194 19.7835 0 0 0
2990 4 10.791 34.1715 26.9775 0 0 0
2515 4 12.5895 25.179 30.5745 0 0 0
3908 4 0.0 19.7835 12.5895 0 0 0
1300 4 23.3805 26.9775 14.388 0 0 0
2278 4 14.388 5.3955 34.1715 0 0 0
3831 4 0.0 3.597 17.985 0 0 0
888 4 26.9775 26.9775 3.597 0 0 0
2433 4 14.388 17.985 28.776 0 0 0
1717 4 21.582 25.179 32.373 0 0 0
2823 4 8.9925 17.985 19.7835 0 0 0
2062 4 17.985 23.3805 19.7835 0 0 0
62 4 34.1715 12.5895 0.0 0 0 0
3354 4 7.194 30.5745 30.5745 0 0 0
2648 4 8.9925 5.3955 3.597 0 0 0
2438 4 14.388 19.7835 34.1715 0 0 0
3051 4 5.3955 3.597 8.9925 0 0 0
1148 4 23.3805 12.5895 21.582 0 0 0
405 4 32.373 17.985 3.597 0 0 0
2254 4 14.388 5.3955 12.5895 0 0 0
1360 4 23.3805 30.5745 32.373 0 0 0
1948 4 16.1865 12.5895 21.582 0 0 0
1535 4 19.7835 10.791 12.5895 0 0 0
2302 4 14.388 8.9925 19.7835 0 0 0
3093 4 7.194 7.194 10.791 0 0 0
228 4 30.5745 1.7985 21.582 0 0 0
2093 4 17.985 25.179 10.791 0 0 0
3190 4 7.194 16.1865 26.9775 0 0 0
729 4 28.776 10.791 7.194 0 0 0
3458 4 3.597 5.3955 16.1865 0 0 0
1164 4 23.3805 16.1865 0.0 0 0 0
3992 4 0.0 34.1715 19.7835 0 0 0
3654 4 3.597 23.3805 12.5895 0 0 0
1482 4 21.582 8.9925 1.7985 0 0 0
353 4 32.373 10.791 28.776 0 0 0
2076 4 16.1865 23.3805 28.776 0 0 0
2170 4 17.985 34.1715 8.9925 0 0 0
388 4 30.5745 16.1865 21.582 0 0 0
2553 4 14.388 28.776 28.776 0 0 0
413 4 32.373 17.985 10.791 0 0 0
3415 4 1.7985 0.0 12.5895 0 0 0
437 4 32.373 17.985 32.373 0 0 0
3365 4 7.194 32.373 3.597 0 0 0
341 4 32.373 10.791 17.985 0 0 0
1659 4 19.7835 21.582 16.1865 0 0 0
3182 4 7.194 16.1865 19.7835 0 0 0
1448 4 19.7835 5.3955 3.597 0 0 0
2924 4 8.9925 30.5745 0.0 0 0 0
225 4 32.373 0.0 21.582 0 0 0
3888 4 0.0 16.1865 12.5895 0 0 0
2848 4 8.9925 23.3805 3.597 0 0 0
621 4 28.776 0.0 17.985 0 0 0
2550 4 14.388 30.5745 26.9775 0 0 0
2096 4 16.1865 26.9775 10.791 0 0 0
2200 4 16.1865 34.1715 32.373 0 0 0
455 4 30.5745 21.582 12.5895 0 0 0
184 4 34.1715 34.1715 3.597 0 0 0
572 4 30.5745 34.1715 7.194 0 0 0
1119 4 23.3805 7.194 34.1715 0 0 0
607 4 26.9775 0.0 5.3955 0 0 0
2102 4 17.985 26.9775 19.7835 0 0 0
639 4 26.9775 0.0 34.1715 0 0 0
802 4 28.776 19.7835 1.7985 0 0 0
2724 4 8.9925 12.5895 0.0 0 0 0
402 4 32.373 19.7835 1.7985 0 0 0
2101 4 17.985 25.179 17.985 0 0 0
1536 4 19.7835 12.5895 10.791 0 0 0
991 4 26.9775 32.373 26.9775 0 0 0
267 4 30.5745 3.597 23.3805 0 0 0
3653 4 3.597 21.582 10.791 0 0 0
2500 4 12.5895 26.9775 14.388 0 0 0
2907 4 8.9925 25.179 23.3805 0 0 0
2045 4 17.985 21.582 3.597 0 0 0
1396 4 23.3805 34.1715 28.776 0 0 0
797 4 28.776 14.388 32.373 0 0 0
3222 4 7.194 19.7835 19.7835 0 0 0
593 4 32.373 32.373 28.776 0 0 0
3583 4 1.7985 14.388 19.7835 0 0 0
2941 4 10.791 28.776 17.985 0 0 0
3713 4 3.597 25.179 28.776 0 0 0
947 4 26.9775 28.776 23.3805 0 0 0
1503 4 19.7835 7.194 19.7835 0 0 0
3618 4 3.597 19.7835 16.1865 0 0 0
3533 4 3.597 10.791 10.791 0 0 0
3343 4 5.3955 28.776 19.7835 0 0 0
2297 4 14.388 7.194 14.388 0 0 0
2564 4 12.5895 34.1715 0.0 0 0 0
373 4 32.373 14.388 10.791 0 0 0
3301 4 7.194 25.179 17.985 0 0 0
3473 4 3.597 3.597 28.776 0 0 0
915 4 26.9775 25.179 30.5745 0 0 0
2141 4 17.985 28.776 17.985 0 0 0
2417 4 14.388 17.985 14.388 0 0 0
2921 4 10.791 28.776 0.0 0 0 0
3523 4 1.7985 10.791 1.7985 0 0 0
3123 4 5.3955 10.791 1.7985 0 0 0
2329 4 14.388 10.791 7.194 0 0 0
99 4 34.1715 14.388 34.1715 0 0 0
173 4 34.1715 28.776 23.3805 0 0 0
1334 4 25.179 30.5745 12.5895 0 0 0
591 4 30.5745 32.373 26.9775 0 0 0
2363 4 12.5895 14.388 1.7985 0 0 0
971 4 26.9775 32.373 8.9925 0 0 0
3169 4 7.194 14.388 7.194 0 0 0
1795 4 19.7835 32.373 30.5745 0 0 0
3734 4 3.597 30.5745 12.5895 0 0 0
2326 4 14.388 12.5895 5.3955 0 0 0
2241 4 14.388 3.597 0.0 0 0 0
330 4 32.373 12.5895 8.9925 0 0 0
2315 4 12.5895 7.194 30.5745 0 0 0
720 4 26.9775 8.9925 32.373 0 0 0
3981 4 0.0 32.373 0.0 0 0 0
255 4 30.5745 3.597 12.5895 0 0 0
764 4 26.9775 16.1865 0.0 0 0 0
2932 4 8.9925 30.5745 7.194 0 0 0
3595 4 1.7985 14.388 30.5745 0 0 0
1178 4 25.179 16.1865 16.1865 0 0 0
2142 4 17.985 30.5745 19.7835 0 0 0
2715 4 8.9925 7.194 30.5745 0 0 0
723 4 26.9775 10.791 1.7985 0 0 0
119 4 34.1715 17.985 34.1715 0 0 0
72 4 34.1715 12.5895 17.985 0 0 0
457 4 32.373 21.582 14.388 0 0 0
259 4 30.5745 3.597 16.1865 0 0 0
3450 4 3.597 5.3955 8.9925 0 0 0
3223 4 5.3955 17.985 19.7835 0 0 0
665 4 28.776 3.597 21.582 0 0 0
901 4 28.776 25.179 17.985 0 0 0
588 4 30.5745 34.1715 21.582 0 0 0
3756 4 1.7985 30.5745 28.776 0 0 0
3693 4 3.597 25.179 10.791 0 0 0
3209 4 7.194 17.985 7.194 0 0 0
3882 4 0.0 16.1865 1.7985 0 0 0
1311 4 23.3805 25.179 26.9775 0 0 0
2674 4 10.791 5.3955 30.5745 0 0 0
1055 4 23.3805 3.597 12.5895 0 0 0
3030 4 7.194 1.7985 26.9775 0 0 0
3507 4 1.7985 7.194 23.3805 0 0 0
1157 4 25.179 10.791 32.373 0 0 0
2346 4 14.388 12.5895 23.3805 0 0 0
2544 4 12.5895 30.5745 17.985 0 0 0
1709 4 21.582 25.179 25.179 0 0 0
694 4 28.776 8.9925 12.5895 0 0 0
835 4 26.9775 17.985 30.5745 0 0 0
542 4 32.373 30.5745 19.7835 0 0 0
3384 4 5.3955 34.1715 17.985 0 0 0
1358 4 25.179 30.5745 34.1715 0 0 0
3985 4 0.0 32.373 7.194 0 0 0
2813 4 10.791 17.985 10.791 0 0 0
2975 4 8.9925 32.373 12.5895 0 0 0
1568 4 19.7835 16.1865 3.597 0 0 0
1900 4 16.1865 8.9925 14.388 0 0 0
3094 4 7.194 8.9925 12.5895 0 0 0
949 4 28.776 28.776 25.179 0 0 0
3546 4 3.597 12.5895 23.3805 0 0 0
363 4 30.5745 14.388 1.7985 0 0 0
2074 4 17.985 23.3805 30.5745 0 0 0
3165 4 7.194 14.388 3.597 0 0 0
2230 4 14.388 1.7985 26.9775 0 0 0
2922 4 10.791 30.5745 1.7985 0 0 0
2103 4 16.1865 25.179 19.7835 0 0 0
619 4 26.9775 0.0 16.1865 0 0 0
16 4 34.1715 1.7985 25.179 0 0 0
2659 4 8.9925 3.597 16.1865 0 0 0
3489 4 3.597 7.194 7.194 0 0 0
3388 4 5.3955 34.1715 21.582 0 0 0
2335 4 12.5895 10.791 12.5895 0 0 0
3689 4 3.597 25.179 7.194 0 0 0
460 4 30.5745 23.3805 14.388 0 0 0
905 4 28.776 25.179 21.582 0 0 0
1716 4 19.7835 26.9775 28.776 0 0 0
606 4 28.776 1.7985 5.3955 0 0 0
2268 4 12.5895 5.3955 21.582 0 0 0
749 4 28.776 10.791 25.179 0 0 0
3830 4 0.0 5.3955 16.1865 0 0 0
155 4 34.1715 25.179 26.9775 0 0 0
3097 4 7.194 7.194 14.388 0 0 0
1409 4 21.582 0.0 7.194 0 0 0
782 4 28.776 16.1865 19.7835 0 0 0
3535 4 1.7985 10.791 12.5895 0 0 0
3389 4 7.194 32.373 25.179 0 0 0
3034 4 7.194 1.7985 30.5745 0 0 0
3249 4 7.194 21.582 7.194 0 0 0
3056 4 5.3955 5.3955 10.791 0 0 0
2098 4 17.985 26.9775 16.1865 0 0 0
1455 4 19.7835 3.597 12.5895 0 0 0
2756 4 8.9925 12.5895 28.776 0 0 0
2571 4 12.5895 32.373 8.9925 0 0 0
2188 4 16.1865 34.1715 21.582 0 0 0
2460 4 12.5895 23.3805 14.388 0 0 0
932 4 26.9775 30.5745 7.194 0 0 0
2397 4 14.388 14.388 32.373 0 0 0
3506 4 3.597 8.9925 23.3805 0 0 0
40 4 34.1715 5.3955 32.373 0 0 0
3814 4 0.0 1.7985 23.3805 0 0 0
2784 4 8.9925 16.1865 17.985 0 0 0
3405 4 3.597 0.0 3.597 0 0 0
853 4 28.776 21.582 10.791 0 0 0
534 4 32.373 30.5745 12.5895 0 0 0
300 4 30.5745 8.9925 14.388 0 0 0
3704 4 1.7985 26.9775 17.985 0 0 0
2705 4 10.791 7.194 21.582 0 0 0
326 4 32.373 12.5895 5.3955 0 0 0
3558 4 3.597 12.5895 34.1715 0 0 0
1765 4 21.582 32.373 3.597 0 0 0
2294 4 14.388 8.9925 12.5895 0 0 0
2451 4 12.5895 21.582 8.9925 0 0 0
1329 4 25.179 28.776 7.194 0 0 0
1922 4 17.985 12.5895 1.7985 0 0 0
3424 4 1.7985 1.7985 17.985 0 0 0
1298 4 25.179 26.9775 16.1865 0 0 0
332 4 30.5745 12.5895 7.194 0 0 0
1138 4 25.179 12.5895 16.1865 0 0 0
3560 4 1.7985 12.5895 32.373 0 0 0
3298 4 7.194 26.9775 16.1865 0 0 0
1847 4 16.1865 3.597 5.3955 0 0 0
66 4 34.1715 12.5895 7.194 0 0 0
3949 4 0.0 25.179 14.388 0 0 0
3373 4 7.194 32.373 10.791 0 0 0
1711 4 19.7835 25.179 26.9775 0 0 0
1386 4 25.179 34.1715 23.3805 0 0 0
2337 4 14.388 10.791 14.388 0 0 0
1296 4 23.3805 26.9775 10.791 0 0 0
1875 4 16.1865 3.597 30.5745 0 0 0
475 4 30.5745 21.582 30.5745 0 0 0
2511 4 12.5895 25.179 26.9775 0 0 0
142 4 34.1715 26.9775 0.0 0 0 0
1113 4 25.179 7.194 28.776 0 0 0
163 4 34.1715 28.776 5.3955 0 0 0
3919 4 0.0 17.985 32.373 0 0 0
958 4 28.776 30.5745 34.1715 0 0 0
539 4 30.5745 28.776 16.1865 0 0 0
3017 4 7.194 0.0 14.388 0 0 0
3154 4 7.194 12.5895 30.5745 0 0 0
2805 4 10.791 17.985 3.597 0 0 0
1172 4 23.3805 16.1865 7.194 0 0 0
3644 4 1.7985 23.3805 0.0 0 0 0
2274 4 14.388 5.3955 30.5745 0 0 0
2368 4 12.5895 16.1865 3.597 0 0 0
2704 4 8.9925 8.9925 17.985 0 0 0
631 4 26.9775 0.0 26.9775 0 0 0
1601 4 21.582 17.985 0.0 0 0 0
1888 4 16.1865 8.9925 3.597 0 0 0
896 4 26.9775 26.9775 10.791 0 0 0
1961 4 17.985 14.388 0.0 0 0 0
1569 4 21.582 14.388 7.194 0 0 0
1315 4 23.3805 25.179 30.5745 0 0 0
3208 4 5.3955 19.7835 3.597 0 0 0
513 4 32.373 25.179 28.776 0 0 0
3212 4 5.3955 19.7835 7.194 0 0 0
777 4 28.776 14.388 14.388 0 0 0
100 4 34.1715 16.1865 32.373 0 0 0
2628 4 8.9925 1.7985 21.582 0 0 0
1149 4 25.179 10.791 25.179 0 0 0
2352 4 12.5895 12.5895 25.179 0 0 0
2880 4 8.9925 23.3805 32.373 0 0 0
1244 4 23.3805 23.3805 0.0 0 0 0
2770 4 10.791 16.1865 8.9925 0 0 0
687 4 26.9775 7.194 5.3955 0 0 0
3409 4 3.597 0.0 7.194 0 0 0
3066 4 7.194 5.3955 23.3805 0 0 0
3833 4 0.0 3.597 21.582 0 0 0
425 4 32.373 17.985 21.582 0 0 0
2625 4 10.791 0.0 21.582 0 0 0
2 4 34.1715 1.7985 0.0 0 0 0
1324 4 23.3805 30.5745 0.0 0 0 0
2287 4 12.5895 7.194 5.3955 0 0 0
3953 4 0.0 25.179 21.582 0 0 0
521 4 32.373 28.776 0.0 0 0 0
714 4 28.776 8.9925 30.5745 0 0 0
276 4 30.5745 5.3955 28.776 0 0 0
2067 4 16.1865 21.582 23.3805 0 0 0
1102 4 25.179 8.9925 19.7835 0 0 0
2201 4 14.388 0.0 0.0 0 0 0
2339 4 12.5895 10.791 16.1865 0 0 0
2583 4 12.5895 32.373 19.7835 0 0 0
1261 4 25.179 21.582 17.985 0 0 0
2781 4 10.791 14.388 17.985 0 0 0
1899 4 16.1865 7.194 16.1865 0 0 0
1686 4 21.582 26.9775 5.3955 0 0 0
3238 4 7.194 19.7835 34.1715 0 0 0
1682 4 21.582 26.9775 1.7985 0 0 0
1658 4 21.582 23.3805 16.1865 0 0 0
161 4 34.1715 28.776 1.7985 0 0 0
2766 4 10.791 16.1865 5.3955 0 0 0
2665 4 10.791 3.597 21.582 0 0 0
3178 4 7.194 16.1865 16.1865 0 0 0
3929 4 0.0 21.582 14.388 0 0 0
3500 4 1.7985 8.9925 14.388 0 0 0
3508 4 1.7985 8.9925 21.582 0 0 0
2396 4 12.5895 16.1865 28.776 0 0 0
2167 4 16.1865 32.373 5.3955 0 0 0
3887 4 0.0 14.388 10.791 0 0 0
1898 4 17.985 8.9925 16.1865 0 0 0
813 4 28.776 17.985 10.791 0 0 0
86 4 34.1715 16.1865 7.194 0 0 0
2144 4 16.1865 30.5745 17.985 0 0 0
2528 4 12.5895 30.5745 3.597 0 0 0
647 4 26.9775 3.597 5.3955 0 0 0
3418 4 3.597 1.7985 16.1865 0 0 0
1764 4 19.7835 34.1715 0.0 0 0 0
3622 4 3.597 19.7835 19.7835 0 0 0
2538 4 14.388 30.5745 16.1865 0 0 0
4000 4 0.0 34.1715 34.1715 0 0 0
3650 4 3.597 23.3805 8.9925 0 0 0
216 4 30.5745 1.7985 10.791 0 0 0
3799 4 1.7985 32.373 34.1715 0 0 0
3848 4 0.0 8.9925 12.5895 0 0 0
392 4 30.5745 16.1865 25.179 0 0 0
3132 4 5.3955 12.5895 7.194 0 0 0
3156 4 5.3955 12.5895 28.776 0 0 0
2223 4 12.5895 0.0 19.7835 0 0 0
238 4 32.373 1.7985 34.1715 0 0 0
2871 4 8.9925 21.582 26.9775 0 0 0
478 4 32.373 23.3805 34.1715 0 0 0
1985 4 17.985 14.388 21.582 0 0 0
3383 4 5.3955 32.373 19.7835 0 0 0
3852 4 0.0 8.9925 19.7835 0 0 0
1060 4 23.3805 5.3955 14.388 0 0 0
3285 4 7.194 25.179 3.597 0 0 0
1440 4 19.7835 1.7985 32.373 0 0 0
2017 4 17.985 17.985 14.388 0 0 0
2557 4 14.388 28.776 32.373 0 0 0
144 4 34.1715 26.9775 3.597 0 0 0
2257 4 14.388 3.597 14.388 0 0 0
3746 4 3.597 30.5745 23.3805 0 0 0
3114 4 7.194 8.9925 30.5745 0 0 0
504 4 30.5745 26.9775 17.985 0 0 0
1009 4 25.179 0.0 7.194 0 0 0
1756 4 19.7835 30.5745 28.776 0 0 0
3088 4 5.3955 8.9925 3.597 0 0 0
1626 4 21.582 19.7835 23.3805 0 0 0
33 4 34.1715 3.597 23.3805 0 0 0
3697 4 3.597 25.179 14.388 0 0 0
1889 4 17.985 7.194 7.194 0 0 0
2749 4 10.791 10.791 25.179 0 0 0
1051 4 23.3805 3.597 8.9925 0 0 0
1020 4 23.3805 1.7985 14.388 0 0 0
930 4 28.776 30.5745 8.9925 0 0 0
252 4 30.5745 5.3955 7.194 0 0 0
3695 4 1.7985 25.179 12.5895 0 0 0
49 4 34.1715 7.194 16.1865 0 0 0
2865 4 10.791 21.582 21.582 0 0 0
3028 4 5.3955 1.7985 21.582 0 0 0
1687 4 19.7835 25.179 5.3955 0 0 0
130 4 34.1715 23.3805 14.388 0 0 0
1680 4 19.7835 23.3805 32.373 0 0 0
2240 4 12.5895 1.7985 32.373 0 0 0
2256 4 12.5895 5.3955 10.791 0 0 0
2847 4 8.9925 21.582 5.3955 0 0 0
191 4 34.1715 32.373 19.7835 0 0 0
653 4 28.776 3.597 10.791 0 0 0
2290 4 14.388 8.9925 8.9925 0 0 0
147 4 34.1715 25.179 12.5895 0 0 0
2222 4 14.388 1.7985 19.7835 0 0 0
3719 4 1.7985 25.179 34.1715 0 0 0
2393 4 14.388 14.388 28.776 0 0 0
2754 4 10.791 12.5895 30.5745 0 0 0
18 4 34.1715 1.7985 28.776 0 0 0
1052 4 23.3805 5.3955 7.194 0 0 0
1489 4 21.582 7.194 7.194 0 0 0
856 4 26.9775 23.3805 10.791 0 0 0
825 4 28.776 17.985 21.582 0 0 0
357 4 32.373 10.791 32.373 0 0 0
399 4 30.5745 14.388 34.1715 0 0 0
713 4 28.776 7.194 28.776 0 0 0
518 4 32.373 26.9775 34.1715 0 0 0
571 4 30.5745 32.373 8.9925 0 0 0
1010 4 25.179 1.7985 8.9925 0 0 0
3126 4 7.194 12.5895 5.3955 0 0 0
3392 4 5.3955 34.1715 25.179 0 0 0
2860 4 8.9925 23.3805 14.388 0 0 0
2083 4 16.1865 25.179 1.7985 0 0 0
625 4 28.776 0.0 21.582 0 0 0
676 4 26.9775 5.3955 28.776 0 0 0
2264 4 12.5895 5.3955 17.985 0 0 0
1683 4 19.7835 25.179 1.7985 0 0 0
1690 4 21.582 26.9775 8.9925 0 0 0
1105 4 25.179 7.194 21.582 0 0 0
637 4 28.776 0.0 32.373 0 0 0
1615 4 19.7835 17.985 12.5895 0 0 0
1354 4 25.179 30.5745 30.5745 0 0 0
790 4 28.776 16.1865 26.9775 0 0 0
1210 4 25.179 19.7835 8.9925 0 0 0
458 4 32.373 23.3805 16.1865 0 0 0
3419 4 1.7985 0.0 16.1865 0 0 0
407 4 30.5745 17.985 5.3955 0 0 0
3588 4 1.7985 16.1865 21.582 0 0 0
3517 4 3.597 7.194 32.373 0 0 0
3098 4 7.194 8.9925 16.1865 0 0 0
2202 4 14.388 1.7985 1.7985 0 0 0
3673 4 3.597 21.582 28.776 0 0 0
884 4 26.9775 26.9775 0.0 0 0 0
1156 4 23.3805 12.5895 28.776 0 0 0
1762 4 21.582 34.1715 1.7985 0 0 0
1917 4 17.985 7.194 32.373 0 0 0
511 4 30.5745 25.179 26.9775 0 0 0
1979 4 16.1865 14.388 16.1865 0 0 0
1787 4 19.7835 32.373 23.3805 0 0 0
2442 4 14.388 23.3805 1.7985 0 0 0
1158 4 25.179 12.5895 34.1715 0 0 0
2407 4 12.5895 17.985 5.3955 0 0 0
546 4 32.373 30.5745 23.3805 0 0 0
3374 4 7.194 34.1715 12.5895 0 0 0
2245 4 14.388 3.597 3.597 0 0 0
1530 4 21.582 12.5895 8.9925 0 0 0
3439 4 1.7985 0.0 34.1715 0 0 0
2307 4 12.5895 7.194 23.3805 0 0 0
3149 4 7.194 10.791 25.179 0 0 0
3903 4 0.0 17.985 3.597 0 0 0
2734 4 10.791 12.5895 12.5895 0 0 0
1215 4 23.3805 17.985 12.5895 0 0 0
1797 4 21.582 32.373 32.373 0 0 0
2758 4 10.791 12.5895 34.1715 0 0 0
1533 4 21.582 10.791 10.791 0 0 0
338 4 32.373 12.5895 16.1865 0 0 0
3033 4 7.194 0.0 28.776 0 0 0
800 4 26.9775 16.1865 32.373 0 0 0
2592 4 12.5895 34.1715 25.179 0 0 0
3021 4 7.194 0.0 17.985 0 0 0
3710 4 3.597 26.9775 26.9775 0 0 0
2456 4 12.5895 23.3805 10.791 0 0 0
3593 4 3.597 14.388 28.776 0 0 0
456 4 30.5745 23.3805 10.791 0 0 0
1475 4 19.7835 3.597 30.5745 0 0 0
3010 4 7.194 1.7985 8.9925 0 0 0
1101 4 25.179 7.194 17.985 0 0 0
350 4 32.373 12.5895 26.9775 0 0 0
1370 4 25.179 34.1715 8.9925 0 0 0
3611 4 1.7985 17.985 8.9925 0 0 0
1885 4 17.985 7.194 3.597 0 0 0
2020 4 16.1865 19.7835 14.388 0 0 0
1930 4 17.985 12.5895 8.9925 0 0 0
3323 4 5.3955 28.776 1.7985 0 0 0
1992 4 16.1865 16.1865 25.179 0 0 0
3462 4 3.597 5.3955 19.7835 0 0 0
740 4 26.9775 12.5895 14.388 0 0 0
3866 4 0.0 12.5895 8.9925 0 0 0
1209 4 25.179 17.985 7.194 0 0 0
2410 4 14.388 19.7835 8.9925 0 0 0
1993 4 17.985 14.388 28.776 0 0 0
1516 4 19.7835 8.9925 28.776 0 0 0
2047 4 16.1865 21.582 5.3955 0 0 0
3550 4 3.597 12.5895 26.9775 0 0 0
3377 4 7.194 32.373 14.388 0 0 0
264 4 30.5745 5.3955 17.985 0 0 0
2431 4 12.5895 17.985 26.9775 0 0 0
1131 4 23.3805 10.791 8.9925 0 0 0
3000 4 8.9925 34.1715 32.373 0 0 0
2909 4 10.791 25.179 25.179 0 0 0
3816 4 0.0 1.7985 26.9775 0 0 0
1685 4 21.582 25.179 3.597 0 0 0
529 4 32.373 28.776 7.194 0 0 0
199 4 34.1715 32.373 34.1715 0 0 0
766 4 28.776 16.1865 5.3955 0 0 0
2594 4 14.388 34.1715 30.5745 0 0 0
2541 4 14.388 28.776 17.985 0 0 0
2518 4 14.388 26.9775 34.1715 0 0 0
3145 4 7.194 10.791 21.582 0 0 0
65 4 34.1715 10.791 8.9925 0 0 0
2861 4 10.791 21.582 17.985 0 0 0
2842 4 10.791 23.3805 1.7985 0 0 0
2474 4 14.388 23.3805 30.5745 0 0 0
1809 4 17.985 0.0 7.194 0 0 0
908 4 26.9775 26.9775 21.582 0 0 0
3850 4 0.0 8.9925 16.1865 0 0 0
2192 4 16.1865 34.1715 25.179 0 0 0
2863 4 8.9925 21.582 19.7835 0 0 0
2233 4 14.388 0.0 28.776 0 0 0
2801 4 10.791 17.985 0.0 0 0 0
3738 4 3.597 30.5745 16.1865 0 0 0
3309 4 7.194 25.179 25.179 0 0 0
319 4 30.5745 7.194 34.1715 0 0 0
3237 4 7.194 17.985 32.373 0 0 0
1018 4 25.179 1.7985 16.1865 0 0 0
1301 4 25.179 25.179 17.985 0 0 0
3352 4 5.3955 30.5745 25.179 0 0 0
3197 4 7.194 14.388 32.373 0 0 0
3837 4 0.0 3.597 28.776 0 0 0
1381 4 25.179 32.373 17.985 0 0 0
3590 4 3.597 16.1865 26.9775 0 0 0
2075 4 16.1865 21.582 30.5745 0 0 0
1454 4 21.582 5.3955 12.5895 0 0 0
578 4 32.373 34.1715 16.1865 0 0 0
2232 4 12.5895 1.7985 25.179 0 0 0
2879 4 8.9925 21.582 34.1715 0 0 0
3444 4 1.7985 5.3955 0.0 0 0 0
3381 4 7.194 32.373 17.985 0 0 0
1457 4 21.582 3.597 14.388 0 0 0
3714 4 3.597 26.9775 30.5745 0 0 0
497 4 32.373 25.179 14.388 0 0 0
1252 4 23.3805 23.3805 7.194 0 0 0
1309 4 25.179 25.179 25.179 0 0 0
94 4 34.1715 16.1865 21.582 0 0 0
2048 4 16.1865 23.3805 3.597 0 0 0
2608 4 8.9925 1.7985 3.597 0 0 0
1869 4 17.985 3.597 25.179 0 0 0
2973 4 10.791 32.373 10.791 0 0 0
337 4 32.373 10.791 14.388 0 0 0
2158 4 17.985 30.5745 34.1715 0 0 0
467 4 30.5745 21.582 23.3805 0 0 0
3983 4 0.0 32.373 3.597 0 0 0
2793 4 10.791 14.388 28.776 0 0 0
1971 4 16.1865 14.388 8.9925 0 0 0
3612 4 1.7985 19.7835 7.194 0 0 0
2478 4 14.388 23.3805 34.1715 0 0 0
1786 4 21.582 34.1715 23.3805 0 0 0
24 4 34.1715 5.3955 3.597 0 0 0
1463 4 19.7835 3.597 19.7835 0 0 0
866 4 28.776 23.3805 23.3805 0 0 0
1914 4 17.985 8.9925 30.5745 0 0 0
3515 4 1.7985 7.194 30.5745 0 0 0
506 4 32.373 26.9775 23.3805 0 0 0
1650 4 21.582 23.3805 8.9925 0 0 0
2477 4 14.388 21.582 32.373 0 0 0
368 4 30.5745 16.1865 3.597 0 0 0
845 4 28.776 21.582 3.597 0 0 0
974 4 28.776 34.1715 12.5895 0 0 0
3803 4 0.0 0.0 3.597 0 0 0
1035 4 23.3805 0.0 30.5745 0 0 0
2178 4 17.985 34.1715 16.1865 0 0 0
2021 4 17.985 17.985 17.985 0 0 0
3173 4 7.194 14.388 10.791 0 0 0
3872 4 0.0 12.5895 19.7835 0 0 0
925 4 28.776 28.776 3.597 0 0 0
371 4 30.5745 14.388 8.9925 0 0 0
3782 4 3.597 34.1715 19.7835 0 0 0
1664 4 19.7835 23.3805 17.985 0 0 0
3496 4 1.7985 8.9925 10.791 0 0 0
3643 4 1.7985 21.582 1.7985 0 0 0
1014 4 25.179 1.7985 12.5895 0 0 0
2344 4 12.5895 12.5895 17.985 0 0 0
760 4 26.9775 12.5895 32.373 0 0 0
168 4 34.1715 30.5745 10.791 0 0 0
1545 4 21.582 10.791 21.582 0 0 0
1056 4 23.3805 5.3955 10.791 0 0 0
836 4 26.9775 19.7835 28.776 0 0 0
2960 4 8.9925 30.5745 32.373 0 0 0
1842 4 17.985 5.3955 1.7985 0 0 0
965 4 28.776 32.373 3.597 0 0 0
519 4 30.5745 25.179 34.1715 0 0 0
1323 4 23.3805 28.776 1.7985 0 0 0
288 4 30.5745 8.9925 3.597 0 0 0
283 4 30.5745 7.194 1.7985 0 0 0
3151 4 5.3955 10.791 26.9775 0 0 0
490 4 32.373 26.9775 8.9925 0 0 0
2079 4 16.1865 21.582 34.1715 0 0 0
2526 4 14.388 30.5745 5.3955 0 0 0
981 4 28.776 32.373 17.985 0 0 0
1633 4 21.582 17.985 28.776 0 0 0
3915 4 0.0 17.985 25.179 0 0 0
3423 4 1.7985 0.0 19.7835 0 0 0
489 4 32.373 25.179 7.194 0 0 0
804 4 26.9775 19.7835 0.0 0 0 0
3986 4 0.0 34.1715 8.9925 0 0 0
1539 4 19.7835 10.791 16.1865 0 0 0
2105 4 17.985 25.179 21.582 0 0 0
2689 4 10.791 7.194 7.194 0 0 0
603 4 26.9775 0.0 1.7985 0 0 0
2304 4 12.5895 8.9925 17.985 0 0 0
2139 4 16.1865 28.776 16.1865 0 0 0
3244 4 5.3955 23.3805 0.0 0 0 0
2856 4 8.9925 23.3805 10.791 0 0 0
868 4 26.9775 23.3805 21.582 0 0 0
745 4 28.776 10.791 21.582 0 0 0
1529 4 21.582 10.791 7.194 0 0 0
711 4 26.9775 7.194 26.9775 0 0 0
2872 4 8.9925 23.3805 25.179 0 0 0
1804 4 16.1865 1.7985 0.0 0 0 0
3307 4 5.3955 25.179 23.3805 0 0 0
1849 4 17.985 3.597 7.194 0 0 0
3548 4 1.7985 12.5895 21.582 0 0 0
1665 4 21.582 21.582 21.582 0 0 0
473 4 32.373 21.582 28.776 0 0 0
2718 4 10.791 8.9925 34.1715 0 0 0
1852 4 16.1865 5.3955 7.194 0 0 0
2175 4 16.1865 32.373 12.5895 0 0 0
3465 4 3.597 3.597 21.582 0 0 0
496 4 30.5745 26.9775 10.791 0 0 0
298 4 32.373 8.9925 16.1865 0 0 0
516 4 30.5745 26.9775 28.776 0 0 0
34 4 34.1715 5.3955 21.582 0 0 0
1788 4 19.7835 34.1715 21.582 0 0 0
3215 4 5.3955 17.985 12.5895 0 0 0
466 4 32.373 23.3805 23.3805 0 0 0
63 4 34.1715 10.791 5.3955 0 0 0
2468 4 12.5895 23.3805 21.582 0 0 0
1609 4 21.582 17.985 7.194 0 0 0
1288 4 23.3805 26.9775 3.597 0 0 0
2996 4 8.9925 34.1715 28.776 0 0 0
3370 4 7.194 34.1715 8.9925 0 0 0
2018 4 17.985 19.7835 16.1865 0 0 0
2586 4 14.388 34.1715 23.3805 0 0 0
1305 4 25.179 25.179 21.582 0 0 0
360 4 30.5745 12.5895 32.373 0 0 0
899 4 26.9775 25.179 16.1865 0 0 0
2466 4 14.388 23.3805 23.3805 0 0 0
2687 4 8.9925 7.194 5.3955 0 0 0
1570 4 21.582 16.1865 8.9925 0 0 0
1678 4 21.582 23.3805 34.1715 0 0 0
3621 4 3.597 17.985 17.985 0 0 0
683 4 26.9775 7.194 1.7985 0 0 0
3579 4 1.7985 14.388 16.1865 0 0 0
90 4 34.1715 16.1865 14.388 0 0 0
157 4 34.1715 25.179 30.5745 0 0 0
1549 4 21.582 10.791 25.179 0 0 0
1890 4 17.985 8.9925 8.9925 0 0 0
2340 4 12.5895 12.5895 14.388 0 0 0
1935 4 16.1865 10.791 12.5895 0 0 0
1794 4 21.582 34.1715 30.5745 0 0 0
376 4 30.5745 16.1865 10.791 0 0 0
1293 4 25.179 25.179 10.791 0 0 0
3744 4 1.7985 30.5745 17.985 0 0 0
3090 4 7.194 8.9925 8.9925 0 0 0
747 4 26.9775 10.791 23.3805 0 0 0
2597 4 14.388 32.373 32.373 0 0 0
2364 4 12.5895 16.1865 0.0 0 0 0
3255 4 5.3955 21.582 12.5895 0 0 0
692 4 26.9775 8.9925 7.194 0 0 0
3004 4 5.3955 1.7985 0.0 0 0 0
605 4 28.776 0.0 3.597 0 0 0
655 4 26.9775 3.597 12.5895 0 0 0
158 4 34.1715 26.9775 28.776 0 0 0
2427 4 12.5895 17.985 23.3805 0 0 0
1449 4 21.582 3.597 7.194 0 0 0
2572 4 12.5895 34.1715 7.194 0 0 0
3741 4 3.597 28.776 17.985 0 0 0
3075 4 5.3955 3.597 30.5745 0 0 0
2546 4 14.388 30.5745 23.3805 0 0 0
3820 4 0.0 1.7985 34.1715 0 0 0
2289 4 14.388 7.194 7.194 0 0 0
3778 4 3.597 34.1715 16.1865 0 0 0
3207 4 5.3955 17.985 5.3955 0 0 0
1410 4 21.582 1.7985 8.9925 0 0 0
1801 4 17.985 0.0 0.0 0 0 0
1949 4 17.985 10.791 25.179 0 0 0
1564 4 19.7835 16.1865 0.0 0 0 0
1769 4 21.582 32.373 7.194 0 0 0
3934 4 0.0 23.3805 23.3805 0 0 0
1436 4 19.7835 1.7985 28.776 0 0 0
3748 4 1.7985 30.5745 21.582 0 0 0
2630 4 10.791 1.7985 26.9775 0 0 0
934 4 28.776 30.5745 12.5895 0 0 0
1520 4 19.7835 8.9925 32.373 0 0 0
48 4 34.1715 8.9925 10.791 0 0 0
1339 4 23.3805 28.776 16.1865 0 0 0
322 4 32.373 12.5895 1.7985 0 0 0
3400 4 5.3955 34.1715 32.373 0 0 0
3664 4 1.7985 23.3805 17.985 0 0 0
2309 4 14.388 7.194 25.179 0 0 0
3356 4 5.3955 30.5745 28.776 0 0 0
727 4 26.9775 10.791 5.3955 0 0 0
1065 4 25.179 3.597 21.582 0 0 0
693 4 28.776 7.194 10.791 0 0 0
1546 4 21.582 12.5895 23.3805 0 0 0
1199 4 23.3805 14.388 34.1715 0 0 0
3314 4 7.194 26.9775 30.5745 0 0 0
3026 4 7.194 1.7985 23.3805 0 0 0
1810 4 17.985 1.7985 8.9925 0 0 0
401 4 32.373 17.985 0.0 0 0 0
3284 4 5.3955 26.9775 0.0 0 0 0
3801 4 0.0 0.0 0.0 0 0 0
375 4 30.5745 14.388 12.5895 0 0 0
666 4 28.776 5.3955 23.3805 0 0 0
3214 4 7.194 19.7835 12.5895 0 0 0
1902 4 17.985 8.9925 19.7835 0 0 0
1605 4 21.582 17.985 3.597 0 0 0
2535 4 12.5895 28.776 12.5895 0 0 0
3474 4 3.597 5.3955 30.5745 0 0 0
3897 4 0.0 14.388 28.776 0 0 0
699 4 26.9775 7.194 16.1865 0 0 0
1236 4 23.3805 19.7835 28.776 0 0 0
773 4 28.776 14.388 10.791 0 0 0
2414 4 14.388 19.7835 12.5895 0 0 0
436 4 30.5745 19.7835 28.776 0 0 0
2839 4 8.9925 17.985 34.1715 0 0 0
352 4 30.5745 12.5895 25.179 0 0 0
3211 4 5.3955 17.985 8.9925 0 0 0
2205 4 14.388 0.0 3.597 0 0 0
1107 4 23.3805 7.194 23.3805 0 0 0
1069 4 25.179 3.597 25.179 0 0 0
1523 4 19.7835 10.791 1.7985 0 0 0
3754 4 3.597 30.5745 30.5745 0 0 0
3452 4 1.7985 5.3955 7.194 0 0 0
3511 4 1.7985 7.194 26.9775 0 0 0
3870 4 0.0 12.5895 16.1865 0 0 0
3283 4 5.3955 25.179 1.7985 0 0 0
171 4 34.1715 28.776 19.7835 0 0 0
2727 4 8.9925 10.791 5.3955 0 0 0
3227 4 5.3955 17.985 23.3805 0 0 0
3144 4 5.3955 12.5895 17.985 0 0 0
1394 4 25.179 34.1715 30.5745 0 0 0
418 4 32.373 19.7835 16.1865 0 0 0
550 4 32.373 30.5745 26.9775 0 0 0
1789 4 21.582 32.373 25.179 0 0 0
634 4 28.776 1.7985 30.5745 0 0 0
3101 4 7.194 7.194 17.985 0 0 0
1761 4 21.582 32.373 0.0 0 0 0
3407 4 1.7985 0.0 5.3955 0 0 0
2198 4 17.985 34.1715 34.1715 0 0 0
795 4 26.9775 14.388 30.5745 0 0 0
2174 4 17.985 34.1715 12.5895 0 0 0
2514 4 14.388 26.9775 30.5745 0 0 0
2760 4 8.9925 12.5895 32.373 0 0 0
3122 4 7.194 12.5895 1.7985 0 0 0
355 4 30.5745 10.791 30.5745 0 0 0
3108 4 5.3955 8.9925 21.582 0 0 0
1139 4 23.3805 10.791 16.1865 0 0 0
3540 4 1.7985 12.5895 14.388 0 0 0
2061 4 17.985 21.582 17.985 0 0 0
768 4 26.9775 16.1865 3.597 0 0 0
1830 4 17.985 1.7985 26.9775 0 0 0
2827 4 8.9925 17.985 23.3805 0 0 0
3204 4 5.3955 19.7835 0.0 0 0 0
661 4 28.776 3.597 17.985 0 0 0
3956 4 0.0 26.9775 26.9775 0 0 0
1350 4 25.179 30.5745 26.9775 0 0 0
3292 4 5.3955 26.9775 7.194 0 0 0
1087 4 23.3805 7.194 5.3955 0 0 0
3512 4 1.7985 8.9925 25.179 0 0 0
1721 4 21.582 28.776 0.0 0 0 0
1871 4 16.1865 3.597 26.9775 0 0 0
393 4 32.373 14.388 28.776 0 0 0
2717 4 10.791 7.194 32.373 0 0 0
966 4 28.776 34.1715 5.3955 0 0 0
2296 4 12.5895 8.9925 10.791 0 0 0
1468 4 19.7835 5.3955 21.582 0 0 0
1326 4 25.179 30.5745 5.3955 0 0 0
262 4 32.373 5.3955 19.7835 0 0 0
3765 4 3.597 32.373 3.597 0 0 0
2567 4 12.5895 32.373 5.3955 0 0 0
548 4 30.5745 30.5745 21.582 0 0 0
1033 4 25.179 0.0 28.776 0 0 0
3879 4 0.0 10.791 32.373 0 0 0
485 4 32.373 25.179 3.597 0 0 0
3920 4 0.0 19.7835 34.1715 0 0 0
700 4 26.9775 8.9925 14.388 0 0 0
3804 4 0.0 1.7985 5.3955 0 0 0
2989 4 10.791 32.373 25.179 0 0 0
1980 4 16.1865 16.1865 14.388 0 0 0
3575 4 1.7985 14.388 12.5895 0 0 0
299 4 30.5745 7.194 16.1865 0 0 0
2532 4 12.5895 30.5745 7.194 0 0 0
3951 4 0.0 25.179 17.985 0 0 0
213 4 32.373 0.0 10.791 0 0 0
3924 4 0.0 23.3805 5.3955 0 0 0
1254 4 25.179 23.3805 12.5895 0 0 0
2917 4 10.791 25.179 32.373 0 0 0
3662 4 3.597 23.3805 19.7835 0 0 0
1514 4 21.582 8.9925 30.5745 0 0 0
1253 4 25.179 21.582 10.791 0 0 0
3058 4 7.194 5.3955 16.1865 0 0 0
3853 4 0.0 7.194 21.582 0 0 0
51 4 34.1715 7.194 19.7835 0 0 0
1132 4 23.3805 12.5895 7.194 0 0 0
1336 4 23.3805 30.5745 10.791 0 0 0
1032 4 23.3805 1.7985 25.179 0 0 0
833 4 28.776 17.985 28.776 0 0 0
3844 4 0.0 8.9925 5.3955 0 0 0
500 4 30.5745 26.9775 14.388 0 0 0
2730 4 10.791 12.5895 8.9925 0 0 0
1944 4 16.1865 12.5895 17.985 0 0 0
3927 4 0.0 21.582 10.791 0 0 0
3077 4 7.194 3.597 32.373 0 0 0
1579 4 19.7835 14.388 16.1865 0 0 0
1283 4 23.3805 25.179 1.7985 0 0 0
3840 4 0.0 5.3955 34.1715 0 0 0
13 4 34.1715 0.0 23.3805 0 0 0
892 4 26.9775 26.9775 7.194 0 0 0
3061 4 7.194 3.597 17.985 0 0 0
1118 4 25.179 8.9925 34.1715 0 0 0
964 4 26.9775 34.1715 0.0 0 0 0
757 4 28.776 10.791 32.373 0 0 0
3688 4 1.7985 26.9775 3.597 0 0 0
103 4 34.1715 17.985 5.3955 0 0 0
3426 4 3.597 1.7985 23.3805 0 0 0
1627 4 19.7835 17.985 23.3805 0 0 0
1222 4 25.179 19.7835 19.7835 0 0 0
397 4 32.373 14.388 32.373 0 0 0
1524 4 19.7835 12.5895 0.0 0 0 0
2830 4 10.791 19.7835 26.9775 0 0 0
3544 4 1.7985 12.5895 17.985 0 0 0
3969 4 0.0 28.776 14.388 0 0 0
3344 4 5.3955 30.5745 17.985 0 0 0
2270 4 14.388 5.3955 26.9775 0 0 0
2961 4 10.791 32.373 0.0 0 0 0
3312 4 5.3955 26.9775 25.179 0 0 0
3331 4 5.3955 28.776 8.9925 0 0 0
2224 4 12.5895 1.7985 17.985 0 0 0
3080 4 5.3955 5.3955 32.373 0 0 0
305 4 32.373 7.194 21.582 0 0 0
3933 4 0.0 21.582 21.582 0 0 0
2751 4 8.9925 10.791 26.9775 0 0 0
2562 4 14.388 34.1715 1.7985 0 0 0
1059 4 23.3805 3.597 16.1865 0 0 0
1622 4 21.582 19.7835 19.7835 0 0 0
916 4 26.9775 26.9775 28.776 0 0 0
387 4 30.5745 14.388 23.3805 0 0 0
1941 4 17.985 10.791 17.985 0 0 0
226 4 32.373 1.7985 23.3805 0 0 0
2445 4 14.388 21.582 3.597 0 0 0
3947 4 0.0 25.179 10.791 0 0 0
2822 4 10.791 19.7835 19.7835 0 0 0
139 4 34.1715 21.582 34.1715 0 0 0
3717 4 3.597 25.179 32.373 0 0 0
1543 4 19.7835 10.791 19.7835 0 0 0
43 4 34.1715 7.194 5.3955 0 0 0
2425 4 14.388 17.985 21.582 0 0 0
3427 4 1.7985 0.0 23.3805 0 0 0
197 4 34.1715 32.373 30.5745 0 0 0
3632 4 1.7985 19.7835 25.179 0 0 0
2575 4 12.5895 32.373 12.5895 0 0 0
426 4 32.373 19.7835 23.3805 0 0 0
58 4 34.1715 8.9925 28.776 0 0 0
2416 4 12.5895 19.7835 10.791 0 0 0
328 4 30.5745 12.5895 3.597 0 0 0
3699 4 1.7985 25.179 16.1865 0 0 0
1906 4 17.985 8.9925 23.3805 0 0 0
2891 4 8.9925 25.179 8.9925 0 0 0
1484 4 19.7835 8.9925 0.0 0 0 0
2366 4 14.388 16.1865 5.3955 0 0 0
561 4 32.373 32.373 0.0 0 0 0
1785 4 21.582 32.373 21.582 0 0 0
3036 4 5.3955 1.7985 28.776 0 0 0
831 4 26.9775 17.985 26.9775 0 0 0
2623 4 8.9925 0.0 19.7835 0 0 0
3385 4 7.194 32.373 21.582 0 0 0
1367 4 23.3805 32.373 5.3955 0 0 0
3040 4 5.3955 1.7985 32.373 0 0 0
926 4 28.776 30.5745 5.3955 0 0 0
271 4 30.5745 3.597 26.9775 0 0 0
3875 4 0.0 10.791 25.179 0 0 0
3233 4 7.194 17.985 28.776 0 0 0
1670 4 21.582 23.3805 26.9775 0 0 0
414 4 32.373 19.7835 12.5895 0 0 0
2631 4 8.9925 0.0 26.9775 0 0 0
1708 4 19.7835 26.9775 21.582 0 0 0
830 4 28.776 19.7835 26.9775 0 0 0
3937 4 0.0 21.582 28.776 0 0 0
113 4 34.1715 17.985 23.3805 0 0 0
1703 4 19.7835 25.179 19.7835 0 0 0
3636 4 1.7985 19.7835 28.776 0 0 0
2618 4 10.791 1.7985 16.1865 0 0 0
3102 4 7.194 8.9925 19.7835 0 0 0
3893 4 0.0 14.388 21.582 0 0 0
3062 4 7.194 5.3955 19.7835 0 0 0
2826 4 10.791 19.7835 23.3805 0 0 0
3591 4 1.7985 14.388 26.9775 0 0 0
2852 4 8.9925 23.3805 7.194 0 0 0
1269 4 25.179 21.582 25.179 0 0 0
2647 4 8.9925 3.597 5.3955 0 0 0
1698 4 21.582 26.9775 16.1865 0 0 0
1038 4 25.179 1.7985 34.1715 0 0 0
1220 4 23.3805 19.7835 14.388 0 0 0
3181 4 7.194 14.388 17.985 0 0 0
788 4 26.9775 16.1865 21.582 0 0 0
553 4 32.373 28.776 28.776 0 0 0
76 4 34.1715 12.5895 25.179 0 0 0
2743 4 8.9925 10.791 19.7835 0 0 0
3184 4 5.3955 16.1865 17.985 0 0 0
876 4 26.9775 23.3805 28.776 0 0 0
3497 4 3.597 7.194 14.388 0 0 0
558 4 32.373 30.5745 34.1715 0 0 0
395 4 30.5745 14.388 30.5745 0 0 0
2936 4 8.9925 30.5745 10.791 0 0 0
306 4 32.373 8.9925 23.3805 0 0 0
2992 4 8.9925 34.1715 25.179 0 0 0
3625 4 3.597 17.985 21.582 0 0 0
1903 4 16.1865 7.194 19.7835 0 0 0
253 4 32.373 3.597 10.791 0 0 0
1588 4 19.7835 16.1865 21.582 0 0 0
870 4 28.776 23.3805 26.9775 0 0 0
302 4 32.373 8.9925 19.7835 0 0 0
2247 4 12.5895 3.597 5.3955 0 0 0
159 4 34.1715 25.179 34.1715 0 0 0
2177 4 17.985 32.373 14.388 0 0 0
1379 4 23.3805 32.373 16.1865 0 0 0
1228 4 23.3805 19.7835 21.582 0 0 0
3894 4 0.0 16.1865 23.3805 0 0 0
1029 4 25.179 0.0 25.179 0 0 0
1538 4 21.582 12.5895 16.1865 0 0 0
488 4 30.5745 26.9775 3.597 0 0 0
2197 4 17.985 32.373 32.373 0 0 0
583 4 30.5745 32.373 19.7835 0 0 0
3183 4 5.3955 14.388 19.7835 0 0 0
279 4 30.5745 3.597 34.1715 0 0 0
3586 4 3.597 16.1865 23.3805 0 0 0
2182 4 17.985 34.1715 19.7835 0 0 0
3532 4 1.7985 12.5895 7.194 0 0 0
1554 4 21.582 12.5895 30.5745 0 0 0
2706 4 10.791 8.9925 23.3805 0 0 0
1978 4 17.985 16.1865 16.1865 0 0 0
2741 4 10.791 10.791 17.985 0 0 0
992 4 26.9775 34.1715 25.179 0 0 0
3656 4 1.7985 23.3805 10.791 0 0 0
3522 4 3.597 12.5895 1.7985 0 0 0
1693 4 21.582 25.179 10.791 0 0 0
2644 4 8.9925 5.3955 0.0 0 0 0
2469 4 14.388 21.582 25.179 0 0 0
1397 4 25.179 32.373 32.373 0 0 0
3510 4 3.597 8.9925 26.9775 0 0 0
599 4 30.5745 32.373 34.1715 0 0 0
3740 4 1.7985 30.5745 14.388 0 0 0
3867 4 0.0 10.791 10.791 0 0 0
1630 4 21.582 19.7835 26.9775 0 0 0
3891 4 0.0 14.388 17.985 0 0 0
3191 4 5.3955 14.388 26.9775 0 0 0
107 4 34.1715 17.985 12.5895 0 0 0
3160 4 5.3955 12.5895 32.373 0 0 0
2319 4 12.5895 7.194 34.1715 0 0 0
3582 4 3.597 16.1865 19.7835 0 0 0
1857 4 17.985 3.597 14.388 0 0 0
1197 4 25.179 14.388 32.373 0 0 0
1805 4 17.985 0.0 3.597 0 0 0
1008 4 23.3805 1.7985 3.597 0 0 0
852 4 26.9775 23.3805 7.194 0 0 0
1918 4 17.985 8.9925 34.1715 0 0 0
2977 4 10.791 32.373 14.388 0 0 0
704 4 26.9775 8.9925 17.985 0 0 0
879 4 26.9775 21.582 34.1715 0 0 0
2267 4 12.5895 3.597 23.3805 0 0 0
1114 4 25.179 8.9925 30.5745 0 0 0
2752 4 8.9925 12.5895 25.179 0 0 0
3835 4 0.0 3.597 25.179 0 0 0
1507 4 19.7835 7.194 23.3805 0 0 0
1406 4 21.582 1.7985 5.3955 0 0 0
3124 4 5.3955 12.5895 0.0 0 0 0
146 4 34.1715 26.9775 7.194 0 0 0
1977 4 17.985 14.388 14.388 0 0 0
1094 4 25.179 8.9925 12.5895 0 0 0
3194 4 7.194 16.1865 30.5745 0 0 0
4 5 34.1715 1.7985 3.597 0 0 0
8 5 34.1715 1.7985 10.791 0 0 0
14 5 34.1715 1.7985 21.582 0 0 0
17 5 34.1715 0.0 30.5745 0 0 0
20 5 34.1715 1.7985 32.373 0 0 0
31 5 34.1715 3.597 19.7835 0 0 0
32 5 34.1715 5.3955 17.985 0 0 0
36 5 34.1715 5.3955 25.179 0 0 0
45 5 34.1715 7.194 8.9925 0 0 0
52 5 34.1715 8.9925 17.985 0 0 0
54 5 34.1715 8.9925 21.582 0 0 0
57 5 34.1715 7.194 30.5745 0 0 0
73 5 34.1715 10.791 23.3805 0 0 0
75 5 34.1715 10.791 26.9775 0 0 0
80 5 34.1715 12.5895 32.373 0 0 0
85 5 34.1715 14.388 8.9925 0 0 0
87 5 34.1715 14.388 12.5895 0 0 0
105 5 34.1715 17.985 8.9925 0 0 0
106 5 34.1715 19.7835 7.194 0 0 0
109 5 34.1715 17.985 16.1865 0 0 0
111 5 34.1715 17.985 19.7835 0 0 0
112 5 34.1715 19.7835 17.985 0 0 0
116 5 34.1715 19.7835 25.179 0 0 0
117 5 34.1715 17.985 30.5745 0 0 0
122 5 34.1715 23.3805 0.0 0 0 0
125 5 34.1715 21.582 8.9925 0 0 0
128 5 34.1715 23.3805 10.791 0 0 0
136 5 34.1715 23.3805 25.179 0 0 0
153 5 34.1715 25.179 23.3805 0 0 0
154 5 34.1715 26.9775 21.582 0 0 0
162 5 34.1715 30.5745 0.0 0 0 0
166 5 34.1715 30.5745 7.194 0 0 0
172 5 34.1715 30.5745 17.985 0 0 0
185 5 34.1715 32.373 8.9925 0 0 0
187 5 34.1715 32.373 12.5895 0 0 0
192 5 34.1715 34.1715 17.985 0 0 0
204 5 30.5745 1.7985 0.0 0 0 0
210 5 32.373 1.7985 8.9925 0 0 0
212 5 30.5745 1.7985 7.194 0 0 0
214 5 32.373 1.7985 12.5895 0 0 0
224 5 30.5745 1.7985 17.985 0 0 0
230 5 32.373 1.7985 26.9775 0 0 0
233 5 32.373 0.0 28.776 0 0 0
235 5 30.5745 0.0 30.5745 0 0 0
247 5 30.5745 3.597 5.3955 0 0 0
261 5 32.373 3.597 17.985 0 0 0
263 5 30.5745 3.597 19.7835 0 0 0
266 5 32.373 5.3955 23.3805 0 0 0
274 5 32.373 5.3955 30.5745 0 0 0
278 5 32.373 5.3955 34.1715 0 0 0
281 5 32.373 7.194 0.0 0 0 0
282 5 32.373 8.9925 1.7985 0 0 0
284 5 30.5745 8.9925 0.0 0 0 0
286 5 32.373 8.9925 5.3955 0 0 0
287 5 30.5745 7.194 5.3955 0 0 0
290 5 32.373 8.9925 8.9925 0 0 0
297 5 32.373 7.194 14.388 0 0 0
310 5 32.373 8.9925 26.9775 0 0 0
312 5 30.5745 8.9925 25.179 0 0 0
315 5 30.5745 7.194 30.5745 0 0 0
316 5 30.5745 8.9925 28.776 0 0 0
317 5 32.373 7.194 32.373 0 0 0
318 5 32.373 8.9925 34.1715 0 0 0
325 5 32.373 10.791 3.597 0 0 0
334 5 32.373 12.5895 12.5895 0 0 0
339 5 30.5745 10.791 16.1865 0 0 0
349 5 32.373 10.791 25.179 0 0 0
354 5 32.373 12.5895 30.5745 0 0 0
364 5 30.5745 16.1865 0.0 0 0 0
365 5 32.373 14.388 3.597 0 0 0
369 5 32.373 14.388 7.194 0 0 0
372 5 30.5745 16.1865 7.194 0 0 0
374 5 32.373 16.1865 12.5895 0 0 0
380 5 30.5745 16.1865 14.388 0 0 0
383 5 30.5745 14.388 19.7835 0 0 0
390 5 32.373 16.1865 26.9775 0 0 0
396 5 30.5745 16.1865 28.776 0 0 0
398 5 32.373 16.1865 34.1715 0 0 0
403 5 30.5745 17.985 1.7985 0 0 0
408 5 30.5745 19.7835 3.597 0 0 0
432 5 30.5745 19.7835 25.179 0 0 0
438 5 32.373 19.7835 34.1715 0 0 0
439 5 30.5745 17.985 34.1715 0 0 0
443 5 30.5745 21.582 1.7985 0 0 0
444 5 30.5745 23.3805 0.0 0 0 0
445 5 32.373 21.582 3.597 0 0 0
446 5 32.373 23.3805 5.3955 0 0 0
448 5 30.5745 23.3805 3.597 0 0 0
463 5 30.5745 21.582 19.7835 0 0 0
470 5 32.373 23.3805 26.9775 0 0 0
479 5 30.5745 21.582 34.1715 0 0 0
483 5 30.5745 25.179 1.7985 0 0 0
491 5 30.5745 25.179 8.9925 0 0 0
493 5 32.373 25.179 10.791 0 0 0
494 5 32.373 26.9775 12.5895 0 0 0
499 5 30.5745 25.179 16.1865 0 0 0
501 5 32.373 25.179 17.985 0 0 0
503 5 30.5745 25.179 19.7835 0 0 0
523 5 30.5745 28.776 1.7985 0 0 0
526 5 32.373 30.5745 5.3955 0 0 0
528 5 30.5745 30.5745 3.597 0 0 0
530 5 32.373 30.5745 8.9925 0 0 0
535 5 30.5745 28.776 12.5895 0 0 0
536 5 30.5745 30.5745 10.791 0 0 0
538 5 32.373 30.5745 16.1865 0 0 0
540 5 30.5745 30.5745 14.388 0 0 0
544 5 30.5745 30.5745 17.985 0 0 0
551 5 30.5745 28.776 26.9775 0 0 0
557 5 32.373 28.776 32.373 0 0 0
560 5 30.5745 30.5745 32.373 0 0 0
563 5 30.5745 32.373 1.7985 0 0 0
569 5 32.373 32.373 7.194 0 0 0
575 5 30.5745 32.373 12.5895 0 0 0
576 5 30.5745 34.1715 10.791 0 0 0
580 5 30.5745 34.1715 14.388 0 0 0
589 5 32.373 32.373 25.179 0 0 0
597 5 32.373 32.373 32.373 0 0 0
601 5 28.776 0.0 0.0 0 0 0
608 5 26.9775 1.7985 3.597 0 0 0
609 5 28.776 0.0 7.194 0 0 0
613 5 28.776 0.0 10.791 0 0 0
618 5 28.776 1.7985 16.1865 0 0 0
623 5 26.9775 0.0 19.7835 0 0 0
627 5 26.9775 0.0 23.3805 0 0 0
629 5 28.776 0.0 25.179 0 0 0
630 5 28.776 1.7985 26.9775 0 0 0
642 5 28.776 5.3955 1.7985 0 0 0
644 5 26.9775 5.3955 0.0 0 0 0
648 5 26.9775 5.3955 3.597 0 0 0
649 5 28.776 3.597 7.194 0 0 0
657 5 28.776 3.597 14.388 0 0 0
659 5 26.9775 3.597 16.1865 0 0 0
660 5 26.9775 5.3955 14.388 0 0 0
662 5 28.776 5.3955 19.7835 0 0 0
668 5 26.9775 5.3955 21.582 0 0 0
669 5 28.776 3.597 25.179 0 0 0
674 5 28.776 5.3955 30.5745 0 0 0
678 5 28.776 5.3955 34.1715 0 0 0
681 5 28.776 7.194 0.0 0 0 0
684 5 26.9775 8.9925 0.0 0 0 0
709 5 28.776 7.194 25.179 0 0 0
719 5 26.9775 7.194 34.1715 0 0 0
731 5 26.9775 10.791 8.9925 0 0 0
732 5 26.9775 12.5895 7.194 0 0 0
738 5 28.776 12.5895 16.1865 0 0 0
739 5 26.9775 10.791 16.1865 0 0 0
743 5 26.9775 10.791 19.7835 0 0 0
759 5 26.9775 10.791 34.1715 0 0 0
763 5 26.9775 14.388 1.7985 0 0 0
775 5 26.9775 14.388 12.5895 0 0 0
805 5 28.776 17.985 3.597 0 0 0
807 5 26.9775 17.985 5.3955 0 0 0
810 5 28.776 19.7835 8.9925 0 0 0
811 5 26.9775 17.985 8.9925 0 0 0
815 5 26.9775 17.985 12.5895 0 0 0
824 5 26.9775 19.7835 17.985 0 0 0
827 5 26.9775 17.985 23.3805 0 0 0
847 5 26.9775 21.582 5.3955 0 0 0
848 5 26.9775 23.3805 3.597 0 0 0
850 5 28.776 23.3805 8.9925 0 0 0
854 5 28.776 23.3805 12.5895 0 0 0
860 5 26.9775 23.3805 14.388 0 0 0
861 5 28.776 21.582 17.985 0 0 0
862 5 28.776 23.3805 19.7835 0 0 0
878 5 28.776 23.3805 34.1715 0 0 0
902 5 28.776 26.9775 19.7835 0 0 0
913 5 28.776 25.179 28.776 0 0 0
917 5 28.776 25.179 32.373 0 0 0
919 5 26.9775 25.179 34.1715 0 0 0
931 5 26.9775 28.776 8.9925 0 0 0
937 5 28.776 28.776 14.388 0 0 0
946 5 28.776 30.5745 23.3805 0 0 0
948 5 26.9775 30.5745 21.582 0 0 0
950 5 28.776 30.5745 26.9775 0 0 0
959 5 26.9775 28.776 34.1715 0 0 0
961 5 28.776 32.373 0.0 0 0 0
970 5 28.776 34.1715 8.9925 0 0 0
972 5 26.9775 34.1715 7.194 0 0 0
975 5 26.9775 32.373 12.5895 0 0 0
976 5 26.9775 34.1715 10.791 0 0 0
983 5 26.9775 32.373 19.7835 0 0 0
990 5 28.776 34.1715 26.9775 0 0 0
993 5 28.776 32.373 28.776 0 0 0
994 5 28.776 34.1715 30.5745 0 0 0
998 5 28.776 34.1715 34.1715 0 0 0
1003 5 23.3805 0.0 1.7985 0 0 0
1004 5 23.3805 1.7985 0.0 0 0 0
1013 5 25.179 0.0 10.791 0 0 0
1016 5 23.3805 1.7985 10.791 0 0 0
1022 5 25.179 1.7985 19.7835 0 0 0
1025 5 25.179 0.0 21.582 0 0 0
1027 5 23.3805 0.0 23.3805 0 0 0
1039 5 23.3805 0.0 34.1715 0 0 0
1049 5 25.179 3.597 7.194 0 0 0
1050 5 25.179 5.3955 8.9925 0 0 0
1053 5 25.179 3.597 10.791 0 0 0
1063 5 23.3805 3.597 19.7835 0 0 0
1064 5 23.3805 5.3955 17.985 0 0 0
1067 5 23.3805 3.597 23.3805 0 0 0
1071 5 23.3805 3.597 26.9775 0 0 0
1074 5 25.179 5.3955 30.5745 0 0 0
1092 5 23.3805 8.9925 7.194 0 0 0
1100 5 23.3805 8.9925 14.388 0 0 0
1112 5 23.3805 8.9925 25.179 0 0 0
1117 5 25.179 7.194 32.373 0 0 0
1122 5 25.179 12.5895 1.7985 0 0 0
1126 5 25.179 12.5895 5.3955 0 0 0
1128 5 23.3805 12.5895 3.597 0 0 0
1133 5 25.179 10.791 10.791 0 0 0
1136 5 23.3805 12.5895 10.791 0 0 0
1140 5 23.3805 12.5895 14.388 0 0 0
1146 5 25.179 12.5895 23.3805 0 0 0
1154 5 25.179 12.5895 30.5745 0 0 0
1155 5 23.3805 10.791 30.5745 0 0 0
1161 5 25.179 14.388 0.0 0 0 0
1166 5 25.179 16.1865 5.3955 0 0 0
1168 5 23.3805 16.1865 3.597 0 0 0
1171 5 23.3805 14.388 8.9925 0 0 0
1180 5 23.3805 16.1865 14.388 0 0 0
1182 5 25.179 16.1865 19.7835 0 0 0
1189 5 25.179 14.388 25.179 0 0 0
1193 5 25.179 14.388 28.776 0 0 0
1194 5 25.179 16.1865 30.5745 0 0 0
1203 5 23.3805 17.985 1.7985 0 0 0
1205 5 25.179 17.985 3.597 0 0 0
1207 5 23.3805 17.985 5.3955 0 0 0
1217 5 25.179 17.985 14.388 0 0 0
1223 5 23.3805 17.985 19.7835 0 0 0
1233 5 25.179 17.985 28.776 0 0 0
1234 5 25.179 19.7835 30.5745 0 0 0
1243 5 23.3805 21.582 1.7985 0 0 0
1245 5 25.179 21.582 3.597 0 0 0
1247 5 23.3805 21.582 5.3955 0 0 0
1250 5 25.179 23.3805 8.9925 0 0 0
1251 5 23.3805 21.582 8.9925 0 0 0
1255 5 23.3805 21.582 12.5895 0 0 0
1262 5 25.179 23.3805 19.7835 0 0 0
1266 5 25.179 23.3805 23.3805 0 0 0
1273 5 25.179 21.582 28.776 0 0 0
1303 5 23.3805 25.179 19.7835 0 0 0
1304 5 23.3805 26.9775 17.985 0 0 0
1306 5 25.179 26.9775 23.3805 0 0 0
1313 5 25.179 25.179 28.776 0 0 0
1317 5 25.179 25.179 32.373 0 0 0
1319 5 23.3805 25.179 34.1715 0 0 0
1320 5 23.3805 26.9775 32.373 0 0 0
1335 5 23.3805 28.776 12.5895 0 0 0
1343 5 23.3805 28.776 19.7835 0 0 0
1345 5 25.179 28.776 21.582 0 0 0
1349 5 25.179 28.776 25.179 0 0 0
1362 5 25.179 34.1715 1.7985 0 0 0
1363 5 23.3805 32.373 1.7985 0 0 0
1365 5 25.179 32.373 3.597 0 0 0
1371 5 23.3805 32.373 8.9925 0 0 0
1372 5 23.3805 34.1715 7.194 0 0 0
1374 5 25.179 34.1715 12.5895 0 0 0
1376 5 23.3805 34.1715 10.791 0 0 0
1378 5 25.179 34.1715 16.1865 0 0 0
1380 5 23.3805 34.1715 14.388 0 0 0
1382 5 25.179 34.1715 19.7835 0 0 0
1384 5 23.3805 34.1715 17.985 0 0 0
1403 5 19.7835 0.0 1.7985 0 0 0
1405 5 21.582 0.0 3.597 0 0 0
1414 5 21.582 1.7985 12.5895 0 0 0
1415 5 19.7835 0.0 12.5895 0 0 0
1418 5 21.582 1.7985 16.1865 0 0 0
1422 5 21.582 1.7985 19.7835 0 0 0
1425 5 21.582 0.0 21.582 0 0 0
1429 5 21.582 0.0 25.179 0 0 0
1445 5 21.582 3.597 3.597 0 0 0
1450 5 21.582 5.3955 8.9925 0 0 0
1453 5 21.582 3.597 10.791 0 0 0
1456 5 19.7835 5.3955 10.791 0 0 0
1459 5 19.7835 3.597 16.1865 0 0 0
1471 5 19.7835 3.597 26.9775 0 0 0
1474 5 21.582 5.3955 30.5745 0 0 0
1476 5 19.7835 5.3955 28.776 0 0 0
1477 5 21.582 3.597 32.373 0 0 0
1480 5 19.7835 5.3955 32.373 0 0 0
1483 5 19.7835 7.194 1.7985 0 0 0
1485 5 21.582 7.194 3.597 0 0 0
1491 5 19.7835 7.194 8.9925 0 0 0
1494 5 21.582 8.9925 12.5895 0 0 0
1501 5 21.582 7.194 17.985 0 0 0
1508 5 19.7835 8.9925 21.582 0 0 0
1509 5 21.582 7.194 25.179 0 0 0
1513 5 21.582 7.194 28.776 0 0 0
1519 5 19.7835 7.194 34.1715 0 0 0
1532 5 19.7835 12.5895 7.194 0 0 0
1534 5 21.582 12.5895 12.5895 0 0 0
1552 5 19.7835 12.5895 25.179 0 0 0
1557 5 21.582 10.791 32.373 0 0 0
1597 5 21.582 14.388 32.373 0 0 0
1598 5 21.582 16.1865 34.1715 0 0 0
1608 5 19.7835 19.7835 3.597 0 0 0
1613 5 21.582 17.985 10.791 0 0 0
1620 5 19.7835 19.7835 14.388 0 0 0
1628 5 19.7835 19.7835 21.582 0 0 0
1634 5 21.582 19.7835 30.5745 0 0 0
1635 5 19.7835 17.985 30.5745 0 0 0
1636 5 19.7835 19.7835 28.776 0 0 0
1646 5 21.582 23.3805 5.3955 0 0 0
1648 5 19.7835 23.3805 3.597 0 0 0
1662 5 21.582 23.3805 19.7835 0 0 0
1668 5 19.7835 23.3805 21.582 0 0 0
1677 5 21.582 21.582 32.373 0 0 0
1679 5 19.7835 21.582 34.1715 0 0 0
1681 5 21.582 25.179 0.0 0 0 0
1695 5 19.7835 25.179 12.5895 0 0 0
1697 5 21.582 25.179 14.388 0 0 0
1700 5 19.7835 26.9775 14.388 0 0 0
1710 5 21.582 26.9775 26.9775 0 0 0
1712 5 19.7835 26.9775 25.179 0 0 0
1723 5 19.7835 28.776 1.7985 0 0 0
1725 5 21.582 28.776 3.597 0 0 0
1726 5 21.582 30.5745 5.3955 0 0 0
1727 5 19.7835 28.776 5.3955 0 0 0
1728 5 19.7835 30.5745 3.597 0 0 0
1729 5 21.582 28.776 7.194 0 0 0
1731 5 19.7835 28.776 8.9925 0 0 0
1735 5 19.7835 28.776 12.5895 0 0 0
1741 5 21.582 28.776 17.985 0 0 0
1743 5 19.7835 28.776 19.7835 0 0 0
1749 5 21.582 28.776 25.179 0 0 0
1754 5 21.582 30.5745 30.5745 0 0 0
1758 5 21.582 30.5745 34.1715 0 0 0
1760 5 19.7835 30.5745 32.373 0 0 0
1766 5 21.582 34.1715 5.3955 0 0 0
1772 5 19.7835 34.1715 7.194 0 0 0
1780 5 19.7835 34.1715 14.388 0 0 0
1791 5 19.7835 32.373 26.9775 0 0 0
1800 5 19.7835 34.1715 32.373 0 0 0
1802 5 17.985 1.7985 1.7985 0 0 0
1807 5 16.1865 0.0 5.3955 0 0 0
1815 5 16.1865 0.0 12.5895 0 0 0
1817 5 17.985 0.0 14.388 0 0 0
1822 5 17.985 1.7985 19.7835 0 0 0
1824 5 16.1865 1.7985 17.985 0 0 0
1825 5 17.985 0.0 21.582 0 0 0
1826 5 17.985 1.7985 23.3805 0 0 0
1827 5 16.1865 0.0 23.3805 0 0 0
1835 5 16.1865 0.0 30.5745 0 0 0
1848 5 16.1865 5.3955 3.597 0 0 0
1851 5 16.1865 3.597 8.9925 0 0 0
1854 5 17.985 5.3955 12.5895 0 0 0
1859 5 16.1865 3.597 16.1865 0 0 0
1860 5 16.1865 5.3955 14.388 0 0 0
1861 5 17.985 3.597 17.985 0 0 0
1862 5 17.985 5.3955 19.7835 0 0 0
1863 5 16.1865 3.597 19.7835 0 0 0
1866 5 17.985 5.3955 23.3805 0 0 0
1883 5 16.1865 7.194 1.7985 0 0 0
1886 5 17.985 8.9925 5.3955 0 0 0
1887 5 16.1865 7.194 5.3955 0 0 0
1894 5 17.985 8.9925 12.5895 0 0 0
1895 5 16.1865 7.194 12.5895 0 0 0
1896 5 16.1865 8.9925 10.791 0 0 0
1901 5 17.985 7.194 17.985 0 0 0
1905 5 17.985 7.194 21.582 0 0 0
1911 5 16.1865 7.194 26.9775 0 0 0
1912 5 16.1865 8.9925 25.179 0 0 0
1920 5 16.1865 8.9925 32.373 0 0 0
1939 5 16.1865 10.791 16.1865 0 0 0
1940 5 16.1865 12.5895 14.388 0 0 0
1942 5 17.985 12.5895 19.7835 0 0 0
1946 5 17.985 12.5895 23.3805 0 0 0
1952 5 16.1865 12.5895 25.179 0 0 0
1954 5 17.985 12.5895 30.5745 0 0 0
1959 5 16.1865 10.791 34.1715 0 0 0
1963 5 16.1865 14.388 1.7985 0 0 0
1967 5 16.1865 14.388 5.3955 0 0 0
1969 5 17.985 14.388 7.194 0 0 0
1981 5 17.985 14.388 17.985 0 0 0
1988 5 16.1865 16.1865 21.582 0 0 0
1990 5 17.985 16.1865 26.9775 0 0 0
1995 5 16.1865 14.388 30.5745 0 0 0
1998 5 17.985 16.1865 34.1715 0 0 0
2006 5 17.985 19.7835 5.3955 0 0 0
2009 5 17.985 17.985 7.194 0 0 0
2022 5 17.985 19.7835 19.7835 0 0 0
2024 5 16.1865 19.7835 17.985 0 0 0
2025 5 17.985 17.985 21.582 0 0 0
2031 5 16.1865 17.985 26.9775 0 0 0
2034 5 17.985 19.7835 30.5745 0 0 0
2038 5 17.985 19.7835 34.1715 0 0 0
2039 5 16.1865 17.985 34.1715 0 0 0
2040 5 16.1865 19.7835 32.373 0 0 0
2041 5 17.985 21.582 0.0 0 0 0
2046 5 17.985 23.3805 5.3955 0 0 0
2049 5 17.985 21.582 7.194 0 0 0
2057 5 17.985 21.582 14.388 0 0 0
2081 5 17.985 25.179 0.0 0 0 0
2086 5 17.985 26.9775 5.3955 0 0 0
2088 5 16.1865 26.9775 3.597 0 0 0
2111 5 16.1865 25.179 26.9775 0 0 0
2113 5 17.985 25.179 28.776 0 0 0
2128 5 16.1865 30.5745 3.597 0 0 0
2129 5 17.985 28.776 7.194 0 0 0
2148 5 16.1865 30.5745 21.582 0 0 0
2152 5 16.1865 30.5745 25.179 0 0 0
2156 5 16.1865 30.5745 28.776 0 0 0
2162 5 17.985 34.1715 1.7985 0 0 0
2164 5 16.1865 34.1715 0.0 0 0 0
2165 5 17.985 32.373 3.597 0 0 0
2176 5 16.1865 34.1715 10.791 0 0 0
2181 5 17.985 32.373 17.985 0 0 0
2183 5 16.1865 32.373 19.7835 0 0 0
2196 5 16.1865 34.1715 28.776 0 0 0
2210 5 14.388 1.7985 8.9925 0 0 0
2215 5 12.5895 0.0 12.5895 0 0 0
2220 5 12.5895 1.7985 14.388 0 0 0
2221 5 14.388 0.0 17.985 0 0 0
2228 5 12.5895 1.7985 21.582 0 0 0
2229 5 14.388 0.0 25.179 0 0 0
2236 5 12.5895 1.7985 28.776 0 0 0
2238 5 14.388 1.7985 34.1715 0 0 0
2250 5 14.388 5.3955 8.9925 0 0 0
2253 5 14.388 3.597 10.791 0 0 0
2260 5 12.5895 5.3955 14.388 0 0 0
2261 5 14.388 3.597 17.985 0 0 0
2262 5 14.388 5.3955 19.7835 0 0 0
2272 5 12.5895 5.3955 25.179 0 0 0
2275 5 12.5895 3.597 30.5745 0 0 0
2284 5 12.5895 8.9925 0.0 0 0 0
2292 5 12.5895 8.9925 7.194 0 0 0
2299 5 12.5895 7.194 16.1865 0 0 0
2306 5 14.388 8.9925 23.3805 0 0 0
2325 5 14.388 10.791 3.597 0 0 0
2332 5 12.5895 12.5895 7.194 0 0 0
2333 5 14.388 10.791 10.791 0 0 0
2342 5 14.388 12.5895 19.7835 0 0 0
2343 5 12.5895 10.791 19.7835 0 0 0
2349 5 14.388 10.791 25.179 0 0 0
2350 5 14.388 12.5895 26.9775 0 0 0
2355 5 12.5895 10.791 30.5745 0 0 0
2358 5 14.388 12.5895 34.1715 0 0 0
2359 5 12.5895 10.791 34.1715 0 0 0
2365 5 14.388 14.388 3.597 0 0 0
2369 5 14.388 14.388 7.194 0 0 0
2372 5 12.5895 16.1865 7.194 0 0 0
2374 5 14.388 16.1865 12.5895 0 0 0
2375 5 12.5895 14.388 12.5895 0 0 0
2378 5 14.388 16.1865 16.1865 0 0 0
2379 5 12.5895 14.388 16.1865 0 0 0
2380 5 12.5895 16.1865 14.388 0 0 0
2381 5 14.388 14.388 17.985 0 0 0
2382 5 14.388 16.1865 19.7835 0 0 0
2384 5 12.5895 16.1865 17.985 0 0 0
2399 5 12.5895 14.388 34.1715 0 0 0
2401 5 14.388 17.985 0.0 0 0 0
2408 5 12.5895 19.7835 3.597 0 0 0
2409 5 14.388 17.985 7.194 0 0 0
2411 5 12.5895 17.985 8.9925 0 0 0
2426 5 14.388 19.7835 23.3805 0 0 0
2428 5 12.5895 19.7835 21.582 0 0 0
2430 5 14.388 19.7835 26.9775 0 0 0
2436 5 12.5895 19.7835 28.776 0 0 0
2437 5 14.388 17.985 32.373 0 0 0
2448 5 12.5895 23.3805 3.597 0 0 0
2450 5 14.388 23.3805 8.9925 0 0 0
2452 5 12.5895 23.3805 7.194 0 0 0
2454 5 14.388 23.3805 12.5895 0 0 0
2457 5 14.388 21.582 14.388 0 0 0
2458 5 14.388 23.3805 16.1865 0 0 0
2459 5 12.5895 21.582 16.1865 0 0 0
2461 5 14.388 21.582 17.985 0 0 0
2462 5 14.388 23.3805 19.7835 0 0 0
2463 5 12.5895 21.582 19.7835 0 0 0
2470 5 14.388 23.3805 26.9775 0 0 0
2487 5 12.5895 25.179 5.3955 0 0 0
2488 5 12.5895 26.9775 3.597 0 0 0
2491 5 12.5895 25.179 8.9925 0 0 0
2498 5 14.388 26.9775 16.1865 0 0 0
2499 5 12.5895 25.179 16.1865 0 0 0
2501 5 14.388 25.179 17.985 0 0 0
2507 5 12.5895 25.179 23.3805 0 0 0
2520 5 12.5895 26.9775 32.373 0 0 0
2525 5 14.388 28.776 3.597 0 0 0
2533 5 14.388 28.776 10.791 0 0 0
2555 5 12.5895 28.776 30.5745 0 0 0
2556 5 12.5895 30.5745 28.776 0 0 0
2566 5 14.388 34.1715 5.3955 0 0 0
2569 5 14.388 32.373 7.194 0 0 0
2577 5 14.388 32.373 14.388 0 0 0
2593 5 14.388 32.373 28.776 0 0 0
2599 5 12.5895 32.373 34.1715 0 0 0
2602 5 10.791 1.7985 1.7985 0 0 0
2604 5 8.9925 1.7985 0.0 0 0 0
2606 5 10.791 1.7985 5.3955 0 0 0
2613 5 10.791 0.0 10.791 0 0 0
2614 5 10.791 1.7985 12.5895 0 0 0
2621 5 10.791 0.0 17.985 0 0 0
2629 5 10.791 0.0 25.179 0 0 0
2632 5 8.9925 1.7985 25.179 0 0 0
2634 5 10.791 1.7985 30.5745 0 0 0
2636 5 8.9925 1.7985 28.776 0 0 0
2640 5 8.9925 1.7985 32.373 0 0 0
2643 5 8.9925 3.597 1.7985 0 0 0
2645 5 10.791 3.597 3.597 0 0 0
2652 5 8.9925 5.3955 7.194 0 0 0
2673 5 10.791 3.597 28.776 0 0 0
2675 5 8.9925 3.597 30.5745 0 0 0
2679 5 8.9925 3.597 34.1715 0 0 0
2681 5 10.791 7.194 0.0 0 0 0
2685 5 10.791 7.194 3.597 0 0 0
2691 5 8.9925 7.194 8.9925 0 0 0
2697 5 10.791 7.194 14.388 0 0 0
2698 5 10.791 8.9925 16.1865 0 0 0
2699 5 8.9925 7.194 16.1865 0 0 0
2716 5 8.9925 8.9925 28.776 0 0 0
2721 5 10.791 10.791 0.0 0 0 0
2726 5 10.791 12.5895 5.3955 0 0 0
2729 5 10.791 10.791 7.194 0 0 0
2736 5 8.9925 12.5895 10.791 0 0 0
2739 5 8.9925 10.791 16.1865 0 0 0
2748 5 8.9925 12.5895 21.582 0 0 0
2755 5 8.9925 10.791 30.5745 0 0 0
2763 5 8.9925 14.388 1.7985 0 0 0
2764 5 8.9925 16.1865 0.0 0 0 0
2765 5 10.791 14.388 3.597 0 0 0
2769 5 10.791 14.388 7.194 0 0 0
2771 5 8.9925 14.388 8.9925 0 0 0
2774 5 10.791 16.1865 12.5895 0 0 0
2775 5 8.9925 14.388 12.5895 0 0 0
2777 5 10.791 14.388 14.388 0 0 0
2782 5 10.791 16.1865 19.7835 0 0 0
2785 5 10.791 14.388 21.582 0 0 0
2794 5 10.791 16.1865 30.5745 0 0 0
2800 5 8.9925 16.1865 32.373 0 0 0
2810 5 10.791 19.7835 8.9925 0 0 0
2811 5 8.9925 17.985 8.9925 0 0 0
2812 5 8.9925 19.7835 7.194 0 0 0
2815 5 8.9925 17.985 12.5895 0 0 0
2817 5 10.791 17.985 14.388 0 0 0
2819 5 8.9925 17.985 16.1865 0 0 0
2828 5 8.9925 19.7835 21.582 0 0 0
2833 5 10.791 17.985 28.776 0 0 0
2836 5 8.9925 19.7835 28.776 0 0 0
2841 5 10.791 21.582 0.0 0 0 0
2851 5 8.9925 21.582 8.9925 0 0 0
2854 5 10.791 23.3805 12.5895 0 0 0
2855 5 8.9925 21.582 12.5895 0 0 0
2859 5 8.9925 21.582 16.1865 0 0 0
2867 5 8.9925 21.582 23.3805 0 0 0
2874 5 10.791 23.3805 30.5745 0 0 0
2895 5 8.9925 25.179 12.5895 0 0 0
2900 5 8.9925 26.9775 14.388 0 0 0
2910 5 10.791 26.9775 26.9775 0 0 0
2923 5 8.9925 28.776 1.7985 0 0 0
2925 5 10.791 28.776 3.597 0 0 0
2930 5 10.791 30.5745 8.9925 0 0 0
2942 5 10.791 30.5745 19.7835 0 0 0
2945 5 10.791 28.776 21.582 0 0 0
2948 5 8.9925 30.5745 21.582 0 0 0
2953 5 10.791 28.776 28.776 0 0 0
2954 5 10.791 30.5745 30.5745 0 0 0
2963 5 8.9925 32.373 1.7985 0 0 0
2968 5 8.9925 34.1715 3.597 0 0 0
2969 5 10.791 32.373 7.194 0 0 0
2981 5 10.791 32.373 17.985 0 0 0
2985 5 10.791 32.373 21.582 0 0 0
2988 5 8.9925 34.1715 21.582 0 0 0
2991 5 8.9925 32.373 26.9775 0 0 0
2995 5 8.9925 32.373 30.5745 0 0 0
2997 5 10.791 32.373 32.373 0 0 0
2998 5 10.791 34.1715 34.1715 0 0 0
3002 5 7.194 1.7985 1.7985 0 0 0
3003 5 5.3955 0.0 1.7985 0 0 0
3014 5 7.194 1.7985 12.5895 0 0 0
3016 5 5.3955 1.7985 10.791 0 0 0
3027 5 5.3955 0.0 23.3805 0 0 0
3037 5 7.194 0.0 32.373 0 0 0
3042 5 7.194 5.3955 1.7985 0 0 0
3045 5 7.194 3.597 3.597 0 0 0
3046 5 7.194 5.3955 5.3955 0 0 0
3049 5 7.194 3.597 7.194 0 0 0
3050 5 7.194 5.3955 8.9925 0 0 0
3059 5 5.3955 3.597 16.1865 0 0 0
3064 5 5.3955 5.3955 17.985 0 0 0
3069 5 7.194 3.597 25.179 0 0 0
3070 5 7.194 5.3955 26.9775 0 0 0
3071 5 5.3955 3.597 26.9775 0 0 0
3074 5 7.194 5.3955 30.5745 0 0 0
3084 5 5.3955 8.9925 0.0 0 0 0
3103 5 5.3955 7.194 19.7835 0 0 0
3104 5 5.3955 8.9925 17.985 0 0 0
3117 5 7.194 7.194 32.373 0 0 0
3118 5 7.194 8.9925 34.1715 0 0 0
3120 5 5.3955 8.9925 32.373 0 0 0
3121 5 7.194 10.791 0.0 0 0 0
3127 5 5.3955 10.791 5.3955 0 0 0
3129 5 7.194 10.791 7.194 0 0 0
3131 5 5.3955 10.791 8.9925 0 0 0
3140 5 5.3955 12.5895 14.388 0 0 0
3141 5 7.194 10.791 17.985 0 0 0
3159 5 5.3955 10.791 34.1715 0 0 0
3161 5 7.194 14.388 0.0 0 0 0
3174 5 7.194 16.1865 12.5895 0 0 0
3176 5 5.3955 16.1865 10.791 0 0 0
3179 5 5.3955 14.388 16.1865 0 0 0
3187 5 5.3955 14.388 23.3805 0 0 0
3193 5 7.194 14.388 28.776 0 0 0
3195 5 5.3955 14.388 30.5745 0 0 0
3198 5 7.194 16.1865 34.1715 0 0 0
3200 5 5.3955 16.1865 32.373 0 0 0
3205 5 7.194 17.985 3.597 0 0 0
3210 5 7.194 19.7835 8.9925 0 0 0
3220 5 5.3955 19.7835 14.388 0 0 0
3226 5 7.194 19.7835 23.3805 0 0 0
3228 5 5.3955 19.7835 21.582 0 0 0
3240 5 5.3955 19.7835 32.373 0 0 0
3242 5 7.194 23.3805 1.7985 0 0 0
3245 5 7.194 21.582 3.597 0 0 0
3246 5 7.194 23.3805 5.3955 0 0 0
3253 5 7.194 21.582 10.791 0 0 0
3258 5 7.194 23.3805 16.1865 0 0 0
3265 5 7.194 21.582 21.582 0 0 0
3267 5 5.3955 21.582 23.3805 0 0 0
3272 5 5.3955 23.3805 25.179 0 0 0
3279 5 5.3955 21.582 34.1715 0 0 0
3281 5 7.194 25.179 0.0 0 0 0
3291 5 5.3955 25.179 8.9925 0 0 0
3322 5 7.194 30.5745 1.7985 0 0 0
3327 5 5.3955 28.776 5.3955 0 0 0
3328 5 5.3955 30.5745 3.597 0 0 0
3332 5 5.3955 30.5745 7.194 0 0 0
3335 5 5.3955 28.776 12.5895 0 0 0
3336 5 5.3955 30.5745 10.791 0 0 0
3350 5 7.194 30.5745 26.9775 0 0 0
3357 5 7.194 28.776 32.373 0 0 0
3360 5 5.3955 30.5745 32.373 0 0 0
3367 5 5.3955 32.373 5.3955 0 0 0
3371 5 5.3955 32.373 8.9925 0 0 0
3372 5 5.3955 34.1715 7.194 0 0 0
3376 5 5.3955 34.1715 10.791 0 0 0
3382 5 7.194 34.1715 19.7835 0 0 0
3386 5 7.194 34.1715 23.3805 0 0 0
3387 5 5.3955 32.373 23.3805 0 0 0
3394 5 7.194 34.1715 30.5745 0 0 0
3396 5 5.3955 34.1715 28.776 0 0 0
3402 5 3.597 1.7985 1.7985 0 0 0
3410 5 3.597 1.7985 8.9925 0 0 0
3414 5 3.597 1.7985 12.5895 0 0 0
3416 5 1.7985 1.7985 10.791 0 0 0
3417 5 3.597 0.0 14.388 0 0 0
3429 5 3.597 0.0 25.179 0 0 0
3431 5 1.7985 0.0 26.9775 0 0 0
3435 5 1.7985 0.0 30.5745 0 0 0
3441 5 3.597 3.597 0.0 0 0 0
3443 5 1.7985 3.597 1.7985 0 0 0
3446 5 3.597 5.3955 5.3955 0 0 0
3453 5 3.597 3.597 10.791 0 0 0
3457 5 3.597 3.597 14.388 0 0 0
3467 5 1.7985 3.597 23.3805 0 0 0
3468 5 1.7985 5.3955 21.582 0 0 0
3471 5 1.7985 3.597 26.9775 0 0 0
3479 5 1.7985 3.597 34.1715 0 0 0
3487 5 1.7985 7.194 5.3955 0 0 0
3492 5 1.7985 8.9925 7.194 0 0 0
3493 5 3.597 7.194 10.791 0 0 0
3501 5 3.597 7.194 17.985 0 0 0
3527 5 1.7985 10.791 5.3955 0 0 0
3531 5 1.7985 10.791 8.9925 0 0 0
3534 5 3.597 12.5895 12.5895 0 0 0
3536 5 1.7985 12.5895 10.791 0 0 0
3537 5 3.597 10.791 14.388 0 0 0
3541 5 3.597 10.791 17.985 0 0 0
3542 5 3.597 12.5895 19.7835 0 0 0
3543 5 1.7985 10.791 19.7835 0 0 0
3552 5 1.7985 12.5895 25.179 0 0 0
3567 5 1.7985 14.388 5.3955 0 0 0
3568 5 1.7985 16.1865 3.597 0 0 0
3584 5 1.7985 16.1865 17.985 0 0 0
3585 5 3.597 14.388 21.582 0 0 0
3594 5 3.597 16.1865 30.5745 0 0 0
3600 5 1.7985 16.1865 32.373 0 0 0
3606 5 3.597 19.7835 5.3955 0 0 0
3607 5 1.7985 17.985 5.3955 0 0 0
3629 5 3.597 17.985 25.179 0 0 0
3652 5 1.7985 23.3805 7.194 0 0 0
3658 5 3.597 23.3805 16.1865 0 0 0
3675 5 1.7985 21.582 30.5745 0 0 0
3676 5 1.7985 23.3805 28.776 0 0 0
3680 5 1.7985 23.3805 32.373 0 0 0
3685 5 3.597 25.179 3.597 0 0 0
3696 5 1.7985 26.9775 10.791 0 0 0
3700 5 1.7985 26.9775 14.388 0 0 0
3702 5 3.597 26.9775 19.7835 0 0 0
3715 5 1.7985 25.179 30.5745 0 0 0
3722 5 3.597 30.5745 1.7985 0 0 0
3726 5 3.597 30.5745 5.3955 0 0 0
3736 5 1.7985 30.5745 10.791 0 0 0
3764 5 1.7985 34.1715 0.0 0 0 0
3766 5 3.597 34.1715 5.3955 0 0 0
3769 5 3.597 32.373 7.194 0 0 0
3771 5 1.7985 32.373 8.9925 0 0 0
3773 5 3.597 32.373 10.791 0 0 0
3776 5 1.7985 34.1715 10.791 0 0 0
3783 5 1.7985 32.373 19.7835 0 0 0
3787 5 1.7985 32.373 23.3805 0 0 0
3789 5 3.597 32.373 25.179 0 0 0
3796 5 1.7985 34.1715 28.776 0 0 0
3802 5 0.0 1.7985 1.7985 0 0 0
3813 5 0.0 0.0 21.582 0 0 0
3838 5 0.0 5.3955 30.5745 0 0 0
3842 5 0.0 8.9925 1.7985 0 0 0
3849 5 0.0 7.194 14.388 0 0 0
3858 5 0.0 8.9925 30.5745 0 0 0
3874 5 0.0 12.5895 23.3805 0 0 0
3884 5 0.0 16.1865 5.3955 0 0 0
3892 5 0.0 16.1865 19.7835 0 0 0
3895 5 0.0 14.388 25.179 0 0 0
3900 5 0.0 16.1865 34.1715 0 0 0
3907 5 0.0 17.985 10.791 0 0 0
3909 5 0.0 17.985 14.388 0 0 0
3917 5 0.0 17.985 28.776 0 0 0
3923 5 0.0 21.582 3.597 0 0 0
3965 5 0.0 28.776 7.194 0 0 0
3975 5 0.0 28.776 25.179 0 0 0
3977 5 0.0 28.776 28.776 0 0 0
3978 5 0.0 30.5745 30.5745 0 0 0
3991 5 0.0 32.373 17.985 0 0 0
3998 5 0.0 34.1715 30.5745 0 0 0
3999 5 0.0 32.373 32.373 0 0 0
